<?xml version="1.0"?>
<VTKFile type="UnstructuredGrid" version="0.1" byte_order="LittleEndian">
<UnstructuredGrid>
<Piece NumberOfPoints="29971" NumberOfCells="10479">
<Points>
<DataArray type="Float64" NumberOfComponents="3" format="ascii">
-0.5 -0.5 0 -0.47667180158318623 -0.47876425912729931 0 -0.5 -0.43989996773298412 0 -0.5 -0.5 0 -0.47667180158318623 -0.47876425912729931 0 -0.43864636010920588 -0.5 0 -0.43864636010920588 -0.5 0 -0.45195722144859801 -0.46240628238328918 0 -0.42374156665668811 -0.47628906042119951 0 -0.47667180158318623 -0.47876425912729931 0 -0.43864636010920588 -0.5 0 -0.45195722144859801 -0.46240628238328918 0 -0.455466881120904 -0.4372987202930797 0 -0.43643387444078008 -0.42883277673949832 0 -0.42909439399616212 -0.45145189942443342 0 -0.455466881120904 -0.4372987202930797 0 -0.42909439399616212 -0.45145189942443342 0 -0.45195722144859801 -0.46240628238328918 0 -0.455466881120904 -0.4372987202930797 0 -0.42909439399616212 -0.45145189942443342 0 -0.45195722144859801 -0.46240628238328918 0 -0.46504301389962249 -0.44624181677099528 0 -0.47578387885950962 -0.4537461564169889 0 -0.47667180158318623 -0.47876425912729931 0 -0.45195722144859801 -0.46240628238328918 0 -0.47578387885950962 -0.4537461564169889 0 -0.45195722144859801 -0.46240628238328918 0 -0.46504301389962249 -0.44624181677099528 0 -0.455466881120904 -0.4372987202930797 0 -0.46504301389962249 -0.44624181677099528 0 -0.47186959727027472 -0.43505794208050907 0 -0.455466881120904 -0.4372987202930797 0 -0.47578387885950962 -0.4537461564169889 0 -0.47186959727027472 -0.43505794208050907 0 -0.47489595613583302 -0.42872805370667832 0 -0.47578387885950962 -0.4537461564169889 0 -0.47489595613583302 -0.42872805370667832 0 -0.46504301389962249 -0.44624181677099528 0 -0.47578387885950962 -0.4537461564169889 0 -0.47186959727027472 -0.43505794208050907 0 -0.47578387885950962 -0.4537461564169889 0 -0.5 -0.43989996773298412 0 -0.47489595613583302 -0.42872805370667832 0 -0.47667180158318623 -0.47876425912729931 0 -0.47578387885950962 -0.4537461564169889 0 -0.5 -0.43989996773298412 0 -0.47667180158318623 -0.47876425912729931 0 -0.47578387885950962 -0.4537461564169889 0 -0.5 -0.43989996773298412 0 -0.48064230659439228 -0.4073306226760563 0 -0.5 -0.39390733961494329 0 -0.5 -0.43989996773298412 0 -0.48064230659439228 -0.4073306226760563 0 -0.47489595613583302 -0.42872805370667832 0 -0.47489595613583302 -0.42872805370667832 0 -0.4740080334121573 -0.40370995099636803 0 -0.46713457572653022 -0.41804402240115812 0 -0.48064230659439228 -0.4073306226760563 0 -0.47489595613583302 -0.42872805370667832 0 -0.4740080334121573 -0.40370995099636803 0 -0.47489595613583302 -0.42872805370667832 0 -0.4740080334121573 -0.40370995099636803 0 -0.47186959727027472 -0.43505794208050907 0 -0.47489595613583302 -0.42872805370667832 0 -0.46713457572653022 -0.41804402240115812 0 -0.5 -0.39390733961494329 0 -0.48285875928396249 -0.39412573429909697 0 -0.48484966662368628 -0.37174628441182828 0 -0.48064230659439228 -0.4073306226760563 0 -0.5 -0.39390733961494329 0 -0.48285875928396249 -0.39412573429909697 0 -0.4740080334121573 -0.40370995099636803 0 -0.48285875928396249 -0.39412573429909697 0 -0.47340223230036188 -0.38664090429583692 0 -0.4740080334121573 -0.40370995099636803 0 -0.47340223230036188 -0.38664090429583692 0 -0.46749092184770108 -0.39336959226261858 0 -0.4740080334121573 -0.40370995099636803 0 -0.47340223230036188 -0.38664090429583692 0 -0.48064230659439228 -0.4073306226760563 0 -0.4740080334121573 -0.40370995099636803 0 -0.48285875928396249 -0.39412573429909697 0 -0.48064230659439228 -0.4073306226760563 0 -0.4740080334121573 -0.40370995099636803 0 -0.48285875928396249 -0.39412573429909697 0 -0.47340223230036188 -0.38664090429583692 0 -0.48484966662368628 -0.37174628441182828 0 -0.47340223230036188 -0.38664090429583692 0 -0.46529352246112421 -0.37999909927047221 0 -0.47386166008738478 -0.37158949175162709 0 -0.47340223230036188 -0.38664090429583692 0 -0.48484966662368628 -0.37174628441182828 0 -0.47386166008738478 -0.37158949175162709 0 -0.45753405095905991 -0.38096334164819928 0 -0.46529352246112421 -0.37999909927047221 0 -0.45795069614082701 -0.37310317303709611 0 -0.45753405095905991 -0.38096334164819928 0 -0.45795069614082701 -0.37310317303709611 0 -0.45753405095905991 -0.38096334164819928 0 -0.46529352246112421 -0.37999909927047221 0 -0.46451103528570892 -0.38728037312315899 0 -0.47340223230036188 -0.38664090429583692 0 -0.46451103528570892 -0.38728037312315899 0 -0.46749092184770108 -0.39336959226261858 0 -0.47340223230036188 -0.38664090429583692 0 -0.46529352246112421 -0.37999909927047221 0 -0.46451103528570892 -0.38728037312315899 0 -0.45753405095905991 -0.38096334164819928 0 -0.45883444886029728 -0.39542892813866781 0 -0.44366086430843421 -0.38714790528097298 0 -0.45753405095905991 -0.38096334164819928 0 -0.46451103528570892 -0.38728037312315899 0 -0.45883444886029728 -0.39542892813866781 0 -0.4740080334121573 -0.40370995099636803 0 -0.45883444886029728 -0.39542892813866781 0 -0.46749092184770108 -0.39336959226261858 0 -0.46451103528570892 -0.38728037312315899 0 -0.45883444886029728 -0.39542892813866781 0 -0.46749092184770108 -0.39336959226261858 0 -0.4740080334121573 -0.40370995099636803 0 -0.45883444886029728 -0.39542892813866781 0 -0.46035402320962038 -0.40696370259726877 0 -0.4740080334121573 -0.40370995099636803 0 -0.45883444886029728 -0.39542892813866781 0 -0.45883444886029728 -0.39542892813866781 0 -0.44987301768729671 -0.40078775420880941 0 -0.46035402320962038 -0.40696370259726877 0 -0.44987301768729671 -0.40078775420880941 0 -0.45192004036182087 -0.41684785724134049 0 -0.43197048345336708 -0.39863777240217202 0 -0.44987301768729671 -0.40078775420880941 0 -0.44366086430843421 -0.38714790528097298 0 -0.43197048345336708 -0.39863777240217202 0 -0.44366086430843421 -0.38714790528097298 0 -0.43197048345336708 -0.39863777240217202 0 -0.45883444886029728 -0.39542892813866781 0 -0.44987301768729671 -0.40078775420880941 0 -0.44366086430843421 -0.38714790528097298 0 -0.45883444886029728 -0.39542892813866781 0 -0.44366086430843421 -0.38714790528097298 0 -0.44366086430843421 -0.38714790528097298 0 -0.45795069614082701 -0.37310317303709611 0 -0.44501193458412641 -0.37074697587283773 0 -0.44366086430843421 -0.38714790528097298 0 -0.42469924077602689 -0.37679955039130619 0 -0.44501193458412641 -0.37074697587283773 0 -0.45753405095905991 -0.38096334164819928 0 -0.44366086430843421 -0.38714790528097298 0 -0.45795069614082701 -0.37310317303709611 0 -0.44366086430843421 -0.38714790528097298 0 -0.45795069614082701 -0.37310317303709611 0 -0.47186959727027472 -0.43505794208050907 0 -0.45192004036182087 -0.41684785724134049 0 -0.47186959727027472 -0.43505794208050907 0 -0.46713457572653022 -0.41804402240115812 0 -0.45192004036182087 -0.41684785724134049 0 -0.47186959727027472 -0.43505794208050907 0 -0.455466881120904 -0.4372987202930797 0 -0.45192004036182087 -0.41684785724134049 0 -0.44987301768729671 -0.40078775420880941 0 -0.46035402320962038 -0.40696370259726877 0 -0.45192004036182087 -0.41684785724134049 0 -0.4740080334121573 -0.40370995099636803 0 -0.46713457572653022 -0.41804402240115812 0 -0.46035402320962038 -0.40696370259726877 0 -0.46713457572653022 -0.41804402240115812 0 -0.46035402320962038 -0.40696370259726877 0 -0.45192004036182087 -0.41684785724134049 0 -0.45192004036182087 -0.41684785724134049 0 -0.43197048345336708 -0.39863777240217202 0 -0.45192004036182087 -0.41684785724134049 0 -0.43731422920290858 -0.41519459776977108 0 -0.43197048345336708 -0.39863777240217202 0 -0.45192004036182087 -0.41684785724134049 0 -0.43643387444078008 -0.42883277673949832 0 -0.43731422920290858 -0.41519459776977108 0 -0.455466881120904 -0.4372987202930797 0 -0.45192004036182087 -0.41684785724134049 0 -0.43643387444078008 -0.42883277673949832 0 -0.43643387444078008 -0.42883277673949832 0 -0.42461896476434752 -0.41892498694635633 0 -0.41965842300677031 -0.43436847920785948 0 -0.43731422920290858 -0.41519459776977108 0 -0.429700854569394 -0.41112347190871978 0 -0.42461896476434752 -0.41892498694635633 0 -0.43643387444078008 -0.42883277673949832 0 -0.43731422920290858 -0.41519459776977108 0 -0.42461896476434752 -0.41892498694635633 0 -0.43731422920290858 -0.41519459776977108 0 -0.429700854569394 -0.41112347190871978 0 -0.43197048345336708 -0.39863777240217202 0 -0.42416835989533203 -0.40861819247217579 0 -0.42250065298528611 -0.40794517607767339 0 -0.42461896476434752 -0.41892498694635633 0 -0.429700854569394 -0.41112347190871978 0 -0.42416835989533203 -0.40861819247217579 0 -0.42461896476434752 -0.41892498694635633 0 -0.42416835989533203 -0.40861819247217579 0 -0.42250065298528611 -0.40794517607767339 0 -0.42250065298528611 -0.40794517607767339 0 -0.40376839194436898 -0.4263561408621383 0 -0.42250065298528611 -0.40794517607767339 0 -0.42461896476434752 -0.41892498694635633 0 -0.40376839194436898 -0.4263561408621383 0 -0.42250065298528611 -0.40794517607767339 0 -0.39683156878216991 -0.39758621288307699 0 -0.40376839194436898 -0.4263561408621383 0 -0.42461896476434752 -0.41892498694635633 0 -0.41965842300677031 -0.43436847920785948 0 -0.40376839194436898 -0.4263561408621383 0 -0.41965842300677031 -0.43436847920785948 0 -0.40376839194436898 -0.4263561408621383 0 -0.40437648988819258 -0.44627659206687159 0 -0.44366086430843421 -0.38714790528097298 0 -0.42469924077602689 -0.37679955039130619 0 -0.42017486831373091 -0.38787065845529872 0 -0.44366086430843421 -0.38714790528097298 0 -0.42469924077602689 -0.37679955039130619 0 -0.44366086430843421 -0.38714790528097298 0 -0.43197048345336708 -0.39863777240217202 0 -0.42017486831373091 -0.38787065845529872 0 -0.43197048345336708 -0.39863777240217202 0 -0.42017486831373091 -0.38787065845529872 0 -0.43197048345336708 -0.39863777240217202 0 -0.42108728173015347 -0.39632963666229371 0 -0.42017486831373091 -0.38787065845529872 0 -0.42250065298528611 -0.40794517607767339 0 -0.43197048345336708 -0.39863777240217202 0 -0.42250065298528611 -0.40794517607767339 0 -0.43197048345336708 -0.39863777240217202 0 -0.42108728173015347 -0.39632963666229371 0 -0.429700854569394 -0.41112347190871978 0 -0.42416835989533203 -0.40861819247217579 0 -0.43197048345336708 -0.39863777240217202 0 -0.42416835989533203 -0.40861819247217579 0 -0.42250065298528611 -0.40794517607767339 0 -0.43197048345336708 -0.39863777240217202 0 -0.42250065298528611 -0.40794517607767339 0 -0.40970312216823201 -0.39086493971403208 0 -0.39683156878216991 -0.39758621288307699 0 -0.42250065298528611 -0.40794517607767339 0 -0.40970312216823201 -0.39086493971403208 0 -0.42108728173015347 -0.39632963666229371 0 -0.42250065298528611 -0.40794517607767339 0 -0.39683156878216991 -0.39758621288307699 0 -0.40970312216823201 -0.39086493971403208 0 -0.42108728173015347 -0.39632963666229371 0 -0.42017486831373091 -0.38787065845529872 0 -0.42469924077602689 -0.37679955039130619 0 -0.42017486831373091 -0.38787065845529872 0 -0.40837925317409463 -0.37710354450842531 0 -0.40970312216823201 -0.39086493971403208 0 -0.42017486831373091 -0.38787065845529872 0 -0.40837925317409463 -0.37710354450842531 0 -0.42017486831373091 -0.38787065845529872 0 -0.40837925317409463 -0.37710354450842531 0 -0.40970312216823201 -0.39086493971403208 0 -0.39683156878216991 -0.39758621288307699 0 -0.38845005091133511 -0.37683922259506231 0 -0.40970312216823201 -0.39086493971403208 0 -0.40837925317409463 -0.37710354450842531 0 -0.38845005091133511 -0.37683922259506231 0 -0.39683156878216991 -0.39758621288307699 0 -0.37116248457905432 -0.3872272496884791 0 -0.39683156878216991 -0.39758621288307699 0 -0.37764736076372207 -0.4065023630234384 0 -0.37116248457905432 -0.3872272496884791 0 -0.39683156878216991 -0.39758621288307699 0 -0.38845005091133511 -0.37683922259506231 0 -0.37116248457905432 -0.3872272496884791 0 -0.38845005091133511 -0.37683922259506231 0 -0.37116248457905432 -0.3872272496884791 0 -0.38845005091133511 -0.37683922259506231 0 -0.37069722331415988 -0.37558964454462601 0 -0.37116248457905432 -0.3872272496884791 0 -0.40376839194436898 -0.4263561408621383 0 -0.38545604849505438 -0.42193706899003419 0 -0.3850361309034529 -0.44476710564660432 0 -0.40376839194436898 -0.4263561408621383 0 -0.3850361309034529 -0.44476710564660432 0 -0.39683156878216991 -0.39758621288307699 0 -0.40376839194436898 -0.4263561408621383 0 -0.38545604849505438 -0.42193706899003419 0 -0.39683156878216991 -0.39758621288307699 0 -0.37764736076372207 -0.4065023630234384 0 -0.38545604849505438 -0.42193706899003419 0 -0.37764736076372207 -0.4065023630234384 0 -0.38545604849505438 -0.42193706899003419 0 -0.37162571945022332 -0.41708236300134771 0 -0.38545604849505438 -0.42193706899003419 0 -0.37333362651542967 -0.43328798802013829 0 -0.37162571945022332 -0.41708236300134771 0 -0.38545604849505438 -0.42193706899003419 0 -0.3850361309034529 -0.44476710564660432 0 -0.37333362651542967 -0.43328798802013829 0 -0.3850361309034529 -0.44476710564660432 0 -0.36681793551075681 -0.4452856484890369 0 -0.37333362651542967 -0.43328798802013829 0 -0.3850361309034529 -0.44476710564660432 0 -0.40437648988819258 -0.44627659206687159 0 -0.3845762691973787 -0.46344052476118469 0 -0.40376839194436898 -0.4263561408621383 0 -0.3850361309034529 -0.44476710564660432 0 -0.40437648988819258 -0.44627659206687159 0 -0.40437648988819258 -0.44627659206687159 0 -0.4027219068714204 -0.46560507855578692 0 -0.3845762691973787 -0.46344052476118469 0 -0.3850361309034529 -0.44476710564660432 0 -0.3845762691973787 -0.46344052476118469 0 -0.36630386986253682 -0.46317807043107029 0 -0.3850361309034529 -0.44476710564660432 0 -0.36630386986253682 -0.46317807043107029 0 -0.4027219068714204 -0.46560507855578692 0 -0.37634941974667868 -0.47975825768714048 0 -0.4027219068714204 -0.46560507855578692 0 -0.39182815333544718 -0.5 0 -0.42374156665668811 -0.47628906042119951 0 -0.4027219068714204 -0.46560507855578692 0 -0.3845762691973787 -0.46344052476118469 0 -0.37634941974667868 -0.47975825768714048 0 -0.4027219068714204 -0.46560507855578692 0 -0.39182815333544718 -0.5 0 -0.37634941974667868 -0.47975825768714048 0 -0.3845762691973787 -0.46344052476118469 0 -0.37634941974667868 -0.47975825768714048 0 -0.36630386986253682 -0.46317807043107029 0 -0.43864636010920588 -0.5 0 -0.39182815333544718 -0.5 0 -0.42374156665668811 -0.47628906042119951 0 -0.45195722144859801 -0.46240628238328918 0 -0.42374156665668811 -0.47628906042119951 0 -0.42909439399616212 -0.45145189942443342 0 -0.43643387444078008 -0.42883277673949832 0 -0.41965842300677031 -0.43436847920785948 0 -0.42909439399616212 -0.45145189942443342 0 -0.41965842300677031 -0.43436847920785948 0 -0.40437648988819258 -0.44627659206687159 0 -0.42909439399616212 -0.45145189942443342 0 -0.4027219068714204 -0.46560507855578692 0 -0.42374156665668811 -0.47628906042119951 0 -0.42909439399616212 -0.45145189942443342 0 -0.40437648988819258 -0.44627659206687159 0 -0.4027219068714204 -0.46560507855578692 0 -0.42909439399616212 -0.45145189942443342 0 -0.4027219068714204 -0.46560507855578692 0 -0.42909439399616212 -0.45145189942443342 0 -0.43927487560907968 -0.26001155852888652 0 -0.45928936195740799 -0.25024220660635982 0 -0.44847237959020703 -0.24783071556647349 0 -0.43927487560907968 -0.26001155852888652 0 -0.45928936195740799 -0.25024220660635982 0 -0.43927487560907968 -0.26001155852888652 0 -0.45238663529941131 -0.26148711034155753 0 -0.45636783539527531 -0.27468448729351158 0 -0.43927487560907968 -0.26001155852888652 0 -0.45238663529941131 -0.26148711034155753 0 -0.45928936195740799 -0.25024220660635982 0 -0.43927487560907968 -0.26001155852888652 0 -0.4412750237182782 -0.28527479271171607 0 -0.43927487560907968 -0.26001155852888652 0 -0.45636783539527531 -0.27468448729351158 0 -0.4412750237182782 -0.28527479271171607 0 -0.46418071873126332 -0.25557144543121929 0 -0.4627973633742552 -0.28166896636983901 0 -0.46418071873126332 -0.25557144543121929 0 -0.47103876241964049 -0.26773140927651329 0 -0.4627973633742552 -0.28166896636983901 0 -0.45636783539527531 -0.27468448729351158 0 -0.46418071873126332 -0.25557144543121929 0 -0.4627973633742552 -0.28166896636983901 0 -0.45636783539527531 -0.27468448729351158 0 -0.4627973633742552 -0.28166896636983901 0 -0.45238663529941131 -0.26148711034155753 0 -0.45636783539527531 -0.27468448729351158 0 -0.46418071873126332 -0.25557144543121929 0 -0.45238663529941131 -0.26148711034155753 0 -0.45928936195740799 -0.25024220660635982 0 -0.46418071873126332 -0.25557144543121929 0 -0.46418071873126332 -0.25557144543121929 0 -0.47636771767237862 -0.25750304348753872 0 -0.47930384830573691 -0.24047285468383381 0 -0.47636771767237862 -0.25750304348753872 0 -0.48812836472625931 -0.25507586270891369 0 -0.47930384830573691 -0.24047285468383381 0 -0.46418071873126332 -0.25557144543121929 0 -0.47636771767237862 -0.25750304348753872 0 -0.47103876241964049 -0.26773140927651329 0 -0.47636771767237862 -0.25750304348753872 0 -0.48058127788397281 -0.26811908908600879 0 -0.47103876241964049 -0.26773140927651329 0 -0.47636771767237862 -0.25750304348753872 0 -0.48812836472625931 -0.25507586270891369 0 -0.48058127788397281 -0.26811908908600879 0 -0.48812836472625931 -0.25507586270891369 0 -0.5 -0.26891418859363608 0 -0.5 -0.24232994797814361 0 -0.48812836472625931 -0.25507586270891369 0 -0.5 -0.26891418859363608 0 -0.48058127788397281 -0.26811908908600879 0 -0.5 -0.26891418859363608 0 -0.48058127788397281 -0.26811908908600879 0 -0.47966597786422782 -0.2847905928202078 0 -0.47352084538552403 -0.27557751438814221 0 -0.47966597786422782 -0.2847905928202078 0 -0.4627973633742552 -0.28166896636983901 0 -0.48058127788397281 -0.26811908908600879 0 -0.47352084538552403 -0.27557751438814221 0 -0.47966597786422782 -0.2847905928202078 0 -0.48058127788397281 -0.26811908908600879 0 -0.47103876241964049 -0.26773140927651329 0 -0.47352084538552403 -0.27557751438814221 0 -0.47103876241964049 -0.26773140927651329 0 -0.47352084538552403 -0.27557751438814221 0 -0.4627973633742552 -0.28166896636983901 0 -0.47966597786422782 -0.2847905928202078 0 -0.48139868168712691 -0.30187581809723041 0 -0.4627973633742552 -0.28166896636983901 0 -0.48139868168712691 -0.30187581809723041 0 -0.4627973633742552 -0.28166896636983901 0 -0.47966597786422782 -0.2847905928202078 0 -0.5 -0.29549842920912878 0 -0.48139868168712691 -0.30187581809723041 0 -0.5 -0.26891418859363608 0 -0.47966597786422782 -0.2847905928202078 0 -0.5 -0.29549842920912878 0 -0.5 -0.29549842920912878 0 -0.48139868168712691 -0.30187581809723041 0 -0.49999999999999922 -0.32208266982462141 0 -0.48139868168712691 -0.30187581809723041 0 -0.49999999999999922 -0.32208266982462141 0 -0.48139868168712691 -0.30187581809723041 0 -0.47159827791867581 -0.31579524359900418 0 -0.48284725447601362 -0.31443650923023381 0 -0.48139868168712691 -0.30187581809723041 0 -0.46159315958706149 -0.30438672532559752 0 -0.47159827791867581 -0.31579524359900418 0 -0.48139868168712691 -0.30187581809723041 0 -0.46159315958706149 -0.30438672532559752 0 -0.4627973633742552 -0.28166896636983901 0 -0.46159315958706149 -0.30438672532559752 0 -0.4627973633742552 -0.28166896636983901 0 -0.46159315958706149 -0.30438672532559752 0 -0.45330601827889577 -0.29192751837732428 0 -0.4627973633742552 -0.28166896636983901 0 -0.45636783539527531 -0.27468448729351158 0 -0.45330601827889577 -0.29192751837732428 0 -0.4627973633742552 -0.28166896636983901 0 -0.45330601827889577 -0.29192751837732428 0 -0.4412750237182782 -0.28527479271171607 0 -0.44327517182747422 -0.3105380268945459 0 -0.45636783539527531 -0.27468448729351158 0 -0.45330601827889577 -0.29192751837732428 0 -0.4412750237182782 -0.28527479271171607 0 -0.4412750237182782 -0.28527479271171607 0 -0.44327517182747422 -0.3105380268945459 0 -0.46159315958706149 -0.30438672532559752 0 -0.45330601827889577 -0.29192751837732428 0 -0.44327517182747422 -0.3105380268945459 0 -0.44327517182747422 -0.3105380268945459 0 -0.44514405424661402 -0.33414328592397419 0 -0.460388955799865 -0.32710448428135608 0 -0.44327517182747422 -0.3105380268945459 0 -0.460388955799865 -0.32710448428135608 0 -0.44327517182747422 -0.3105380268945459 0 -0.44514405424661402 -0.33414328592397419 0 -0.44327517182747422 -0.3105380268945459 0 -0.44514405424661402 -0.33414328592397419 0 -0.43250118102544749 -0.32205518350037438 0 -0.44514405424661402 -0.33414328592397419 0 -0.460388955799865 -0.32710448428135608 0 -0.45916982597034739 -0.35010382865922612 0 -0.46502683035061038 -0.33601964253279409 0 -0.460388955799865 -0.32710448428135608 0 -0.45916982597034739 -0.35010382865922612 0 -0.460388955799865 -0.32710448428135608 0 -0.45916982597034739 -0.35010382865922612 0 -0.46502683035061038 -0.33601964253279409 0 -0.46993133536522053 -0.34057462691894153 0 -0.45916982597034739 -0.35010382865922612 0 -0.46502683035061038 -0.33601964253279409 0 -0.47011763534720941 -0.33362923826247121 0 -0.46993133536522053 -0.34057462691894153 0 -0.46502683035061038 -0.33601964253279409 0 -0.46607250436318692 -0.32932570123930133 0 -0.460388955799865 -0.32710448428135608 0 -0.46502683035061038 -0.33601964253279409 0 -0.46607250436318692 -0.32932570123930133 0 -0.47011763534720941 -0.33362923826247121 0 -0.46159315958706149 -0.30438672532559752 0 -0.44327517182747422 -0.3105380268945459 0 -0.460388955799865 -0.32710448428135608 0 -0.46607250436318692 -0.32932570123930133 0 -0.46776450486102489 -0.32536163094492082 0 -0.47227238337211669 -0.3284496912814221 0 -0.46159315958706149 -0.30438672532559752 0 -0.460388955799865 -0.32710448428135608 0 -0.46159315958706149 -0.30438672532559752 0 -0.460388955799865 -0.32710448428135608 0 -0.47159827791867581 -0.31579524359900418 0 -0.46776450486102489 -0.32536163094492082 0 -0.460388955799865 -0.32710448428135608 0 -0.47159827791867581 -0.31579524359900418 0 -0.46607250436318692 -0.32932570123930133 0 -0.46776450486102489 -0.32536163094492082 0 -0.460388955799865 -0.32710448428135608 0 -0.47159827791867581 -0.31579524359900418 0 -0.47507555701130311 -0.32219439199297301 0 -0.48284725447601362 -0.31443650923023381 0 -0.46776450486102489 -0.32536163094492082 0 -0.47159827791867581 -0.31579524359900418 0 -0.47507555701130311 -0.32219439199297301 0 -0.47507555701130311 -0.32219439199297301 0 -0.48089536442868419 -0.3269288849092839 0 -0.47227238337211669 -0.3284496912814221 0 -0.46776450486102489 -0.32536163094492082 0 -0.47507555701130311 -0.32219439199297301 0 -0.47227238337211669 -0.3284496912814221 0 -0.47507555701130311 -0.32219439199297301 0 -0.48089536442868419 -0.3269288849092839 0 -0.48284725447601362 -0.31443650923023381 0 -0.48284725447601362 -0.31443650923023381 0 -0.49069331420992901 -0.325485645626794 0 -0.49999999999999922 -0.32208266982462141 0 -0.48139868168712691 -0.30187581809723041 0 -0.48284725447601362 -0.31443650923023381 0 -0.49999999999999922 -0.32208266982462141 0 -0.48089536442868419 -0.3269288849092839 0 -0.48284725447601362 -0.31443650923023381 0 -0.49069331420992901 -0.325485645626794 0 -0.49069331420992901 -0.325485645626794 0 -0.49999999999999922 -0.32208266982462141 0 -0.49999999999999362 -0.3317750999939465 0 -0.49999999999999362 -0.3317750999939465 0 -0.47897534807040848 -0.3524391365155195 0 -0.49999999999999362 -0.3317750999939465 0 -0.48556982999878689 -0.3340810592770882 0 -0.47897534807040848 -0.3524391365155195 0 -0.49069331420992901 -0.325485645626794 0 -0.49999999999999362 -0.3317750999939465 0 -0.48556982999878689 -0.3340810592770882 0 -0.48089536442868419 -0.3269288849092839 0 -0.49069331420992901 -0.325485645626794 0 -0.48556982999878689 -0.3340810592770882 0 -0.48556982999878689 -0.3340810592770882 0 -0.47728512328491263 -0.3337765293398971 0 -0.47897534807040848 -0.3524391365155195 0 -0.47728512328491263 -0.3337765293398971 0 -0.46993133536522053 -0.34057462691894153 0 -0.47897534807040848 -0.3524391365155195 0 -0.48089536442868419 -0.3269288849092839 0 -0.48556982999878689 -0.3340810592770882 0 -0.47728512328491263 -0.3337765293398971 0 -0.48089536442868419 -0.3269288849092839 0 -0.47728512328491263 -0.3337765293398971 0 -0.47227238337211669 -0.3284496912814221 0 -0.47728512328491263 -0.3337765293398971 0 -0.47011763534720941 -0.33362923826247121 0 -0.47227238337211669 -0.3284496912814221 0 -0.46607250436318692 -0.32932570123930133 0 -0.47011763534720941 -0.33362923826247121 0 -0.47227238337211669 -0.3284496912814221 0 -0.47728512328491263 -0.3337765293398971 0 -0.47011763534720941 -0.33362923826247121 0 -0.46993133536522053 -0.34057462691894153 0 -0.46993133536522053 -0.34057462691894153 0 -0.47897534807040848 -0.3524391365155195 0 -0.45916982597034739 -0.35010382865922612 0 -0.5 -0.39390733961494329 0 -0.49999999999999362 -0.3317750999939465 0 -0.48484966662368628 -0.37174628441182828 0 -0.49999999999999362 -0.3317750999939465 0 -0.47897534807040848 -0.3524391365155195 0 -0.48484966662368628 -0.37174628441182828 0 -0.47897534807040848 -0.3524391365155195 0 -0.48484966662368628 -0.37174628441182828 0 -0.47386166008738478 -0.37158949175162709 0 -0.47897534807040848 -0.3524391365155195 0 -0.47386166008738478 -0.37158949175162709 0 -0.45795069614082701 -0.37310317303709611 0 -0.46529352246112421 -0.37999909927047221 0 -0.47386166008738478 -0.37158949175162709 0 -0.45795069614082701 -0.37310317303709611 0 -0.45795069614082701 -0.37310317303709611 0 -0.45916982597034739 -0.35010382865922612 0 -0.44701293666575148 -0.35774854495340258 0 -0.45795069614082701 -0.37310317303709611 0 -0.45916982597034739 -0.35010382865922612 0 -0.47897534807040848 -0.3524391365155195 0 -0.45795069614082701 -0.37310317303709611 0 -0.47897534807040848 -0.3524391365155195 0 -0.45795069614082701 -0.37310317303709611 0 -0.45916982597034739 -0.35010382865922612 0 -0.44514405424661402 -0.33414328592397419 0 -0.44701293666575148 -0.35774854495340258 0 -0.434206860758519 -0.34934414484584703 0 -0.44514405424661402 -0.33414328592397419 0 -0.45916982597034739 -0.35010382865922612 0 -0.44701293666575148 -0.35774854495340258 0 -0.44514405424661402 -0.33414328592397419 0 -0.44701293666575148 -0.35774854495340258 0 -0.44701293666575148 -0.35774854495340258 0 -0.4341806423570983 -0.3625073772474281 0 -0.434206860758519 -0.34934414484584703 0 -0.44701293666575148 -0.35774854495340258 0 -0.44501193458412641 -0.37074697587283773 0 -0.4341806423570983 -0.3625073772474281 0 -0.45795069614082701 -0.37310317303709611 0 -0.44701293666575148 -0.35774854495340258 0 -0.44501193458412641 -0.37074697587283773 0 -0.42469924077602689 -0.37679955039130619 0 -0.44501193458412641 -0.37074697587283773 0 -0.4341806423570983 -0.3625073772474281 0 -0.42469924077602689 -0.37679955039130619 0 -0.4341806423570983 -0.3625073772474281 0 -0.41997223900106789 -0.35789767017374702 0 -0.434206860758519 -0.34934414484584703 0 -0.41997223900106789 -0.35789767017374702 0 -0.42034485918496628 -0.34239651555076522 0 -0.434206860758519 -0.34934414484584703 0 -0.41997223900106789 -0.35789767017374702 0 -0.4341806423570983 -0.3625073772474281 0 -0.434206860758519 -0.34934414484584703 0 -0.41997223900106789 -0.35789767017374702 0 -0.41997223900106789 -0.35789767017374702 0 -0.40573761724361601 -0.36645119550164568 0 -0.40278202337371122 -0.34764542229893269 0 -0.41997223900106789 -0.35789767017374702 0 -0.40278202337371122 -0.34764542229893269 0 -0.42034485918496628 -0.34239651555076522 0 -0.42469924077602689 -0.37679955039130619 0 -0.40837925317409463 -0.37710354450842531 0 -0.40573761724361601 -0.36645119550164568 0 -0.42469924077602689 -0.37679955039130619 0 -0.40573761724361601 -0.36645119550164568 0 -0.42469924077602689 -0.37679955039130619 0 -0.41997223900106789 -0.35789767017374702 0 -0.40573761724361601 -0.36645119550164568 0 -0.41997223900106789 -0.35789767017374702 0 -0.40573761724361601 -0.36645119550164568 0 -0.38845005091133511 -0.37683922259506231 0 -0.40573761724361601 -0.36645119550164568 0 -0.40837925317409463 -0.37710354450842531 0 -0.38845005091133511 -0.37683922259506231 0 -0.40573761724361601 -0.36645119550164568 0 -0.38845005091133511 -0.37683922259506231 0 -0.40573761724361601 -0.36645119550164568 0 -0.38486567592344401 -0.35506027975815763 0 -0.40573761724361601 -0.36645119550164568 0 -0.38486567592344401 -0.35506027975815763 0 -0.38845005091133511 -0.37683922259506231 0 -0.38486567592344401 -0.35506027975815763 0 -0.37069722331415988 -0.37558964454462601 0 -0.38486567592344401 -0.35506027975815763 0 -0.38287160189221492 -0.33401499094792642 0 -0.36399373460327061 -0.34366936401467191 0 -0.38486567592344401 -0.35506027975815763 0 -0.40278202337371122 -0.34764542229893269 0 -0.38287160189221492 -0.33401499094792642 0 -0.40573761724361601 -0.36645119550164568 0 -0.38486567592344401 -0.35506027975815763 0 -0.40278202337371122 -0.34764542229893269 0 -0.40278202337371122 -0.34764542229893269 0 -0.40485892086553782 -0.32859378452624749 0 -0.38287160189221492 -0.33401499094792642 0 -0.38287160189221492 -0.33401499094792642 0 -0.37695315330109608 -0.31478984838188279 0 -0.3943768139811713 -0.31421223421636668 0 -0.38287160189221492 -0.33401499094792642 0 -0.37695315330109608 -0.31478984838188279 0 -0.365433851594133 -0.32433558934731438 0 -0.40485892086553782 -0.32859378452624749 0 -0.3943768139811713 -0.31421223421636668 0 -0.41832805907686188 -0.30931753913066468 0 -0.40485892086553782 -0.32859378452624749 0 -0.38287160189221492 -0.33401499094792642 0 -0.3943768139811713 -0.31421223421636668 0 -0.40485892086553782 -0.32859378452624749 0 -0.42096929073984052 -0.32740433653451367 0 -0.41832805907686188 -0.30931753913066468 0 -0.40485892086553782 -0.32859378452624749 0 -0.42096929073984052 -0.32740433653451367 0 -0.42034485918496628 -0.34239651555076522 0 -0.40278202337371122 -0.34764542229893269 0 -0.40485892086553782 -0.32859378452624749 0 -0.42034485918496628 -0.34239651555076522 0 -0.42096929073984052 -0.32740433653451367 0 -0.42034485918496628 -0.34239651555076522 0 -0.43072643484231898 -0.33492977030578269 0 -0.42096929073984052 -0.32740433653451367 0 -0.43072643484231898 -0.33492977030578269 0 -0.43250118102544749 -0.32205518350037438 0 -0.434206860758519 -0.34934414484584703 0 -0.42034485918496628 -0.34239651555076522 0 -0.43072643484231898 -0.33492977030578269 0 -0.44514405424661402 -0.33414328592397419 0 -0.434206860758519 -0.34934414484584703 0 -0.43072643484231898 -0.33492977030578269 0 -0.44514405424661402 -0.33414328592397419 0 -0.43072643484231898 -0.33492977030578269 0 -0.43250118102544749 -0.32205518350037438 0 -0.42096929073984052 -0.32740433653451367 0 -0.43250118102544749 -0.32205518350037438 0 -0.41832805907686188 -0.30931753913066468 0 -0.44327517182747422 -0.3105380268945459 0 -0.43250118102544749 -0.32205518350037438 0 -0.41832805907686188 -0.30931753913066468 0 -0.44327517182747422 -0.3105380268945459 0 -0.42525515239586509 -0.29309431692924848 0 -0.44327517182747422 -0.3105380268945459 0 -0.42525515239586509 -0.29309431692924848 0 -0.41832805907686188 -0.30931753913066468 0 -0.4412750237182782 -0.28527479271171607 0 -0.44327517182747422 -0.3105380268945459 0 -0.42525515239586509 -0.29309431692924848 0 -0.4412750237182782 -0.28527479271171607 0 -0.42525515239586509 -0.29309431692924848 0 -0.42842179903423921 -0.27913000023266449 0 -0.42525515239586509 -0.29309431692924848 0 -0.40723513296425812 -0.27565060696394877 0 -0.42842179903423921 -0.27913000023266449 0 -0.42525515239586509 -0.29309431692924848 0 -0.40321770671161639 -0.30021507727439573 0 -0.40723513296425812 -0.27565060696394877 0 -0.42525515239586509 -0.29309431692924848 0 -0.40723513296425812 -0.27565060696394877 0 -0.42525515239586509 -0.29309431692924848 0 -0.41832805907686188 -0.30931753913066468 0 -0.40321770671161639 -0.30021507727439573 0 -0.40321770671161639 -0.30021507727439573 0 -0.38535282425943601 -0.30076392483652747 0 -0.39312742664599759 -0.29442794546026307 0 -0.3943768139811713 -0.31421223421636668 0 -0.41832805907686188 -0.30931753913066468 0 -0.40321770671161639 -0.30021507727439573 0 -0.3943768139811713 -0.31421223421636668 0 -0.40321770671161639 -0.30021507727439573 0 -0.38535282425943601 -0.30076392483652747 0 -0.37695315330109608 -0.31478984838188279 0 -0.3943768139811713 -0.31421223421636668 0 -0.38535282425943601 -0.30076392483652747 0 -0.38535282425943601 -0.30076392483652747 0 -0.37506158653380478 -0.30432247760779529 0 -0.37190270743217529 -0.29268659975832467 0 -0.37695315330109608 -0.31478984838188279 0 -0.38535282425943601 -0.30076392483652747 0 -0.37506158653380478 -0.30432247760779529 0 -0.38431086697999961 -0.28684026319934408 0 -0.38704152449954449 -0.2720630422974446 0 -0.37190270743217529 -0.29268659975832467 0 -0.38704152449954449 -0.2720630422974446 0 -0.37190270743217529 -0.29268659975832467 0 -0.38535282425943601 -0.30076392483652747 0 -0.38431086697999961 -0.28684026319934408 0 -0.37190270743217529 -0.29268659975832467 0 -0.38535282425943601 -0.30076392483652747 0 -0.38431086697999961 -0.28684026319934408 0 -0.39312742664599759 -0.29442794546026307 0 -0.40321770671161639 -0.30021507727439573 0 -0.39312742664599759 -0.29442794546026307 0 -0.40723513296425812 -0.27565060696394877 0 -0.38431086697999961 -0.28684026319934408 0 -0.39312742664599759 -0.29442794546026307 0 -0.40723513296425812 -0.27565060696394877 0 -0.38431086697999961 -0.28684026319934408 0 -0.40723513296425812 -0.27565060696394877 0 -0.38431086697999961 -0.28684026319934408 0 -0.38704152449954449 -0.2720630422974446 0 -0.40723513296425812 -0.27565060696394877 0 -0.38735365256818771 -0.25640496857681327 0 -0.40723513296425812 -0.27565060696394877 0 -0.38704152449954449 -0.2720630422974446 0 -0.38735365256818771 -0.25640496857681327 0 -0.40723513296425812 -0.27565060696394877 0 -0.37715706516706071 -0.27537336479094388 0 -0.38735365256818771 -0.25640496857681327 0 -0.38704152449954449 -0.2720630422974446 0 -0.37715706516706071 -0.27537336479094388 0 -0.37190270743217529 -0.29268659975832467 0 -0.38704152449954449 -0.2720630422974446 0 -0.37715706516706071 -0.27537336479094388 0 -0.38735365256818771 -0.25640496857681327 0 -0.38735365256818771 -0.25640496857681327 0 -0.37166443823121459 -0.26078658698159662 0 -0.37176744018693869 -0.241317228562551 0 -0.37715706516706071 -0.27537336479094388 0 -0.38735365256818771 -0.25640496857681327 0 -0.37166443823121459 -0.26078658698159662 0 -0.38735365256818771 -0.25640496857681327 0 -0.40954989830364158 -0.25378595709655738 0 -0.40723513296425812 -0.27565060696394877 0 -0.40954989830364158 -0.25378595709655738 0 -0.42325500428666868 -0.2678310827464172 0 -0.42526550406559183 -0.25163026709429731 0 -0.40723513296425812 -0.27565060696394877 0 -0.42325500428666868 -0.2678310827464172 0 -0.42842179903423921 -0.27913000023266449 0 -0.40723513296425812 -0.27565060696394877 0 -0.42325500428666868 -0.2678310827464172 0 -0.40954989830364158 -0.25378595709655738 0 -0.40723513296425812 -0.27565060696394877 0 -0.42325500428666868 -0.2678310827464172 0 -0.43927487560907968 -0.26001155852888652 0 -0.42325500428666868 -0.2678310827464172 0 -0.42842179903423921 -0.27913000023266449 0 -0.43927487560907968 -0.26001155852888652 0 -0.4412750237182782 -0.28527479271171607 0 -0.42842179903423921 -0.27913000023266449 0 -0.43927487560907968 -0.26001155852888652 0 -0.42325500428666868 -0.2678310827464172 0 -0.43927487560907968 -0.26001155852888652 0 -0.42526550406559183 -0.25163026709429731 0 -0.43768109130161581 -0.23988097619288609 0 -0.43927487560907968 -0.26001155852888652 0 -0.42325500428666868 -0.2678310827464172 0 -0.42526550406559183 -0.25163026709429731 0 -0.32493017335586422 -0.25814995515877809 0 -0.31131109027894949 -0.27106912997921773 0 -0.30846408808500381 -0.2499303869099207 0 -0.33142833581300829 -0.2793816384384325 0 -0.31593129883307031 -0.28998736258969859 0 -0.31131109027894949 -0.27106912997921773 0 -0.32493017335586422 -0.25814995515877809 0 -0.33142833581300829 -0.2793816384384325 0 -0.31131109027894949 -0.27106912997921773 0 -0.33142833581300829 -0.2793816384384325 0 -0.34221528556533048 -0.26203858217678999 0 -0.35547604703642838 -0.2774300718106294 0 -0.32493017335586422 -0.25814995515877809 0 -0.33142833581300829 -0.2793816384384325 0 -0.34221528556533048 -0.26203858217678999 0 -0.32493017335586422 -0.25814995515877809 0 -0.34221528556533048 -0.26203858217678999 0 -0.34294106032841909 -0.24179406536881409 0 -0.34221528556533048 -0.26203858217678999 0 -0.3569482669838222 -0.25662797097489809 0 -0.34294106032841909 -0.24179406536881409 0 -0.34221528556533048 -0.26203858217678999 0 -0.3569482669838222 -0.25662797097489809 0 -0.35547604703642838 -0.2774300718106294 0 -0.3569482669838222 -0.25662797097489809 0 -0.37166443823121459 -0.26078658698159662 0 -0.37176744018693869 -0.241317228562551 0 -0.3569482669838222 -0.25662797097489809 0 -0.37166443823121459 -0.26078658698159662 0 -0.35547604703642838 -0.2774300718106294 0 -0.37715706516706071 -0.27537336479094388 0 -0.37166443823121459 -0.26078658698159662 0 -0.35547604703642838 -0.2774300718106294 0 -0.35547604703642838 -0.2774300718106294 0 -0.36696047776593338 -0.29434176100507442 0 -0.35429321618110732 -0.29975721014164303 0 -0.35547604703642838 -0.2774300718106294 0 -0.35429321618110732 -0.29975721014164303 0 -0.34215899644652809 -0.29323437970983501 0 -0.37715706516706071 -0.27537336479094388 0 -0.35547604703642838 -0.2774300718106294 0 -0.36696047776593338 -0.29434176100507442 0 -0.37715706516706071 -0.27537336479094388 0 -0.36696047776593338 -0.29434176100507442 0 -0.37190270743217529 -0.29268659975832467 0 -0.37715706516706071 -0.27537336479094388 0 -0.36696047776593338 -0.29434176100507442 0 -0.37190270743217529 -0.29268659975832467 0 -0.36831293021586281 -0.30964910674620211 0 -0.35676389036480621 -0.31331015721920491 0 -0.36696047776593338 -0.29434176100507442 0 -0.37190270743217529 -0.29268659975832467 0 -0.35676389036480621 -0.31331015721920491 0 -0.36696047776593338 -0.29434176100507442 0 -0.35676389036480621 -0.31331015721920491 0 -0.37190270743217529 -0.29268659975832467 0 -0.35676389036480621 -0.31331015721920491 0 -0.37506158653380478 -0.30432247760779529 0 -0.37190270743217529 -0.29268659975832467 0 -0.36831293021586281 -0.30964910674620211 0 -0.37695315330109608 -0.31478984838188279 0 -0.37506158653380478 -0.30432247760779529 0 -0.36831293021586281 -0.30964910674620211 0 -0.35429321618110732 -0.29975721014164303 0 -0.34233477210447188 -0.30891654215275788 0 -0.34215899644652809 -0.29323437970983501 0 -0.36696047776593338 -0.29434176100507442 0 -0.35429321618110732 -0.29975721014164303 0 -0.35676389036480621 -0.31331015721920491 0 -0.35429321618110732 -0.29975721014164303 0 -0.34233477210447188 -0.30891654215275788 0 -0.35676389036480621 -0.31331015721920491 0 -0.34233477210447188 -0.30891654215275788 0 -0.34215899644652809 -0.29323437970983501 0 -0.32755986325805603 -0.3001745311429781 0 -0.34233477210447188 -0.30891654215275788 0 -0.32755986325805603 -0.3001745311429781 0 -0.3250682681681018 -0.31721553642426509 0 -0.33142833581300829 -0.2793816384384325 0 -0.34215899644652809 -0.29323437970983501 0 -0.32755986325805603 -0.3001745311429781 0 -0.33142833581300829 -0.2793816384384325 0 -0.35547604703642838 -0.2774300718106294 0 -0.34215899644652809 -0.29323437970983501 0 -0.33142833581300829 -0.2793816384384325 0 -0.31593129883307031 -0.28998736258969859 0 -0.32755986325805603 -0.3001745311429781 0 -0.31593129883307031 -0.28998736258969859 0 -0.32755986325805603 -0.3001745311429781 0 -0.30740147543497592 -0.30418343910944579 0 -0.32755986325805603 -0.3001745311429781 0 -0.3250682681681018 -0.31721553642426509 0 -0.30740147543497592 -0.30418343910944579 0 -0.3250682681681018 -0.31721553642426509 0 -0.32606074280784092 -0.33063850505293407 0 -0.30758750583812522 -0.32177149715186698 0 -0.3250682681681018 -0.31721553642426509 0 -0.30758750583812522 -0.32177149715186698 0 -0.30740147543497592 -0.30418343910944579 0 -0.31371455494841111 -0.33819912596208601 0 -0.33722881094201951 -0.3399227274871317 0 -0.32179808897152901 -0.34576439227718408 0 -0.32606074280784092 -0.33063850505293407 0 -0.31371455494841111 -0.33819912596208601 0 -0.30758750583812522 -0.32177149715186698 0 -0.31371455494841111 -0.33819912596208601 0 -0.33722881094201951 -0.3399227274871317 0 -0.32606074280784092 -0.33063850505293407 0 -0.31371455494841111 -0.33819912596208601 0 -0.33722881094201951 -0.3399227274871317 0 -0.32606074280784092 -0.33063850505293407 0 -0.34293875620185899 -0.3321440890611097 0 -0.3469963506534135 -0.32661644235316872 0 -0.32606074280784092 -0.33063850505293407 0 -0.33722881094201951 -0.3399227274871317 0 -0.34293875620185899 -0.3321440890611097 0 -0.33722881094201951 -0.3399227274871317 0 -0.34293875620185899 -0.3321440890611097 0 -0.34382107920352561 -0.34040594259000528 0 -0.33722881094201951 -0.3399227274871317 0 -0.34293875620185899 -0.3321440890611097 0 -0.33722881094201951 -0.3399227274871317 0 -0.34382107920352561 -0.34040594259000528 0 -0.33722881094201951 -0.3399227274871317 0 -0.34382107920352561 -0.34040594259000528 0 -0.34031085794352911 -0.34586205026714001 0 -0.3250682681681018 -0.31721553642426509 0 -0.32606074280784092 -0.33063850505293407 0 -0.3469963506534135 -0.32661644235316872 0 -0.34233477210447188 -0.30891654215275788 0 -0.3250682681681018 -0.31721553642426509 0 -0.3469963506534135 -0.32661644235316872 0 -0.34233477210447188 -0.30891654215275788 0 -0.3469963506534135 -0.32661644235316872 0 -0.35676389036480621 -0.31331015721920491 0 -0.3469963506534135 -0.32661644235316872 0 -0.35676389036480621 -0.31331015721920491 0 -0.34794184212947887 -0.32972154073064902 0 -0.35676389036480621 -0.31331015721920491 0 -0.34794184212947887 -0.32972154073064902 0 -0.35676389036480621 -0.31331015721920491 0 -0.365433851594133 -0.32433558934731438 0 -0.34794184212947887 -0.32972154073064902 0 -0.3469963506534135 -0.32661644235316872 0 -0.35676389036480621 -0.31331015721920491 0 -0.36831293021586281 -0.30964910674620211 0 -0.35676389036480621 -0.31331015721920491 0 -0.365433851594133 -0.32433558934731438 0 -0.37695315330109608 -0.31478984838188279 0 -0.36831293021586281 -0.30964910674620211 0 -0.365433851594133 -0.32433558934731438 0 -0.38287160189221492 -0.33401499094792642 0 -0.365433851594133 -0.32433558934731438 0 -0.36399373460327061 -0.34366936401467191 0 -0.34293875620185899 -0.3321440890611097 0 -0.36399373460327061 -0.34366936401467191 0 -0.34794184212947887 -0.32972154073064902 0 -0.34293875620185899 -0.3321440890611097 0 -0.36399373460327061 -0.34366936401467191 0 -0.34382107920352561 -0.34040594259000528 0 -0.365433851594133 -0.32433558934731438 0 -0.36399373460327061 -0.34366936401467191 0 -0.34794184212947887 -0.32972154073064902 0 -0.34293875620185899 -0.3321440890611097 0 -0.36399373460327061 -0.34366936401467191 0 -0.34293875620185899 -0.3321440890611097 0 -0.3469963506534135 -0.32661644235316872 0 -0.34293875620185899 -0.3321440890611097 0 -0.3469963506534135 -0.32661644235316872 0 -0.34794184212947887 -0.32972154073064902 0 -0.34382107920352561 -0.34040594259000528 0 -0.35025194310668201 -0.34866196467044869 0 -0.34031085794352911 -0.34586205026714001 0 -0.36399373460327061 -0.34366936401467191 0 -0.34382107920352561 -0.34040594259000528 0 -0.35025194310668201 -0.34866196467044869 0 -0.35025194310668201 -0.34866196467044869 0 -0.34180825108357832 -0.35205323172875719 0 -0.34031085794352911 -0.34586205026714001 0 -0.35055180834032268 -0.35663127301696151 0 -0.34256732375781401 -0.36069290738691567 0 -0.34180825108357832 -0.35205323172875719 0 -0.35025194310668201 -0.34866196467044869 0 -0.35055180834032268 -0.35663127301696151 0 -0.34180825108357832 -0.35205323172875719 0 -0.35055180834032268 -0.35663127301696151 0 -0.36168243879706741 -0.35459356857072921 0 -0.35664214283280038 -0.36363243150507529 0 -0.35025194310668201 -0.34866196467044869 0 -0.35055180834032268 -0.35663127301696151 0 -0.36168243879706741 -0.35459356857072921 0 -0.36399373460327061 -0.34366936401467191 0 -0.35025194310668201 -0.34866196467044869 0 -0.36168243879706741 -0.35459356857072921 0 -0.38486567592344401 -0.35506027975815763 0 -0.36168243879706741 -0.35459356857072921 0 -0.36662236543272481 -0.36401327569629471 0 -0.38486567592344401 -0.35506027975815763 0 -0.36399373460327061 -0.34366936401467191 0 -0.38486567592344401 -0.35506027975815763 0 -0.36399373460327061 -0.34366936401467191 0 -0.36168243879706741 -0.35459356857072921 0 -0.38486567592344401 -0.35506027975815763 0 -0.36662236543272481 -0.36401327569629471 0 -0.37069722331415988 -0.37558964454462601 0 -0.36168243879706741 -0.35459356857072921 0 -0.36662236543272481 -0.36401327569629471 0 -0.35664214283280038 -0.36363243150507529 0 -0.36662236543272481 -0.36401327569629471 0 -0.36141861518884572 -0.37154795295654031 0 -0.35664214283280038 -0.36363243150507529 0 -0.36662236543272481 -0.36401327569629471 0 -0.36141861518884572 -0.37154795295654031 0 -0.37069722331415988 -0.37558964454462601 0 -0.36141861518884572 -0.37154795295654031 0 -0.35746491131048508 -0.3748980989445474 0 -0.3620666039186089 -0.37818891986422148 0 -0.35468339920293912 -0.37112389061674472 0 -0.35664214283280038 -0.36363243150507529 0 -0.34848647792219661 -0.36846283261539908 0 -0.36141861518884572 -0.37154795295654031 0 -0.35746491131048508 -0.3748980989445474 0 -0.35468339920293912 -0.37112389061674472 0 -0.36141861518884572 -0.37154795295654031 0 -0.35468339920293912 -0.37112389061674472 0 -0.35664214283280038 -0.36363243150507529 0 -0.3541296047652257 -0.37470374743249102 0 -0.35082123983483238 -0.37331921136450708 0 -0.35197246123060938 -0.3767000150573066 0 -0.3541296047652257 -0.37470374743249102 0 -0.35468339920293912 -0.37112389061674472 0 -0.35082123983483238 -0.37331921136450708 0 -0.35746491131048508 -0.3748980989445474 0 -0.3541296047652257 -0.37470374743249102 0 -0.35468339920293912 -0.37112389061674472 0 -0.35664214283280038 -0.36363243150507529 0 -0.34956193821328341 -0.36235486113108778 0 -0.34848647792219661 -0.36846283261539908 0 -0.35055180834032268 -0.35663127301696151 0 -0.35664214283280038 -0.36363243150507529 0 -0.34956193821328341 -0.36235486113108778 0 -0.35055180834032268 -0.35663127301696151 0 -0.34956193821328341 -0.36235486113108778 0 -0.34256732375781401 -0.36069290738691567 0 -0.34956193821328341 -0.36235486113108778 0 -0.34848647792219661 -0.36846283261539908 0 -0.34256732375781401 -0.36069290738691567 0 -0.35082123983483238 -0.37331921136450708 0 -0.34848647792219661 -0.36846283261539908 0 -0.34691100433335842 -0.37683972648634317 0 -0.34848647792219661 -0.36846283261539908 0 -0.33732074044514221 -0.37067880783893398 0 -0.34691100433335842 -0.37683972648634317 0 -0.35468339920293912 -0.37112389061674472 0 -0.35082123983483238 -0.37331921136450708 0 -0.34848647792219661 -0.36846283261539908 0 -0.33732074044514221 -0.37067880783893398 0 -0.34256732375781401 -0.36069290738691567 0 -0.32923459522423548 -0.35081321955641098 0 -0.33732074044514221 -0.37067880783893398 0 -0.32923459522423548 -0.35081321955641098 0 -0.32658902817312191 -0.37152764566808349 0 -0.33732074044514221 -0.37067880783893398 0 -0.32923459522423548 -0.35081321955641098 0 -0.34848647792219661 -0.36846283261539908 0 -0.33732074044514221 -0.37067880783893398 0 -0.34256732375781401 -0.36069290738691567 0 -0.34256732375781401 -0.36069290738691567 0 -0.34180825108357832 -0.35205323172875719 0 -0.32923459522423548 -0.35081321955641098 0 -0.34180825108357832 -0.35205323172875719 0 -0.34031085794352911 -0.34586205026714001 0 -0.32923459522423548 -0.35081321955641098 0 -0.33722881094201951 -0.3399227274871317 0 -0.32923459522423548 -0.35081321955641098 0 -0.33722881094201951 -0.3399227274871317 0 -0.32923459522423548 -0.35081321955641098 0 -0.32179808897152901 -0.34576439227718408 0 -0.33722881094201951 -0.3399227274871317 0 -0.34031085794352911 -0.34586205026714001 0 -0.32923459522423548 -0.35081321955641098 0 -0.32923459522423548 -0.35081321955641098 0 -0.31990001292329329 -0.35436816985057928 0 -0.31930587350118927 -0.36433908238024221 0 -0.32923459522423548 -0.35081321955641098 0 -0.32499911311870838 -0.35033482285718781 0 -0.31990001292329329 -0.35436816985057928 0 -0.32923459522423548 -0.35081321955641098 0 -0.31930587350118927 -0.36433908238024221 0 -0.32499911311870838 -0.35033482285718781 0 -0.32179808897152901 -0.34576439227718408 0 -0.31990001292329329 -0.35436816985057928 0 -0.32923459522423548 -0.35081321955641098 0 -0.32499911311870838 -0.35033482285718781 0 -0.32179808897152901 -0.34576439227718408 0 -0.31371455494841111 -0.33819912596208601 0 -0.32179808897152901 -0.34576439227718408 0 -0.30744456945950072 -0.34733091927718118 0 -0.32179808897152901 -0.34576439227718408 0 -0.31990001292329329 -0.35436816985057928 0 -0.30744456945950072 -0.34733091927718118 0 -0.31990001292329329 -0.35436816985057928 0 -0.31930587350118927 -0.36433908238024221 0 -0.30586051575675721 -0.35867185697741388 0 -0.32923459522423548 -0.35081321955641098 0 -0.31930587350118927 -0.36433908238024221 0 -0.32658902817312191 -0.37152764566808349 0 -0.31930587350118927 -0.36433908238024221 0 -0.30618533126596897 -0.3703619091993518 0 -0.3168504879237799 -0.37621688365847178 0 -0.31930587350118927 -0.36433908238024221 0 -0.32658902817312191 -0.37152764566808349 0 -0.3168504879237799 -0.37621688365847178 0 -0.30618533126596897 -0.3703619091993518 0 -0.29333178025471718 -0.36561230575091908 0 -0.30028841299509562 -0.3814691916340105 0 -0.30618533126596897 -0.3703619091993518 0 -0.30586051575675721 -0.35867185697741388 0 -0.29333178025471718 -0.36561230575091908 0 -0.31930587350118927 -0.36433908238024221 0 -0.30618533126596897 -0.3703619091993518 0 -0.30586051575675721 -0.35867185697741388 0 -0.30744456945950072 -0.34733091927718118 0 -0.29408136306095167 -0.35160064124560741 0 -0.29020029895480243 -0.33647552443704343 0 -0.31990001292329329 -0.35436816985057928 0 -0.30586051575675721 -0.35867185697741388 0 -0.30744456945950072 -0.34733091927718118 0 -0.30586051575675721 -0.35867185697741388 0 -0.29408136306095167 -0.35160064124560741 0 -0.29333178025471718 -0.36561230575091908 0 -0.30586051575675721 -0.35867185697741388 0 -0.30744456945950072 -0.34733091927718118 0 -0.29408136306095167 -0.35160064124560741 0 -0.29408136306095167 -0.35160064124560741 0 -0.29333178025471718 -0.36561230575091908 0 -0.27782925660093438 -0.35516473620224809 0 -0.29408136306095167 -0.35160064124560741 0 -0.27782925660093438 -0.35516473620224809 0 -0.29020029895480243 -0.33647552443704343 0 -0.29333178025471718 -0.36561230575091908 0 -0.27782925660093438 -0.35516473620224809 0 -0.28193934131677689 -0.37801630691914029 0 -0.26200821449927908 -0.37032744707501741 0 -0.27782925660093438 -0.35516473620224809 0 -0.28193934131677689 -0.37801630691914029 0 -0.26200821449927908 -0.37032744707501741 0 -0.24707346737064151 -0.37478657436052493 0 -0.24318533217749419 -0.36146883500207871 0 -0.26200821449927908 -0.37032744707501741 0 -0.25507332585313719 -0.35039505893935469 0 -0.24318533217749419 -0.36146883500207871 0 -0.26200821449927908 -0.37032744707501741 0 -0.25507332585313719 -0.35039505893935469 0 -0.27782925660093438 -0.35516473620224809 0 -0.25507332585313719 -0.35039505893935469 0 -0.27782925660093438 -0.35516473620224809 0 -0.26668604296119369 -0.33475192291200079 0 -0.26668604296119369 -0.33475192291200079 0 -0.27209831235491722 -0.31534752014298351 0 -0.29020029895480243 -0.33647552443704343 0 -0.26668604296119369 -0.33475192291200079 0 -0.29020029895480243 -0.33647552443704343 0 -0.27782925660093438 -0.35516473620224809 0 -0.26668604296119369 -0.33475192291200079 0 -0.29020029895480243 -0.33647552443704343 0 -0.25507332585313719 -0.35039505893935469 0 -0.26668604296119369 -0.33475192291200079 0 -0.2431717869675849 -0.3330283213869582 0 -0.26668604296119369 -0.33475192291200079 0 -0.2431717869675849 -0.3330283213869582 0 -0.26668604296119369 -0.33475192291200079 0 -0.2431717869675849 -0.3330283213869582 0 -0.24906769594763661 -0.31374181271971913 0 -0.26668604296119369 -0.33475192291200079 0 -0.27209831235491722 -0.31534752014298351 0 -0.24906769594763661 -0.31374181271971913 0 -0.29020029895480243 -0.33647552443704343 0 -0.30758750583812522 -0.32177149715186698 0 -0.29035517049190251 -0.306832202311072 0 -0.27209831235491722 -0.31534752014298351 0 -0.29020029895480243 -0.33647552443704343 0 -0.29035517049190251 -0.306832202311072 0 -0.31371455494841111 -0.33819912596208601 0 -0.29020029895480243 -0.33647552443704343 0 -0.31371455494841111 -0.33819912596208601 0 -0.30744456945950072 -0.34733091927718118 0 -0.29020029895480243 -0.33647552443704343 0 -0.31371455494841111 -0.33819912596208601 0 -0.29020029895480243 -0.33647552443704343 0 -0.30758750583812522 -0.32177149715186698 0 -0.30740147543497592 -0.30418343910944579 0 -0.29639957841636239 -0.28420249014279769 0 -0.29035517049190251 -0.306832202311072 0 -0.30758750583812522 -0.32177149715186698 0 -0.30740147543497592 -0.30418343910944579 0 -0.29035517049190251 -0.306832202311072 0 -0.31593129883307031 -0.28998736258969859 0 -0.30740147543497592 -0.30418343910944579 0 -0.29639957841636239 -0.28420249014279769 0 -0.31593129883307031 -0.28998736258969859 0 -0.29639957841636239 -0.28420249014279769 0 -0.31131109027894949 -0.27106912997921773 0 -0.29639957841636239 -0.28420249014279769 0 -0.27959808404326159 -0.29018948483269907 0 -0.28627585678245232 -0.27273279541404932 0 -0.29639957841636239 -0.28420249014279769 0 -0.29035517049190251 -0.306832202311072 0 -0.27959808404326159 -0.29018948483269907 0 -0.27209831235491722 -0.31534752014298351 0 -0.26089877128844191 -0.29197719091332591 0 -0.27959808404326159 -0.29018948483269907 0 -0.27209831235491722 -0.31534752014298351 0 -0.29035517049190251 -0.306832202311072 0 -0.27959808404326159 -0.29018948483269907 0 -0.27209831235491722 -0.31534752014298351 0 -0.26089877128844191 -0.29197719091332591 0 -0.24906769594763661 -0.31374181271971913 0 -0.26089877128844191 -0.29197719091332591 0 -0.27959808404326159 -0.29018948483269907 0 -0.27156081492549311 -0.27004471007196629 0 -0.27959808404326159 -0.29018948483269907 0 -0.27156081492549311 -0.27004471007196629 0 -0.28627585678245232 -0.27273279541404932 0 -0.27156081492549311 -0.27004471007196629 0 -0.26060555751895093 -0.25919251759619599 0 -0.24801855443892409 -0.27145379452393908 0 -0.26089877128844191 -0.29197719091332591 0 -0.27156081492549311 -0.27004471007196629 0 -0.24801855443892409 -0.27145379452393908 0 -0.26060555751895093 -0.25919251759619599 0 -0.27267174260738569 -0.24767498376580641 0 -0.25017111810400061 -0.2475965820230723 0 -0.26060555751895093 -0.25919251759619599 0 -0.24801855443892409 -0.27145379452393908 0 -0.25017111810400061 -0.2475965820230723 0 -0.27156081492549311 -0.27004471007196629 0 -0.26060555751895093 -0.25919251759619599 0 -0.27267174260738569 -0.24767498376580641 0 -0.27156081492549311 -0.27004471007196629 0 -0.29256211388443393 -0.25878551580333797 0 -0.27267174260738569 -0.24767498376580641 0 -0.29639957841636239 -0.28420249014279769 0 -0.29256211388443393 -0.25878551580333797 0 -0.28627585678245232 -0.27273279541404932 0 -0.27156081492549311 -0.27004471007196629 0 -0.29256211388443393 -0.25878551580333797 0 -0.28627585678245232 -0.27273279541404932 0 -0.29639957841636239 -0.28420249014279769 0 -0.29256211388443393 -0.25878551580333797 0 -0.31131109027894949 -0.27106912997921773 0 -0.29256211388443393 -0.25878551580333797 0 -0.31131109027894949 -0.27106912997921773 0 -0.30846408808500381 -0.2499303869099207 0 -0.39182815333544718 -0.5 0 -0.32883934778070378 -0.50000000000000155 0 -0.34757160882162069 -0.48158903521553631 0 -0.33379104289660089 -0.46018166051229409 0 -0.33526064117828552 -0.44191347614067339 0 -0.35249317808573372 -0.4465205281434057 0 -0.33526064117828552 -0.44191347614067339 0 -0.32192379385081049 -0.43177311905186527 0 -0.30897021848155398 -0.45451541270124268 0 -0.33379104289660089 -0.46018166051229409 0 -0.33526064117828552 -0.44191347614067339 0 -0.30897021848155398 -0.45451541270124268 0 -0.32192379385081049 -0.43177311905186527 0 -0.30897021848155398 -0.45451541270124268 0 -0.33379104289660089 -0.46018166051229409 0 -0.31937285725436693 -0.47860571515779893 0 -0.30897021848155398 -0.45451541270124268 0 -0.31937285725436693 -0.47860571515779893 0 -0.32883934778070378 -0.50000000000000155 0 -0.30595120776187268 -0.5 0 -0.32883934778070378 -0.50000000000000155 0 -0.34757160882162069 -0.48158903521553631 0 -0.31937285725436693 -0.47860571515779893 0 -0.32883934778070378 -0.50000000000000155 0 -0.34757160882162069 -0.48158903521553631 0 -0.33379104289660089 -0.46018166051229409 0 -0.31937285725436693 -0.47860571515779893 0 -0.34757160882162069 -0.48158903521553631 0 -0.34757160882162069 -0.48158903521553631 0 -0.36630386986253682 -0.46317807043107029 0 -0.39182815333544718 -0.5 0 -0.37634941974667868 -0.47975825768714048 0 -0.34757160882162069 -0.48158903521553631 0 -0.37634941974667868 -0.47975825768714048 0 -0.34757160882162069 -0.48158903521553631 0 -0.36630386986253682 -0.46317807043107029 0 -0.33379104289660089 -0.46018166051229409 0 -0.36630386986253682 -0.46317807043107029 0 -0.35249317808573372 -0.4465205281434057 0 -0.33379104289660089 -0.46018166051229409 0 -0.34757160882162069 -0.48158903521553631 0 -0.36630386986253682 -0.46317807043107029 0 -0.33526064117828552 -0.44191347614067339 0 -0.35249317808573372 -0.4465205281434057 0 -0.35392288104421632 -0.43348573385990791 0 -0.35249317808573372 -0.4465205281434057 0 -0.36681793551075681 -0.4452856484890369 0 -0.35392288104421632 -0.43348573385990791 0 -0.3850361309034529 -0.44476710564660432 0 -0.36630386986253682 -0.46317807043107029 0 -0.36681793551075681 -0.4452856484890369 0 -0.36630386986253682 -0.46317807043107029 0 -0.35249317808573372 -0.4465205281434057 0 -0.36681793551075681 -0.4452856484890369 0 -0.36681793551075681 -0.4452856484890369 0 -0.37333362651542967 -0.43328798802013829 0 -0.35392288104421632 -0.43348573385990791 0 -0.37333362651542967 -0.43328798802013829 0 -0.35814687914498589 -0.4218432979171281 0 -0.35392288104421632 -0.43348573385990791 0 -0.37333362651542967 -0.43328798802013829 0 -0.35545030701131269 -0.41521851066458337 0 -0.37333362651542967 -0.43328798802013829 0 -0.35814687914498589 -0.4218432979171281 0 -0.35545030701131269 -0.41521851066458337 0 -0.37162571945022332 -0.41708236300134771 0 -0.35545030701131269 -0.41521851066458337 0 -0.36436896587769763 -0.40594911743210221 0 -0.37333362651542967 -0.43328798802013829 0 -0.37162571945022332 -0.41708236300134771 0 -0.35545030701131269 -0.41521851066458337 0 -0.37764736076372207 -0.4065023630234384 0 -0.37162571945022332 -0.41708236300134771 0 -0.36436896587769763 -0.40594911743210221 0 -0.35814687914498589 -0.4218432979171281 0 -0.35545030701131269 -0.41521851066458337 0 -0.35814687914498589 -0.4218432979171281 0 -0.35545030701131269 -0.41521851066458337 0 -0.34986903894846638 -0.42159751246653221 0 -0.35545030701131269 -0.41521851066458337 0 -0.34938357591855562 -0.40031410580701721 0 -0.35545030701131269 -0.41521851066458337 0 -0.36436896587769763 -0.40594911743210221 0 -0.34938357591855562 -0.40031410580701721 0 -0.35545030701131269 -0.41521851066458337 0 -0.34393797795622122 -0.40358634309509078 0 -0.34938357591855562 -0.40031410580701721 0 -0.35545030701131269 -0.41521851066458337 0 -0.34466738766726007 -0.41455265660163798 0 -0.34393797795622122 -0.40358634309509078 0 -0.35545030701131269 -0.41521851066458337 0 -0.34393797795622122 -0.40358634309509078 0 -0.34466738766726007 -0.41455265660163798 0 -0.34986903894846638 -0.42159751246653221 0 -0.34046273271079802 -0.42500440257532462 0 -0.35545030701131269 -0.41521851066458337 0 -0.34466738766726007 -0.41455265660163798 0 -0.34986903894846638 -0.42159751246653221 0 -0.34986903894846638 -0.42159751246653221 0 -0.35392288104421632 -0.43348573385990791 0 -0.34046273271079802 -0.42500440257532462 0 -0.35814687914498589 -0.4218432979171281 0 -0.34986903894846638 -0.42159751246653221 0 -0.35392288104421632 -0.43348573385990791 0 -0.37116248457905432 -0.3872272496884791 0 -0.35201128748116822 -0.37894920010981359 0 -0.3620666039186089 -0.37818891986422148 0 -0.37116248457905432 -0.3872272496884791 0 -0.35201128748116822 -0.37894920010981359 0 -0.36141861518884572 -0.37154795295654031 0 -0.3620666039186089 -0.37818891986422148 0 -0.37069722331415988 -0.37558964454462601 0 -0.3620666039186089 -0.37818891986422148 0 -0.37069722331415988 -0.37558964454462601 0 -0.37116248457905432 -0.3872272496884791 0 -0.37764736076372207 -0.4065023630234384 0 -0.37116248457905432 -0.3872272496884791 0 -0.36436896587769763 -0.40594911743210221 0 -0.37116248457905432 -0.3872272496884791 0 -0.34938357591855562 -0.40031410580701721 0 -0.37116248457905432 -0.3872272496884791 0 -0.36436896587769763 -0.40594911743210221 0 -0.34938357591855562 -0.40031410580701721 0 -0.34393797795622122 -0.40358634309509078 0 -0.34938357591855562 -0.40031410580701721 0 -0.34393797795622122 -0.40358634309509078 0 -0.34483648936469657 -0.39891427815071417 0 -0.34938357591855562 -0.40031410580701721 0 -0.34938357591855562 -0.40031410580701721 0 -0.34540688566604222 -0.39054439612145969 0 -0.34483648936469657 -0.39891427815071417 0 -0.34938357591855562 -0.40031410580701721 0 -0.34540688566604222 -0.39054439612145969 0 -0.34938357591855562 -0.40031410580701721 0 -0.34540688566604222 -0.39054439612145969 0 -0.35201128748116822 -0.37894920010981359 0 -0.37116248457905432 -0.3872272496884791 0 -0.34938357591855562 -0.40031410580701721 0 -0.35201128748116822 -0.37894920010981359 0 -0.34540688566604222 -0.39054439612145969 0 -0.35201128748116822 -0.37894920010981359 0 -0.34540688566604222 -0.39054439612145969 0 -0.34691100433335842 -0.37683972648634317 0 -0.35201128748116822 -0.37894920010981359 0 -0.35082123983483238 -0.37331921136450708 0 -0.34691100433335842 -0.37683972648634317 0 -0.35197246123060938 -0.3767000150573066 0 -0.34691100433335842 -0.37683972648634317 0 -0.35197246123060938 -0.3767000150573066 0 -0.35201128748116822 -0.37894920010981359 0 -0.3620666039186089 -0.37818891986422148 0 -0.35544552120004758 -0.377386963334091 0 -0.35201128748116822 -0.37894920010981359 0 -0.3541296047652257 -0.37470374743249102 0 -0.35197246123060938 -0.3767000150573066 0 -0.35544552120004758 -0.377386963334091 0 -0.35197246123060938 -0.3767000150573066 0 -0.35544552120004758 -0.377386963334091 0 -0.35201128748116822 -0.37894920010981359 0 -0.35746491131048508 -0.3748980989445474 0 -0.3620666039186089 -0.37818891986422148 0 -0.35544552120004758 -0.377386963334091 0 -0.35746491131048508 -0.3748980989445474 0 -0.3541296047652257 -0.37470374743249102 0 -0.35544552120004758 -0.377386963334091 0 -0.33732074044514221 -0.37067880783893398 0 -0.32658902817312191 -0.37152764566808349 0 -0.32850292920278001 -0.38799062196132739 0 -0.33732074044514221 -0.37067880783893398 0 -0.34540688566604222 -0.39054439612145969 0 -0.32850292920278001 -0.38799062196132739 0 -0.33732074044514221 -0.37067880783893398 0 -0.34540688566604222 -0.39054439612145969 0 -0.33732074044514221 -0.37067880783893398 0 -0.34540688566604222 -0.39054439612145969 0 -0.34691100433335842 -0.37683972648634317 0 -0.34540688566604222 -0.39054439612145969 0 -0.32850292920278001 -0.38799062196132739 0 -0.3401553704817798 -0.39976436026418333 0 -0.32850292920278001 -0.38799062196132739 0 -0.3401553704817798 -0.39976436026418333 0 -0.32850292920278001 -0.38799062196132739 0 -0.3401553704817798 -0.39976436026418333 0 -0.3276040812624702 -0.3990334160392604 0 -0.34540688566604222 -0.39054439612145969 0 -0.3401553704817798 -0.39976436026418333 0 -0.34483648936469657 -0.39891427815071417 0 -0.34540688566604222 -0.39054439612145969 0 -0.3401553704817798 -0.39976436026418333 0 -0.34393797795622122 -0.40358634309509078 0 -0.3401553704817798 -0.39976436026418333 0 -0.33487736922006639 -0.4090308254024877 0 -0.3401553704817798 -0.39976436026418333 0 -0.33487736922006639 -0.4090308254024877 0 -0.34393797795622122 -0.40358634309509078 0 -0.34483648936469657 -0.39891427815071417 0 -0.3401553704817798 -0.39976436026418333 0 -0.34393797795622122 -0.40358634309509078 0 -0.3401553704817798 -0.39976436026418333 0 -0.3401553704817798 -0.39976436026418333 0 -0.3276040812624702 -0.3990334160392604 0 -0.33487736922006639 -0.4090308254024877 0 -0.3276040812624702 -0.3990334160392604 0 -0.33487736922006639 -0.4090308254024877 0 -0.31667357691096443 -0.40643440738142528 0 -0.3276040812624702 -0.3990334160392604 0 -0.3155260871865585 -0.39120867744477361 0 -0.31667357691096443 -0.40643440738142528 0 -0.32850292920278001 -0.38799062196132739 0 -0.3276040812624702 -0.3990334160392604 0 -0.3155260871865585 -0.39120867744477361 0 -0.32658902817312191 -0.37152764566808349 0 -0.32850292920278001 -0.38799062196132739 0 -0.3168504879237799 -0.37621688365847178 0 -0.32850292920278001 -0.38799062196132739 0 -0.3155260871865585 -0.39120867744477361 0 -0.3168504879237799 -0.37621688365847178 0 -0.32850292920278001 -0.38799062196132739 0 -0.3168504879237799 -0.37621688365847178 0 -0.33526064117828552 -0.44191347614067339 0 -0.34046273271079802 -0.42500440257532462 0 -0.32192379385081049 -0.43177311905186527 0 -0.34046273271079802 -0.42500440257532462 0 -0.33487736922006639 -0.4090308254024877 0 -0.32192379385081049 -0.43177311905186527 0 -0.33526064117828552 -0.44191347614067339 0 -0.35392288104421632 -0.43348573385990791 0 -0.34046273271079802 -0.42500440257532462 0 -0.34466738766726007 -0.41455265660163798 0 -0.34046273271079802 -0.42500440257532462 0 -0.33487736922006639 -0.4090308254024877 0 -0.33487736922006639 -0.4090308254024877 0 -0.32192379385081049 -0.43177311905186527 0 -0.34466738766726007 -0.41455265660163798 0 -0.34393797795622122 -0.40358634309509078 0 -0.33487736922006639 -0.4090308254024877 0 -0.34393797795622122 -0.40358634309509078 0 -0.33487736922006639 -0.4090308254024877 0 -0.33487736922006639 -0.4090308254024877 0 -0.30998799778974362 -0.4239867457319707 0 -0.33487736922006639 -0.4090308254024877 0 -0.31667357691096443 -0.40643440738142528 0 -0.30998799778974362 -0.4239867457319707 0 -0.33487736922006639 -0.4090308254024877 0 -0.32192379385081049 -0.43177311905186527 0 -0.30998799778974362 -0.4239867457319707 0 -0.30998799778974362 -0.4239867457319707 0 -0.28509862635942113 -0.43894266606145432 0 -0.30229223678807549 -0.44074858046860038 0 -0.30998799778974362 -0.4239867457319707 0 -0.28509862635942113 -0.43894266606145432 0 -0.32192379385081049 -0.43177311905186527 0 -0.30998799778974362 -0.4239867457319707 0 -0.30229223678807549 -0.44074858046860038 0 -0.30998799778974362 -0.4239867457319707 0 -0.30247486896049292 -0.40991898323585862 0 -0.28841878618687361 -0.41578815682058923 0 -0.31667357691096443 -0.40643440738142528 0 -0.30998799778974362 -0.4239867457319707 0 -0.30247486896049292 -0.40991898323585862 0 -0.30247486896049292 -0.40991898323585862 0 -0.28841878618687361 -0.41578815682058923 0 -0.29311305424019618 -0.40268875594313841 0 -0.30998799778974362 -0.4239867457319707 0 -0.28841878618687361 -0.41578815682058923 0 -0.28509862635942113 -0.43894266606145432 0 -0.3155260871865585 -0.39120867744477361 0 -0.3168504879237799 -0.37621688365847178 0 -0.30028841299509562 -0.3814691916340105 0 -0.3155260871865585 -0.39120867744477361 0 -0.30028841299509562 -0.3814691916340105 0 -0.30397444679890728 -0.3987450006507241 0 -0.30618533126596897 -0.3703619091993518 0 -0.3168504879237799 -0.37621688365847178 0 -0.30028841299509562 -0.3814691916340105 0 -0.30028841299509562 -0.3814691916340105 0 -0.30397444679890728 -0.3987450006507241 0 -0.29170315124691037 -0.39197712396782969 0 -0.3155260871865585 -0.39120867744477361 0 -0.31667357691096443 -0.40643440738142528 0 -0.30397444679890728 -0.3987450006507241 0 -0.31667357691096443 -0.40643440738142528 0 -0.30247486896049292 -0.40991898323585862 0 -0.30397444679890728 -0.3987450006507241 0 -0.30247486896049292 -0.40991898323585862 0 -0.30397444679890728 -0.3987450006507241 0 -0.29311305424019618 -0.40268875594313841 0 -0.28841878618687361 -0.41578815682058923 0 -0.29311305424019618 -0.40268875594313841 0 -0.27899401800779661 -0.39701451504069002 0 -0.29311305424019618 -0.40268875594313841 0 -0.29170315124691037 -0.39197712396782969 0 -0.27899401800779661 -0.39701451504069002 0 -0.30397444679890728 -0.3987450006507241 0 -0.29311305424019618 -0.40268875594313841 0 -0.29170315124691037 -0.39197712396782969 0 -0.30028841299509562 -0.3814691916340105 0 -0.29170315124691037 -0.39197712396782969 0 -0.28193934131677689 -0.37801630691914029 0 -0.29170315124691037 -0.39197712396782969 0 -0.28193934131677689 -0.37801630691914029 0 -0.27899401800779661 -0.39701451504069002 0 -0.29333178025471718 -0.36561230575091908 0 -0.30028841299509562 -0.3814691916340105 0 -0.28193934131677689 -0.37801630691914029 0 -0.26200821449927908 -0.37032744707501741 0 -0.28193934131677689 -0.37801630691914029 0 -0.26956254542349389 -0.3840491690653286 0 -0.28193934131677689 -0.37801630691914029 0 -0.26956254542349389 -0.3840491690653286 0 -0.27899401800779661 -0.39701451504069002 0 -0.26956254542349389 -0.3840491690653286 0 -0.27899401800779661 -0.39701451504069002 0 -0.25751260779811852 -0.3918329024446775 0 -0.27899401800779661 -0.39701451504069002 0 -0.25751260779811852 -0.3918329024446775 0 -0.26807412288140542 -0.41025927720633643 0 -0.25751260779811852 -0.3918329024446775 0 -0.25179637243917369 -0.41416551537572738 0 -0.24361613506946189 -0.39960694087372772 0 -0.25751260779811852 -0.3918329024446775 0 -0.26807412288140542 -0.41025927720633643 0 -0.25179637243917369 -0.41416551537572738 0 -0.26200821449927908 -0.37032744707501741 0 -0.25751260779811852 -0.3918329024446775 0 -0.24707346737064151 -0.37478657436052493 0 -0.26200821449927908 -0.37032744707501741 0 -0.26956254542349389 -0.3840491690653286 0 -0.25751260779811852 -0.3918329024446775 0 -0.28841878618687361 -0.41578815682058923 0 -0.26446271689813711 -0.4307931317455348 0 -0.28509862635942113 -0.43894266606145432 0 -0.28841878618687361 -0.41578815682058923 0 -0.26807412288140542 -0.41025927720633643 0 -0.26446271689813711 -0.4307931317455348 0 -0.28841878618687361 -0.41578815682058923 0 -0.27899401800779661 -0.39701451504069002 0 -0.26807412288140542 -0.41025927720633643 0 -0.26807412288140542 -0.41025927720633643 0 -0.25179637243917369 -0.41416551537572738 0 -0.26446271689813711 -0.4307931317455348 0 -0.25179637243917369 -0.41416551537572738 0 -0.26446271689813711 -0.4307931317455348 0 -0.24169565135587501 -0.4338931381970596 0 -0.26446271689813711 -0.4307931317455348 0 -0.26020925492909858 -0.45389858639093789 0 -0.24169565135587501 -0.4338931381970596 0 -0.26020925492909858 -0.45389858639093789 0 -0.28591749982203568 -0.45801372733961743 0 -0.27043360802681338 -0.47900361710981221 0 -0.26020925492909858 -0.45389858639093789 0 -0.28509862635942113 -0.43894266606145432 0 -0.28591749982203568 -0.45801372733961743 0 -0.26446271689813711 -0.4307931317455348 0 -0.26020925492909858 -0.45389858639093789 0 -0.28509862635942113 -0.43894266606145432 0 -0.26020925492909858 -0.45389858639093789 0 -0.28509862635942113 -0.43894266606145432 0 -0.28509862635942113 -0.43894266606145432 0 -0.28591749982203568 -0.45801372733961743 0 -0.30229223678807549 -0.44074858046860038 0 -0.28591749982203568 -0.45801372733961743 0 -0.30897021848155398 -0.45451541270124268 0 -0.29601664311229742 -0.47725770635062009 0 -0.30897021848155398 -0.45451541270124268 0 -0.29601664311229742 -0.47725770635062009 0 -0.32192379385081049 -0.43177311905186527 0 -0.30897021848155398 -0.45451541270124268 0 -0.30229223678807549 -0.44074858046860038 0 -0.28591749982203568 -0.45801372733961743 0 -0.30897021848155398 -0.45451541270124268 0 -0.30229223678807549 -0.44074858046860038 0 -0.31937285725436693 -0.47860571515779893 0 -0.30595120776187268 -0.5 0 -0.29601664311229742 -0.47725770635062009 0 -0.31937285725436693 -0.47860571515779893 0 -0.30897021848155398 -0.45451541270124268 0 -0.29601664311229742 -0.47725770635062009 0 -0.28591749982203568 -0.45801372733961743 0 -0.29601664311229742 -0.47725770635062009 0 -0.27043360802681338 -0.47900361710981221 0 -0.29601664311229742 -0.47725770635062009 0 -0.28306306774304169 -0.499999999999998 0 -0.30595120776187268 -0.5 0 -0.29601664311229742 -0.47725770635062009 0 -0.28306306774304169 -0.499999999999998 0 -0.29601664311229742 -0.47725770635062009 0 -0.28306306774304169 -0.499999999999998 0 -0.27043360802681338 -0.47900361710981221 0 -0.28306306774304169 -0.499999999999998 0 -0.27043360802681338 -0.47900361710981221 0 -0.25530983302933707 -0.5 0 -0.26020925492909858 -0.45389858639093789 0 -0.27043360802681338 -0.47900361710981221 0 -0.24512581310150799 -0.48257660789994311 0 -0.27043360802681338 -0.47900361710981221 0 -0.25530983302933707 -0.5 0 -0.24512581310150799 -0.48257660789994311 0 -0.25530983302933707 -0.5 0 -0.24512581310150799 -0.48257660789994311 0 -0.22755659831563249 -0.5 0 -0.24512581310150799 -0.48257660789994311 0 -0.22520051539337149 -0.47937171080255031 0 -0.24008521246545861 -0.463034827034561 0 -0.24512581310150799 -0.48257660789994311 0 -0.22520051539337149 -0.47937171080255031 0 -0.22755659831563249 -0.5 0 -0.22520051539337149 -0.47937171080255031 0 -0.22755659831563249 -0.5 0 -0.21088144049118129 -0.48769072827991178 0 -0.2410867521055792 -0.45016615395761189 0 -0.22235688967188461 -0.4498380642078893 0 -0.24169565135587501 -0.4338931381970596 0 -0.26020925492909858 -0.45389858639093789 0 -0.2410867521055792 -0.45016615395761189 0 -0.24169565135587501 -0.4338931381970596 0 -0.26020925492909858 -0.45389858639093789 0 -0.24512581310150799 -0.48257660789994311 0 -0.24008521246545861 -0.463034827034561 0 -0.2410867521055792 -0.45016615395761189 0 -0.24008521246545861 -0.463034827034561 0 -0.22235688967188461 -0.4498380642078893 0 -0.26020925492909858 -0.45389858639093789 0 -0.2410867521055792 -0.45016615395761189 0 -0.24008521246545861 -0.463034827034561 0 -0.22520051539337149 -0.47937171080255031 0 -0.24008521246545861 -0.463034827034561 0 -0.22235688967188461 -0.4498380642078893 0 -0.22520051539337149 -0.47937171080255031 0 -0.22235688967188461 -0.4498380642078893 0 -0.21515536840332139 -0.46311724762498507 0 -0.22520051539337149 -0.47937171080255031 0 -0.22235688967188461 -0.4498380642078893 0 -0.22235688967188461 -0.4498380642078893 0 -0.20648180454037821 -0.45156095541829971 0 -0.20830924904534939 -0.43470912143793933 0 -0.20648180454037821 -0.45156095541829971 0 -0.19774978761149051 -0.43987316595370679 0 -0.20830924904534939 -0.43470912143793933 0 -0.22235688967188461 -0.4498380642078893 0 -0.20648180454037821 -0.45156095541829971 0 -0.21515536840332139 -0.46311724762498507 0 -0.20648180454037821 -0.45156095541829971 0 -0.21515536840332139 -0.46311724762498507 0 -0.20658226400765101 -0.47169826007120069 0 -0.20648180454037821 -0.45156095541829971 0 -0.18944099251763161 -0.46048655380711601 0 -0.20658226400765101 -0.47169826007120069 0 -0.20648180454037821 -0.45156095541829971 0 -0.19774978761149051 -0.43987316595370679 0 -0.1806981763521886 -0.44441698280408543 0 -0.20648180454037821 -0.45156095541829971 0 -0.1806981763521886 -0.44441698280408543 0 -0.20648180454037821 -0.45156095541829971 0 -0.18944099251763161 -0.46048655380711601 0 -0.1806981763521886 -0.44441698280408543 0 -0.19774978761149051 -0.43987316595370679 0 -0.1806981763521886 -0.44441698280408543 0 -0.19550992050804569 -0.42880560415450281 0 -0.22755659831563249 -0.5 0 -0.21088144049118129 -0.48769072827991178 0 -0.19980336360192791 -0.5 0 -0.22520051539337149 -0.47937171080255031 0 -0.21515536840332139 -0.46311724762498507 0 -0.20658226400765101 -0.47169826007120069 0 -0.22520051539337149 -0.47937171080255031 0 -0.21088144049118129 -0.48769072827991178 0 -0.20658226400765101 -0.47169826007120069 0 -0.18944099251763161 -0.46048655380711601 0 -0.20658226400765101 -0.47169826007120069 0 -0.18591875969443639 -0.48054233442904049 0 -0.21088144049118129 -0.48769072827991178 0 -0.20658226400765101 -0.47169826007120069 0 -0.18591875969443639 -0.48054233442904049 0 -0.21088144049118129 -0.48769072827991178 0 -0.19980336360192791 -0.5 0 -0.18591875969443639 -0.48054233442904049 0 -0.19980336360192791 -0.5 0 -0.17205012888822321 -0.5 0 -0.18591875969443639 -0.48054233442904049 0 -0.17205012888822321 -0.5 0 -0.15940269094729781 -0.4832205288784619 0 -0.18591875969443639 -0.48054233442904049 0 -0.17205012888822321 -0.5 0 -0.15940269094729781 -0.4832205288784619 0 -0.14429689417451869 -0.5 0 -0.15940269094729781 -0.4832205288784619 0 -0.18591875969443639 -0.48054233442904049 0 -0.16448560325825451 -0.4602266018199504 0 -0.18944099251763161 -0.46048655380711601 0 -0.18591875969443639 -0.48054233442904049 0 -0.16448560325825451 -0.4602266018199504 0 -0.18944099251763161 -0.46048655380711601 0 -0.1806981763521886 -0.44441698280408543 0 -0.16448560325825451 -0.4602266018199504 0 -0.1806981763521886 -0.44441698280408543 0 -0.15491454816399911 -0.43727301018987119 0 -0.1806981763521886 -0.44441698280408543 0 -0.16448560325825451 -0.4602266018199504 0 -0.15491454816399911 -0.43727301018987119 0 -0.16448560325825451 -0.4602266018199504 0 -0.14146709798817381 -0.44914414569377442 0 -0.1409805132279385 -0.46993859018046391 0 -0.16448560325825451 -0.4602266018199504 0 -0.14146709798817381 -0.44914414569377442 0 -0.15491454816399911 -0.43727301018987119 0 -0.14146709798817381 -0.44914414569377442 0 -0.12913091997580931 -0.43012903757565679 0 -0.15491454816399911 -0.43727301018987119 0 -0.14146709798817381 -0.44914414569377442 0 -0.12913091997580931 -0.43012903757565679 0 -0.1212510133860321 -0.45025040205905559 0 -0.1409805132279385 -0.46993859018046391 0 -0.1208098881513872 -0.47815730621852143 0 -0.1212510133860321 -0.45025040205905559 0 -0.14146709798817381 -0.44914414569377442 0 -0.1409805132279385 -0.46993859018046391 0 -0.1212510133860321 -0.45025040205905559 0 -0.14429689417451869 -0.5 0 -0.1409805132279385 -0.46993859018046391 0 -0.1208098881513872 -0.47815730621852143 0 -0.14429689417451869 -0.5 0 -0.1208098881513872 -0.47815730621852143 0 -0.1165436594608141 -0.5 0 -0.15940269094729781 -0.4832205288784619 0 -0.14429689417451869 -0.5 0 -0.1409805132279385 -0.46993859018046391 0 -0.15940269094729781 -0.4832205288784619 0 -0.16448560325825451 -0.4602266018199504 0 -0.1409805132279385 -0.46993859018046391 0 -0.1479551311654648 -0.40146132563445308 0 -0.15497974042112109 -0.38481587900558262 0 -0.1629965457201567 -0.40548527930151712 0 -0.15497974042112109 -0.38481587900558262 0 -0.1301793422583436 -0.40009158803533729 0 -0.1479551311654648 -0.40146132563445308 0 -0.15497974042112109 -0.38481587900558262 0 -0.1301793422583436 -0.40009158803533729 0 -0.15497974042112109 -0.38481587900558262 0 -0.13920790074172401 -0.37762101241416052 0 -0.1301793422583436 -0.40009158803533729 0 -0.15497974042112109 -0.38481587900558262 0 -0.13920790074172401 -0.37762101241416052 0 -0.16211748784701871 -0.36863433620007791 0 -0.13920790074172401 -0.37762101241416052 0 -0.1301793422583436 -0.40009158803533729 0 -0.1239213866747315 -0.3857965564217859 0 -0.13920790074172401 -0.37762101241416052 0 -0.1265082028076453 -0.36423324733017087 0 -0.1239213866747315 -0.3857965564217859 0 -0.1479551311654648 -0.40146132563445308 0 -0.1301793422583436 -0.40009158803533729 0 -0.14366489626223769 -0.41545255619537541 0 -0.1301793422583436 -0.40009158803533729 0 -0.14366489626223769 -0.41545255619537541 0 -0.1244403968609379 -0.41785413351448453 0 -0.12913091997580931 -0.43012903757565679 0 -0.14366489626223769 -0.41545255619537541 0 -0.1244403968609379 -0.41785413351448453 0 -0.12913091997580931 -0.43012903757565679 0 -0.15491454816399911 -0.43727301018987119 0 -0.14366489626223769 -0.41545255619537541 0 -0.15491454816399911 -0.43727301018987119 0 -0.14366489626223769 -0.41545255619537541 0 -0.16036747759824441 -0.42061698202865971 0 -0.12913091997580931 -0.43012903757565679 0 -0.15491454816399911 -0.43727301018987119 0 -0.1479551311654648 -0.40146132563445308 0 -0.14366489626223769 -0.41545255619537541 0 -0.1629965457201567 -0.40548527930151712 0 -0.14366489626223769 -0.41545255619537541 0 -0.16036747759824441 -0.42061698202865971 0 -0.1629965457201567 -0.40548527930151712 0 -0.16036747759824441 -0.42061698202865971 0 -0.17627850726840161 -0.41259045630271268 0 -0.1629965457201567 -0.40548527930151712 0 -0.16036747759824441 -0.42061698202865971 0 -0.17584373378947521 -0.42487491780773912 0 -0.17627850726840161 -0.41259045630271268 0 -0.1806981763521886 -0.44441698280408543 0 -0.15491454816399911 -0.43727301018987119 0 -0.17584373378947521 -0.42487491780773912 0 -0.15491454816399911 -0.43727301018987119 0 -0.16036747759824441 -0.42061698202865971 0 -0.17584373378947521 -0.42487491780773912 0 -0.1806981763521886 -0.44441698280408543 0 -0.17584373378947521 -0.42487491780773912 0 -0.19550992050804569 -0.42880560415450281 0 -0.17627850726840161 -0.41259045630271268 0 -0.1901764128792435 -0.39803390354230173 0 -0.19284316669364421 -0.41341975384840229 0 -0.17584373378947521 -0.42487491780773912 0 -0.17627850726840161 -0.41259045630271268 0 -0.19284316669364421 -0.41341975384840229 0 -0.17908687730960171 -0.3909411238993562 0 -0.1629965457201567 -0.40548527930151712 0 -0.1901764128792435 -0.39803390354230173 0 -0.17627850726840161 -0.41259045630271268 0 -0.1629965457201567 -0.40548527930151712 0 -0.1901764128792435 -0.39803390354230173 0 -0.1629965457201567 -0.40548527930151712 0 -0.1901764128792435 -0.39803390354230173 0 -0.17908687730960171 -0.3909411238993562 0 -0.1875661947953127 -0.38297423643364709 0 -0.1901764128792435 -0.39803390354230173 0 -0.17908687730960171 -0.3909411238993562 0 -0.1629965457201567 -0.40548527930151712 0 -0.17124828733887479 -0.38345835926188349 0 -0.15497974042112109 -0.38481587900558262 0 -0.1629965457201567 -0.40548527930151712 0 -0.17124828733887479 -0.38345835926188349 0 -0.15497974042112109 -0.38481587900558262 0 -0.17124828733887479 -0.38345835926188349 0 -0.1797801385838988 -0.36954016997582778 0 -0.15497974042112109 -0.38481587900558262 0 -0.1797801385838988 -0.36954016997582778 0 -0.17124828733887479 -0.38345835926188349 0 -0.1806442729824782 -0.37919721774627302 0 -0.1797801385838988 -0.36954016997582778 0 -0.17908687730960171 -0.3909411238993562 0 -0.17124828733887479 -0.38345835926188349 0 -0.1806442729824782 -0.37919721774627302 0 -0.17908687730960171 -0.3909411238993562 0 -0.1806442729824782 -0.37919721774627302 0 -0.1875661947953127 -0.38297423643364709 0 -0.1806442729824782 -0.37919721774627302 0 -0.1875661947953127 -0.38297423643364709 0 -0.18495597671138189 -0.36791456932499272 0 -0.1875661947953127 -0.38297423643364709 0 -0.18495597671138189 -0.36791456932499272 0 -0.19663680540933731 -0.38198214798725483 0 -0.1875661947953127 -0.38297423643364709 0 -0.19242208372952371 -0.37308829202369398 0 -0.19663680540933731 -0.38198214798725483 0 -0.19242208372952371 -0.37308829202369398 0 -0.2000509148929657 -0.37493544438748672 0 -0.19663680540933731 -0.38198214798725483 0 -0.20466171853642179 -0.38238060007590252 0 -0.2000509148929657 -0.37493544438748672 0 -0.19663680540933731 -0.38198214798725483 0 -0.19420252026315599 -0.38844321780640972 0 -0.20243066796873049 -0.39078258326243531 0 -0.19663680540933731 -0.38198214798725483 0 -0.20243066796873049 -0.39078258326243531 0 -0.20466171853642179 -0.38238060007590252 0 -0.19420252026315599 -0.38844321780640972 0 -0.1875661947953127 -0.38297423643364709 0 -0.1901764128792435 -0.39803390354230173 0 -0.19663680540933731 -0.38198214798725483 0 -0.19420252026315599 -0.38844321780640972 0 -0.1875661947953127 -0.38297423643364709 0 -0.1875661947953127 -0.38297423643364709 0 -0.1901764128792435 -0.39803390354230173 0 -0.1901764128792435 -0.39803390354230173 0 -0.20243066796873049 -0.39078258326243531 0 -0.21666963822891119 -0.39077077101856722 0 -0.1901764128792435 -0.39803390354230173 0 -0.19284316669364421 -0.41341975384840229 0 -0.1901764128792435 -0.39803390354230173 0 -0.20564388613547169 -0.40445658620747749 0 -0.19284316669364421 -0.41341975384840229 0 -0.19420252026315599 -0.38844321780640972 0 -0.1901764128792435 -0.39803390354230173 0 -0.20243066796873049 -0.39078258326243531 0 -0.1901764128792435 -0.39803390354230173 0 -0.21666963822891119 -0.39077077101856722 0 -0.1901764128792435 -0.39803390354230173 0 -0.20564388613547169 -0.40445658620747749 0 -0.21666963822891119 -0.39077077101856722 0 -0.21666963822891119 -0.39077077101856722 0 -0.2195132639503978 -0.42030441761322829 0 -0.20564388613547169 -0.40445658620747749 0 -0.21666963822891119 -0.39077077101856722 0 -0.2195132639503978 -0.42030441761322829 0 -0.21666963822891119 -0.39077077101856722 0 -0.2164103077163439 -0.38807738712788997 0 -0.2125958065391288 -0.38739428752859312 0 -0.21666963822891119 -0.39077077101856722 0 -0.2125958065391288 -0.38739428752859312 0 -0.20854938477767659 -0.3878614930723453 0 -0.21666963822891119 -0.39077077101856722 0 -0.2164103077163439 -0.38807738712788997 0 -0.2164103077163439 -0.38807738712788997 0 -0.2125958065391288 -0.38739428752859312 0 -0.2135098912444236 -0.38393176795482048 0 -0.2125958065391288 -0.38739428752859312 0 -0.2135098912444236 -0.38393176795482048 0 -0.2092905288413876 -0.38468081346245597 0 -0.2164103077163439 -0.38807738712788997 0 -0.2135098912444236 -0.38393176795482048 0 -0.21871645181359831 -0.3824392564511726 0 -0.2135098912444236 -0.38393176795482048 0 -0.21871645181359831 -0.3824392564511726 0 -0.21521475543234209 -0.37739606013350618 0 -0.21521475543234209 -0.37739606013350618 0 -0.21158053666561311 -0.37519120831267633 0 -0.2102583005512573 -0.37971498660352809 0 -0.2135098912444236 -0.38393176795482048 0 -0.2102583005512573 -0.37971498660352809 0 -0.2092905288413876 -0.38468081346245597 0 -0.2135098912444236 -0.38393176795482048 0 -0.21521475543234209 -0.37739606013350618 0 -0.2102583005512573 -0.37971498660352809 0 -0.2102583005512573 -0.37971498660352809 0 -0.20466171853642179 -0.38238060007590252 0 -0.2092905288413876 -0.38468081346245597 0 -0.20466171853642179 -0.38238060007590252 0 -0.2000509148929657 -0.37493544438748672 0 -0.20690450713657119 -0.37452671776419177 0 -0.2102583005512573 -0.37971498660352809 0 -0.20466171853642179 -0.38238060007590252 0 -0.20690450713657119 -0.37452671776419177 0 -0.21158053666561311 -0.37519120831267633 0 -0.2102583005512573 -0.37971498660352809 0 -0.20690450713657119 -0.37452671776419177 0 -0.20243066796873049 -0.39078258326243531 0 -0.20466171853642179 -0.38238060007590252 0 -0.20854938477767659 -0.3878614930723453 0 -0.20243066796873049 -0.39078258326243531 0 -0.21666963822891119 -0.39077077101856722 0 -0.20854938477767659 -0.3878614930723453 0 -0.2125958065391288 -0.38739428752859312 0 -0.20854938477767659 -0.3878614930723453 0 -0.2092905288413876 -0.38468081346245597 0 -0.20466171853642179 -0.38238060007590252 0 -0.20854938477767659 -0.3878614930723453 0 -0.2092905288413876 -0.38468081346245597 0 -0.17584373378947521 -0.42487491780773912 0 -0.19550992050804569 -0.42880560415450281 0 -0.19284316669364421 -0.41341975384840229 0 -0.19774978761149051 -0.43987316595370679 0 -0.19550992050804569 -0.42880560415450281 0 -0.20830924904534939 -0.43470912143793933 0 -0.19550992050804569 -0.42880560415450281 0 -0.2043638972665818 -0.42033909665231012 0 -0.20830924904534939 -0.43470912143793933 0 -0.20564388613547169 -0.40445658620747749 0 -0.19284316669364421 -0.41341975384840229 0 -0.2043638972665818 -0.42033909665231012 0 -0.19550992050804569 -0.42880560415450281 0 -0.19284316669364421 -0.41341975384840229 0 -0.2043638972665818 -0.42033909665231012 0 -0.19550992050804569 -0.42880560415450281 0 -0.19284316669364421 -0.41341975384840229 0 -0.20564388613547169 -0.40445658620747749 0 -0.2043638972665818 -0.42033909665231012 0 -0.2195132639503978 -0.42030441761322829 0 -0.22235688967188461 -0.4498380642078893 0 -0.20830924904534939 -0.43470912143793933 0 -0.2195132639503978 -0.42030441761322829 0 -0.2043638972665818 -0.42033909665231012 0 -0.20830924904534939 -0.43470912143793933 0 -0.2195132639503978 -0.42030441761322829 0 -0.22235688967188461 -0.4498380642078893 0 -0.2195132639503978 -0.42030441761322829 0 -0.24169565135587501 -0.4338931381970596 0 -0.2195132639503978 -0.42030441761322829 0 -0.23723907817852291 -0.41686196444837931 0 -0.24169565135587501 -0.4338931381970596 0 -0.22235688967188461 -0.4498380642078893 0 -0.2195132639503978 -0.42030441761322829 0 -0.2195132639503978 -0.42030441761322829 0 -0.23723907817852291 -0.41686196444837931 0 -0.2310306082665983 -0.40429175696070407 0 -0.25179637243917369 -0.41416551537572738 0 -0.23723907817852291 -0.41686196444837931 0 -0.24361613506946189 -0.39960694087372772 0 -0.23723907817852291 -0.41686196444837931 0 -0.2310306082665983 -0.40429175696070407 0 -0.24361613506946189 -0.39960694087372772 0 -0.25179637243917369 -0.41416551537572738 0 -0.23723907817852291 -0.41686196444837931 0 -0.24169565135587501 -0.4338931381970596 0 -0.21666963822891119 -0.39077077101856722 0 -0.22505287398713589 -0.38262243893107678 0 -0.23648845360766729 -0.38533743171542589 0 -0.21666963822891119 -0.39077077101856722 0 -0.23648845360766729 -0.38533743171542589 0 -0.22505287398713589 -0.38262243893107678 0 -0.23648845360766729 -0.38533743171542589 0 -0.23484969618742721 -0.37306427711963702 0 -0.22505287398713589 -0.38262243893107678 0 -0.23484969618742721 -0.37306427711963702 0 -0.22286901041786369 -0.3723634190444261 0 -0.21871645181359831 -0.3824392564511726 0 -0.21521475543234209 -0.37739606013350618 0 -0.22286901041786369 -0.3723634190444261 0 -0.21871645181359831 -0.3824392564511726 0 -0.22505287398713589 -0.38262243893107678 0 -0.22286901041786369 -0.3723634190444261 0 -0.21666963822891119 -0.39077077101856722 0 -0.2164103077163439 -0.38807738712788997 0 -0.22505287398713589 -0.38262243893107678 0 -0.2164103077163439 -0.38807738712788997 0 -0.21871645181359831 -0.3824392564511726 0 -0.22505287398713589 -0.38262243893107678 0 -0.21666963822891119 -0.39077077101856722 0 -0.2310306082665983 -0.40429175696070407 0 -0.23648845360766729 -0.38533743171542589 0 -0.21666963822891119 -0.39077077101856722 0 -0.2195132639503978 -0.42030441761322829 0 -0.2310306082665983 -0.40429175696070407 0 -0.2310306082665983 -0.40429175696070407 0 -0.24361613506946189 -0.39960694087372772 0 -0.23648845360766729 -0.38533743171542589 0 -0.25751260779811852 -0.3918329024446775 0 -0.24361613506946189 -0.39960694087372772 0 -0.23648845360766729 -0.38533743171542589 0 -0.25751260779811852 -0.3918329024446775 0 -0.23648845360766729 -0.38533743171542589 0 -0.24707346737064151 -0.37478657436052493 0 -0.23648845360766729 -0.38533743171542589 0 -0.24707346737064151 -0.37478657436052493 0 -0.23484969618742721 -0.37306427711963702 0 -0.24318533217749419 -0.36146883500207871 0 -0.23484969618742721 -0.37306427711963702 0 -0.23129988656837769 -0.36274492203802677 0 -0.24707346737064151 -0.37478657436052493 0 -0.24318533217749419 -0.36146883500207871 0 -0.23484969618742721 -0.37306427711963702 0 -0.23484969618742721 -0.37306427711963702 0 -0.23129988656837769 -0.36274492203802677 0 -0.22286901041786369 -0.3723634190444261 0 -0.22286901041786369 -0.3723634190444261 0 -0.22128344557614149 -0.35703449148015798 0 -0.21394458354228149 -0.36912706874947931 0 -0.23129988656837769 -0.36274492203802677 0 -0.22286901041786369 -0.3723634190444261 0 -0.22128344557614149 -0.35703449148015798 0 -0.22128344557614149 -0.35703449148015798 0 -0.23376869275459691 -0.34995642753927481 0 -0.22389214302998031 -0.33762274139857279 0 -0.23129988656837769 -0.36274492203802677 0 -0.22128344557614149 -0.35703449148015798 0 -0.23376869275459691 -0.34995642753927481 0 -0.25507332585313719 -0.35039505893935469 0 -0.23376869275459691 -0.34995642753927481 0 -0.2431717869675849 -0.3330283213869582 0 -0.25507332585313719 -0.35039505893935469 0 -0.24318533217749419 -0.36146883500207871 0 -0.23376869275459691 -0.34995642753927481 0 -0.24318533217749419 -0.36146883500207871 0 -0.23129988656837769 -0.36274492203802677 0 -0.23376869275459691 -0.34995642753927481 0 -0.24906769594763661 -0.31374181271971913 0 -0.23162299404356559 -0.32280299186834333 0 -0.2292631324061904 -0.30755953311323841 0 -0.2431717869675849 -0.3330283213869582 0 -0.24906769594763661 -0.31374181271971913 0 -0.23162299404356559 -0.32280299186834333 0 -0.23162299404356559 -0.32280299186834333 0 -0.22389214302998031 -0.33762274139857279 0 -0.2156458073876111 -0.3195513412047522 0 -0.23162299404356559 -0.32280299186834333 0 -0.2156458073876111 -0.3195513412047522 0 -0.2292631324061904 -0.30755953311323841 0 -0.23376869275459691 -0.34995642753927481 0 -0.2431717869675849 -0.3330283213869582 0 -0.22389214302998031 -0.33762274139857279 0 -0.2431717869675849 -0.3330283213869582 0 -0.23162299404356559 -0.32280299186834333 0 -0.22389214302998031 -0.33762274139857279 0 -0.22389214302998031 -0.33762274139857279 0 -0.20945365952840109 -0.33451298996310208 0 -0.21049494000082469 -0.3469956294446177 0 -0.22389214302998031 -0.33762274139857279 0 -0.20945365952840109 -0.33451298996310208 0 -0.2156458073876111 -0.3195513412047522 0 -0.20945365952840109 -0.33451298996310208 0 -0.1956330974763143 -0.34014663377583781 0 -0.21049494000082469 -0.3469956294446177 0 -0.20945365952840109 -0.33451298996310208 0 -0.2156458073876111 -0.3195513412047522 0 -0.19780059309328579 -0.32667735520685809 0 -0.2156458073876111 -0.3195513412047522 0 -0.19780059309328579 -0.32667735520685809 0 -0.1999382669225373 -0.31216219160805808 0 -0.1999382669225373 -0.31216219160805808 0 -0.18614704883012681 -0.30590953753255712 0 -0.1822548083021184 -0.3253823718231853 0 -0.19780059309328579 -0.32667735520685809 0 -0.1999382669225373 -0.31216219160805808 0 -0.1822548083021184 -0.3253823718231853 0 -0.20945365952840109 -0.33451298996310208 0 -0.19780059309328579 -0.32667735520685809 0 -0.1956330974763143 -0.34014663377583781 0 -0.19780059309328579 -0.32667735520685809 0 -0.1956330974763143 -0.34014663377583781 0 -0.1822548083021184 -0.3253823718231853 0 -0.19869191122576019 -0.35438816508278492 0 -0.19187405106740171 -0.36218895572666199 0 -0.18166402938296319 -0.34892166171683509 0 -0.1956330974763143 -0.34014663377583781 0 -0.19869191122576019 -0.35438816508278492 0 -0.18166402938296319 -0.34892166171683509 0 -0.1956330974763143 -0.34014663377583781 0 -0.19869191122576019 -0.35438816508278492 0 -0.21049494000082469 -0.3469956294446177 0 -0.1875661947953127 -0.38297423643364709 0 -0.19242208372952371 -0.37308829202369398 0 -0.18495597671138189 -0.36791456932499272 0 -0.19187405106740171 -0.36218895572666199 0 -0.19242208372952371 -0.37308829202369398 0 -0.2016362542873795 -0.36663209048500328 0 -0.19187405106740171 -0.36218895572666199 0 -0.19242208372952371 -0.37308829202369398 0 -0.18495597671138189 -0.36791456932499272 0 -0.19242208372952371 -0.37308829202369398 0 -0.18495597671138189 -0.36791456932499272 0 -0.2000509148929657 -0.37493544438748672 0 -0.2016362542873795 -0.36663209048500328 0 -0.20690450713657119 -0.37452671776419177 0 -0.19242208372952371 -0.37308829202369398 0 -0.2000509148929657 -0.37493544438748672 0 -0.2016362542873795 -0.36663209048500328 0 -0.19869191122576019 -0.35438816508278492 0 -0.19187405106740171 -0.36218895572666199 0 -0.2016362542873795 -0.36663209048500328 0 -0.19869191122576019 -0.35438816508278492 0 -0.2016362542873795 -0.36663209048500328 0 -0.2093714737802316 -0.35881647112622211 0 -0.2016362542873795 -0.36663209048500328 0 -0.21394458354228149 -0.36912706874947931 0 -0.2093714737802316 -0.35881647112622211 0 -0.2016362542873795 -0.36663209048500328 0 -0.20690450713657119 -0.37452671776419177 0 -0.21394458354228149 -0.36912706874947931 0 -0.21158053666561311 -0.37519120831267633 0 -0.20690450713657119 -0.37452671776419177 0 -0.21394458354228149 -0.36912706874947931 0 -0.21521475543234209 -0.37739606013350618 0 -0.22286901041786369 -0.3723634190444261 0 -0.21394458354228149 -0.36912706874947931 0 -0.21521475543234209 -0.37739606013350618 0 -0.21158053666561311 -0.37519120831267633 0 -0.21394458354228149 -0.36912706874947931 0 -0.22128344557614149 -0.35703449148015798 0 -0.21394458354228149 -0.36912706874947931 0 -0.2093714737802316 -0.35881647112622211 0 -0.22128344557614149 -0.35703449148015798 0 -0.21049494000082469 -0.3469956294446177 0 -0.2093714737802316 -0.35881647112622211 0 -0.22128344557614149 -0.35703449148015798 0 -0.22389214302998031 -0.33762274139857279 0 -0.21049494000082469 -0.3469956294446177 0 -0.19869191122576019 -0.35438816508278492 0 -0.21049494000082469 -0.3469956294446177 0 -0.2093714737802316 -0.35881647112622211 0 -0.22947204493107151 -0.26093378227803937 0 -0.21170975670029729 -0.25701645892309 0 -0.2281935186227517 -0.24047850070613719 0 -0.22947204493107151 -0.26093378227803937 0 -0.24801855443892409 -0.27145379452393908 0 -0.25017111810400061 -0.2475965820230723 0 -0.24801855443892409 -0.27145379452393908 0 -0.2245348223534506 -0.27911143417555961 0 -0.23872458463400831 -0.29210380192187352 0 -0.22947204493107151 -0.26093378227803937 0 -0.2245348223534506 -0.27911143417555961 0 -0.21420449936700489 -0.26994592331643857 0 -0.22947204493107151 -0.26093378227803937 0 -0.24801855443892409 -0.27145379452393908 0 -0.2245348223534506 -0.27911143417555961 0 -0.2245348223534506 -0.27911143417555961 0 -0.23872458463400831 -0.29210380192187352 0 -0.21475702877869221 -0.29671974303663129 0 -0.26089877128844191 -0.29197719091332591 0 -0.24801855443892409 -0.27145379452393908 0 -0.23872458463400831 -0.29210380192187352 0 -0.24906769594763661 -0.31374181271971913 0 -0.23872458463400831 -0.29210380192187352 0 -0.2292631324061904 -0.30755953311323841 0 -0.26089877128844191 -0.29197719091332591 0 -0.24906769594763661 -0.31374181271971913 0 -0.23872458463400831 -0.29210380192187352 0 -0.23872458463400831 -0.29210380192187352 0 -0.2292631324061904 -0.30755953311323841 0 -0.21475702877869221 -0.29671974303663129 0 -0.2156458073876111 -0.3195513412047522 0 -0.2292631324061904 -0.30755953311323841 0 -0.21475702877869221 -0.29671974303663129 0 -0.1999382669225373 -0.31216219160805808 0 -0.19612833038233529 -0.29543054966505972 0 -0.21475702877869221 -0.29671974303663129 0 -0.2156458073876111 -0.3195513412047522 0 -0.1999382669225373 -0.31216219160805808 0 -0.21475702877869221 -0.29671974303663129 0 -0.1999382669225373 -0.31216219160805808 0 -0.19612833038233529 -0.29543054966505972 0 -0.18614704883012681 -0.30590953753255712 0 -0.19612833038233529 -0.29543054966505972 0 -0.18293151172469749 -0.29107274458264121 0 -0.18614704883012681 -0.30590953753255712 0 -0.19612833038233529 -0.29543054966505972 0 -0.1930614749433115 -0.28173885362949702 0 -0.18293151172469749 -0.29107274458264121 0 -0.19612833038233529 -0.29543054966505972 0 -0.1930614749433115 -0.28173885362949702 0 -0.20734717477365211 -0.28265863994239171 0 -0.19612833038233529 -0.29543054966505972 0 -0.21475702877869221 -0.29671974303663129 0 -0.20734717477365211 -0.28265863994239171 0 -0.2245348223534506 -0.27911143417555961 0 -0.21475702877869221 -0.29671974303663129 0 -0.20734717477365211 -0.28265863994239171 0 -0.2245348223534506 -0.27911143417555961 0 -0.20734717477365211 -0.28265863994239171 0 -0.21420449936700489 -0.26994592331643857 0 -0.21420449936700489 -0.26994592331643857 0 -0.2013968928171179 -0.27300533583116399 0 -0.19946059924174489 -0.26094368791496142 0 -0.20734717477365211 -0.28265863994239171 0 -0.21420449936700489 -0.26994592331643857 0 -0.2013968928171179 -0.27300533583116399 0 -0.1930614749433115 -0.28173885362949702 0 -0.20734717477365211 -0.28265863994239171 0 -0.2013968928171179 -0.27300533583116399 0 -0.1930614749433115 -0.28173885362949702 0 -0.19058211144209439 -0.26976144453013329 0 -0.1826462498689071 -0.27623221284822652 0 -0.1930614749433115 -0.28173885362949702 0 -0.19058211144209439 -0.26976144453013329 0 -0.2013968928171179 -0.27300533583116399 0 -0.19058211144209439 -0.26976144453013329 0 -0.2013968928171179 -0.27300533583116399 0 -0.19946059924174489 -0.26094368791496142 0 -0.19058211144209439 -0.26976144453013329 0 -0.19946059924174489 -0.26094368791496142 0 -0.1868766369730889 -0.2607105598479072 0 -0.19946059924174489 -0.26094368791496142 0 -0.19242827817645169 -0.25401505885545728 0 -0.1868766369730889 -0.2607105598479072 0 -0.19242827817645169 -0.25401505885545728 0 -0.1868766369730889 -0.2607105598479072 0 -0.18480226679196021 -0.24826169229616421 0 -0.19946059924174489 -0.26094368791496142 0 -0.19242827817645169 -0.25401505885545728 0 -0.1985736096990128 -0.24614429536279631 0 -0.19946059924174489 -0.26094368791496142 0 -0.21170975670029729 -0.25701645892309 0 -0.1985736096990128 -0.24614429536279631 0 -0.22947204493107151 -0.26093378227803937 0 -0.21420449936700489 -0.26994592331643857 0 -0.21170975670029729 -0.25701645892309 0 -0.21420449936700489 -0.26994592331643857 0 -0.19946059924174489 -0.26094368791496142 0 -0.21170975670029729 -0.25701645892309 0 -0.1567973963075309 -0.25298911689451542 0 -0.17869563695923621 -0.26490919421270348 0 -0.15798475735700129 -0.2755383851032952 0 -0.1567973963075309 -0.25298911689451542 0 -0.17869563695923621 -0.26490919421270348 0 -0.1693280777529208 -0.23806043684576109 0 -0.17869563695923621 -0.26490919421270348 0 -0.1693280777529208 -0.23806043684576109 0 -0.1868766369730889 -0.2607105598479072 0 -0.17869563695923621 -0.26490919421270348 0 -0.18480226679196021 -0.24826169229616421 0 -0.17869563695923621 -0.26490919421270348 0 -0.18480226679196021 -0.24826169229616421 0 -0.1693280777529208 -0.23806043684576109 0 -0.19058211144209439 -0.26976144453013329 0 -0.1868766369730889 -0.2607105598479072 0 -0.17869563695923621 -0.26490919421270348 0 -0.1868766369730889 -0.2607105598479072 0 -0.17869563695923621 -0.26490919421270348 0 -0.17869563695923621 -0.26490919421270348 0 -0.1826462498689071 -0.27623221284822652 0 -0.1703101496428317 -0.2824147036141943 0 -0.17869563695923621 -0.26490919421270348 0 -0.1826462498689071 -0.27623221284822652 0 -0.19058211144209439 -0.26976144453013329 0 -0.17869563695923621 -0.26490919421270348 0 -0.1826462498689071 -0.27623221284822652 0 -0.17869563695923621 -0.26490919421270348 0 -0.15798475735700129 -0.2755383851032952 0 -0.17869563695923621 -0.26490919421270348 0 -0.15798475735700129 -0.2755383851032952 0 -0.1703101496428317 -0.2824147036141943 0 -0.15798475735700129 -0.2755383851032952 0 -0.1703101496428317 -0.2824147036141943 0 -0.15278624183639691 -0.29456056856022189 0 -0.1703101496428317 -0.2824147036141943 0 -0.16948232681894551 -0.3054998299838414 0 -0.15278624183639691 -0.29456056856022189 0 -0.1826462498689071 -0.27623221284822652 0 -0.1703101496428317 -0.2824147036141943 0 -0.18293151172469749 -0.29107274458264121 0 -0.1703101496428317 -0.2824147036141943 0 -0.18293151172469749 -0.29107274458264121 0 -0.16948232681894551 -0.3054998299838414 0 -0.1930614749433115 -0.28173885362949702 0 -0.1826462498689071 -0.27623221284822652 0 -0.18293151172469749 -0.29107274458264121 0 -0.18614704883012681 -0.30590953753255712 0 -0.16948232681894551 -0.3054998299838414 0 -0.1822548083021184 -0.3253823718231853 0 -0.18293151172469749 -0.29107274458264121 0 -0.18614704883012681 -0.30590953753255712 0 -0.16948232681894551 -0.3054998299838414 0 -0.16948232681894551 -0.3054998299838414 0 -0.15278624183639691 -0.29456056856022189 0 -0.1494054011437152 -0.31314610863996728 0 -0.1341982600626612 -0.30495182381126562 0 -0.15278624183639691 -0.29456056856022189 0 -0.1494054011437152 -0.31314610863996728 0 -0.13727387775476541 -0.28616757599388498 0 -0.1165629981525295 -0.29679676688447482 0 -0.13727387775476541 -0.28616757599388498 0 -0.1214766773690947 -0.28087895154681292 0 -0.1165629981525295 -0.29679676688447482 0 -0.1341982600626612 -0.30495182381126562 0 -0.13727387775476541 -0.28616757599388498 0 -0.1165629981525295 -0.29679676688447482 0 -0.15798475735700129 -0.2755383851032952 0 -0.13727387775476541 -0.28616757599388498 0 -0.15278624183639691 -0.29456056856022189 0 -0.1341982600626612 -0.30495182381126562 0 -0.13727387775476541 -0.28616757599388498 0 -0.15278624183639691 -0.29456056856022189 0 -0.15798475735700129 -0.2755383851032952 0 -0.13727387775476541 -0.28616757599388498 0 -0.15798475735700129 -0.2755383851032952 0 -0.13727387775476541 -0.28616757599388498 0 -0.1386588652530972 -0.26215428687439962 0 -0.13727387775476541 -0.28616757599388498 0 -0.12586415454684111 -0.26927170171100517 0 -0.1386588652530972 -0.26215428687439962 0 -0.13727387775476541 -0.28616757599388498 0 -0.12586415454684111 -0.26927170171100517 0 -0.1214766773690947 -0.28087895154681292 0 -0.1386588652530972 -0.26215428687439962 0 -0.11765268213748201 -0.25191647056228322 0 -0.13395336741499961 -0.23830992118788569 0 -0.12586415454684111 -0.26927170171100517 0 -0.1386588652530972 -0.26215428687439962 0 -0.11765268213748201 -0.25191647056228322 0 -0.1567973963075309 -0.25298911689451542 0 -0.15798475735700129 -0.2755383851032952 0 -0.1386588652530972 -0.26215428687439962 0 -0.1567973963075309 -0.25298911689451542 0 -0.1386588652530972 -0.26215428687439962 0 -0.13395336741499961 -0.23830992118788569 0 -0.16057034759971939 -0.35101627379419797 0 -0.18166402938296319 -0.34892166171683509 0 -0.17060664325968669 -0.33776690713923829 0 -0.15497974042112109 -0.38481587900558262 0 -0.16211748784701871 -0.36863433620007791 0 -0.1797801385838988 -0.36954016997582778 0 -0.16057034759971939 -0.35101627379419797 0 -0.16211748784701871 -0.36863433620007791 0 -0.1797801385838988 -0.36954016997582778 0 -0.16057034759971939 -0.35101627379419797 0 -0.18495597671138189 -0.36791456932499272 0 -0.16057034759971939 -0.35101627379419797 0 -0.1797801385838988 -0.36954016997582778 0 -0.18495597671138189 -0.36791456932499272 0 -0.19187405106740171 -0.36218895572666199 0 -0.18495597671138189 -0.36791456932499272 0 -0.18166402938296319 -0.34892166171683509 0 -0.1806442729824782 -0.37919721774627302 0 -0.1797801385838988 -0.36954016997582778 0 -0.18495597671138189 -0.36791456932499272 0 -0.16057034759971939 -0.35101627379419797 0 -0.18495597671138189 -0.36791456932499272 0 -0.18166402938296319 -0.34892166171683509 0 -0.18495597671138189 -0.36791456932499272 0 -0.18166402938296319 -0.34892166171683509 0 -0.1956330974763143 -0.34014663377583781 0 -0.18166402938296319 -0.34892166171683509 0 -0.1822548083021184 -0.3253823718231853 0 -0.18166402938296319 -0.34892166171683509 0 -0.1822548083021184 -0.3253823718231853 0 -0.17060664325968669 -0.33776690713923829 0 -0.16948232681894551 -0.3054998299838414 0 -0.1579373877539457 -0.32574732122273481 0 -0.1494054011437152 -0.31314610863996728 0 -0.16948232681894551 -0.3054998299838414 0 -0.1822548083021184 -0.3253823718231853 0 -0.1579373877539457 -0.32574732122273481 0 -0.1822548083021184 -0.3253823718231853 0 -0.1579373877539457 -0.32574732122273481 0 -0.17060664325968669 -0.33776690713923829 0 -0.16057034759971939 -0.35101627379419797 0 -0.1579373877539457 -0.32574732122273481 0 -0.17060664325968669 -0.33776690713923829 0 -0.16057034759971939 -0.35101627379419797 0 -0.1579373877539457 -0.32574732122273481 0 -0.13618471848805699 -0.33411797826340278 0 -0.16057034759971939 -0.35101627379419797 0 -0.13618471848805699 -0.33411797826340278 0 -0.1579373877539457 -0.32574732122273481 0 -0.1494054011437152 -0.31314610863996728 0 -0.13618471848805699 -0.33411797826340278 0 -0.1341982600626612 -0.30495182381126562 0 -0.13618471848805699 -0.33411797826340278 0 -0.1117990893763947 -0.3172196827326077 0 -0.1341982600626612 -0.30495182381126562 0 -0.1494054011437152 -0.31314610863996728 0 -0.13618471848805699 -0.33411797826340278 0 -0.13618471848805699 -0.33411797826340278 0 -0.1265082028076453 -0.36423324733017087 0 -0.11681336504703529 -0.34339819847400921 0 -0.13618471848805699 -0.33411797826340278 0 -0.14492743716657089 -0.35973606310695649 0 -0.1265082028076453 -0.36423324733017087 0 -0.16057034759971939 -0.35101627379419797 0 -0.13618471848805699 -0.33411797826340278 0 -0.14492743716657089 -0.35973606310695649 0 -0.13920790074172401 -0.37762101241416052 0 -0.16211748784701871 -0.36863433620007791 0 -0.14492743716657089 -0.35973606310695649 0 -0.16057034759971939 -0.35101627379419797 0 -0.16211748784701871 -0.36863433620007791 0 -0.14492743716657089 -0.35973606310695649 0 -0.13920790074172401 -0.37762101241416052 0 -0.14492743716657089 -0.35973606310695649 0 -0.1265082028076453 -0.36423324733017087 0 -0.1265082028076453 -0.36423324733017087 0 -0.11435598566653971 -0.37462961811838419 0 -0.10013581131988281 -0.36712989507114269 0 -0.1265082028076453 -0.36423324733017087 0 -0.11435598566653971 -0.37462961811838419 0 -0.1239213866747315 -0.3857965564217859 0 -0.1265082028076453 -0.36423324733017087 0 -0.10013581131988281 -0.36712989507114269 0 -0.11435598566653971 -0.37462961811838419 0 -0.10013581131988281 -0.36712989507114269 0 -0.1068585418638992 -0.38135877365043741 0 -0.10013581131988281 -0.36712989507114269 0 -0.098421055324457662 -0.3460419827929116 0 -0.11681336504703529 -0.34339819847400921 0 -0.10013581131988281 -0.36712989507114269 0 -0.098421055324457662 -0.3460419827929116 0 -0.085874200168133616 -0.35828861711283583 0 -0.1265082028076453 -0.36423324733017087 0 -0.10013581131988281 -0.36712989507114269 0 -0.11681336504703529 -0.34339819847400921 0 -0.13618471848805699 -0.33411797826340278 0 -0.11681336504703529 -0.34339819847400921 0 -0.1117990893763947 -0.3172196827326077 0 -0.11681336504703529 -0.34339819847400921 0 -0.1117990893763947 -0.3172196827326077 0 -0.1016919992760935 -0.33186924135275458 0 -0.13618471848805699 -0.33411797826340278 0 -0.1117990893763947 -0.3172196827326077 0 -0.1117990893763947 -0.3172196827326077 0 -0.1016919992760935 -0.33186924135275458 0 -0.090797283383851513 -0.31964692942686079 0 -0.098421055324457662 -0.3460419827929116 0 -0.1016919992760935 -0.33186924135275458 0 -0.084956874603136168 -0.33472597413566879 0 -0.098421055324457662 -0.3460419827929116 0 -0.11681336504703529 -0.34339819847400921 0 -0.1016919992760935 -0.33186924135275458 0 -0.098421055324457662 -0.3460419827929116 0 -0.084956874603136168 -0.33472597413566879 0 -0.07117651419607364 -0.34995604777517447 0 -0.1016919992760935 -0.33186924135275458 0 -0.084956874603136168 -0.33472597413566879 0 -0.090797283383851513 -0.31964692942686079 0 -0.090797283383851513 -0.31964692942686079 0 -0.077601873677376199 -0.32456537301921551 0 -0.075131256454960979 -0.31152214101092018 0 -0.084956874603136168 -0.33472597413566879 0 -0.090797283383851513 -0.31964692942686079 0 -0.077601873677376199 -0.32456537301921551 0 -0.077601873677376199 -0.32456537301921551 0 -0.06794909715345121 -0.32094839743039982 0 -0.075131256454960979 -0.31152214101092018 0 -0.077601873677376199 -0.32456537301921551 0 -0.06794909715345121 -0.32094839743039982 0 -0.069249978074459775 -0.33328711742070111 0 -0.06794909715345121 -0.32094839743039982 0 -0.069249978074459775 -0.33328711742070111 0 -0.056059153538566282 -0.32509371252920782 0 -0.06794909715345121 -0.32094839743039982 0 -0.075131256454960979 -0.31152214101092018 0 -0.061703224021892843 -0.31027364317195461 0 -0.084956874603136168 -0.33472597413566879 0 -0.077601873677376199 -0.32456537301921551 0 -0.069249978074459775 -0.33328711742070111 0 -0.084956874603136168 -0.33472597413566879 0 -0.069249978074459775 -0.33328711742070111 0 -0.07117651419607364 -0.34995604777517447 0 -0.069249978074459775 -0.33328711742070111 0 -0.07117651419607364 -0.34995604777517447 0 -0.056181201566886073 -0.33913556924087079 0 -0.07117651419607364 -0.34995604777517447 0 -0.073763419832120397 -0.37002654281211428 0 -0.085874200168133616 -0.35828861711283583 0 -0.07117651419607364 -0.34995604777517447 0 -0.073763419832120397 -0.37002654281211428 0 -0.059065733860060088 -0.36169397347445309 0 -0.10013581131988281 -0.36712989507114269 0 -0.073763419832120397 -0.37002654281211428 0 -0.10013581131988281 -0.36712989507114269 0 -0.073763419832120397 -0.37002654281211428 0 -0.085874200168133616 -0.35828861711283583 0 -0.10013581131988281 -0.36712989507114269 0 -0.073763419832120397 -0.37002654281211428 0 -0.092678062415584239 -0.38192682791690408 0 -0.098421055324457662 -0.3460419827929116 0 -0.07117651419607364 -0.34995604777517447 0 -0.085874200168133616 -0.35828861711283583 0 -0.098421055324457662 -0.3460419827929116 0 -0.07117651419607364 -0.34995604777517447 0 -0.09865999631541493 -0.25546331446216519 0 -0.11185304549970131 -0.26650885756602127 0 -0.096700620228791112 -0.27111331706831038 0 -0.12586415454684111 -0.26927170171100517 0 -0.11765268213748201 -0.25191647056228322 0 -0.11185304549970131 -0.26650885756602127 0 -0.09865999631541493 -0.25546331446216519 0 -0.11765268213748201 -0.25191647056228322 0 -0.11185304549970131 -0.26650885756602127 0 -0.12586415454684111 -0.26927170171100517 0 -0.11185304549970131 -0.26650885756602127 0 -0.1214766773690947 -0.28087895154681292 0 -0.11185304549970131 -0.26650885756602127 0 -0.1214766773690947 -0.28087895154681292 0 -0.10817377586514131 -0.27760133639453272 0 -0.10817377586514131 -0.27760133639453272 0 -0.096700620228791112 -0.27111331706831038 0 -0.1001272584040783 -0.28550139311930989 0 -0.11185304549970131 -0.26650885756602127 0 -0.10817377586514131 -0.27760133639453272 0 -0.096700620228791112 -0.27111331706831038 0 -0.096700620228791112 -0.27111331706831038 0 -0.1001272584040783 -0.28550139311930989 0 -0.088075224118705442 -0.28383635712483019 0 -0.1001272584040783 -0.28550139311930989 0 -0.1074492499981116 -0.29356980626742019 0 -0.087413460264733123 -0.30032138720181151 0 -0.10817377586514131 -0.27760133639453272 0 -0.1001272584040783 -0.28550139311930989 0 -0.11075612339244111 -0.28675503131569802 0 -0.1001272584040783 -0.28550139311930989 0 -0.1074492499981116 -0.29356980626742019 0 -0.11075612339244111 -0.28675503131569802 0 -0.1214766773690947 -0.28087895154681292 0 -0.10817377586514131 -0.27760133639453272 0 -0.11075612339244111 -0.28675503131569802 0 -0.1214766773690947 -0.28087895154681292 0 -0.11075612339244111 -0.28675503131569802 0 -0.1165629981525295 -0.29679676688447482 0 -0.1074492499981116 -0.29356980626742019 0 -0.11075612339244111 -0.28675503131569802 0 -0.1165629981525295 -0.29679676688447482 0 -0.1341982600626612 -0.30495182381126562 0 -0.1117990893763947 -0.3172196827326077 0 -0.1108058601636972 -0.3026366055065377 0 -0.1341982600626612 -0.30495182381126562 0 -0.1108058601636972 -0.3026366055065377 0 -0.1341982600626612 -0.30495182381126562 0 -0.1165629981525295 -0.29679676688447482 0 -0.1108058601636972 -0.3026366055065377 0 -0.1074492499981116 -0.29356980626742019 0 -0.1165629981525295 -0.29679676688447482 0 -0.1108058601636972 -0.3026366055065377 0 -0.1074492499981116 -0.29356980626742019 0 -0.1108058601636972 -0.3026366055065377 0 -0.087413460264733123 -0.30032138720181151 0 -0.1108058601636972 -0.3026366055065377 0 -0.087413460264733123 -0.30032138720181151 0 -0.1117990893763947 -0.3172196827326077 0 -0.090797283383851513 -0.31964692942686079 0 -0.087413460264733123 -0.30032138720181151 0 -0.1117990893763947 -0.3172196827326077 0 -0.1108058601636972 -0.3026366055065377 0 -0.087413460264733123 -0.30032138720181151 0 -0.1117990893763947 -0.3172196827326077 0 -0.087413460264733123 -0.30032138720181151 0 -0.087413460264733123 -0.30032138720181151 0 -0.071089873714781981 -0.29870579125857671 0 -0.090797283383851513 -0.31964692942686079 0 -0.087413460264733123 -0.30032138720181151 0 -0.075131256454960979 -0.31152214101092018 0 -0.071089873714781981 -0.29870579125857671 0 -0.054766287164830701 -0.2970901953153432 0 -0.087413460264733123 -0.30032138720181151 0 -0.075131256454960979 -0.31152214101092018 0 -0.071089873714781981 -0.29870579125857671 0 -0.071089873714781981 -0.29870579125857671 0 -0.054766287164830701 -0.2970901953153432 0 -0.061703224021892843 -0.31027364317195461 0 -0.075131256454960979 -0.31152214101092018 0 -0.071089873714781981 -0.29870579125857671 0 -0.061703224021892843 -0.31027364317195461 0 -0.071089873714781981 -0.29870579125857671 0 -0.064057535371581625 -0.29192744740333249 0 -0.054766287164830701 -0.2970901953153432 0 -0.087413460264733123 -0.30032138720181151 0 -0.071089873714781981 -0.29870579125857671 0 -0.073638933814140009 -0.29077617441714237 0 -0.071089873714781981 -0.29870579125857671 0 -0.073638933814140009 -0.29077617441714237 0 -0.064057535371581625 -0.29192744740333249 0 -0.073638933814140009 -0.29077617441714237 0 -0.059864407363547638 -0.28123096163247219 0 -0.073638933814140009 -0.29077617441714237 0 -0.064057535371581625 -0.29192744740333249 0 -0.059864407363547638 -0.28123096163247219 0 -0.073638933814140009 -0.29077617441714237 0 -0.070211260813913268 -0.28105574601116512 0 -0.059864407363547638 -0.28123096163247219 0 -0.073638933814140009 -0.29077617441714237 0 -0.078398946519334878 -0.28238776216520312 0 -0.070211260813913268 -0.28105574601116512 0 -0.073638933814140009 -0.29077617441714237 0 -0.078398946519334878 -0.28238776216520312 0 -0.081881641179228359 -0.28933042022724681 0 -0.087413460264733123 -0.30032138720181151 0 -0.081881641179228359 -0.28933042022724681 0 -0.088075224118705442 -0.28383635712483019 0 -0.1001272584040783 -0.28550139311930989 0 -0.087413460264733123 -0.30032138720181151 0 -0.088075224118705442 -0.28383635712483019 0 -0.078398946519334878 -0.28238776216520312 0 -0.081881641179228359 -0.28933042022724681 0 -0.088075224118705442 -0.28383635712483019 0 -0.087413460264733123 -0.30032138720181151 0 -0.073638933814140009 -0.29077617441714237 0 -0.087413460264733123 -0.30032138720181151 0 -0.073638933814140009 -0.29077617441714237 0 -0.081881641179228359 -0.28933042022724681 0 -0.096700620228791112 -0.27111331706831038 0 -0.088075224118705442 -0.28383635712483019 0 -0.082434156539434617 -0.27342697255046061 0 -0.096700620228791112 -0.27111331706831038 0 -0.082434156539434617 -0.27342697255046061 0 -0.083739471129903001 -0.26200833101358217 0 -0.082434156539434617 -0.27342697255046061 0 -0.073569090798229736 -0.26678452193449043 0 -0.083739471129903001 -0.26200833101358217 0 -0.078398946519334878 -0.28238776216520312 0 -0.082434156539434617 -0.27342697255046061 0 -0.074314777939514645 -0.27508938260006749 0 -0.078398946519334878 -0.28238776216520312 0 -0.088075224118705442 -0.28383635712483019 0 -0.082434156539434617 -0.27342697255046061 0 -0.078398946519334878 -0.28238776216520312 0 -0.074314777939514645 -0.27508938260006749 0 -0.070211260813913268 -0.28105574601116512 0 -0.070211260813913268 -0.28105574601116512 0 -0.065989138694367816 -0.27362653875755749 0 -0.059864407363547638 -0.28123096163247219 0 -0.074314777939514645 -0.27508938260006749 0 -0.070211260813913268 -0.28105574601116512 0 -0.065989138694367816 -0.27362653875755749 0 -0.065989138694367816 -0.27362653875755749 0 -0.073569090798229736 -0.26678452193449043 0 -0.062579433468963969 -0.2644884905666775 0 -0.082434156539434617 -0.27342697255046061 0 -0.074314777939514645 -0.27508938260006749 0 -0.073569090798229736 -0.26678452193449043 0 -0.074314777939514645 -0.27508938260006749 0 -0.065989138694367816 -0.27362653875755749 0 -0.073569090798229736 -0.26678452193449043 0 -0.073569090798229736 -0.26678452193449043 0 -0.07106942269358435 -0.25540659721464293 0 -0.083739471129903001 -0.26200833101358217 0 -0.062579433468963969 -0.2644884905666775 0 -0.07106942269358435 -0.25540659721464293 0 -0.057188324854627742 -0.25405492496477711 0 -0.073569090798229736 -0.26678452193449043 0 -0.062579433468963969 -0.2644884905666775 0 -0.07106942269358435 -0.25540659721464293 0 -0.07106942269358435 -0.25540659721464293 0 -0.057188324854627742 -0.25405492496477711 0 -0.062202585045066157 -0.24295494536855569 0 -0.09865999631541493 -0.25546331446216519 0 -0.096700620228791112 -0.27111331706831038 0 -0.083739471129903001 -0.26200833101358217 0 -0.07106942269358435 -0.25540659721464293 0 -0.083739471129903001 -0.26200833101358217 0 -0.085875630078168175 -0.24846762001429371 0 -0.09865999631541493 -0.25546331446216519 0 -0.083739471129903001 -0.26200833101358217 0 -0.085875630078168175 -0.24846762001429371 0 -0.043870198698508688 -0.25934992769697929 0 -0.034703355262308708 -0.26605344928897928 0 -0.03006799296123144 -0.25724647389131572 0 -0.043870198698508688 -0.25934992769697929 0 -0.043875337793668603 -0.27019462670472177 0 -0.034703355262308708 -0.26605344928897928 0 -0.043870198698508688 -0.25934992769697929 0 -0.03006799296123144 -0.25724647389131572 0 -0.043874421176183821 -0.24537707732808131 0 -0.043870198698508688 -0.25934992769697929 0 -0.057188324854627742 -0.25405492496477711 0 -0.043874421176183821 -0.24537707732808131 0 -0.062579433468963969 -0.2644884905666775 0 -0.057188324854627742 -0.25405492496477711 0 -0.053241749162250038 -0.26352309496871928 0 -0.043870198698508688 -0.25934992769697929 0 -0.057188324854627742 -0.25405492496477711 0 -0.053241749162250038 -0.26352309496871928 0 -0.043870198698508688 -0.25934992769697929 0 -0.053241749162250038 -0.26352309496871928 0 -0.043875337793668603 -0.27019462670472177 0 -0.053241749162250038 -0.26352309496871928 0 -0.054859134980533499 -0.27450145525715791 0 -0.043875337793668603 -0.27019462670472177 0 -0.065989138694367816 -0.27362653875755749 0 -0.062579433468963969 -0.2644884905666775 0 -0.054859134980533499 -0.27450145525715791 0 -0.062579433468963969 -0.2644884905666775 0 -0.053241749162250038 -0.26352309496871928 0 -0.054859134980533499 -0.27450145525715791 0 -0.059864407363547638 -0.28123096163247219 0 -0.054859134980533499 -0.27450145525715791 0 -0.053887001812838731 -0.2849157772209775 0 -0.065989138694367816 -0.27362653875755749 0 -0.059864407363547638 -0.28123096163247219 0 -0.054859134980533499 -0.27450145525715791 0 -0.054859134980533499 -0.27450145525715791 0 -0.045388668573971197 -0.28276497393449979 0 -0.053887001812838731 -0.2849157772209775 0 -0.054859134980533499 -0.27450145525715791 0 -0.043875337793668603 -0.27019462670472177 0 -0.045388668573971197 -0.28276497393449979 0 -0.043875337793668603 -0.27019462670472177 0 -0.032088775198751987 -0.27669330884931298 0 -0.045388668573971197 -0.28276497393449979 0 -0.043875337793668603 -0.27019462670472177 0 -0.034703355262308708 -0.26605344928897928 0 -0.032088775198751987 -0.27669330884931298 0 -0.034072645087516493 -0.2950420814349457 0 -0.054766287164830701 -0.2970901953153432 0 -0.034072645087516493 -0.2950420814349457 0 -0.045388668573971197 -0.28276497393449979 0 -0.054766287164830701 -0.2970901953153432 0 -0.032088775198751987 -0.27669330884931298 0 -0.034072645087516493 -0.2950420814349457 0 -0.045388668573971197 -0.28276497393449979 0 -0.045388668573971197 -0.28276497393449979 0 -0.053887001812838731 -0.2849157772209775 0 -0.054766287164830701 -0.2970901953153432 0 -0.064057535371581625 -0.29192744740333249 0 -0.059864407363547638 -0.28123096163247219 0 -0.057733251899831639 -0.29052066469126392 0 -0.059864407363547638 -0.28123096163247219 0 -0.053887001812838731 -0.2849157772209775 0 -0.057733251899831639 -0.29052066469126392 0 -0.064057535371581625 -0.29192744740333249 0 -0.057733251899831639 -0.29052066469126392 0 -0.054766287164830701 -0.2970901953153432 0 -0.053887001812838731 -0.2849157772209775 0 -0.057733251899831639 -0.29052066469126392 0 -0.054766287164830701 -0.2970901953153432 0 -0.057733251899831639 -0.29052066469126392 0 -0.054766287164830701 -0.2970901953153432 0 -0.054766287164830701 -0.2970901953153432 0 -0.061703224021892843 -0.31027364317195461 0 -0.047226066217984093 -0.31378594900539031 0 -0.054766287164830701 -0.2970901953153432 0 -0.047226066217984093 -0.31378594900539031 0 -0.054766287164830701 -0.2970901953153432 0 -0.044962221231473282 -0.30697117968593329 0 -0.047226066217984093 -0.31378594900539031 0 -0.044962221231473282 -0.30697117968593329 0 -0.047226066217984093 -0.31378594900539031 0 -0.036899830302637118 -0.31513584792037003 0 -0.044962221231473282 -0.30697117968593329 0 -0.040381163282351293 -0.3020265021087622 0 -0.035705589121205812 -0.30855775988283929 0 -0.044962221231473282 -0.30697117968593329 0 -0.036899830302637118 -0.31513584792037003 0 -0.044962221231473282 -0.30697117968593329 0 -0.035705589121205812 -0.30855775988283929 0 -0.036899830302637118 -0.31513584792037003 0 -0.034072645087516493 -0.2950420814349457 0 -0.054766287164830701 -0.2970901953153432 0 -0.040381163282351293 -0.3020265021087622 0 -0.054766287164830701 -0.2970901953153432 0 -0.044962221231473282 -0.30697117968593329 0 -0.040381163282351293 -0.3020265021087622 0 -0.034072645087516493 -0.2950420814349457 0 -0.034263445503813293 -0.3022340226030088 0 -0.026894384524179572 -0.30330974698548802 0 -0.040381163282351293 -0.3020265021087622 0 -0.034263445503813293 -0.3022340226030088 0 -0.035705589121205812 -0.30855775988283929 0 -0.034072645087516493 -0.2950420814349457 0 -0.040381163282351293 -0.3020265021087622 0 -0.034263445503813293 -0.3022340226030088 0 -0.035705589121205812 -0.30855775988283929 0 -0.026894384524179572 -0.30330974698548802 0 -0.035036407421103449 -0.31602991565839422 0 -0.034263445503813293 -0.3022340226030088 0 -0.035705589121205812 -0.30855775988283929 0 -0.026894384524179572 -0.30330974698548802 0 -0.035705589121205812 -0.30855775988283929 0 -0.036899830302637118 -0.31513584792037003 0 -0.034072645087516493 -0.2950420814349457 0 -0.026894384524179572 -0.30330974698548802 0 -0.013379003010202299 -0.29299396755454787 0 -0.026894384524179572 -0.30330974698548802 0 -0.014148816450731169 -0.30566106848931518 0 -0.035036407421103449 -0.31602991565839422 0 -0.014148816450731169 -0.30566106848931518 0 -0.035036407421103449 -0.31602991565839422 0 -0.026894384524179572 -0.30330974698548802 0 -0.014148816450731169 -0.30566106848931518 0 -0.013379003010202299 -0.29299396755454787 0 -0.014148816450731169 -0.30566106848931518 0 -0.013379003010202299 -0.29299396755454787 0 0.0067387745196430242 -0.29529222132023969 0 -0.014148816450731169 -0.30566106848931518 0 0.0067387745196430242 -0.29529222132023969 0 -0.014148816450731169 -0.30566106848931518 0 -0.0082219535966022404 -0.31630686611013298 0 0.0067387745196430242 -0.29529222132023969 0 -0.013379003010202299 -0.29299396755454787 0 0.0073146390671123794 -0.29094585367415521 0 -0.013379003010202299 -0.29299396755454787 0 -0.016985527209809569 -0.27482102052092872 0 -0.0053310229688179646 -0.2794973200367471 0 -0.013379003010202299 -0.29299396755454787 0 -0.0053310229688179646 -0.2794973200367471 0 0.0073146390671123794 -0.29094585367415521 0 -0.034072645087516493 -0.2950420814349457 0 -0.013379003010202299 -0.29299396755454787 0 -0.034072645087516493 -0.2950420814349457 0 -0.013379003010202299 -0.29299396755454787 0 -0.023901470414865941 -0.28506935303227943 0 -0.013379003010202299 -0.29299396755454787 0 -0.023901470414865941 -0.28506935303227943 0 -0.016985527209809569 -0.27482102052092872 0 -0.032088775198751987 -0.27669330884931298 0 -0.034072645087516493 -0.2950420814349457 0 -0.023901470414865941 -0.28506935303227943 0 -0.032088775198751987 -0.27669330884931298 0 -0.023901470414865941 -0.28506935303227943 0 -0.016985527209809569 -0.27482102052092872 0 -0.034703355262308708 -0.26605344928897928 0 -0.032088775198751987 -0.27669330884931298 0 -0.025542824377521509 -0.26813223987501039 0 -0.032088775198751987 -0.27669330884931298 0 -0.025542824377521509 -0.26813223987501039 0 -0.016985527209809569 -0.27482102052092872 0 -0.025542824377521509 -0.26813223987501039 0 -0.016985527209809569 -0.27482102052092872 0 -0.013135790141680811 -0.26450473202623692 0 -0.0053310229688179646 -0.2794973200367471 0 -0.013135790141680811 -0.26450473202623692 0 0.009530566450491015 -0.27422102640786272 0 -0.013135790141680811 -0.26450473202623692 0 0.009530566450491015 -0.27422102640786272 0 -0.016985527209809569 -0.27482102052092872 0 -0.0053310229688179646 -0.2794973200367471 0 -0.013135790141680811 -0.26450473202623692 0 -0.016985527209809569 -0.27482102052092872 0 -0.013135790141680811 -0.26450473202623692 0 -0.013135790141680811 -0.26450473202623692 0 -0.0041270044632565851 -0.24036354253699119 0 -0.013135790141680811 -0.26450473202623692 0 -0.0041270044632565851 -0.24036354253699119 0 0.012734451938935651 -0.25003953391982359 0 -0.013135790141680811 -0.26450473202623692 0 -0.01839886132560872 -0.25019989862372383 0 -0.0041270044632565851 -0.24036354253699119 0 -0.025542824377521509 -0.26813223987501039 0 -0.013135790141680811 -0.26450473202623692 0 -0.03006799296123144 -0.25724647389131572 0 -0.013135790141680811 -0.26450473202623692 0 -0.03006799296123144 -0.25724647389131572 0 -0.013135790141680811 -0.26450473202623692 0 -0.01839886132560872 -0.25019989862372383 0 -0.03006799296123144 -0.25724647389131572 0 -0.034703355262308708 -0.26605344928897928 0 -0.025542824377521509 -0.26813223987501039 0 -0.03006799296123144 -0.25724647389131572 0 -0.043931973067689541 -0.35387011275743752 0 -0.034633539225944511 -0.36474185084795069 0 -0.02809554845712741 -0.35614523990016778 0 -0.043931973067689541 -0.35387011275743752 0 -0.02809554845712741 -0.35614523990016778 0 -0.043931973067689541 -0.35387011275743752 0 -0.039685845271139088 -0.33048170269543808 0 -0.02809554845712741 -0.35614523990016778 0 -0.047391028344357933 -0.37292319055308532 0 -0.0191156070346028 -0.37602886018110959 0 -0.043931973067689541 -0.35387011275743752 0 -0.034633539225944511 -0.36474185084795069 0 -0.047391028344357933 -0.37292319055308532 0 -0.034633539225944511 -0.36474185084795069 0 -0.047391028344357933 -0.37292319055308532 0 -0.0191156070346028 -0.37602886018110959 0 -0.043931973067689541 -0.35387011275743752 0 -0.047391028344357933 -0.37292319055308532 0 -0.073763419832120397 -0.37002654281211428 0 -0.047391028344357933 -0.37292319055308532 0 -0.073763419832120397 -0.37002654281211428 0 -0.059065733860060088 -0.36169397347445309 0 -0.047391028344357933 -0.37292319055308532 0 -0.043931973067689541 -0.35387011275743752 0 -0.059065733860060088 -0.36169397347445309 0 -0.047391028344357933 -0.37292319055308532 0 -0.07117651419607364 -0.34995604777517447 0 -0.043931973067689541 -0.35387011275743752 0 -0.07117651419607364 -0.34995604777517447 0 -0.043931973067689541 -0.35387011275743752 0 -0.059065733860060088 -0.36169397347445309 0 -0.07117651419607364 -0.34995604777517447 0 -0.043931973067689541 -0.35387011275743752 0 -0.056181201566886073 -0.33913556924087079 0 -0.056181201566886073 -0.33913556924087079 0 -0.056059153538566282 -0.32509371252920782 0 -0.039685845271139088 -0.33048170269543808 0 -0.069249978074459775 -0.33328711742070111 0 -0.056181201566886073 -0.33913556924087079 0 -0.056059153538566282 -0.32509371252920782 0 -0.056059153538566282 -0.32509371252920782 0 -0.047226066217984093 -0.31378594900539031 0 -0.039685845271139088 -0.33048170269543808 0 -0.06794909715345121 -0.32094839743039982 0 -0.061703224021892843 -0.31027364317195461 0 -0.056059153538566282 -0.32509371252920782 0 -0.061703224021892843 -0.31027364317195461 0 -0.056059153538566282 -0.32509371252920782 0 -0.047226066217984093 -0.31378594900539031 0 -0.047226066217984093 -0.31378594900539031 0 -0.039685845271139088 -0.33048170269543808 0 -0.047226066217984093 -0.31378594900539031 0 -0.036899830302637118 -0.31513584792037003 0 -0.039685845271139088 -0.33048170269543808 0 -0.036899830302637118 -0.31513584792037003 0 -0.039685845271139088 -0.33048170269543808 0 -0.029622396561453129 -0.33633373574744269 0 -0.036899830302637118 -0.31513584792037003 0 -0.039685845271139088 -0.33048170269543808 0 -0.035705589121205812 -0.30855775988283929 0 -0.035036407421103449 -0.31602991565839422 0 -0.036899830302637118 -0.31513584792037003 0 -0.043931973067689541 -0.35387011275743752 0 -0.039685845271139088 -0.33048170269543808 0 -0.043931973067689541 -0.35387011275743752 0 -0.056181201566886073 -0.33913556924087079 0 -0.039685845271139088 -0.33048170269543808 0 -0.039685845271139088 -0.33048170269543808 0 -0.029622396561453129 -0.33633373574744269 0 -0.02809554845712741 -0.35614523990016778 0 -0.039685845271139088 -0.33048170269543808 0 -0.02809554845712741 -0.35614523990016778 0 -0.036899830302637118 -0.31513584792037003 0 -0.029622396561453129 -0.33633373574744269 0 -0.018820833977762831 -0.33344418949138088 0 -0.029622396561453129 -0.33633373574744269 0 -0.018820833977762831 -0.33344418949138088 0 -0.024609924798603359 -0.34646169872985949 0 -0.035036407421103449 -0.31602991565839422 0 -0.018820833977762831 -0.33344418949138088 0 -0.02019221314916984 -0.31863556666723891 0 -0.014148816450731169 -0.30566106848931518 0 -0.035036407421103449 -0.31602991565839422 0 -0.02019221314916984 -0.31863556666723891 0 -0.018820833977762831 -0.33344418949138088 0 -0.02019221314916984 -0.31863556666723891 0 -0.0082219535966022404 -0.31630686611013298 0 -0.036899830302637118 -0.31513584792037003 0 -0.018820833977762831 -0.33344418949138088 0 -0.035036407421103449 -0.31602991565839422 0 -0.036899830302637118 -0.31513584792037003 0 -0.018820833977762831 -0.33344418949138088 0 -0.018820833977762831 -0.33344418949138088 0 -0.0082219535966022404 -0.31630686611013298 0 0.0029984684333813618 -0.3235223761913148 0 -0.014148816450731169 -0.30566106848931518 0 -0.02019221314916984 -0.31863556666723891 0 -0.0082219535966022404 -0.31630686611013298 0 -0.018820833977762831 -0.33344418949138088 0 -0.00074183765288565566 -0.35175253106238907 0 0.0029984684333813618 -0.3235223761913148 0 -0.018820833977762831 -0.33344418949138088 0 -0.00074183765288565566 -0.35175253106238907 0 -0.018820833977762831 -0.33344418949138088 0 -0.00074183765288565566 -0.35175253106238907 0 -0.0064186499760666097 -0.35629006750430381 0 -0.0064186499760666097 -0.35629006750430381 0 -0.024609924798603359 -0.34646169872985949 0 -0.0064186499760666097 -0.35629006750430381 0 -0.011731167534443251 -0.35849621545978883 0 -0.024609924798603359 -0.34646169872985949 0 -0.001478254409315928 -0.35731067486246981 0 -0.00074183765288565566 -0.35175253106238907 0 -0.0064186499760666097 -0.35629006750430381 0 -0.001478254409315928 -0.35731067486246981 0 -0.00074183765288565566 -0.35175253106238907 0 -0.011731167534443251 -0.35849621545978883 0 -0.02809554845712741 -0.35614523990016778 0 -0.029622396561453129 -0.33633373574744269 0 -0.02809554845712741 -0.35614523990016778 0 -0.024609924798603359 -0.34646169872985949 0 -0.018820833977762831 -0.33344418949138088 0 -0.0064186499760666097 -0.35629006750430381 0 -0.024609924798603359 -0.34646169872985949 0 -0.011731167534443251 -0.35849621545978883 0 -0.02809554845712741 -0.35614523990016778 0 -0.024609924798603359 -0.34646169872985949 0 -0.011731167534443251 -0.35849621545978883 0 -0.02809554845712741 -0.35614523990016778 0 -0.014052108101716721 -0.36666868166756672 0 -0.02809554845712741 -0.35614523990016778 0 -0.014052108101716721 -0.36666868166756672 0 -0.0191156070346028 -0.37602886018110959 0 -0.02809554845712741 -0.35614523990016778 0 -0.0191156070346028 -0.37602886018110959 0 -0.034633539225944511 -0.36474185084795069 0 -0.02809554845712741 -0.35614523990016778 0 -0.0191156070346028 -0.37602886018110959 0 -0.004500284718328351 -0.36977183894340099 0 -0.0191156070346028 -0.37602886018110959 0 0.0092917282261142653 -0.3791490187586205 0 -0.014052108101716721 -0.36666868166756672 0 -0.004500284718328351 -0.36977183894340099 0 -0.0191156070346028 -0.37602886018110959 0 -0.014052108101716721 -0.36666868166756672 0 -0.0057463793438692753 -0.36405249157359848 0 -0.004500284718328351 -0.36977183894340099 0 -0.011731167534443251 -0.35849621545978883 0 -0.014052108101716721 -0.36666868166756672 0 -0.0057463793438692753 -0.36405249157359848 0 -0.0064186499760666097 -0.35629006750430381 0 -0.011731167534443251 -0.35849621545978883 0 -0.0057463793438692753 -0.36405249157359848 0 -0.0064186499760666097 -0.35629006750430381 0 -0.0057463793438692753 -0.36405249157359848 0 0.0079703136112085557 -0.36903565429293261 0 -0.0057463793438692753 -0.36405249157359848 0 -0.004500284718328351 -0.36977183894340099 0 0.0079703136112085557 -0.36903565429293261 0 -0.0079209576991021331 -0.38208384091849129 0 -0.0191156070346028 -0.37602886018110959 0 0.0092917282261142653 -0.3791490187586205 0 -0.0191156070346028 -0.37602886018110959 0 0.0092917282261142653 -0.3791490187586205 0 -0.0079209576991021331 -0.38208384091849129 0 -0.007060478936782748 -0.39124467573747351 0 0.003337738236402286 -0.38678809717290258 0 -0.01363180035116242 -0.38429899690717539 0 -0.0079209576991021331 -0.38208384091849129 0 -0.007060478936782748 -0.39124467573747351 0 -0.01363180035116242 -0.38429899690717539 0 -0.007060478936782748 -0.39124467573747351 0 -0.01766664478497882 -0.38898784702048012 0 -0.01363180035116242 -0.38429899690717539 0 -0.0079209576991021331 -0.38208384091849129 0 -0.0191156070346028 -0.37602886018110959 0 -0.0048861065808698178 -0.40542465587961452 0 -0.007060478936782748 -0.39124467573747351 0 0.0068076755599869899 -0.3945460342361608 0 -0.007060478936782748 -0.39124467573747351 0 -0.016803169238540291 -0.39974791039234819 0 -0.01766664478497882 -0.38898784702048012 0 -0.0048861065808698178 -0.40542465587961452 0 -0.016803169238540291 -0.39974791039234819 0 -0.016790356212619859 -0.41259516980238742 0 -0.0048861065808698178 -0.40542465587961452 0 -0.007060478936782748 -0.39124467573747351 0 -0.016803169238540291 -0.39974791039234819 0 -0.016803169238540291 -0.39974791039234819 0 -0.028267195079938291 -0.39410818347186027 0 -0.01766664478497882 -0.38898784702048012 0 -0.016803169238540291 -0.39974791039234819 0 -0.028267195079938291 -0.39410818347186027 0 -0.02880068363776446 -0.40768829132817852 0 -0.01363180035116242 -0.38429899690717539 0 -0.0191156070346028 -0.37602886018110959 0 -0.018399885167198021 -0.38319007003078193 0 -0.0191156070346028 -0.37602886018110959 0 -0.018399885167198021 -0.38319007003078193 0 -0.023726343216251208 -0.38318010236544248 0 -0.028267195079938291 -0.39410818347186027 0 -0.01766664478497882 -0.38898784702048012 0 -0.023726343216251208 -0.38318010236544248 0 -0.01363180035116242 -0.38429899690717539 0 -0.018399885167198021 -0.38319007003078193 0 -0.01766664478497882 -0.38898784702048012 0 -0.018399885167198021 -0.38319007003078193 0 -0.01766664478497882 -0.38898784702048012 0 -0.023726343216251208 -0.38318010236544248 0 -0.028267195079938291 -0.39410818347186027 0 -0.023726343216251208 -0.38318010236544248 0 -0.031792755786060667 -0.38339417805054887 0 -0.0191156070346028 -0.37602886018110959 0 -0.023726343216251208 -0.38318010236544248 0 -0.031792755786060667 -0.38339417805054887 0 -0.047391028344357933 -0.37292319055308532 0 -0.0191156070346028 -0.37602886018110959 0 -0.031792755786060667 -0.38339417805054887 0 -0.047391028344357933 -0.37292319055308532 0 -0.040092595057056403 -0.39124957442182812 0 -0.052368325376152873 -0.40033900787131488 0 -0.047391028344357933 -0.37292319055308532 0 -0.031792755786060667 -0.38339417805054887 0 -0.040092595057056403 -0.39124957442182812 0 -0.028267195079938291 -0.39410818347186027 0 -0.031792755786060667 -0.38339417805054887 0 -0.040092595057056403 -0.39124957442182812 0 -0.028267195079938291 -0.39410818347186027 0 -0.040226756189419531 -0.40543647998966592 0 -0.040092595057056403 -0.39124957442182812 0 -0.028267195079938291 -0.39410818347186027 0 -0.040226756189419531 -0.40543647998966592 0 -0.02880068363776446 -0.40768829132817852 0 -0.040226756189419531 -0.40543647998966592 0 -0.040092595057056403 -0.39124957442182812 0 -0.052368325376152873 -0.40033900787131488 0 -0.052368325376152873 -0.40033900787131488 0 -0.068095112897977303 -0.40051058905645692 0 -0.064332889439668084 -0.41173708432475142 0 -0.052368325376152873 -0.40033900787131488 0 -0.063333732034307033 -0.38537183544613812 0 -0.068095112897977303 -0.40051058905645692 0 -0.047391028344357933 -0.37292319055308532 0 -0.052368325376152873 -0.40033900787131488 0 -0.063333732034307033 -0.38537183544613812 0 -0.047391028344357933 -0.37292319055308532 0 -0.052368325376152873 -0.40033900787131488 0 -0.073763419832120397 -0.37002654281211428 0 -0.047391028344357933 -0.37292319055308532 0 -0.063333732034307033 -0.38537183544613812 0 -0.057345622407949083 -0.42775482518954411 0 -0.055526583284724762 -0.42890124435982602 0 -0.061519325166891257 -0.45074430555385442 0 -0.051998150756492202 -0.42715788550980299 0 -0.057345622407949083 -0.42775482518954411 0 -0.047554028522122087 -0.42025266908301168 0 -0.051998150756492202 -0.42715788550980299 0 -0.050497049799060653 -0.43068004263561549 0 -0.055526583284724762 -0.42890124435982602 0 -0.051998150756492202 -0.42715788550980299 0 -0.048002697653298759 -0.42741823399037832 0 -0.047554028522122087 -0.42025266908301168 0 -0.051998150756492202 -0.42715788550980299 0 -0.048002697653298759 -0.42741823399037832 0 -0.050497049799060653 -0.43068004263561549 0 -0.050497049799060653 -0.43068004263561549 0 -0.051903505710664342 -0.43700221043851473 0 -0.044521925532470322 -0.43252943273423577 0 -0.048002697653298759 -0.42741823399037832 0 -0.050497049799060653 -0.43068004263561549 0 -0.044521925532470322 -0.43252943273423577 0 -0.051903505710664342 -0.43700221043851473 0 -0.044521925532470322 -0.43252943273423577 0 -0.046026957097666049 -0.44205662321088313 0 -0.050497049799060653 -0.43068004263561549 0 -0.051903505710664342 -0.43700221043851473 0 -0.055526583284724762 -0.42890124435982602 0 -0.051998150756492202 -0.42715788550980299 0 -0.057345622407949083 -0.42775482518954411 0 -0.055526583284724762 -0.42890124435982602 0 -0.057345622407949083 -0.42775482518954411 0 -0.055526583284724762 -0.42890124435982602 0 -0.052368325376152873 -0.40033900787131488 0 -0.057345622407949083 -0.42775482518954411 0 -0.047554028522122087 -0.42025266908301168 0 -0.052368325376152873 -0.40033900787131488 0 -0.057345622407949083 -0.42775482518954411 0 -0.052368325376152873 -0.40033900787131488 0 -0.057345622407949083 -0.42775482518954411 0 -0.064332889439668084 -0.41173708432475142 0 -0.040226756189419531 -0.40543647998966592 0 -0.052368325376152873 -0.40033900787131488 0 -0.047554028522122087 -0.42025266908301168 0 -0.047554028522122087 -0.42025266908301168 0 -0.03716948384482438 -0.41818268395074598 0 -0.042629481865219553 -0.42532028499465241 0 -0.040226756189419531 -0.40543647998966592 0 -0.047554028522122087 -0.42025266908301168 0 -0.03716948384482438 -0.41818268395074598 0 -0.040226756189419531 -0.40543647998966592 0 -0.03716948384482438 -0.41818268395074598 0 -0.02880068363776446 -0.40768829132817852 0 -0.03716948384482438 -0.41818268395074598 0 -0.035899273773382173 -0.4282184052148903 0 -0.042629481865219553 -0.42532028499465241 0 -0.03716948384482438 -0.41818268395074598 0 -0.035899273773382173 -0.4282184052148903 0 -0.02424810871736003 -0.42687662501771889 0 -0.035899273773382173 -0.4282184052148903 0 -0.042629481865219553 -0.42532028499465241 0 -0.044521925532470322 -0.43252943273423577 0 -0.048002697653298759 -0.42741823399037832 0 -0.042629481865219553 -0.42532028499465241 0 -0.044521925532470322 -0.43252943273423577 0 -0.048002697653298759 -0.42741823399037832 0 -0.047554028522122087 -0.42025266908301168 0 -0.042629481865219553 -0.42532028499465241 0 -0.035899273773382173 -0.4282184052148903 0 -0.044521925532470322 -0.43252943273423577 0 -0.034908502576409539 -0.43835023938364592 0 -0.035899273773382173 -0.4282184052148903 0 -0.02424810871736003 -0.42687662501771889 0 -0.034908502576409539 -0.43835023938364592 0 -0.02424810871736003 -0.42687662501771889 0 -0.024876996291570651 -0.44438765293220123 0 -0.034908502576409539 -0.43835023938364592 0 -0.02424810871736003 -0.42687662501771889 0 -0.02880068363776446 -0.40768829132817852 0 -0.016790356212619859 -0.41259516980238742 0 -0.03716948384482438 -0.41818268395074598 0 -0.02424810871736003 -0.42687662501771889 0 -0.02880068363776446 -0.40768829132817852 0 -0.016803169238540291 -0.39974791039234819 0 -0.02880068363776446 -0.40768829132817852 0 -0.016790356212619859 -0.41259516980238742 0 -0.0048861065808698178 -0.40542465587961452 0 -0.016790356212619859 -0.41259516980238742 0 -0.003055687984291951 -0.42596979278454739 0 -0.0048861065808698178 -0.40542465587961452 0 -0.003055687984291951 -0.42596979278454739 0 0.0075853773270290192 -0.40844435232476972 0 -0.02424810871736003 -0.42687662501771889 0 -0.016790356212619859 -0.41259516980238742 0 -0.003055687984291951 -0.42596979278454739 0 -0.016790356212619859 -0.41259516980238742 0 -0.003055687984291951 -0.42596979278454739 0 -0.02424810871736003 -0.42687662501771889 0 -0.003055687984291951 -0.42596979278454739 0 -0.012437171173092929 -0.44142074813906568 0 -0.003055687984291951 -0.42596979278454739 0 -0.012437171173092929 -0.44142074813906568 0 -0.003055687984291951 -0.42596979278454739 0 -0.001755183903042279 -0.43806820660387241 0 -0.012437171173092929 -0.44142074813906568 0 -0.0051002028656366404 -0.44856538267358542 0 -0.0218186543618944 -0.45687170349358369 0 -0.012437171173092929 -0.44142074813906568 0 -0.0051002028656366404 -0.44856538267358542 0 -0.0218186543618944 -0.45687170349358369 0 -0.001755183903042279 -0.43806820660387241 0 -0.012437171173092929 -0.44142074813906568 0 -0.0051002028656366404 -0.44856538267358542 0 -0.0061478359479250812 -0.46818095550108468 0 -0.0218186543618944 -0.45687170349358369 0 -0.018459505999747321 -0.47300087970245502 0 -0.0051002028656366404 -0.44856538267358542 0 -0.0061478359479250812 -0.46818095550108468 0 -0.0218186543618944 -0.45687170349358369 0 -0.0051002028656366404 -0.44856538267358542 0 -0.0061478359479250812 -0.46818095550108468 0 0.0045859136501480262 -0.46508154695711162 0 -0.0218186543618944 -0.45687170349358369 0 -0.034148857745689057 -0.47717909179894008 0 -0.02424810871736003 -0.42687662501771889 0 -0.012437171173092929 -0.44142074813906568 0 -0.024876996291570651 -0.44438765293220123 0 -0.0218186543618944 -0.45687170349358369 0 -0.024876996291570651 -0.44438765293220123 0 -0.038603770458478182 -0.45302533036643688 0 -0.012437171173092929 -0.44142074813906568 0 -0.0218186543618944 -0.45687170349358369 0 -0.012437171173092929 -0.44142074813906568 0 -0.0218186543618944 -0.45687170349358369 0 -0.024876996291570651 -0.44438765293220123 0 -0.0055307206059959091 -0.5 0 -0.017859931064021971 -0.48610674151403482 0 0.00069633285143837903 -0.4869416854498389 0 -0.0061478359479250812 -0.46818095550108468 0 -0.010442735040064001 -0.4785575655418533 0 0.00069633285143837903 -0.4869416854498389 0 -0.0061478359479250812 -0.46818095550108468 0 0.0045859136501480262 -0.46508154695711162 0 0.00069633285143837903 -0.4869416854498389 0 -0.010442735040064001 -0.4785575655418533 0 -0.017859931064021971 -0.48610674151403482 0 0.00069633285143837903 -0.4869416854498389 0 -0.010442735040064001 -0.4785575655418533 0 -0.018459505999747321 -0.47300087970245502 0 -0.017859931064021971 -0.48610674151403482 0 -0.0061478359479250812 -0.46818095550108468 0 -0.010442735040064001 -0.4785575655418533 0 -0.018459505999747321 -0.47300087970245502 0 -0.018459505999747321 -0.47300087970245502 0 -0.017859931064021971 -0.48610674151403482 0 -0.034148857745689057 -0.47717909179894008 0 -0.017859931064021971 -0.48610674151403482 0 -0.029728880262484571 -0.48843842040023883 0 -0.034148857745689057 -0.47717909179894008 0 -0.0218186543618944 -0.45687170349358369 0 -0.018459505999747321 -0.47300087970245502 0 -0.034148857745689057 -0.47717909179894008 0 -0.0055307206059959091 -0.5 0 -0.017859931064021971 -0.48610674151403482 0 -0.033283955319700298 -0.5 0 -0.017859931064021971 -0.48610674151403482 0 -0.029728880262484571 -0.48843842040023883 0 -0.033283955319700298 -0.5 0 -0.046479061129484189 -0.49748648010429608 0 -0.046254210406812678 -0.48281104828443799 0 -0.034148857745689057 -0.47717909179894008 0 -0.029728880262484571 -0.48843842040023883 0 -0.046479061129484189 -0.49748648010429608 0 -0.034148857745689057 -0.47717909179894008 0 -0.046479061129484189 -0.49748648010429608 0 -0.034148857745689057 -0.47717909179894008 0 -0.029728880262484571 -0.48843842040023883 0 -0.046479061129484189 -0.49748648010429608 0 -0.033283955319700298 -0.5 0 -0.046254210406812678 -0.48281104828443799 0 -0.034148857745689057 -0.47717909179894008 0 -0.048305920782063347 -0.4700315187180919 0 -0.046254210406812678 -0.48281104828443799 0 -0.048305920782063347 -0.4700315187180919 0 -0.056083001970014153 -0.48654710251642441 0 -0.048305920782063347 -0.4700315187180919 0 -0.056083001970014153 -0.48654710251642441 0 -0.065693027925834799 -0.47373378591816429 0 -0.046479061129484189 -0.49748648010429608 0 -0.033283955319700298 -0.5 0 -0.061037190033404853 -0.5 0 -0.046479061129484189 -0.49748648010429608 0 -0.046254210406812678 -0.48281104828443799 0 -0.056083001970014153 -0.48654710251642441 0 -0.056083001970014153 -0.48654710251642441 0 -0.061037190033404853 -0.5 0 -0.069866730684778333 -0.49672326628247432 0 -0.046479061129484189 -0.49748648010429608 0 -0.056083001970014153 -0.48654710251642441 0 -0.061037190033404853 -0.5 0 -0.046026957097666049 -0.44205662321088313 0 -0.034908502576409539 -0.43835023938364592 0 -0.038603770458478182 -0.45302533036643688 0 -0.044521925532470322 -0.43252943273423577 0 -0.046026957097666049 -0.44205662321088313 0 -0.034908502576409539 -0.43835023938364592 0 -0.024876996291570651 -0.44438765293220123 0 -0.034908502576409539 -0.43835023938364592 0 -0.038603770458478182 -0.45302533036643688 0 -0.0218186543618944 -0.45687170349358369 0 -0.048305920782063347 -0.4700315187180919 0 -0.0218186543618944 -0.45687170349358369 0 -0.048305920782063347 -0.4700315187180919 0 -0.038603770458478182 -0.45302533036643688 0 -0.0218186543618944 -0.45687170349358369 0 -0.034148857745689057 -0.47717909179894008 0 -0.048305920782063347 -0.4700315187180919 0 -0.048305920782063347 -0.4700315187180919 0 -0.038603770458478182 -0.45302533036643688 0 -0.061519325166891257 -0.45074430555385442 0 -0.048305920782063347 -0.4700315187180919 0 -0.061519325166891257 -0.45074430555385442 0 -0.065693027925834799 -0.47373378591816429 0 -0.057345622407949083 -0.42775482518954411 0 -0.061519325166891257 -0.45074430555385442 0 -0.051903505710664342 -0.43700221043851473 0 -0.055526583284724762 -0.42890124435982602 0 -0.061519325166891257 -0.45074430555385442 0 -0.046026957097666049 -0.44205662321088313 0 -0.038603770458478182 -0.45302533036643688 0 -0.061519325166891257 -0.45074430555385442 0 -0.051903505710664342 -0.43700221043851473 0 -0.046026957097666049 -0.44205662321088313 0 -0.061519325166891257 -0.45074430555385442 0 -0.082015978345885726 -0.44814037298892451 0 -0.07017554786410661 -0.43656236488652622 0 -0.080578545932788431 -0.43064300609484668 0 -0.061519325166891257 -0.45074430555385442 0 -0.082015978345885726 -0.44814037298892451 0 -0.07017554786410661 -0.43656236488652622 0 -0.057345622407949083 -0.42775482518954411 0 -0.061519325166891257 -0.45074430555385442 0 -0.07017554786410661 -0.43656236488652622 0 -0.061519325166891257 -0.45074430555385442 0 -0.065693027925834799 -0.47373378591816429 0 -0.061519325166891257 -0.45074430555385442 0 -0.079006729103595102 -0.46442825241637531 0 -0.082015978345885726 -0.44814037298892451 0 -0.061519325166891257 -0.45074430555385442 0 -0.079006729103595102 -0.46442825241637531 0 -0.065693027925834799 -0.47373378591816429 0 -0.079006729103595102 -0.46442825241637531 0 -0.082015978345885726 -0.44814037298892451 0 -0.099120206555057877 -0.46413008841704401 0 -0.082015978345885726 -0.44814037298892451 0 -0.1028159585778739 -0.43897605104635451 0 -0.080578545932788431 -0.43064300609484668 0 -0.056083001970014153 -0.48654710251642441 0 -0.069866730684778333 -0.49672326628247432 0 -0.065693027925834799 -0.47373378591816429 0 -0.061037190033404853 -0.5 0 -0.069866730684778333 -0.49672326628247432 0 -0.088790424747109464 -0.5 0 -0.069866730684778333 -0.49672326628247432 0 -0.065693027925834799 -0.47373378591816429 0 -0.079006729103595102 -0.46442825241637531 0 -0.065693027925834799 -0.47373378591816429 0 -0.084382571520383101 -0.48097484681393349 0 -0.069866730684778333 -0.49672326628247432 0 -0.065693027925834799 -0.47373378591816429 0 -0.084382571520383101 -0.48097484681393349 0 -0.079006729103595102 -0.46442825241637531 0 -0.084382571520383101 -0.48097484681393349 0 -0.099120206555057877 -0.46413008841704401 0 -0.084382571520383101 -0.48097484681393349 0 -0.088790424747109464 -0.5 0 -0.1026670421039618 -0.4846247566545655 0 -0.069866730684778333 -0.49672326628247432 0 -0.084382571520383101 -0.48097484681393349 0 -0.088790424747109464 -0.5 0 -0.088790424747109464 -0.5 0 -0.1026670421039618 -0.4846247566545655 0 -0.1165436594608141 -0.5 0 -0.084382571520383101 -0.48097484681393349 0 -0.1026670421039618 -0.4846247566545655 0 -0.099120206555057877 -0.46413008841704401 0 -0.1026670421039618 -0.4846247566545655 0 -0.1208098881513872 -0.47815730621852143 0 -0.099120206555057877 -0.46413008841704401 0 -0.1026670421039618 -0.4846247566545655 0 -0.1208098881513872 -0.47815730621852143 0 -0.1165436594608141 -0.5 0 -0.082015978345885726 -0.44814037298892451 0 -0.1028159585778739 -0.43897605104635451 0 -0.099120206555057877 -0.46413008841704401 0 -0.1028159585778739 -0.43897605104635451 0 -0.099120206555057877 -0.46413008841704401 0 -0.1212510133860321 -0.45025040205905559 0 -0.1208098881513872 -0.47815730621852143 0 -0.099120206555057877 -0.46413008841704401 0 -0.1212510133860321 -0.45025040205905559 0 -0.1028159585778739 -0.43897605104635451 0 -0.1212510133860321 -0.45025040205905559 0 -0.1138478817127332 -0.42823018870096158 0 -0.12913091997580931 -0.43012903757565679 0 -0.1212510133860321 -0.45025040205905559 0 -0.1138478817127332 -0.42823018870096158 0 -0.12913091997580931 -0.43012903757565679 0 -0.1138478817127332 -0.42823018870096158 0 -0.1244403968609379 -0.41785413351448453 0 -0.1028159585778739 -0.43897605104635451 0 -0.105378944095566 -0.41536729706509201 0 -0.080578545932788431 -0.43064300609484668 0 -0.1028159585778739 -0.43897605104635451 0 -0.1138478817127332 -0.42823018870096158 0 -0.105378944095566 -0.41536729706509201 0 -0.105378944095566 -0.41536729706509201 0 -0.1017294652524713 -0.39978264601103958 0 -0.079537543830211166 -0.41376873560029348 0 -0.1301793422583436 -0.40009158803533729 0 -0.105378944095566 -0.41536729706509201 0 -0.1244403968609379 -0.41785413351448453 0 -0.1301793422583436 -0.40009158803533729 0 -0.105378944095566 -0.41536729706509201 0 -0.1138478817127332 -0.42823018870096158 0 -0.105378944095566 -0.41536729706509201 0 -0.1244403968609379 -0.41785413351448453 0 -0.1301793422583436 -0.40009158803533729 0 -0.1239213866747315 -0.3857965564217859 0 -0.1017294652524713 -0.39978264601103958 0 -0.1301793422583436 -0.40009158803533729 0 -0.105378944095566 -0.41536729706509201 0 -0.1017294652524713 -0.39978264601103958 0 -0.1239213866747315 -0.3857965564217859 0 -0.1017294652524713 -0.39978264601103958 0 -0.11435598566653971 -0.37462961811838419 0 -0.1239213866747315 -0.3857965564217859 0 -0.1068585418638992 -0.38135877365043741 0 -0.1239213866747315 -0.3857965564217859 0 -0.1068585418638992 -0.38135877365043741 0 -0.1017294652524713 -0.39978264601103958 0 -0.1068585418638992 -0.38135877365043741 0 -0.1017294652524713 -0.39978264601103958 0 -0.092678062415584239 -0.38192682791690408 0 -0.10013581131988281 -0.36712989507114269 0 -0.1068585418638992 -0.38135877365043741 0 -0.092678062415584239 -0.38192682791690408 0 -0.1017294652524713 -0.39978264601103958 0 -0.080903073809547393 -0.39133628203978649 0 -0.092678062415584239 -0.38192682791690408 0 -0.1017294652524713 -0.39978264601103958 0 -0.080903073809547393 -0.39133628203978649 0 -0.079537543830211166 -0.41376873560029348 0 -0.073763419832120397 -0.37002654281211428 0 -0.080903073809547393 -0.39133628203978649 0 -0.092678062415584239 -0.38192682791690408 0 -0.073763419832120397 -0.37002654281211428 0 -0.080903073809547393 -0.39133628203978649 0 -0.063333732034307033 -0.38537183544613812 0 -0.080903073809547393 -0.39133628203978649 0 -0.063333732034307033 -0.38537183544613812 0 -0.068095112897977303 -0.40051058905645692 0 -0.080903073809547393 -0.39133628203978649 0 -0.068095112897977303 -0.40051058905645692 0 -0.079537543830211166 -0.41376873560029348 0 -0.057345622407949083 -0.42775482518954411 0 -0.079537543830211166 -0.41376873560029348 0 -0.057345622407949083 -0.42775482518954411 0 -0.064332889439668084 -0.41173708432475142 0 -0.079537543830211166 -0.41376873560029348 0 -0.068095112897977303 -0.40051058905645692 0 -0.064332889439668084 -0.41173708432475142 0 -0.079537543830211166 -0.41376873560029348 0 -0.071909315008763824 -0.42718223294280261 0 -0.080578545932788431 -0.43064300609484668 0 -0.079537543830211166 -0.41376873560029348 0 -0.057345622407949083 -0.42775482518954411 0 -0.071909315008763824 -0.42718223294280261 0 -0.079537543830211166 -0.41376873560029348 0 -0.057345622407949083 -0.42775482518954411 0 -0.07017554786410661 -0.43656236488652622 0 -0.071909315008763824 -0.42718223294280261 0 -0.07017554786410661 -0.43656236488652622 0 -0.071909315008763824 -0.42718223294280261 0 -0.080578545932788431 -0.43064300609484668 0 -0.105378944095566 -0.41536729706509201 0 -0.080578545932788431 -0.43064300609484668 0 -0.1017294652524713 -0.39978264601103958 0 -0.079537543830211166 -0.41376873560029348 0 -0.105378944095566 -0.41536729706509201 0 -0.080578545932788431 -0.43064300609484668 0 -0.079537543830211166 -0.41376873560029348 0 -0.080477978940472567 -0.0872445375478616 0 -0.090760719121338262 -0.082546263834110969 0 -0.083370814207337468 -0.076580459398932224 0 -0.080477978940472567 -0.0872445375478616 0 -0.091717872188146227 -0.093208548821597861 0 -0.081341009611255344 -0.099140016388994001 0 -0.080477978940472567 -0.0872445375478616 0 -0.091717872188146227 -0.093208548821597861 0 -0.090760719121338262 -0.082546263834110969 0 -0.080477978940472567 -0.0872445375478616 0 -0.083370814207337468 -0.076580459398932224 0 -0.072958403535949207 -0.069113362370813003 0 -0.090760719121338262 -0.082546263834110969 0 -0.090598781593882322 -0.073386454554821262 0 -0.099043164252073407 -0.078319548330645153 0 -0.090760719121338262 -0.082546263834110969 0 -0.090598781593882322 -0.073386454554821262 0 -0.083370814207337468 -0.076580459398932224 0 -0.090598781593882322 -0.073386454554821262 0 -0.089294531887962839 -0.064944775316390785 0 -0.08322438274124605 -0.068166807502789306 0 -0.090598781593882322 -0.073386454554821262 0 -0.089294531887962839 -0.064944775316390785 0 -0.096753719942633085 -0.069858419171881514 0 -0.089294531887962839 -0.064944775316390785 0 -0.08322438274124605 -0.068166807502789306 0 -0.084006350731239035 -0.058330545374601243 0 -0.08322438274124605 -0.068166807502789306 0 -0.072958403535949207 -0.069113362370813003 0 -0.084006350731239035 -0.058330545374601243 0 -0.08322438274124605 -0.068166807502789306 0 -0.083370814207337468 -0.076580459398932224 0 -0.072958403535949207 -0.069113362370813003 0 -0.090598781593882322 -0.073386454554821262 0 -0.08322438274124605 -0.068166807502789306 0 -0.083370814207337468 -0.076580459398932224 0 -0.072958403535949207 -0.069113362370813003 0 -0.068898019160179541 -0.066534685844938518 0 -0.059867155803332461 -0.079483933276066843 0 -0.080477978940472567 -0.0872445375478616 0 -0.072958403535949207 -0.069113362370813003 0 -0.06692943455767672 -0.098509159914828726 0 -0.072958403535949207 -0.069113362370813003 0 -0.06692943455767672 -0.098509159914828726 0 -0.059867155803332461 -0.079483933276066843 0 -0.072958403535949207 -0.069113362370813003 0 -0.06692943455767672 -0.098509159914828726 0 -0.06692943455767672 -0.098509159914828726 0 -0.075768464350862305 -0.11095984549309119 0 -0.081341009611255344 -0.099140016388994001 0 -0.080477978940472567 -0.0872445375478616 0 -0.06692943455767672 -0.098509159914828726 0 -0.081341009611255344 -0.099140016388994001 0 -0.06692943455767672 -0.098509159914828726 0 -0.060900465579404449 -0.12790495745884439 0 -0.075768464350862305 -0.11095984549309119 0 -0.075870784320717977 -0.1239439361399271 0 -0.060900465579404449 -0.12790495745884439 0 -0.06692943455767672 -0.098509159914828726 0 -0.075768464350862305 -0.11095984549309119 0 -0.060900465579404449 -0.12790495745884439 0 -0.075870784320717977 -0.1239439361399271 0 -0.088907882466195909 -0.1204944288459702 0 -0.091811298019118914 -0.10577799016759069 0 -0.075768464350862305 -0.11095984549309119 0 -0.075870784320717977 -0.1239439361399271 0 -0.091811298019118914 -0.10577799016759069 0 -0.075870784320717977 -0.1239439361399271 0 -0.091811298019118914 -0.10577799016759069 0 -0.075870784320717977 -0.1239439361399271 0 -0.088907882466195909 -0.1204944288459702 0 -0.075768464350862305 -0.11095984549309119 0 -0.081341009611255344 -0.099140016388994001 0 -0.091811298019118914 -0.10577799016759069 0 -0.091717872188146227 -0.093208548821597861 0 -0.081341009611255344 -0.099140016388994001 0 -0.091811298019118914 -0.10577799016759069 0 -0.091717872188146227 -0.093208548821597861 0 -0.091811298019118914 -0.10577799016759069 0 -0.10591384432465729 -0.095233749679613025 0 -0.091811298019118914 -0.10577799016759069 0 -0.1034849218479069 -0.10706467133414881 0 -0.10591384432465729 -0.095233749679613025 0 -0.088907882466195909 -0.1204944288459702 0 -0.1034849218479069 -0.10706467133414881 0 -0.1099118235296565 -0.1183137480131316 0 -0.088907882466195909 -0.1204944288459702 0 -0.1099118235296565 -0.1183137480131316 0 -0.09968586899277182 -0.13257032295410351 0 -0.088907882466195909 -0.1204944288459702 0 -0.091811298019118914 -0.10577799016759069 0 -0.1034849218479069 -0.10706467133414881 0 -0.1099118235296565 -0.1183137480131316 0 -0.12324286592688111 -0.1170046728761252 0 -0.1194254808735583 -0.13284424025105751 0 -0.1099118235296565 -0.1183137480131316 0 -0.12324286592688111 -0.1170046728761252 0 -0.12268903751391649 -0.1021807817981453 0 -0.10591384432465729 -0.095233749679613025 0 -0.12268903751391649 -0.1021807817981453 0 -0.1184269485961866 -0.088662068908680225 0 -0.1034849218479069 -0.10706467133414881 0 -0.1099118235296565 -0.1183137480131316 0 -0.12268903751391649 -0.1021807817981453 0 -0.1034849218479069 -0.10706467133414881 0 -0.10591384432465729 -0.095233749679613025 0 -0.12268903751391649 -0.1021807817981453 0 -0.12268903751391649 -0.1021807817981453 0 -0.1184269485961866 -0.088662068908680225 0 -0.131322671588327 -0.085291974254262937 0 -0.1184269485961866 -0.088662068908680225 0 -0.1172447628219281 -0.077353942002316434 0 -0.131322671588327 -0.085291974254262937 0 -0.1184269485961866 -0.088662068908680225 0 -0.10819756043366981 -0.083479607313894436 0 -0.1172447628219281 -0.077353942002316434 0 -0.10591384432465729 -0.095233749679613025 0 -0.1184269485961866 -0.088662068908680225 0 -0.10819756043366981 -0.083479607313894436 0 -0.10591384432465729 -0.095233749679613025 0 -0.10819756043366981 -0.083479607313894436 0 -0.099355703546117571 -0.086538034350807813 0 -0.10819756043366981 -0.083479607313894436 0 -0.099043164252073407 -0.078319548330645153 0 -0.1072187383199265 -0.073532991087167418 0 -0.10819756043366981 -0.083479607313894436 0 -0.099043164252073407 -0.078319548330645153 0 -0.099355703546117571 -0.086538034350807813 0 -0.090760719121338262 -0.082546263834110969 0 -0.099043164252073407 -0.078319548330645153 0 -0.099355703546117571 -0.086538034350807813 0 -0.091717872188146227 -0.093208548821597861 0 -0.090760719121338262 -0.082546263834110969 0 -0.099355703546117571 -0.086538034350807813 0 -0.091717872188146227 -0.093208548821597861 0 -0.10591384432465729 -0.095233749679613025 0 -0.099355703546117571 -0.086538034350807813 0 -0.095853538378801978 -0.063665943450479934 0 -0.096753719942633085 -0.069858419171881514 0 -0.1038843546443466 -0.064781701633401551 0 -0.089294531887962839 -0.064944775316390785 0 -0.095853538378801978 -0.063665943450479934 0 -0.096753719942633085 -0.069858419171881514 0 -0.090598781593882322 -0.073386454554821262 0 -0.099043164252073407 -0.078319548330645153 0 -0.096753719942633085 -0.069858419171881514 0 -0.099043164252073407 -0.078319548330645153 0 -0.096753719942633085 -0.069858419171881514 0 -0.1072187383199265 -0.073532991087167418 0 -0.096753719942633085 -0.069858419171881514 0 -0.1072187383199265 -0.073532991087167418 0 -0.1038843546443466 -0.064781701633401551 0 -0.1072187383199265 -0.073532991087167418 0 -0.1038843546443466 -0.064781701633401551 0 -0.1144372843009855 -0.064614548826819537 0 -0.1072187383199265 -0.073532991087167418 0 -0.1144372843009855 -0.064614548826819537 0 -0.1172447628219281 -0.077353942002316434 0 -0.10819756043366981 -0.083479607313894436 0 -0.1072187383199265 -0.073532991087167418 0 -0.1172447628219281 -0.077353942002316434 0 -0.1144372843009855 -0.064614548826819537 0 -0.1172447628219281 -0.077353942002316434 0 -0.12801180811942919 -0.071157444604673631 0 -0.1144372843009855 -0.064614548826819537 0 -0.1243502320977292 -0.060636460033492101 0 -0.12801180811942919 -0.071157444604673631 0 -0.1243502320977292 -0.060636460033492101 0 -0.11460284185450061 -0.054708406053343622 0 -0.1229241828287016 -0.052135901670169682 0 -0.1144372843009855 -0.064614548826819537 0 -0.1243502320977292 -0.060636460033492101 0 -0.11460284185450061 -0.054708406053343622 0 -0.1144372843009855 -0.064614548826819537 0 -0.11460284185450061 -0.054708406053343622 0 -0.1068515562081649 -0.057194216872080442 0 -0.11460284185450061 -0.054708406053343622 0 -0.1163151691605069 -0.046310739400192633 0 -0.1089924353744338 -0.05066024961688026 0 -0.1163151691605069 -0.046310739400192633 0 -0.10557045364483519 -0.044606155116072597 0 -0.1089924353744338 -0.05066024961688026 0 -0.11460284185450061 -0.054708406053343622 0 -0.1068515562081649 -0.057194216872080442 0 -0.1089924353744338 -0.05066024961688026 0 -0.1229241828287016 -0.052135901670169682 0 -0.1163151691605069 -0.046310739400192633 0 -0.12789404872439519 -0.044416086127217272 0 -0.11460284185450061 -0.054708406053343622 0 -0.1229241828287016 -0.052135901670169682 0 -0.1163151691605069 -0.046310739400192633 0 -0.1163151691605069 -0.046310739400192633 0 -0.11969346943964521 -0.030675893289626451 0 -0.12789404872439519 -0.044416086127217272 0 -0.1163151691605069 -0.046310739400192633 0 -0.10557045364483519 -0.044606155116072597 0 -0.11969346943964521 -0.030675893289626451 0 -0.10557045364483519 -0.044606155116072597 0 -0.11969346943964521 -0.030675893289626451 0 -0.10557045364483519 -0.044606155116072597 0 -0.1009981547773724 -0.025846239672520741 0 -0.093097801653344511 -0.037708923622375642 0 -0.10557045364483519 -0.044606155116072597 0 -0.11969346943964521 -0.030675893289626451 0 -0.1009981547773724 -0.025846239672520741 0 -0.10557045364483519 -0.044606155116072597 0 -0.1016221560041613 -0.050481730642711997 0 -0.093097801653344511 -0.037708923622375642 0 -0.09521718649964403 -0.054527079019672998 0 -0.1016221560041613 -0.050481730642711997 0 -0.088840629046846267 -0.051387554552533597 0 -0.09521718649964403 -0.054527079019672998 0 -0.098425585912227179 -0.057983615942060432 0 -0.1016221560041613 -0.050481730642711997 0 -0.095853538378801978 -0.063665943450479934 0 -0.1038843546443466 -0.064781701633401551 0 -0.098425585912227179 -0.057983615942060432 0 -0.09521718649964403 -0.054527079019672998 0 -0.098425585912227179 -0.057983615942060432 0 -0.091980375035341344 -0.058255414941385981 0 -0.095853538378801978 -0.063665943450479934 0 -0.098425585912227179 -0.057983615942060432 0 -0.091980375035341344 -0.058255414941385981 0 -0.1038843546443466 -0.064781701633401551 0 -0.1144372843009855 -0.064614548826819537 0 -0.1068515562081649 -0.057194216872080442 0 -0.1038843546443466 -0.064781701633401551 0 -0.098425585912227179 -0.057983615942060432 0 -0.1068515562081649 -0.057194216872080442 0 -0.098425585912227179 -0.057983615942060432 0 -0.1068515562081649 -0.057194216872080442 0 -0.1016221560041613 -0.050481730642711997 0 -0.1068515562081649 -0.057194216872080442 0 -0.1089924353744338 -0.05066024961688026 0 -0.1016221560041613 -0.050481730642711997 0 -0.10557045364483519 -0.044606155116072597 0 -0.1089924353744338 -0.05066024961688026 0 -0.1016221560041613 -0.050481730642711997 0 -0.10870783169930651 -0.00026522707265157561 0 -0.13381648523445761 -0.01674563146318268 0 -0.10870783169930651 -0.00026522707265157561 0 -0.13381648523445761 -0.01674563146318268 0 -0.12871323843160851 0.013123773824541321 0 -0.11969346943964521 -0.030675893289626451 0 -0.1009981547773724 -0.025846239672520741 0 -0.10870783169930651 -0.00026522707265157561 0 -0.11969346943964521 -0.030675893289626451 0 -0.10870783169930651 -0.00026522707265157561 0 -0.13381648523445761 -0.01674563146318268 0 -0.1009981547773724 -0.025846239672520741 0 -0.10870783169930651 -0.00026522707265157561 0 -0.083512091335987165 -0.017656127969590828 0 -0.083512091335987165 -0.017656127969590828 0 -0.063004941211177848 -0.0061621375804896154 0 -0.08359917816415588 0.016215177317880108 0 -0.10870783169930651 -0.00026522707265157561 0 -0.083512091335987165 -0.017656127969590828 0 -0.08359917816415588 0.016215177317880108 0 -0.1009981547773724 -0.025846239672520741 0 -0.083512091335987165 -0.017656127969590828 0 -0.093097801653344511 -0.037708923622375642 0 -0.083512091335987165 -0.017656127969590828 0 -0.078987372514215254 -0.039717564826795948 0 -0.083512091335987165 -0.017656127969590828 0 -0.063004941211177848 -0.0061621375804896154 0 -0.054567003058480758 -0.02810424825921598 0 -0.083512091335987165 -0.017656127969590828 0 -0.078987372514215254 -0.039717564826795948 0 -0.054567003058480758 -0.02810424825921598 0 -0.084006350731239035 -0.058330545374601243 0 -0.088840629046846267 -0.051387554552533597 0 -0.078987372514215254 -0.039717564826795948 0 -0.1016221560041613 -0.050481730642711997 0 -0.088840629046846267 -0.051387554552533597 0 -0.078987372514215254 -0.039717564826795948 0 -0.072958403535949207 -0.069113362370813003 0 -0.084006350731239035 -0.058330545374601243 0 -0.078987372514215254 -0.039717564826795948 0 -0.089294531887962839 -0.064944775316390785 0 -0.084006350731239035 -0.058330545374601243 0 -0.091980375035341344 -0.058255414941385981 0 -0.084006350731239035 -0.058330545374601243 0 -0.091980375035341344 -0.058255414941385981 0 -0.088840629046846267 -0.051387554552533597 0 -0.089294531887962839 -0.064944775316390785 0 -0.095853538378801978 -0.063665943450479934 0 -0.091980375035341344 -0.058255414941385981 0 -0.09521718649964403 -0.054527079019672998 0 -0.091980375035341344 -0.058255414941385981 0 -0.088840629046846267 -0.051387554552533597 0 -0.083512091335987165 -0.017656127969590828 0 -0.078987372514215254 -0.039717564826795948 0 -0.093097801653344511 -0.037708923622375642 0 -0.1016221560041613 -0.050481730642711997 0 -0.078987372514215254 -0.039717564826795948 0 -0.1016221560041613 -0.050481730642711997 0 -0.078987372514215254 -0.039717564826795948 0 -0.093097801653344511 -0.037708923622375642 0 -0.078987372514215254 -0.039717564826795948 0 -0.059238092891469203 -0.048249655462365267 0 -0.054567003058480758 -0.02810424825921598 0 -0.078987372514215254 -0.039717564826795948 0 -0.054567003058480758 -0.02810424825921598 0 -0.068898019160179541 -0.066534685844938518 0 -0.078987372514215254 -0.039717564826795948 0 -0.059238092891469203 -0.048249655462365267 0 -0.072958403535949207 -0.069113362370813003 0 -0.068898019160179541 -0.066534685844938518 0 -0.078987372514215254 -0.039717564826795948 0 -0.072958403535949207 -0.069113362370813003 0 -0.078987372514215254 -0.039717564826795948 0 -0.059238092891469203 -0.048249655462365267 0 -0.041026015734841548 -0.044223741549828763 0 -0.040629803552433959 -0.066031836856752624 0 -0.068898019160179541 -0.066534685844938518 0 -0.059238092891469203 -0.048249655462365267 0 -0.040629803552433959 -0.066031836856752624 0 -0.059238092891469203 -0.048249655462365267 0 -0.041026015734841548 -0.044223741549828763 0 -0.054567003058480758 -0.02810424825921598 0 -0.041026015734841548 -0.044223741549828763 0 -0.035392856958750912 -0.031643137321570612 0 -0.054567003058480758 -0.02810424825921598 0 -0.041026015734841548 -0.044223741549828763 0 -0.035392856958750912 -0.031643137321570612 0 -0.029283440047811651 -0.038666537696970163 0 -0.041026015734841548 -0.044223741549828763 0 -0.027101210064577091 -0.053947830086904527 0 -0.029283440047811651 -0.038666537696970163 0 -0.041026015734841548 -0.044223741549828763 0 -0.027101210064577091 -0.053947830086904527 0 -0.040629803552433959 -0.066031836856752624 0 -0.063004941211177848 -0.0061621375804896154 0 -0.048009289247070243 -0.010663748130738461 0 -0.044318579115875903 0.008102325008387725 0 -0.063004941211177848 -0.0061621375804896154 0 -0.048009289247070243 -0.010663748130738461 0 -0.054567003058480758 -0.02810424825921598 0 -0.035392856958750912 -0.031643137321570612 0 -0.054567003058480758 -0.02810424825921598 0 -0.030146633602746439 -0.016490931691635971 0 -0.048009289247070243 -0.010663748130738461 0 -0.054567003058480758 -0.02810424825921598 0 -0.030146633602746439 -0.016490931691635971 0 -0.054567003058480758 -0.02810424825921598 0 -0.030146633602746439 -0.016490931691635971 0 -0.026021923604767402 -0.00073962999182732459 0 -0.030146633602746439 -0.016490931691635971 0 -0.044318579115875903 0.008102325008387725 0 -0.030146633602746439 -0.016490931691635971 0 -0.044318579115875903 0.008102325008387725 0 -0.048009289247070243 -0.010663748130738461 0 -0.030146633602746439 -0.016490931691635971 0 -0.044318579115875903 0.008102325008387725 0 -0.030146633602746439 -0.016490931691635971 0 -0.0091135872956926781 -0.0064884857586527227 0 -0.030146633602746439 -0.016490931691635971 0 -0.01401441701786765 -0.020050039090343721 0 -0.0091135872956926781 -0.0064884857586527227 0 -0.026021923604767402 -0.00073962999182732459 0 -0.030146633602746439 -0.016490931691635971 0 -0.0091135872956926781 -0.0064884857586527227 0 -0.030146633602746439 -0.016490931691635971 0 -0.021941192349874131 -0.030730227410202159 0 -0.01401441701786765 -0.020050039090343721 0 -0.030146633602746439 -0.016490931691635971 0 -0.021941192349874131 -0.030730227410202159 0 -0.035392856958750912 -0.031643137321570612 0 -0.030146633602746439 -0.016490931691635971 0 -0.021941192349874131 -0.030730227410202159 0 -0.007540626864187619 -0.02996866905717829 0 -0.01401441701786765 -0.020050039090343721 0 0.0051143707887136552 -0.023054387327477829 0 -0.01401441701786765 -0.020050039090343721 0 -0.0091135872956926781 -0.0064884857586527227 0 0.0051143707887136552 -0.023054387327477829 0 -0.021941192349874131 -0.030730227410202159 0 -0.007540626864187619 -0.02996866905717829 0 -0.01401441701786765 -0.020050039090343721 0 -0.027101210064577091 -0.053947830086904527 0 -0.012361587944688231 -0.065528987868567479 0 -0.040629803552433959 -0.066031836856752624 0 -0.027101210064577091 -0.053947830086904527 0 -0.01849328228872062 -0.039349265871030492 0 -0.012361587944688231 -0.065528987868567479 0 -0.027101210064577091 -0.053947830086904527 0 -0.029283440047811651 -0.038666537696970163 0 -0.01849328228872062 -0.039349265871030492 0 -0.035392856958750912 -0.031643137321570612 0 -0.021941192349874131 -0.030730227410202159 0 -0.029283440047811651 -0.038666537696970163 0 -0.021941192349874131 -0.030730227410202159 0 -0.029283440047811651 -0.038666537696970163 0 -0.01849328228872062 -0.039349265871030492 0 -0.021941192349874131 -0.030730227410202159 0 -0.007540626864187619 -0.02996866905717829 0 -0.01849328228872062 -0.039349265871030492 0 -0.01849328228872062 -0.039349265871030492 0 -0.0062391720725704864 -0.041057791744862487 0 -0.0056097205319509333 -0.050804953611167721 0 -0.007540626864187619 -0.02996866905717829 0 -0.01849328228872062 -0.039349265871030492 0 -0.0062391720725704864 -0.041057791744862487 0 -0.007540626864187619 -0.02996866905717829 0 -0.0062391720725704864 -0.041057791744862487 0 0.0066869413945772234 -0.044108278440073492 0 -0.0062391720725704864 -0.041057791744862487 0 -0.0056097205319509333 -0.050804953611167721 0 0.0066869413945772234 -0.044108278440073492 0 -0.01849328228872062 -0.039349265871030492 0 -0.0056097205319509333 -0.050804953611167721 0 -0.012361587944688231 -0.065528987868567479 0 -0.01849328228872062 -0.039349265871030492 0 -0.012361587944688231 -0.065528987868567479 0 -0.0056097205319509333 -0.050804953611167721 0 -0.012361587944688231 -0.065528987868567479 0 0.0082595120004408315 -0.065162169552669041 0 -0.012361587944688231 -0.065528987868567479 0 0.0082595120004408315 -0.065162169552669041 0 -0.00024021725394687791 -0.076670899322077657 0 -0.012361587944688231 -0.065528987868567479 0 0.0082595120004408315 -0.065162169552669041 0 -0.00024021725394687791 -0.076670899322077657 0 -0.012361587944688231 -0.065528987868567479 0 -0.0066948089860832194 -0.089723719281127878 0 -0.012361587944688231 -0.065528987868567479 0 -0.0066948089860832194 -0.089723719281127878 0 -0.012361587944688231 -0.065528987868567479 0 -0.0066948089860832194 -0.089723719281127878 0 -0.02429762151303709 -0.08781055317713285 0 -0.012361587944688231 -0.065528987868567479 0 -0.02429762151303709 -0.08781055317713285 0 -0.040629803552433959 -0.066031836856752624 0 -0.012361587944688231 -0.065528987868567479 0 -0.040629803552433959 -0.066031836856752624 0 -0.02429762151303709 -0.08781055317713285 0 -0.040629803552433959 -0.066031836856752624 0 -0.045067000030077527 -0.092048380976838373 0 -0.06692943455767672 -0.098509159914828726 0 -0.045067000030077527 -0.092048380976838373 0 -0.059867155803332461 -0.079483933276066843 0 -0.040629803552433959 -0.066031836856752624 0 -0.045067000030077527 -0.092048380976838373 0 -0.059867155803332461 -0.079483933276066843 0 -0.068898019160179541 -0.066534685844938518 0 -0.040629803552433959 -0.066031836856752624 0 -0.059867155803332461 -0.079483933276066843 0 -0.068898019160179541 -0.066534685844938518 0 -0.040629803552433959 -0.066031836856752624 0 -0.06692943455767672 -0.098509159914828726 0 -0.049303136398696143 -0.1102102299326628 0 -0.060900465579404449 -0.12790495745884439 0 -0.049303136398696143 -0.1102102299326628 0 -0.060900465579404449 -0.12790495745884439 0 -0.036034807727018232 -0.13448420286865501 0 -0.06692943455767672 -0.098509159914828726 0 -0.045067000030077527 -0.092048380976838373 0 -0.049303136398696143 -0.1102102299326628 0 -0.02429762151303709 -0.08781055317713285 0 -0.045067000030077527 -0.092048380976838373 0 -0.029374848355288859 -0.1102445727035864 0 -0.045067000030077527 -0.092048380976838373 0 -0.049303136398696143 -0.1102102299326628 0 -0.029374848355288859 -0.1102445727035864 0 -0.049303136398696143 -0.1102102299326628 0 -0.029374848355288859 -0.1102445727035864 0 -0.036034807727018232 -0.13448420286865501 0 -0.029374848355288859 -0.1102445727035864 0 -0.01489624148850436 -0.1037488871815999 0 -0.01308589856063455 -0.1170471400524641 0 -0.029374848355288859 -0.1102445727035864 0 -0.01308589856063455 -0.1170471400524641 0 -0.018967285969590651 -0.12720018707368069 0 -0.029374848355288859 -0.1102445727035864 0 -0.018967285969590651 -0.12720018707368069 0 -0.036034807727018232 -0.13448420286865501 0 -0.02429762151303709 -0.08781055317713285 0 -0.029374848355288859 -0.1102445727035864 0 -0.01489624148850436 -0.1037488871815999 0 -0.0066948089860832194 -0.089723719281127878 0 -0.001028030027478062 -0.11391845069368831 0 -0.0066948089860832194 -0.089723719281127878 0 -0.02429762151303709 -0.08781055317713285 0 -0.01489624148850436 -0.1037488871815999 0 -0.0066948089860832194 -0.089723719281127878 0 -0.001028030027478062 -0.11391845069368831 0 0.0033814241824068128 -0.099321540544996478 0 -0.0066948089860832194 -0.089723719281127878 0 -0.01489624148850436 -0.1037488871815999 0 -0.001028030027478062 -0.11391845069368831 0 -0.01308589856063455 -0.1170471400524641 0 -0.0054798175551773127 -0.12772211712590081 0 -0.018967285969590651 -0.12720018707368069 0 -0.01489624148850436 -0.1037488871815999 0 -0.01308589856063455 -0.1170471400524641 0 -0.001028030027478062 -0.11391845069368831 0 -0.01308589856063455 -0.1170471400524641 0 -0.001028030027478062 -0.11391845069368831 0 -0.0054798175551773127 -0.12772211712590081 0 -0.001028030027478062 -0.11391845069368831 0 -0.0054798175551773127 -0.12772211712590081 0 0.0046387489311270954 -0.13811318210624859 0 -0.0036158818517000781 -0.13706280464972481 0 -0.003295276397832322 -0.14382612380074011 0 0.0046387489311270954 -0.13811318210624859 0 -0.0054798175551773127 -0.12772211712590081 0 -0.0036158818517000781 -0.13706280464972481 0 -0.01116914987463186 -0.14106344827846509 0 -0.0054798175551773127 -0.12772211712590081 0 -0.0036158818517000781 -0.13706280464972481 0 0.0046387489311270954 -0.13811318210624859 0 -0.0054798175551773127 -0.12772211712590081 0 -0.018967285969590651 -0.12720018707368069 0 -0.01116914987463186 -0.14106344827846509 0 -0.018967285969590651 -0.12720018707368069 0 -0.01116914987463186 -0.14106344827846509 0 -0.036034807727018232 -0.13448420286865501 0 -0.01116914987463186 -0.14106344827846509 0 -0.036034807727018232 -0.13448420286865501 0 -0.02280104140391195 -0.1524408248260819 0 -0.01116914987463186 -0.14106344827846509 0 -0.036034807727018232 -0.13448420286865501 0 -0.02280104140391195 -0.1524408248260819 0 -0.0082131548097218246 -0.15069717752268461 0 -0.01022825524514424 -0.15992950905631739 0 -0.02280104140391195 -0.1524408248260819 0 -0.0082131548097218246 -0.15069717752268461 0 -0.01116914987463186 -0.14106344827846509 0 -0.0082131548097218246 -0.15069717752268461 0 -0.01116914987463186 -0.14106344827846509 0 -0.003295276397832322 -0.14382612380074011 0 -0.0036158818517000781 -0.13706280464972481 0 -0.01116914987463186 -0.14106344827846509 0 -0.003295276397832322 -0.14382612380074011 0 -0.0082131548097218246 -0.15069717752268461 0 -0.01022825524514424 -0.15992950905631739 0 2.2319898320726539e-05 -0.15308584406029441 0 -0.0082131548097218246 -0.15069717752268461 0 -0.003295276397832322 -0.14382612380074011 0 2.2319898320726539e-05 -0.15308584406029441 0 -0.001887691363514975 -0.164656958179625 0 -0.01022825524514424 -0.15992950905631739 0 2.2319898320726539e-05 -0.15308584406029441 0 -0.001887691363514975 -0.164656958179625 0 -0.0096010492412291308 -0.16978935979713911 0 -0.01022825524514424 -0.15992950905631739 0 -0.001887691363514975 -0.164656958179625 0 -0.0096010492412291308 -0.16978935979713911 0 -5.3544461884005358e-06 -0.1771938024683295 0 -0.0096010492412291308 -0.16978935979713911 0 -0.01522369258016886 -0.17891243177687 0 -0.02079696122499701 -0.16629737351008211 0 -0.0096010492412291308 -0.16978935979713911 0 -0.01022825524514424 -0.15992950905631739 0 -0.02079696122499701 -0.16629737351008211 0 -0.0033692767582445778 -0.1865352550921229 0 -5.3544461884005358e-06 -0.1771938024683295 0 -0.01522369258016886 -0.17891243177687 0 -0.0096010492412291308 -0.16978935979713911 0 -5.3544461884005358e-06 -0.1771938024683295 0 -0.01522369258016886 -0.17891243177687 0 -0.0033692767582445778 -0.1865352550921229 0 -0.01522369258016886 -0.17891243177687 0 -0.015463538665675659 -0.19278455079446541 0 -0.029440483966022619 -0.17685630419035281 0 -0.015463538665675659 -0.19278455079446541 0 -0.029440483966022619 -0.17685630419035281 0 -0.015463538665675659 -0.19278455079446541 0 -0.031710431977209422 -0.1918985681319374 0 -0.01522369258016886 -0.17891243177687 0 -0.029440483966022619 -0.17685630419035281 0 -0.015463538665675659 -0.19278455079446541 0 -0.01522369258016886 -0.17891243177687 0 -0.029440483966022619 -0.17685630419035281 0 -0.02079696122499701 -0.16629737351008211 0 -0.029440483966022619 -0.17685630419035281 0 -0.02079696122499701 -0.16629737351008211 0 -0.043417429266369052 -0.16092805758623979 0 -0.02280104140391195 -0.1524408248260819 0 -0.02079696122499701 -0.16629737351008211 0 -0.043417429266369052 -0.16092805758623979 0 -0.02280104140391195 -0.1524408248260819 0 -0.01022825524514424 -0.15992950905631739 0 -0.02079696122499701 -0.16629737351008211 0 -0.029440483966022619 -0.17685630419035281 0 -0.043417429266369052 -0.16092805758623979 0 -0.042584260815373212 -0.17617129341340329 0 -0.029440483966022619 -0.17685630419035281 0 -0.043417429266369052 -0.16092805758623979 0 -0.043417429266369052 -0.16092805758623979 0 -0.042584260815373212 -0.17617129341340329 0 -0.052675849927727947 -0.16800619822576801 0 -0.029440483966022619 -0.17685630419035281 0 -0.037923125511837123 -0.183984687801276 0 -0.031710431977209422 -0.1918985681319374 0 -0.029440483966022619 -0.17685630419035281 0 -0.037923125511837123 -0.183984687801276 0 -0.042584260815373212 -0.17617129341340329 0 -0.037923125511837123 -0.183984687801276 0 -0.042584260815373212 -0.17617129341340329 0 -0.047957325288743219 -0.1910125854694105 0 -0.052675849927727947 -0.16800619822576801 0 -0.047957325288743219 -0.1910125854694105 0 -0.063881161707650583 -0.19014421988606189 0 -0.052675849927727947 -0.16800619822576801 0 -0.063881161707650583 -0.19014421988606189 0 -0.070429569832432606 -0.17557815348171571 0 -0.052675849927727947 -0.16800619822576801 0 -0.047957325288743219 -0.1910125854694105 0 -0.042584260815373212 -0.17617129341340329 0 -0.052675849927727947 -0.16800619822576801 0 -0.047957325288743219 -0.1910125854694105 0 -0.043417429266369052 -0.16092805758623979 0 -0.052675849927727947 -0.16800619822576801 0 -0.057394374566714347 -0.14499981098212589 0 -0.052675849927727947 -0.16800619822576801 0 -0.057394374566714347 -0.14499981098212589 0 -0.075051408387513882 -0.15999808833271911 0 -0.052675849927727947 -0.16800619822576801 0 -0.057394374566714347 -0.14499981098212589 0 -0.043417429266369052 -0.16092805758623979 0 -0.057394374566714347 -0.14499981098212589 0 -0.060900465579404449 -0.12790495745884439 0 -0.036034807727018232 -0.13448420286865501 0 -0.057394374566714347 -0.14499981098212589 0 -0.060900465579404449 -0.12790495745884439 0 -0.057394374566714347 -0.14499981098212589 0 -0.060900465579404449 -0.12790495745884439 0 -0.036034807727018232 -0.13448420286865501 0 -0.043417429266369052 -0.16092805758623979 0 -0.057394374566714347 -0.14499981098212589 0 -0.036034807727018232 -0.13448420286865501 0 -0.02280104140391195 -0.1524408248260819 0 -0.043417429266369052 -0.16092805758623979 0 -0.036034807727018232 -0.13448420286865501 0 -0.01839886132560872 -0.25019989862372383 0 -0.03006799296123144 -0.25724647389131572 0 -0.026264657736265611 -0.23868484604035009 0 -0.01839886132560872 -0.25019989862372383 0 -0.026264657736265611 -0.23868484604035009 0 -0.0041270044632565851 -0.24036354253699119 0 -0.0041270044632565851 -0.24036354253699119 0 -0.018393644026480221 -0.22339731725932849 0 -0.0078620552027435422 -0.2186815975286423 0 -0.0041270044632565851 -0.24036354253699119 0 -0.0078620552027435422 -0.2186815975286423 0 0.0048817812151679806 -0.21622235304774551 0 -0.026264657736265611 -0.23868484604035009 0 -0.018393644026480221 -0.22339731725932849 0 -0.031132699369712542 -0.22106330520034731 0 -0.026264657736265611 -0.23868484604035009 0 -0.0041270044632565851 -0.24036354253699119 0 -0.018393644026480221 -0.22339731725932849 0 -0.018393644026480221 -0.22339731725932849 0 -0.031132699369712542 -0.22106330520034731 0 -0.02566283050708907 -0.20875326072612049 0 -0.02566283050708907 -0.20875326072612049 0 -0.01854721707837844 -0.20482930036085309 0 -0.016569562640660972 -0.21124518278790769 0 -0.02566283050708907 -0.20875326072612049 0 -0.01854721707837844 -0.20482930036085309 0 -0.019550086272696669 -0.19802620230824891 0 -0.01854721707837844 -0.20482930036085309 0 -0.016569562640660972 -0.21124518278790769 0 -0.013325100104951131 -0.2003552212321274 0 -0.018393644026480221 -0.22339731725932849 0 -0.02566283050708907 -0.20875326072612049 0 -0.016569562640660972 -0.21124518278790769 0 -0.018393644026480221 -0.22339731725932849 0 -0.016569562640660972 -0.21124518278790769 0 -0.0078620552027435422 -0.2186815975286423 0 -0.0078620552027435422 -0.2186815975286423 0 -0.013325100104951131 -0.2003552212321274 0 0.0048817812151679806 -0.21622235304774551 0 -0.013325100104951131 -0.2003552212321274 0 0.0048817812151679806 -0.21622235304774551 0 -0.013325100104951131 -0.2003552212321274 0 -0.0013623835559313359 -0.20165386277560371 0 0.0048817812151679806 -0.21622235304774551 0 -0.016569562640660972 -0.21124518278790769 0 -0.0078620552027435422 -0.2186815975286423 0 -0.013325100104951131 -0.2003552212321274 0 -0.015463538665675659 -0.19278455079446541 0 -0.013821848097821721 -0.1946554354298792 0 0.01304787858981893 -0.19433934781861331 0 -0.0033692767582445778 -0.1865352550921229 0 -0.015463538665675659 -0.19278455079446541 0 0.01304787858981893 -0.19433934781861331 0 -0.013325100104951131 -0.2003552212321274 0 -0.0013623835559313359 -0.20165386277560371 0 -0.013821848097821721 -0.1946554354298792 0 -0.0013623835559313359 -0.20165386277560371 0 -0.013821848097821721 -0.1946554354298792 0 0.01304787858981893 -0.19433934781861331 0 -0.015463538665675659 -0.19278455079446541 0 0.01304787858981893 -0.19433934781861331 0 -0.013325100104951131 -0.2003552212321274 0 -0.013821848097821721 -0.1946554354298792 0 -0.019550086272696669 -0.19802620230824891 0 -0.015463538665675659 -0.19278455079446541 0 -0.013821848097821721 -0.1946554354298792 0 -0.015463538665675659 -0.19278455079446541 0 -0.019550086272696669 -0.19802620230824891 0 -0.031710431977209422 -0.1918985681319374 0 -0.02566283050708907 -0.20875326072612049 0 -0.019550086272696669 -0.19802620230824891 0 -0.031710431977209422 -0.1918985681319374 0 -0.015463538665675659 -0.19278455079446541 0 -0.031710431977209422 -0.1918985681319374 0 -0.015463538665675659 -0.19278455079446541 0 -0.013821848097821721 -0.1946554354298792 0 -0.019550086272696669 -0.19802620230824891 0 -0.01854721707837844 -0.20482930036085309 0 -0.013325100104951131 -0.2003552212321274 0 -0.019550086272696669 -0.19802620230824891 0 -0.037923125511837123 -0.183984687801276 0 -0.031710431977209422 -0.1918985681319374 0 -0.047957325288743219 -0.1910125854694105 0 -0.047957325288743219 -0.1910125854694105 0 -0.043919397310069122 -0.21070054767093971 0 -0.031710431977209422 -0.1918985681319374 0 -0.047957325288743219 -0.1910125854694105 0 -0.031710431977209422 -0.1918985681319374 0 -0.047957325288743219 -0.1910125854694105 0 -0.043919397310069122 -0.21070054767093971 0 -0.047957325288743219 -0.1910125854694105 0 -0.061648440844240537 -0.20739909046133681 0 -0.043919397310069122 -0.21070054767093971 0 -0.047957325288743219 -0.1910125854694105 0 -0.061648440844240537 -0.20739909046133681 0 -0.063881161707650583 -0.19014421988606189 0 -0.047957325288743219 -0.1910125854694105 0 -0.063881161707650583 -0.19014421988606189 0 -0.061648440844240537 -0.20739909046133681 0 -0.043919397310069122 -0.21070054767093971 0 -0.057945406063864953 -0.2287591622754977 0 -0.02566283050708907 -0.20875326072612049 0 -0.031710431977209422 -0.1918985681319374 0 -0.043919397310069122 -0.21070054767093971 0 -0.031132699369712542 -0.22106330520034731 0 -0.02566283050708907 -0.20875326072612049 0 -0.043919397310069122 -0.21070054767093971 0 -0.026264657736265611 -0.23868484604035009 0 -0.031132699369712542 -0.22106330520034731 0 -0.039881469331394998 -0.23038850987246889 0 -0.043919397310069122 -0.21070054767093971 0 -0.039881469331394998 -0.23038850987246889 0 -0.031132699369712542 -0.22106330520034731 0 -0.043919397310069122 -0.21070054767093971 0 -0.039881469331394998 -0.23038850987246889 0 -0.043919397310069122 -0.21070054767093971 0 -0.039881469331394998 -0.23038850987246889 0 -0.057945406063864953 -0.2287591622754977 0 -0.057945406063864953 -0.2287591622754977 0 -0.062202585045066157 -0.24295494536855569 0 -0.043874421176183821 -0.24537707732808131 0 -0.057188324854627742 -0.25405492496477711 0 -0.062202585045066157 -0.24295494536855569 0 -0.043874421176183821 -0.24537707732808131 0 -0.039881469331394998 -0.23038850987246889 0 -0.057945406063864953 -0.2287591622754977 0 -0.043874421176183821 -0.24537707732808131 0 -0.026264657736265611 -0.23868484604035009 0 -0.039881469331394998 -0.23038850987246889 0 -0.043874421176183821 -0.24537707732808131 0 -0.03006799296123144 -0.25724647389131572 0 -0.026264657736265611 -0.23868484604035009 0 -0.043874421176183821 -0.24537707732808131 0 -0.085875630078168175 -0.24846762001429371 0 -0.074554072948678857 -0.2396844793767644 0 -0.086752500261642107 -0.2316778106835144 0 -0.085875630078168175 -0.24846762001429371 0 -0.086752500261642107 -0.2316778106835144 0 -0.099362734858958093 -0.23901197359000009 0 -0.07106942269358435 -0.25540659721464293 0 -0.085875630078168175 -0.24846762001429371 0 -0.074554072948678857 -0.2396844793767644 0 -0.057945406063864953 -0.2287591622754977 0 -0.062202585045066157 -0.24295494536855569 0 -0.074554072948678857 -0.2396844793767644 0 -0.07106942269358435 -0.25540659721464293 0 -0.062202585045066157 -0.24295494536855569 0 -0.074554072948678857 -0.2396844793767644 0 -0.057945406063864953 -0.2287591622754977 0 -0.074554072948678857 -0.2396844793767644 0 -0.076162408196520343 -0.2207222048564168 0 -0.061648440844240537 -0.20739909046133681 0 -0.057945406063864953 -0.2287591622754977 0 -0.076162408196520343 -0.2207222048564168 0 -0.076162408196520343 -0.2207222048564168 0 -0.086752500261642107 -0.2316778106835144 0 -0.098013666629585175 -0.21836609525371339 0 -0.074554072948678857 -0.2396844793767644 0 -0.076162408196520343 -0.2207222048564168 0 -0.086752500261642107 -0.2316778106835144 0 -0.076162408196520343 -0.2207222048564168 0 -0.080024946498595095 -0.20305582260969429 0 -0.098013666629585175 -0.21836609525371339 0 -0.080024946498595095 -0.20305582260969429 0 -0.098020805029704089 -0.19848541066210271 0 -0.098013666629585175 -0.21836609525371339 0 -0.061648440844240537 -0.20739909046133681 0 -0.076162408196520343 -0.2207222048564168 0 -0.080024946498595095 -0.20305582260969429 0 -0.063881161707650583 -0.19014421988606189 0 -0.080024946498595095 -0.20305582260969429 0 -0.085361815110627987 -0.18248981304153741 0 -0.061648440844240537 -0.20739909046133681 0 -0.063881161707650583 -0.19014421988606189 0 -0.080024946498595095 -0.20305582260969429 0 -0.080024946498595095 -0.20305582260969429 0 -0.098020805029704089 -0.19848541066210271 0 -0.085361815110627987 -0.18248981304153741 0 -0.098020805029704089 -0.19848541066210271 0 -0.085361815110627987 -0.18248981304153741 0 -0.1037183230137889 -0.18515200527891831 0 -0.098020805029704089 -0.19848541066210271 0 -0.1149770818323876 -0.20146953528956929 0 -0.1037183230137889 -0.18515200527891831 0 -0.1149770818323876 -0.20146953528956929 0 -0.1037183230137889 -0.18515200527891831 0 -0.1208012885048174 -0.17875980632979011 0 -0.1149770818323876 -0.20146953528956929 0 -0.1208012885048174 -0.17875980632979011 0 -0.13356069254961089 -0.20086708604821721 0 -0.1149770818323876 -0.20146953528956929 0 -0.12188465469419731 -0.2183875310632272 0 -0.13356069254961089 -0.20086708604821721 0 -0.1149770818323876 -0.20146953528956929 0 -0.12188465469419731 -0.2183875310632272 0 -0.098013666629585175 -0.21836609525371339 0 -0.098020805029704089 -0.19848541066210271 0 -0.1149770818323876 -0.20146953528956929 0 -0.098013666629585175 -0.21836609525371339 0 -0.086752500261642107 -0.2316778106835144 0 -0.098013666629585175 -0.21836609525371339 0 -0.099362734858958093 -0.23901197359000009 0 -0.098013666629585175 -0.21836609525371339 0 -0.1141734211470444 -0.23319839833142189 0 -0.099362734858958093 -0.23901197359000009 0 -0.12188465469419731 -0.2183875310632272 0 -0.098013666629585175 -0.21836609525371339 0 -0.1141734211470444 -0.23319839833142189 0 -0.12188465469419731 -0.2183875310632272 0 -0.1141734211470444 -0.23319839833142189 0 -0.13395336741499961 -0.23830992118788569 0 -0.11765268213748201 -0.25191647056228322 0 -0.1141734211470444 -0.23319839833142189 0 -0.099362734858958093 -0.23901197359000009 0 -0.11765268213748201 -0.25191647056228322 0 -0.1141734211470444 -0.23319839833142189 0 -0.13395336741499961 -0.23830992118788569 0 -0.09865999631541493 -0.25546331446216519 0 -0.085875630078168175 -0.24846762001429371 0 -0.099362734858958093 -0.23901197359000009 0 -0.09865999631541493 -0.25546331446216519 0 -0.11765268213748201 -0.25191647056228322 0 -0.099362734858958093 -0.23901197359000009 0 -0.088804685303321321 -0.1457198194052742 0 -0.076378239030831352 -0.14117562651866319 0 -0.075051408387513882 -0.15999808833271911 0 -0.088804685303321321 -0.1457198194052742 0 -0.085598192180802044 -0.13233386990435361 0 -0.09968586899277182 -0.13257032295410351 0 -0.075870784320717977 -0.1239439361399271 0 -0.085598192180802044 -0.13233386990435361 0 -0.076378239030831352 -0.14117562651866319 0 -0.088907882466195909 -0.1204944288459702 0 -0.085598192180802044 -0.13233386990435361 0 -0.09968586899277182 -0.13257032295410351 0 -0.075870784320717977 -0.1239439361399271 0 -0.088907882466195909 -0.1204944288459702 0 -0.085598192180802044 -0.13233386990435361 0 -0.088804685303321321 -0.1457198194052742 0 -0.085598192180802044 -0.13233386990435361 0 -0.076378239030831352 -0.14117562651866319 0 -0.075870784320717977 -0.1239439361399271 0 -0.057394374566714347 -0.14499981098212589 0 -0.060900465579404449 -0.12790495745884439 0 -0.075870784320717977 -0.1239439361399271 0 -0.057394374566714347 -0.14499981098212589 0 -0.075870784320717977 -0.1239439361399271 0 -0.057394374566714347 -0.14499981098212589 0 -0.076378239030831352 -0.14117562651866319 0 -0.075870784320717977 -0.1239439361399271 0 -0.060900465579404449 -0.12790495745884439 0 -0.057394374566714347 -0.14499981098212589 0 -0.076378239030831352 -0.14117562651866319 0 -0.075051408387513882 -0.15999808833271911 0 -0.052675849927727947 -0.16800619822576801 0 -0.075051408387513882 -0.15999808833271911 0 -0.070429569832432606 -0.17557815348171571 0 -0.063881161707650583 -0.19014421988606189 0 -0.070429569832432606 -0.17557815348171571 0 -0.085361815110627987 -0.18248981304153741 0 -0.075051408387513882 -0.15999808833271911 0 -0.070429569832432606 -0.17557815348171571 0 -0.085361815110627987 -0.18248981304153741 0 -0.088804685303321321 -0.1457198194052742 0 -0.075051408387513882 -0.15999808833271911 0 -0.098105790821087807 -0.16371455156266149 0 -0.075051408387513882 -0.15999808833271911 0 -0.085361815110627987 -0.18248981304153741 0 -0.098105790821087807 -0.16371455156266149 0 -0.098105790821087807 -0.16371455156266149 0 -0.1037183230137889 -0.18515200527891831 0 -0.1208012885048174 -0.17875980632979011 0 -0.085361815110627987 -0.18248981304153741 0 -0.098105790821087807 -0.16371455156266149 0 -0.1037183230137889 -0.18515200527891831 0 -0.098105790821087807 -0.16371455156266149 0 -0.1208012885048174 -0.17875980632979011 0 -0.11873561051789409 -0.15513452414708001 0 -0.11873561051789409 -0.15513452414708001 0 -0.1049514873017267 -0.14599669166403531 0 -0.1194254808735583 -0.13284424025105751 0 -0.088804685303321321 -0.1457198194052742 0 -0.098105790821087807 -0.16371455156266149 0 -0.1049514873017267 -0.14599669166403531 0 -0.088804685303321321 -0.1457198194052742 0 -0.1049514873017267 -0.14599669166403531 0 -0.09968586899277182 -0.13257032295410351 0 -0.098105790821087807 -0.16371455156266149 0 -0.11873561051789409 -0.15513452414708001 0 -0.1049514873017267 -0.14599669166403531 0 -0.1049514873017267 -0.14599669166403531 0 -0.09968586899277182 -0.13257032295410351 0 -0.1194254808735583 -0.13284424025105751 0 -0.1099118235296565 -0.1183137480131316 0 -0.09968586899277182 -0.13257032295410351 0 -0.1194254808735583 -0.13284424025105751 0 -0.1194254808735583 -0.13284424025105751 0 -0.13806283859120019 -0.13834194389051091 0 -0.13835085655392121 -0.1187565731663435 0 -0.13806283859120019 -0.13834194389051091 0 -0.159421934376267 -0.13459952323704791 0 -0.13835085655392121 -0.1187565731663435 0 -0.13806283859120019 -0.13834194389051091 0 -0.14122540013397539 -0.15751416474493379 0 -0.159421934376267 -0.13459952323704791 0 -0.11873561051789409 -0.15513452414708001 0 -0.1194254808735583 -0.13284424025105751 0 -0.13806283859120019 -0.13834194389051091 0 -0.11873561051789409 -0.15513452414708001 0 -0.13806283859120019 -0.13834194389051091 0 -0.14122540013397539 -0.15751416474493379 0 -0.1208012885048174 -0.17875980632979011 0 -0.11873561051789409 -0.15513452414708001 0 -0.14122540013397539 -0.15751416474493379 0 -0.1208012885048174 -0.17875980632979011 0 -0.15059295934029049 -0.1843629221118761 0 -0.14122540013397539 -0.15751416474493379 0 -0.15059295934029049 -0.1843629221118761 0 -0.14122540013397539 -0.15751416474493379 0 -0.15059295934029049 -0.1843629221118761 0 -0.14122540013397539 -0.15751416474493379 0 -0.17166052667872481 -0.1602653036291963 0 -0.15059295934029049 -0.1843629221118761 0 -0.17166052667872481 -0.1602653036291963 0 -0.17628609215219321 -0.18932381135475701 0 -0.17166052667872481 -0.1602653036291963 0 -0.17628609215219321 -0.18932381135475701 0 -0.1987684896006916 -0.1696508880431459 0 -0.17166052667872481 -0.1602653036291963 0 -0.18911718191495261 -0.15400678809043339 0 -0.1987684896006916 -0.1696508880431459 0 -0.17166052667872481 -0.1602653036291963 0 -0.18734028105635239 -0.13571120865948949 0 -0.159421934376267 -0.13459952323704791 0 -0.17166052667872481 -0.1602653036291963 0 -0.18734028105635239 -0.13571120865948949 0 -0.18911718191495261 -0.15400678809043339 0 -0.18734028105635239 -0.13571120865948949 0 -0.159421934376267 -0.13459952323704791 0 -0.18130817615218101 -0.1172727498833388 0 -0.14122540013397539 -0.15751416474493379 0 -0.17166052667872481 -0.1602653036291963 0 -0.159421934376267 -0.13459952323704791 0 -0.1567973963075309 -0.25298911689451542 0 -0.13395336741499961 -0.23830992118788569 0 -0.15196963356534091 -0.23171476753448039 0 -0.12188465469419731 -0.2183875310632272 0 -0.13395336741499961 -0.23830992118788569 0 -0.14026577335415091 -0.22009819706252581 0 -0.14026577335415091 -0.22009819706252581 0 -0.15196963356534091 -0.23171476753448039 0 -0.15996051854660559 -0.2112116794788185 0 -0.13395336741499961 -0.23830992118788569 0 -0.14026577335415091 -0.22009819706252581 0 -0.15196963356534091 -0.23171476753448039 0 -0.14026577335415091 -0.22009819706252581 0 -0.13356069254961089 -0.20086708604821721 0 -0.15996051854660559 -0.2112116794788185 0 -0.12188465469419731 -0.2183875310632272 0 -0.14026577335415091 -0.22009819706252581 0 -0.13356069254961089 -0.20086708604821721 0 -0.1208012885048174 -0.17875980632979011 0 -0.15059295934029049 -0.1843629221118761 0 -0.13356069254961089 -0.20086708604821721 0 -0.15059295934029049 -0.1843629221118761 0 -0.15996051854660559 -0.2112116794788185 0 -0.15059295934029049 -0.1843629221118761 0 -0.13356069254961089 -0.20086708604821721 0 -0.15996051854660559 -0.2112116794788185 0 -0.15059295934029049 -0.1843629221118761 0 -0.17628609215219321 -0.18932381135475701 0 -0.15996051854660559 -0.2112116794788185 0 -0.17628609215219321 -0.18932381135475701 0 -0.18085683274130529 -0.21303075994626189 0 -0.1972616124858276 -0.19843301921288001 0 -0.17628609215219321 -0.18932381135475701 0 -0.18085683274130529 -0.21303075994626189 0 -0.15996051854660559 -0.2112116794788185 0 -0.18085683274130529 -0.21303075994626189 0 -0.15996051854660559 -0.2112116794788185 0 -0.1693280777529208 -0.23806043684576109 0 -0.15996051854660559 -0.2112116794788185 0 -0.1693280777529208 -0.23806043684576109 0 -0.15196963356534091 -0.23171476753448039 0 -0.15996051854660559 -0.2112116794788185 0 -0.1693280777529208 -0.23806043684576109 0 -0.18085683274130529 -0.21303075994626189 0 -0.1693280777529208 -0.23806043684576109 0 -0.18895518764589911 -0.23077775184403501 0 -0.18480226679196021 -0.24826169229616421 0 -0.1693280777529208 -0.23806043684576109 0 -0.18895518764589911 -0.23077775184403501 0 -0.1567973963075309 -0.25298911689451542 0 -0.15196963356534091 -0.23171476753448039 0 -0.1693280777529208 -0.23806043684576109 0 -0.21170975670029729 -0.25701645892309 0 -0.21288912416354849 -0.2418157285043038 0 -0.2281935186227517 -0.24047850070613719 0 -0.21288912416354849 -0.2418157285043038 0 -0.2069607795870736 -0.2320111014246771 0 -0.21790824447425999 -0.2338496705622419 0 -0.21288912416354849 -0.2418157285043038 0 -0.1985736096990128 -0.24614429536279631 0 -0.2069607795870736 -0.2320111014246771 0 -0.21170975670029729 -0.25701645892309 0 -0.21288912416354849 -0.2418157285043038 0 -0.1985736096990128 -0.24614429536279631 0 -0.18480226679196021 -0.24826169229616421 0 -0.1985736096990128 -0.24614429536279631 0 -0.18895518764589911 -0.23077775184403501 0 -0.1985736096990128 -0.24614429536279631 0 -0.18895518764589911 -0.23077775184403501 0 -0.2069607795870736 -0.2320111014246771 0 -0.19242827817645169 -0.25401505885545728 0 -0.18480226679196021 -0.24826169229616421 0 -0.1985736096990128 -0.24614429536279631 0 -0.18895518764589911 -0.23077775184403501 0 -0.2069607795870736 -0.2320111014246771 0 -0.20132357399083389 -0.21620527767266801 0 -0.18085683274130529 -0.21303075994626189 0 -0.18895518764589911 -0.23077775184403501 0 -0.20132357399083389 -0.21620527767266801 0 -0.2069607795870736 -0.2320111014246771 0 -0.20132357399083389 -0.21620527767266801 0 -0.22183001674871111 -0.22176756674572709 0 -0.2069607795870736 -0.2320111014246771 0 -0.21790824447425999 -0.2338496705622419 0 -0.22183001674871111 -0.22176756674572709 0 -0.20132357399083389 -0.21620527767266801 0 -0.213461401216473 -0.20222317115606361 0 -0.22183001674871111 -0.22176756674572709 0 -0.20132357399083389 -0.21620527767266801 0 -0.1972616124858276 -0.19843301921288001 0 -0.213461401216473 -0.20222317115606361 0 -0.18085683274130529 -0.21303075994626189 0 -0.20132357399083389 -0.21620527767266801 0 -0.1972616124858276 -0.19843301921288001 0 -0.1972616124858276 -0.19843301921288001 0 -0.213461401216473 -0.20222317115606361 0 -0.21234727214081309 -0.1841717075511875 0 -0.213461401216473 -0.20222317115606361 0 -0.22959262142825529 -0.18892450323897711 0 -0.21234727214081309 -0.1841717075511875 0 -0.213461401216473 -0.20222317115606361 0 -0.22959262142825529 -0.18892450323897711 0 -0.22837899623642649 -0.20482220624890121 0 -0.22959262142825529 -0.18892450323897711 0 -0.22837899623642649 -0.20482220624890121 0 -0.24546323405784759 -0.1873969228452104 0 -0.22837899623642649 -0.20482220624890121 0 -0.24546323405784759 -0.1873969228452104 0 -0.25382424359427908 -0.2090843665154222 0 -0.22837899623642649 -0.20482220624890121 0 -0.2399816839331487 -0.22102503518187169 0 -0.25382424359427908 -0.2090843665154222 0 -0.22837899623642649 -0.20482220624890121 0 -0.25382424359427908 -0.2090843665154222 0 -0.2399816839331487 -0.22102503518187169 0 -0.25382424359427908 -0.2090843665154222 0 -0.22837899623642649 -0.20482220624890121 0 -0.22183001674871111 -0.22176756674572709 0 -0.2399816839331487 -0.22102503518187169 0 -0.213461401216473 -0.20222317115606361 0 -0.22837899623642649 -0.20482220624890121 0 -0.22183001674871111 -0.22176756674572709 0 -0.22183001674871111 -0.22176756674572709 0 -0.2399816839331487 -0.22102503518187169 0 -0.2281935186227517 -0.24047850070613719 0 -0.21790824447425999 -0.2338496705622419 0 -0.22183001674871111 -0.22176756674572709 0 -0.2281935186227517 -0.24047850070613719 0 -0.2399816839331487 -0.22102503518187169 0 -0.2454241612416064 -0.23483554906185769 0 -0.2281935186227517 -0.24047850070613719 0 -0.2399816839331487 -0.22102503518187169 0 -0.2454241612416064 -0.23483554906185769 0 -0.26335032430652477 -0.2302420783363496 0 -0.2454241612416064 -0.23483554906185769 0 -0.2281935186227517 -0.24047850070613719 0 -0.25017111810400061 -0.2475965820230723 0 -0.22947204493107151 -0.26093378227803937 0 -0.2281935186227517 -0.24047850070613719 0 -0.25017111810400061 -0.2475965820230723 0 -0.21288912416354849 -0.2418157285043038 0 -0.21790824447425999 -0.2338496705622419 0 -0.2281935186227517 -0.24047850070613719 0 -0.20656102769407531 -0.14683469886441081 0 -0.23137392879517579 -0.13648869622126139 0 -0.21011404882446161 -0.12352365606726411 0 -0.18734028105635239 -0.13571120865948949 0 -0.21011404882446161 -0.12352365606726411 0 -0.18130817615218101 -0.1172727498833388 0 -0.18734028105635239 -0.13571120865948949 0 -0.20656102769407531 -0.14683469886441081 0 -0.21011404882446161 -0.12352365606726411 0 -0.18734028105635239 -0.13571120865948949 0 -0.20656102769407531 -0.14683469886441081 0 -0.18911718191495261 -0.15400678809043339 0 -0.20656102769407531 -0.14683469886441081 0 -0.18911718191495261 -0.15400678809043339 0 -0.1987684896006916 -0.1696508880431459 0 -0.1972616124858276 -0.19843301921288001 0 -0.1987684896006916 -0.1696508880431459 0 -0.21234727214081309 -0.1841717075511875 0 -0.17628609215219321 -0.18932381135475701 0 -0.1972616124858276 -0.19843301921288001 0 -0.1987684896006916 -0.1696508880431459 0 -0.1987684896006916 -0.1696508880431459 0 -0.21234727214081309 -0.1841717075511875 0 -0.222652235972818 -0.16162695610487099 0 -0.1987684896006916 -0.1696508880431459 0 -0.222652235972818 -0.16162695610487099 0 -0.20656102769407531 -0.14683469886441081 0 -0.1987684896006916 -0.1696508880431459 0 -0.222652235972818 -0.16162695610487099 0 -0.22959262142825529 -0.18892450323897711 0 -0.222652235972818 -0.16162695610487099 0 -0.2397253455137616 -0.17109622240950709 0 -0.22959262142825529 -0.18892450323897711 0 -0.21234727214081309 -0.1841717075511875 0 -0.222652235972818 -0.16162695610487099 0 -0.22959262142825529 -0.18892450323897711 0 -0.24546323405784759 -0.1873969228452104 0 -0.2397253455137616 -0.17109622240950709 0 -0.24546323405784759 -0.1873969228452104 0 -0.2397253455137616 -0.17109622240950709 0 -0.26204499323935981 -0.1711089838760475 0 -0.222652235972818 -0.16162695610487099 0 -0.2397253455137616 -0.17109622240950709 0 -0.2465359823449445 -0.15360302416659621 0 -0.2397253455137616 -0.17109622240950709 0 -0.2465359823449445 -0.15360302416659621 0 -0.26204499323935981 -0.1711089838760475 0 -0.222652235972818 -0.16162695610487099 0 -0.2465359823449445 -0.15360302416659621 0 -0.2465359823449445 -0.15360302416659621 0 -0.23137392879517579 -0.13648869622126139 0 -0.2465359823449445 -0.15360302416659621 0 -0.23137392879517579 -0.13648869622126139 0 -0.25128146793851153 -0.13889427779402669 0 -0.20656102769407531 -0.14683469886441081 0 -0.222652235972818 -0.16162695610487099 0 -0.23137392879517579 -0.13648869622126139 0 -0.222652235972818 -0.16162695610487099 0 -0.2465359823449445 -0.15360302416659621 0 -0.23137392879517579 -0.13648869622126139 0 -0.23137392879517579 -0.13648869622126139 0 -0.23779570572734579 -0.12185445691633071 0 -0.21011404882446161 -0.12352365606726411 0 -0.23137392879517579 -0.13648869622126139 0 -0.23779570572734579 -0.12185445691633071 0 -0.25128146793851153 -0.13889427779402669 0 -0.23779570572734579 -0.12185445691633071 0 -0.25465345436680559 -0.12492069913035431 0 -0.25128146793851153 -0.13889427779402669 0 -0.23779570572734579 -0.12185445691633071 0 -0.24918361072656139 -0.1085219300649528 0 -0.25465345436680559 -0.12492069913035431 0 -0.23779570572734579 -0.12185445691633071 0 -0.24918361072656139 -0.1085219300649528 0 -0.22698141926195381 -0.1036580492513853 0 -0.24918361072656139 -0.1085219300649528 0 -0.22698141926195381 -0.1036580492513853 0 -0.241723347685984 -0.084910617152829965 0 -0.24918361072656139 -0.1085219300649528 0 -0.241723347685984 -0.084910617152829965 0 -0.25759158754623951 -0.094656400403218779 0 -0.23779570572734579 -0.12185445691633071 0 -0.22698141926195381 -0.1036580492513853 0 -0.21011404882446161 -0.12352365606726411 0 -0.241723347685984 -0.084910617152829965 0 -0.2336665964102719 -0.06076578682553832 0 -0.25964348400844273 -0.070887320676290319 0 -0.22698141926195381 -0.1036580492513853 0 -0.241723347685984 -0.084910617152829965 0 -0.22109806988892591 -0.082410796599508285 0 -0.241723347685984 -0.084910617152829965 0 -0.22109806988892591 -0.082410796599508285 0 -0.2336665964102719 -0.06076578682553832 0 -0.22109806988892591 -0.082410796599508285 0 -0.2119624984241387 -0.064115171541652957 0 -0.2336665964102719 -0.06076578682553832 0 -0.22109806988892591 -0.082410796599508285 0 -0.2119624984241387 -0.064115171541652957 0 -0.1983066653070244 -0.079159690931856624 0 -0.22109806988892591 -0.082410796599508285 0 -0.1983066653070244 -0.079159690931856624 0 -0.20075951310777651 -0.1025083473618796 0 -0.1983066653070244 -0.079159690931856624 0 -0.20075951310777651 -0.1025083473618796 0 -0.17964480322546311 -0.097731214871272371 0 -0.1983066653070244 -0.079159690931856624 0 -0.20075951310777651 -0.1025083473618796 0 -0.1983066653070244 -0.079159690931856624 0 -0.1958538175062722 -0.055811034501833751 0 -0.1983066653070244 -0.079159690931856624 0 -0.17971465881571669 -0.061220838220201947 0 -0.1958538175062722 -0.055811034501833751 0 -0.2119624984241387 -0.064115171541652957 0 -0.1983066653070244 -0.079159690931856624 0 -0.1958538175062722 -0.055811034501833751 0 -0.22698141926195381 -0.1036580492513853 0 -0.21011404882446161 -0.12352365606726411 0 -0.20075951310777651 -0.1025083473618796 0 -0.22698141926195381 -0.1036580492513853 0 -0.22109806988892591 -0.082410796599508285 0 -0.20075951310777651 -0.1025083473618796 0 -0.21011404882446161 -0.12352365606726411 0 -0.20075951310777651 -0.1025083473618796 0 -0.18130817615218101 -0.1172727498833388 0 -0.159421934376267 -0.13459952323704791 0 -0.18130817615218101 -0.1172727498833388 0 -0.16010259964901341 -0.1087707371960993 0 -0.16010259964901341 -0.1087707371960993 0 -0.17964480322546311 -0.097731214871272371 0 -0.15999308135823631 -0.08338611883635505 0 -0.20075951310777651 -0.1025083473618796 0 -0.18130817615218101 -0.1172727498833388 0 -0.17964480322546311 -0.097731214871272371 0 -0.18130817615218101 -0.1172727498833388 0 -0.16010259964901341 -0.1087707371960993 0 -0.17964480322546311 -0.097731214871272371 0 -0.1983066653070244 -0.079159690931856624 0 -0.17964480322546311 -0.097731214871272371 0 -0.17482830041070571 -0.077540998714540246 0 -0.1983066653070244 -0.079159690931856624 0 -0.17482830041070571 -0.077540998714540246 0 -0.17971465881571669 -0.061220838220201947 0 -0.17482830041070571 -0.077540998714540246 0 -0.16621444975611441 -0.067080828284134239 0 -0.17971465881571669 -0.061220838220201947 0 -0.16621444975611441 -0.067080828284134239 0 -0.15999308135823631 -0.08338611883635505 0 -0.15205024400189129 -0.062711658979563725 0 -0.17482830041070571 -0.077540998714540246 0 -0.16621444975611441 -0.067080828284134239 0 -0.15999308135823631 -0.08338611883635505 0 -0.17964480322546311 -0.097731214871272371 0 -0.17482830041070571 -0.077540998714540246 0 -0.15999308135823631 -0.08338611883635505 0 -0.15999308135823631 -0.08338611883635505 0 -0.1434271704348683 -0.0762509433513055 0 -0.1430340207864545 -0.096262032628036925 0 -0.15999308135823631 -0.08338611883635505 0 -0.15205024400189129 -0.062711658979563725 0 -0.1434271704348683 -0.0762509433513055 0 -0.15205024400189129 -0.062711658979563725 0 -0.1434271704348683 -0.0762509433513055 0 -0.13728872747273721 -0.062796799159845235 0 -0.1434271704348683 -0.0762509433513055 0 -0.13728872747273721 -0.062796799159845235 0 -0.12801180811942919 -0.071157444604673631 0 -0.1434271704348683 -0.0762509433513055 0 -0.12801180811942919 -0.071157444604673631 0 -0.131322671588327 -0.085291974254262937 0 -0.1172447628219281 -0.077353942002316434 0 -0.12801180811942919 -0.071157444604673631 0 -0.131322671588327 -0.085291974254262937 0 -0.1243502320977292 -0.060636460033492101 0 -0.13728872747273721 -0.062796799159845235 0 -0.12801180811942919 -0.071157444604673631 0 -0.1434271704348683 -0.0762509433513055 0 -0.131322671588327 -0.085291974254262937 0 -0.1430340207864545 -0.096262032628036925 0 -0.12268903751391649 -0.1021807817981453 0 -0.13835085655392121 -0.1187565731663435 0 -0.1430340207864545 -0.096262032628036925 0 -0.12268903751391649 -0.1021807817981453 0 -0.131322671588327 -0.085291974254262937 0 -0.1430340207864545 -0.096262032628036925 0 -0.12324286592688111 -0.1170046728761252 0 -0.12268903751391649 -0.1021807817981453 0 -0.13835085655392121 -0.1187565731663435 0 -0.12324286592688111 -0.1170046728761252 0 -0.1194254808735583 -0.13284424025105751 0 -0.13835085655392121 -0.1187565731663435 0 -0.159421934376267 -0.13459952323704791 0 -0.16010259964901341 -0.1087707371960993 0 -0.13835085655392121 -0.1187565731663435 0 -0.16010259964901341 -0.1087707371960993 0 -0.13835085655392121 -0.1187565731663435 0 -0.1430340207864545 -0.096262032628036925 0 -0.16010259964901341 -0.1087707371960993 0 -0.15999308135823631 -0.08338611883635505 0 -0.1430340207864545 -0.096262032628036925 0 -0.14752429440892509 -0.025742937439276699 0 -0.13381648523445761 -0.01674563146318268 0 -0.14752429440892509 -0.025742937439276699 0 -0.1491730936568573 -0.0015986133476244249 0 -0.13381648523445761 -0.01674563146318268 0 -0.14752429440892509 -0.025742937439276699 0 -0.1491730936568573 -0.0015986133476244249 0 -0.16309967522413571 -0.017121468967705181 0 -0.1491730936568573 -0.0015986133476244249 0 -0.13381648523445761 -0.01674563146318268 0 -0.1491730936568573 -0.0015986133476244249 0 -0.13381648523445761 -0.01674563146318268 0 -0.12871323843160851 0.013123773824541321 0 -0.14752429440892509 -0.025742937439276699 0 -0.13381648523445761 -0.01674563146318268 0 -0.1368953288792609 -0.034434868716429118 0 -0.11969346943964521 -0.030675893289626451 0 -0.13381648523445761 -0.01674563146318268 0 -0.1368953288792609 -0.034434868716429118 0 -0.11969346943964521 -0.030675893289626451 0 -0.13381648523445761 -0.01674563146318268 0 -0.11969346943964521 -0.030675893289626451 0 -0.12789404872439519 -0.044416086127217272 0 -0.1368953288792609 -0.034434868716429118 0 -0.12789404872439519 -0.044416086127217272 0 -0.1368953288792609 -0.034434868716429118 0 -0.1417999943804244 -0.049718663064908512 0 -0.1243502320977292 -0.060636460033492101 0 -0.13728872747273721 -0.062796799159845235 0 -0.13145862230637631 -0.054607816736602741 0 -0.1243502320977292 -0.060636460033492101 0 -0.1229241828287016 -0.052135901670169682 0 -0.13145862230637631 -0.054607816736602741 0 -0.1229241828287016 -0.052135901670169682 0 -0.12789404872439519 -0.044416086127217272 0 -0.13145862230637631 -0.054607816736602741 0 -0.12789404872439519 -0.044416086127217272 0 -0.13145862230637631 -0.054607816736602741 0 -0.1417999943804244 -0.049718663064908512 0 -0.13728872747273721 -0.062796799159845235 0 -0.13145862230637631 -0.054607816736602741 0 -0.1417999943804244 -0.049718663064908512 0 -0.15205024400189129 -0.062711658979563725 0 -0.13728872747273721 -0.062796799159845235 0 -0.1417999943804244 -0.049718663064908512 0 -0.15205024400189129 -0.062711658979563725 0 -0.1417999943804244 -0.049718663064908512 0 -0.1529141550042874 -0.050232464470051648 0 -0.14752429440892509 -0.025742937439276699 0 -0.15236048469133709 -0.038552741748750521 0 -0.16448813086253181 -0.033266824370473208 0 -0.14752429440892509 -0.025742937439276699 0 -0.1368953288792609 -0.034434868716429118 0 -0.15236048469133709 -0.038552741748750521 0 -0.1368953288792609 -0.034434868716429118 0 -0.1417999943804244 -0.049718663064908512 0 -0.15236048469133709 -0.038552741748750521 0 -0.1417999943804244 -0.049718663064908512 0 -0.1529141550042874 -0.050232464470051648 0 -0.15236048469133709 -0.038552741748750521 0 -0.16448813086253181 -0.033266824370473208 0 -0.16448596419402231 -0.050544526670010248 0 -0.18002835199792791 -0.043429627763627382 0 -0.15236048469133709 -0.038552741748750521 0 -0.16448813086253181 -0.033266824370473208 0 -0.16448596419402231 -0.050544526670010248 0 -0.1529141550042874 -0.050232464470051648 0 -0.15236048469133709 -0.038552741748750521 0 -0.16448596419402231 -0.050544526670010248 0 -0.16621444975611441 -0.067080828284134239 0 -0.16448596419402231 -0.050544526670010248 0 -0.17971465881571669 -0.061220838220201947 0 -0.16621444975611441 -0.067080828284134239 0 -0.15205024400189129 -0.062711658979563725 0 -0.16448596419402231 -0.050544526670010248 0 -0.15205024400189129 -0.062711658979563725 0 -0.1529141550042874 -0.050232464470051648 0 -0.16448596419402231 -0.050544526670010248 0 -0.16448596419402231 -0.050544526670010248 0 -0.17971465881571669 -0.061220838220201947 0 -0.18002835199792791 -0.043429627763627382 0 -0.17971465881571669 -0.061220838220201947 0 -0.18002835199792791 -0.043429627763627382 0 -0.1958538175062722 -0.055811034501833751 0 -0.18002835199792791 -0.043429627763627382 0 -0.1794300146588429 -0.024209643633469221 0 -0.19340096970552001 -0.032462378071810891 0 -0.16448813086253181 -0.033266824370473208 0 -0.18002835199792791 -0.043429627763627382 0 -0.1794300146588429 -0.024209643633469221 0 -0.1794300146588429 -0.024209643633469221 0 -0.16309967522413571 -0.017121468967705181 0 -0.1783461590462426 -0.0079308793670667191 0 -0.1794300146588429 -0.024209643633469221 0 -0.19094812190476801 -0.0091137216417880203 0 -0.16448813086253181 -0.033266824370473208 0 -0.1794300146588429 -0.024209643633469221 0 -0.16309967522413571 -0.017121468967705181 0 -0.14752429440892509 -0.025742937439276699 0 -0.16448813086253181 -0.033266824370473208 0 -0.16309967522413571 -0.017121468967705181 0 -0.1491730936568573 -0.0015986133476244249 0 -0.16309967522413571 -0.017121468967705181 0 -0.165628603269176 -0.0020946546525552911 0 -0.16309967522413571 -0.017121468967705181 0 -0.165628603269176 -0.0020946546525552911 0 -0.1783461590462426 -0.0079308793670667191 0 -0.1794300146588429 -0.024209643633469221 0 -0.1783461590462426 -0.0079308793670667191 0 -0.19094812190476801 -0.0091137216417880203 0 -0.165628603269176 -0.0020946546525552911 0 -0.1783461590462426 -0.0079308793670667191 0 -0.17747844821372899 0.0046966960789819739 0 -0.1783461590462426 -0.0079308793670667191 0 -0.19042719434819899 -0.0041550126099663444 0 -0.19094812190476801 -0.0091137216417880203 0 -0.1783461590462426 -0.0079308793670667191 0 -0.19042719434819899 -0.0041550126099663444 0 -0.17747844821372899 0.0046966960789819739 0 -0.1932560932975623 -0.006088836097596145 0 -0.19094812190476801 -0.0091137216417880203 0 -0.20700316117600401 -0.01548627419109903 0 -0.19042719434819899 -0.0041550126099663444 0 -0.19094812190476801 -0.0091137216417880203 0 -0.19042719434819899 -0.0041550126099663444 0 -0.1932560932975623 -0.006088836097596145 0 -0.19094812190476801 -0.0091137216417880203 0 -0.1932560932975623 -0.006088836097596145 0 -0.19094812190476801 -0.0091137216417880203 0 -0.19042719434819899 -0.0041550126099663444 0 -0.1932560932975623 -0.006088836097596145 0 -0.1932560932975623 -0.006088836097596145 0 -0.20700316117600401 -0.01548627419109903 0 -0.1794300146588429 -0.024209643633469221 0 -0.19094812190476801 -0.0091137216417880203 0 -0.19340096970552001 -0.032462378071810891 0 -0.20680606097950641 -0.029265811882215859 0 -0.20700316117600401 -0.01548627419109903 0 -0.19340096970552001 -0.032462378071810891 0 -0.19094812190476801 -0.0091137216417880203 0 -0.20700316117600401 -0.01548627419109903 0 -0.19340096970552001 -0.032462378071810891 0 -0.19094812190476801 -0.0091137216417880203 0 -0.19340096970552001 -0.032462378071810891 0 -0.20680606097950641 -0.029265811882215859 0 -0.20700316117600401 -0.01548627419109903 0 -0.2207502290544465 -0.024883712284600869 0 -0.20700316117600401 -0.01548627419109903 0 -0.2207502290544465 -0.024883712284600869 0 -0.1932560932975623 -0.006088836097596145 0 -0.20979008560441481 -0.00036056365726287249 0 -0.20700316117600401 -0.01548627419109903 0 -0.20700316117600401 -0.01548627419109903 0 -0.2246056469087612 -0.0044901169212649451 0 -0.2207502290544465 -0.024883712284600869 0 -0.20979008560441481 -0.00036056365726287249 0 -0.20700316117600401 -0.01548627419109903 0 -0.2246056469087612 -0.0044901169212649451 0 -0.18002835199792791 -0.043429627763627382 0 -0.1958538175062722 -0.055811034501833751 0 -0.19340096970552001 -0.032462378071810891 0 -0.1958538175062722 -0.055811034501833751 0 -0.19340096970552001 -0.032462378071810891 0 -0.1958538175062722 -0.055811034501833751 0 -0.19340096970552001 -0.032462378071810891 0 -0.210887343008199 -0.042428548849527757 0 -0.20680606097950641 -0.029265811882215859 0 -0.210887343008199 -0.042428548849527757 0 -0.2207502290544465 -0.024883712284600869 0 -0.20680606097950641 -0.029265811882215859 0 -0.19340096970552001 -0.032462378071810891 0 -0.210887343008199 -0.042428548849527757 0 -0.2119624984241387 -0.064115171541652957 0 -0.1958538175062722 -0.055811034501833751 0 -0.210887343008199 -0.042428548849527757 0 -0.2119624984241387 -0.064115171541652957 0 -0.210887343008199 -0.042428548849527757 0 -0.2336665964102719 -0.06076578682553832 0 -0.210887343008199 -0.042428548849527757 0 -0.23713308371646541 -0.036471494581239952 0 -0.2207502290544465 -0.024883712284600869 0 -0.210887343008199 -0.042428548849527757 0 -0.2336665964102719 -0.06076578682553832 0 -0.23713308371646541 -0.036471494581239952 0 -0.23713308371646541 -0.036471494581239952 0 -0.24807508195064351 -0.02219970295958875 0 -0.26387643956261758 -0.037490881976265843 0 -0.2336665964102719 -0.06076578682553832 0 -0.23713308371646541 -0.036471494581239952 0 -0.25393929354785638 -0.051353431686489523 0 -0.2336665964102719 -0.06076578682553832 0 -0.25393929354785638 -0.051353431686489523 0 -0.25964348400844273 -0.070887320676290319 0 -0.2246056469087612 -0.0044901169212649451 0 -0.23402021637086509 -0.016081859855410299 0 -0.24064278425173949 0.0039350805849091954 0 -0.2246056469087612 -0.0044901169212649451 0 -0.23402021637086509 -0.016081859855410299 0 -0.2207502290544465 -0.024883712284600869 0 -0.23713308371646541 -0.036471494581239952 0 -0.23402021637086509 -0.016081859855410299 0 -0.2207502290544465 -0.024883712284600869 0 -0.23713308371646541 -0.036471494581239952 0 -0.23402021637086509 -0.016081859855410299 0 -0.24807508195064351 -0.02219970295958875 0 -0.23402021637086509 -0.016081859855410299 0 -0.24807508195064351 -0.02219970295958875 0 -0.25183928942381151 -0.0075624078338361357 0 -0.23402021637086509 -0.016081859855410299 0 -0.25183928942381151 -0.0075624078338361357 0 -0.24064278425173949 0.0039350805849091954 0 -0.25183928942381151 -0.0075624078338361357 0 -0.26984196325799531 -0.012984777539566179 0 -0.26231918469715187 0.011442998676570891 0 -0.24807508195064351 -0.02219970295958875 0 -0.25183928942381151 -0.0075624078338361357 0 -0.26984196325799531 -0.012984777539566179 0 -0.24807508195064351 -0.02219970295958875 0 -0.26984196325799531 -0.012984777539566179 0 -0.26387643956261758 -0.037490881976265843 0 -0.26984196325799531 -0.012984777539566179 0 -0.28344678981801807 -0.03042565258789167 0 -0.26387643956261758 -0.037490881976265843 0 -0.26984196325799531 -0.012984777539566179 0 -0.29701101476603092 -0.014621766165129181 0 -0.28183843873369202 0.0091895247227355304 0 -0.26984196325799531 -0.012984777539566179 0 -0.28344678981801807 -0.03042565258789167 0 -0.29701101476603092 -0.014621766165129181 0 -0.28344678981801807 -0.03042565258789167 0 -0.29701101476603092 -0.014621766165129181 0 -0.3045882350527101 -0.035335059994461543 0 -0.29701101476603092 -0.014621766165129181 0 -0.3045882350527101 -0.035335059994461543 0 -0.31546801871320929 -0.01043582355740966 0 -0.29701101476603092 -0.014621766165129181 0 -0.3102633006888777 0.0077601655750476131 0 -0.29701101476603092 -0.014621766165129181 0 -0.31546801871320929 -0.01043582355740966 0 -0.3102633006888777 0.0077601655750476131 0 -0.3045882350527101 -0.035335059994461543 0 -0.29995615333885622 -0.065900672551805456 0 -0.32406497704694259 -0.051251785682920027 0 -0.28344678981801807 -0.03042565258789167 0 -0.3045882350527101 -0.035335059994461543 0 -0.28191629645073679 -0.051695777264035611 0 -0.3045882350527101 -0.035335059994461543 0 -0.28191629645073679 -0.051695777264035611 0 -0.29995615333885622 -0.065900672551805456 0 -0.28191629645073679 -0.051695777264035611 0 -0.29995615333885622 -0.065900672551805456 0 -0.28344678981801807 -0.03042565258789167 0 -0.28191629645073679 -0.051695777264035611 0 -0.26387643956261758 -0.037490881976265843 0 -0.28191629645073679 -0.051695777264035611 0 -0.26387643956261758 -0.037490881976265843 0 -0.28191629645073679 -0.051695777264035611 0 -0.26387643956261758 -0.037490881976265843 0 -0.25393929354785638 -0.051353431686489523 0 -0.23713308371646541 -0.036471494581239952 0 -0.26387643956261758 -0.037490881976265843 0 -0.25393929354785638 -0.051353431686489523 0 -0.28191629645073679 -0.051695777264035611 0 -0.25393929354785638 -0.051353431686489523 0 -0.25964348400844273 -0.070887320676290319 0 -0.241723347685984 -0.084910617152829965 0 -0.25964348400844273 -0.070887320676290319 0 -0.25759158754623951 -0.094656400403218779 0 -0.25964348400844273 -0.070887320676290319 0 -0.27023368930441938 -0.085220438557273889 0 -0.25759158754623951 -0.094656400403218779 0 -0.27023368930441938 -0.085220438557273889 0 -0.27067799325515751 -0.1020470431727941 0 -0.28603641937581542 -0.093427946617376745 0 -0.27023368930441938 -0.085220438557273889 0 -0.28134122134199763 -0.073942909196766313 0 -0.28603641937581542 -0.093427946617376745 0 -0.28191629645073679 -0.051695777264035611 0 -0.25964348400844273 -0.070887320676290319 0 -0.28134122134199763 -0.073942909196766313 0 -0.25964348400844273 -0.070887320676290319 0 -0.27023368930441938 -0.085220438557273889 0 -0.28134122134199763 -0.073942909196766313 0 -0.24918361072656139 -0.1085219300649528 0 -0.27067799325515751 -0.1020470431727941 0 -0.27034822741168751 -0.1183985089124647 0 -0.24918361072656139 -0.1085219300649528 0 -0.25465345436680559 -0.12492069913035431 0 -0.27034822741168751 -0.1183985089124647 0 -0.24918361072656139 -0.1085219300649528 0 -0.25759158754623951 -0.094656400403218779 0 -0.27067799325515751 -0.1020470431727941 0 -0.27067799325515751 -0.1020470431727941 0 -0.28664816286220679 -0.1149242258092255 0 -0.28603641937581542 -0.093427946617376745 0 -0.27023368930441938 -0.085220438557273889 0 -0.25759158754623951 -0.094656400403218779 0 -0.27067799325515751 -0.1020470431727941 0 -0.27067799325515751 -0.1020470431727941 0 -0.27034822741168751 -0.1183985089124647 0 -0.28664816286220679 -0.1149242258092255 0 -0.27034822741168751 -0.1183985089124647 0 -0.28664816286220679 -0.1149242258092255 0 -0.27996170543250909 -0.1281760260983853 0 -0.28664816286220679 -0.1149242258092255 0 -0.30124628125525937 -0.11771229598259519 0 -0.29376981663003748 -0.13261708134941921 0 -0.28664816286220679 -0.1149242258092255 0 -0.29810396710799619 -0.103988159945457 0 -0.30124628125525937 -0.11771229598259519 0 -0.28664816286220679 -0.1149242258092255 0 -0.29810396710799619 -0.103988159945457 0 -0.28603641937581542 -0.093427946617376745 0 -0.29810396710799619 -0.103988159945457 0 -0.28603641937581542 -0.093427946617376745 0 -0.30138681417699847 -0.086518174213324278 0 -0.29810396710799619 -0.103988159945457 0 -0.30138681417699847 -0.086518174213324278 0 -0.31294961939159971 -0.10409770128838269 0 -0.29810396710799619 -0.103988159945457 0 -0.30124628125525937 -0.11771229598259519 0 -0.31294961939159971 -0.10409770128838269 0 -0.31294961939159971 -0.10409770128838269 0 -0.30790322855622859 -0.12808983473718649 0 -0.30124628125525937 -0.11771229598259519 0 -0.31294961939159971 -0.10409770128838269 0 -0.30790322855622859 -0.12808983473718649 0 -0.30124628125525937 -0.11771229598259519 0 -0.30790322855622859 -0.12808983473718649 0 -0.28134122134199763 -0.073942909196766313 0 -0.30138681417699847 -0.086518174213324278 0 -0.29995615333885622 -0.065900672551805456 0 -0.28191629645073679 -0.051695777264035611 0 -0.28134122134199763 -0.073942909196766313 0 -0.29995615333885622 -0.065900672551805456 0 -0.28134122134199763 -0.073942909196766313 0 -0.28603641937581542 -0.093427946617376745 0 -0.30138681417699847 -0.086518174213324278 0 -0.30138681417699847 -0.086518174213324278 0 -0.31799601022697233 -0.080105567839579228 0 -0.31294961939159971 -0.10409770128838269 0 -0.30138681417699847 -0.086518174213324278 0 -0.29995615333885622 -0.065900672551805456 0 -0.31799601022697233 -0.080105567839579228 0 -0.29995615333885622 -0.065900672551805456 0 -0.31799601022697233 -0.080105567839579228 0 -0.31799601022697233 -0.080105567839579228 0 -0.32406497704694259 -0.051251785682920027 0 -0.31799601022697233 -0.080105567839579228 0 -0.33197924103617737 -0.072521052104412093 0 -0.32406497704694259 -0.051251785682920027 0 -0.29995615333885622 -0.065900672551805456 0 -0.31799601022697233 -0.080105567839579228 0 -0.32406497704694259 -0.051251785682920027 0 -0.31799601022697233 -0.080105567839579228 0 -0.33093826498265622 -0.090296523052371999 0 -0.33197924103617737 -0.072521052104412093 0 -0.31799601022697233 -0.080105567839579228 0 -0.31294961939159971 -0.10409770128838269 0 -0.31799601022697233 -0.080105567839579228 0 -0.33093826498265622 -0.090296523052371999 0 -0.31294961939159971 -0.10409770128838269 0 -0.31799601022697233 -0.080105567839579228 0 -0.33093826498265622 -0.090296523052371999 0 -0.33093826498265622 -0.090296523052371999 0 -0.342574229506733 -0.078749503627582276 0 -0.33197924103617737 -0.072521052104412093 0 -0.33093826498265622 -0.090296523052371999 0 -0.342574229506733 -0.078749503627582276 0 -0.34233728463332158 -0.09503152101986298 0 -0.342574229506733 -0.078749503627582276 0 -0.33197924103617737 -0.072521052104412093 0 -0.3443227234175848 -0.062201880319607397 0 -0.32500274828009817 -0.118332520156467 0 -0.31294961939159971 -0.10409770128838269 0 -0.30790322855622859 -0.12808983473718649 0 -0.33093826498265622 -0.090296523052371999 0 -0.31294961939159971 -0.10409770128838269 0 -0.32935792468231251 -0.104681720290523 0 -0.32500274828009817 -0.118332520156467 0 -0.31294961939159971 -0.10409770128838269 0 -0.32935792468231251 -0.104681720290523 0 -0.34233728463332158 -0.09503152101986298 0 -0.32935792468231251 -0.104681720290523 0 -0.33997859856850587 -0.11261235215114949 0 -0.33093826498265622 -0.090296523052371999 0 -0.34233728463332158 -0.09503152101986298 0 -0.32935792468231251 -0.104681720290523 0 -0.32500274828009817 -0.118332520156467 0 -0.32935792468231251 -0.104681720290523 0 -0.33997859856850587 -0.11261235215114949 0 -0.33997859856850587 -0.11261235215114949 0 -0.33490070474143713 -0.1253959329129388 0 -0.34552997967133392 -0.1277330043593963 0 -0.32500274828009817 -0.118332520156467 0 -0.33997859856850587 -0.11261235215114949 0 -0.33490070474143713 -0.1253959329129388 0 -0.35648823783285721 -0.12052583621559609 0 -0.35334023872046239 -0.10382594975085491 0 -0.36215551269868029 -0.1122089888755871 0 -0.35334023872046239 -0.10382594975085491 0 -0.34552997967133392 -0.1277330043593963 0 -0.35648823783285721 -0.12052583621559609 0 -0.35334023872046239 -0.10382594975085491 0 -0.34552997967133392 -0.1277330043593963 0 -0.33997859856850587 -0.11261235215114949 0 -0.35334023872046239 -0.10382594975085491 0 -0.34552997967133392 -0.1277330043593963 0 -0.34233728463332158 -0.09503152101986298 0 -0.33997859856850587 -0.11261235215114949 0 -0.35334023872046239 -0.10382594975085491 0 -0.34233728463332158 -0.09503152101986298 0 -0.35334023872046239 -0.10382594975085491 0 -0.35030904944108487 -0.086228803425593095 0 -0.35334023872046239 -0.10382594975085491 0 -0.37045024837029322 -0.100793899218989 0 -0.36215551269868029 -0.1122089888755871 0 -0.35334023872046239 -0.10382594975085491 0 -0.37045024837029322 -0.100793899218989 0 -0.36115049776959102 -0.079918895142313401 0 -0.37045024837029322 -0.100793899218989 0 -0.36215551269868029 -0.1122089888755871 0 -0.36834332587110852 -0.1236902703169086 0 -0.37045024837029322 -0.100793899218989 0 -0.36834332587110852 -0.1236902703169086 0 -0.37045024837029322 -0.100793899218989 0 -0.36834332587110852 -0.1236902703169086 0 -0.38020522973052651 -0.10912133061679551 0 -0.35648823783285721 -0.12052583621559609 0 -0.36215551269868029 -0.1122089888755871 0 -0.36834332587110852 -0.1236902703169086 0 -0.342574229506733 -0.078749503627582276 0 -0.35214299657531628 -0.073618147587351968 0 -0.3443227234175848 -0.062201880319607397 0 -0.35214299657531628 -0.073618147587351968 0 -0.3568146951551186 -0.064443685813365223 0 -0.36115049776959102 -0.079918895142313401 0 -0.35214299657531628 -0.073618147587351968 0 -0.3568146951551186 -0.064443685813365223 0 -0.3443227234175848 -0.062201880319607397 0 -0.35334023872046239 -0.10382594975085491 0 -0.36115049776959102 -0.079918895142313401 0 -0.342574229506733 -0.078749503627582276 0 -0.34233728463332158 -0.09503152101986298 0 -0.35030904944108487 -0.086228803425593095 0 -0.342574229506733 -0.078749503627582276 0 -0.35214299657531628 -0.073618147587351968 0 -0.35030904944108487 -0.086228803425593095 0 -0.35334023872046239 -0.10382594975085491 0 -0.35030904944108487 -0.086228803425593095 0 -0.36115049776959102 -0.079918895142313401 0 -0.35214299657531628 -0.073618147587351968 0 -0.35030904944108487 -0.086228803425593095 0 -0.36115049776959102 -0.079918895142313401 0 -0.37045024837029322 -0.100793899218989 0 -0.37255717086947798 -0.077897528121069384 0 -0.37045024837029322 -0.100793899218989 0 -0.36115049776959102 -0.079918895142313401 0 -0.37255717086947798 -0.077897528121069384 0 -0.36115049776959102 -0.079918895142313401 0 -0.37255717086947798 -0.077897528121069384 0 -0.36896075681871948 -0.056011840533771937 0 -0.37255717086947798 -0.077897528121069384 0 -0.37466409336866269 -0.055001157023149803 0 -0.3568146951551186 -0.064443685813365223 0 -0.36115049776959102 -0.079918895142313401 0 -0.36896075681871948 -0.056011840533771937 0 -0.37255717086947798 -0.077897528121069384 0 -0.37466409336866269 -0.055001157023149803 0 -0.36896075681871948 -0.056011840533771937 0 -0.36115049776959102 -0.079918895142313401 0 -0.36896075681871948 -0.056011840533771937 0 -0.37466409336866269 -0.055001157023149803 0 -0.36896075681871948 -0.056011840533771937 0 -0.37677101586784778 -0.032104785925230361 0 -0.36896075681871948 -0.056011840533771937 0 -0.35672381273887088 -0.051006059584340957 0 -0.36392723538242261 -0.04134604078312893 0 -0.3568146951551186 -0.064443685813365223 0 -0.36896075681871948 -0.056011840533771937 0 -0.35672381273887088 -0.051006059584340957 0 -0.3568146951551186 -0.064443685813365223 0 -0.35672381273887088 -0.051006059584340957 0 -0.3443227234175848 -0.062201880319607397 0 -0.35672381273887088 -0.051006059584340957 0 -0.3443227234175848 -0.062201880319607397 0 -0.34324286662509401 -0.043917988594564458 0 -0.35498902337592358 -0.038877131099637752 0 -0.34814733027739481 -0.026756934563104941 0 -0.34324286662509401 -0.043917988594564458 0 -0.35672381273887088 -0.051006059584340957 0 -0.35498902337592358 -0.038877131099637752 0 -0.34324286662509401 -0.043917988594564458 0 -0.35672381273887088 -0.051006059584340957 0 -0.35498902337592358 -0.038877131099637752 0 -0.36392723538242261 -0.04134604078312893 0 -0.36896075681871948 -0.056011840533771937 0 -0.36392723538242261 -0.04134604078312893 0 -0.37677101586784778 -0.032104785925230361 0 -0.36896075681871948 -0.056011840533771937 0 -0.37677101586784778 -0.032104785925230361 0 -0.35498902337592358 -0.038877131099637752 0 -0.36392723538242261 -0.04134604078312893 0 -0.36109176174978708 -0.02748828526722857 0 -0.36392723538242261 -0.04134604078312893 0 -0.36109176174978708 -0.02748828526722857 0 -0.37677101586784778 -0.032104785925230361 0 -0.36590378191011091 -0.01025690750480699 0 -0.37912460818950078 -0.0065278018498123114 0 -0.37677101586784778 -0.032104785925230361 0 -0.36109176174978708 -0.02748828526722857 0 -0.36590378191011091 -0.01025690750480699 0 -0.37677101586784778 -0.032104785925230361 0 -0.36109176174978708 -0.02748828526722857 0 -0.36590378191011091 -0.01025690750480699 0 -0.35417264841870882 -0.01260686811441827 0 -0.36590378191011091 -0.01025690750480699 0 -0.37912460818950078 -0.0065278018498123114 0 -0.36782225349506198 0.0048657833312758091 0 -0.36590378191011091 -0.01025690750480699 0 -0.35417264841870882 -0.01260686811441827 0 -0.35201258209097508 0.0056607809808327421 0 -0.35417264841870882 -0.01260686811441827 0 -0.34370585250575481 -0.0094211722746199381 0 -0.35201258209097508 0.0056607809808327421 0 -0.35417264841870882 -0.01260686811441827 0 -0.34814733027739481 -0.026756934563104941 0 -0.34370585250575481 -0.0094211722746199381 0 -0.35498902337592358 -0.038877131099637752 0 -0.36109176174978708 -0.02748828526722857 0 -0.34814733027739481 -0.026756934563104941 0 -0.36109176174978708 -0.02748828526722857 0 -0.35417264841870882 -0.01260686811441827 0 -0.34814733027739481 -0.026756934563104941 0 -0.34814733027739481 -0.026756934563104941 0 -0.33013394386691503 -0.022398003526261239 0 -0.34324286662509401 -0.043917988594564458 0 -0.34814733027739481 -0.026756934563104941 0 -0.33013394386691503 -0.022398003526261239 0 -0.34370585250575481 -0.0094211722746199381 0 -0.33013394386691503 -0.022398003526261239 0 -0.33620291068688851 0.0064557786303970676 0 -0.33013394386691503 -0.022398003526261239 0 -0.34370585250575481 -0.0094211722746199381 0 -0.33620291068688851 0.0064557786303970676 0 -0.33013394386691503 -0.022398003526261239 0 -0.31546801871320929 -0.01043582355740966 0 -0.33620291068688851 0.0064557786303970676 0 -0.3045882350527101 -0.035335059994461543 0 -0.33013394386691503 -0.022398003526261239 0 -0.31546801871320929 -0.01043582355740966 0 -0.33013394386691503 -0.022398003526261239 0 -0.32406497704694259 -0.051251785682920027 0 -0.3045882350527101 -0.035335059994461543 0 -0.33013394386691503 -0.022398003526261239 0 -0.32406497704694259 -0.051251785682920027 0 -0.3443227234175848 -0.062201880319607397 0 -0.32406497704694259 -0.051251785682920027 0 -0.34324286662509401 -0.043917988594564458 0 -0.33197924103617737 -0.072521052104412093 0 -0.3443227234175848 -0.062201880319607397 0 -0.32406497704694259 -0.051251785682920027 0 -0.33013394386691503 -0.022398003526261239 0 -0.32406497704694259 -0.051251785682920027 0 -0.34324286662509401 -0.043917988594564458 0 -0.29256211388443393 -0.25878551580333797 0 -0.30846408808500381 -0.2499303869099207 0 -0.2933430961925218 -0.23731011674068911 0 -0.30846408808500381 -0.2499303869099207 0 -0.30829567243185491 -0.2333337785859399 0 -0.2933430961925218 -0.23731011674068911 0 -0.30829567243185491 -0.2333337785859399 0 -0.29412407850061079 -0.21583471767804041 0 -0.31480979493563688 -0.2192996413014571 0 -0.30829567243185491 -0.2333337785859399 0 -0.2933430961925218 -0.23731011674068911 0 -0.29412407850061079 -0.21583471767804041 0 -0.2933430961925218 -0.23731011674068911 0 -0.29412407850061079 -0.21583471767804041 0 -0.27951145989547571 -0.22883355642076189 0 -0.27652953050904788 -0.21288757464962599 0 -0.29412407850061079 -0.21583471767804041 0 -0.2933430961925218 -0.23731011674068911 0 -0.27951145989547571 -0.22883355642076189 0 -0.29412407850061079 -0.21583471767804041 0 -0.29256211388443393 -0.25878551580333797 0 -0.2933430961925218 -0.23731011674068911 0 -0.2933430961925218 -0.23731011674068911 0 -0.27267174260738569 -0.24767498376580641 0 -0.27951145989547571 -0.22883355642076189 0 -0.29256211388443393 -0.25878551580333797 0 -0.2933430961925218 -0.23731011674068911 0 -0.27267174260738569 -0.24767498376580641 0 -0.27267174260738569 -0.24767498376580641 0 -0.26335032430652477 -0.2302420783363496 0 -0.27951145989547571 -0.22883355642076189 0 -0.2454241612416064 -0.23483554906185769 0 -0.25017111810400061 -0.2475965820230723 0 -0.26335032430652477 -0.2302420783363496 0 -0.27267174260738569 -0.24767498376580641 0 -0.25017111810400061 -0.2475965820230723 0 -0.26335032430652477 -0.2302420783363496 0 -0.25017111810400061 -0.2475965820230723 0 -0.26335032430652477 -0.2302420783363496 0 -0.2399816839331487 -0.22102503518187169 0 -0.26335032430652477 -0.2302420783363496 0 -0.25382424359427908 -0.2090843665154222 0 -0.26335032430652477 -0.2302420783363496 0 -0.27951145989547571 -0.22883355642076189 0 -0.27652953050904788 -0.21288757464962599 0 -0.26335032430652477 -0.2302420783363496 0 -0.27652953050904788 -0.21288757464962599 0 -0.27652953050904788 -0.21288757464962599 0 -0.27730886412498562 -0.2000916961106857 0 -0.28582555718022751 -0.20064647858832249 0 -0.27652953050904788 -0.21288757464962599 0 -0.28582555718022751 -0.20064647858832249 0 -0.27652953050904788 -0.21288757464962599 0 -0.26568912386402649 -0.19884965505045979 0 -0.27730886412498562 -0.2000916961106857 0 -0.27652953050904788 -0.21288757464962599 0 -0.25382424359427908 -0.2090843665154222 0 -0.27652953050904788 -0.21288757464962599 0 -0.25382424359427908 -0.2090843665154222 0 -0.26568912386402649 -0.19884965505045979 0 -0.26335032430652477 -0.2302420783363496 0 -0.27652953050904788 -0.21288757464962599 0 -0.25382424359427908 -0.2090843665154222 0 -0.25382424359427908 -0.2090843665154222 0 -0.26568912386402649 -0.19884965505045979 0 -0.24546323405784759 -0.1873969228452104 0 -0.26568912386402649 -0.19884965505045979 0 -0.2598919460214828 -0.18550150687597891 0 -0.24546323405784759 -0.1873969228452104 0 -0.25382424359427908 -0.2090843665154222 0 -0.26568912386402649 -0.19884965505045979 0 -0.26568912386402649 -0.19884965505045979 0 -0.27755400413377512 -0.18861494358549891 0 -0.26568912386402649 -0.19884965505045979 0 -0.27755400413377512 -0.18861494358549891 0 -0.2598919460214828 -0.18550150687597891 0 -0.26568912386402649 -0.19884965505045979 0 -0.27730886412498562 -0.2000916961106857 0 -0.27755400413377512 -0.18861494358549891 0 -0.27730886412498562 -0.2000916961106857 0 -0.27755400413377512 -0.18861494358549891 0 -0.28438968927244412 -0.1963307953209005 0 -0.27755400413377512 -0.18861494358549891 0 -0.28438968927244412 -0.1963307953209005 0 -0.27755400413377512 -0.18861494358549891 0 -0.29512158385140752 -0.18840538252701919 0 -0.28438968927244412 -0.1963307953209005 0 -0.29512158385140752 -0.18840538252701919 0 -0.28582555718022751 -0.20064647858832249 0 -0.29412407850061079 -0.21583471767804041 0 -0.29512158385140752 -0.18840538252701919 0 -0.28582555718022751 -0.20064647858832249 0 -0.28438968927244412 -0.1963307953209005 0 -0.29512158385140752 -0.18840538252701919 0 -0.29412407850061079 -0.21583471767804041 0 -0.29512158385140752 -0.18840538252701919 0 -0.28582555718022751 -0.20064647858832249 0 -0.27730886412498562 -0.2000916961106857 0 -0.28582555718022751 -0.20064647858832249 0 -0.28438968927244412 -0.1963307953209005 0 -0.27652953050904788 -0.21288757464962599 0 -0.29412407850061079 -0.21583471767804041 0 -0.27652953050904788 -0.21288757464962599 0 -0.28582555718022751 -0.20064647858832249 0 -0.29412407850061079 -0.21583471767804041 0 -0.29412407850061079 -0.21583471767804041 0 -0.30900192321030401 -0.20129939946549319 0 -0.31480979493563688 -0.2192996413014571 0 -0.29412407850061079 -0.21583471767804041 0 -0.31480979493563688 -0.2192996413014571 0 -0.29512158385140752 -0.18840538252701919 0 -0.29412407850061079 -0.21583471767804041 0 -0.30900192321030401 -0.20129939946549319 0 -0.29512158385140752 -0.18840538252701919 0 -0.30900192321030401 -0.20129939946549319 0 -0.3098006823865857 -0.18629728256625869 0 -0.29512158385140752 -0.18840538252701919 0 -0.30697889816600338 -0.17279155861189491 0 -0.2956826556331692 -0.17297706834977189 0 -0.29512158385140752 -0.18840538252701919 0 -0.30697889816600338 -0.17279155861189491 0 -0.29512158385140752 -0.18840538252701919 0 -0.3098006823865857 -0.18629728256625869 0 -0.30697889816600338 -0.17279155861189491 0 -0.30697889816600338 -0.17279155861189491 0 -0.30888473866771649 -0.16158887837034619 0 -0.3188362124806009 -0.15717773469677179 0 -0.30107496931584521 -0.16055353250907939 0 -0.29827083257776432 -0.16498986190817169 0 -0.2922233500798429 -0.1629507287400466 0 -0.30888473866771649 -0.16158887837034619 0 -0.30107496931584521 -0.16055353250907939 0 -0.29827083257776432 -0.16498986190817169 0 -0.30888473866771649 -0.16158887837034619 0 -0.29827083257776432 -0.16498986190817169 0 -0.2956826556331692 -0.17297706834977189 0 -0.30697889816600338 -0.17279155861189491 0 -0.30888473866771649 -0.16158887837034619 0 -0.2956826556331692 -0.17297706834977189 0 -0.30888473866771649 -0.16158887837034619 0 -0.2956826556331692 -0.17297706834977189 0 -0.29827083257776432 -0.16498986190817169 0 -0.29345322223804482 -0.16784776999271511 0 -0.2956826556331692 -0.17297706834977189 0 -0.29345322223804482 -0.16784776999271511 0 -0.28774709328231268 -0.1671985553178362 0 -0.2956826556331692 -0.17297706834977189 0 -0.29827083257776432 -0.16498986190817169 0 -0.29345322223804482 -0.16784776999271511 0 -0.2922233500798429 -0.1629507287400466 0 -0.29345322223804482 -0.16784776999271511 0 -0.2922233500798429 -0.1629507287400466 0 -0.28774709328231268 -0.1671985553178362 0 -0.30107496931584521 -0.16055353250907939 0 -0.2922233500798429 -0.1629507287400466 0 -0.29268744299784483 -0.1500698012154531 0 -0.2922233500798429 -0.1629507287400466 0 -0.28352461510350541 -0.1593258808735426 0 -0.29268744299784483 -0.1500698012154531 0 -0.2922233500798429 -0.1629507287400466 0 -0.28352461510350541 -0.1593258808735426 0 -0.28774709328231268 -0.1671985553178362 0 -0.28204278107809372 -0.171473099909497 0 -0.28774709328231268 -0.1671985553178362 0 -0.2956826556331692 -0.17297706834977189 0 -0.28352461510350541 -0.1593258808735426 0 -0.28204278107809372 -0.171473099909497 0 -0.28774709328231268 -0.1671985553178362 0 -0.27755400413377512 -0.18861494358549891 0 -0.2956826556331692 -0.17297706834977189 0 -0.27755400413377512 -0.18861494358549891 0 -0.29512158385140752 -0.18840538252701919 0 -0.2956826556331692 -0.17297706834977189 0 -0.27755400413377512 -0.18861494358549891 0 -0.28204278107809372 -0.171473099909497 0 -0.2956826556331692 -0.17297706834977189 0 -0.29512158385140752 -0.18840538252701919 0 -0.2956826556331692 -0.17297706834977189 0 -0.27755400413377512 -0.18861494358549891 0 -0.2598919460214828 -0.18550150687597891 0 -0.26204499323935981 -0.1711089838760475 0 -0.27755400413377512 -0.18861494358549891 0 -0.28204278107809372 -0.171473099909497 0 -0.26204499323935981 -0.1711089838760475 0 -0.27755400413377512 -0.18861494358549891 0 -0.26204499323935981 -0.1711089838760475 0 -0.24546323405784759 -0.1873969228452104 0 -0.2598919460214828 -0.18550150687597891 0 -0.26204499323935981 -0.1711089838760475 0 -0.2465359823449445 -0.15360302416659621 0 -0.26204499323935981 -0.1711089838760475 0 -0.2465359823449445 -0.15360302416659621 0 -0.26204499323935981 -0.1711089838760475 0 -0.26992391461010518 -0.16000226740854401 0 -0.28204278107809372 -0.171473099909497 0 -0.26204499323935981 -0.1711089838760475 0 -0.26992391461010518 -0.16000226740854401 0 -0.28352461510350541 -0.1593258808735426 0 -0.28204278107809372 -0.171473099909497 0 -0.26992391461010518 -0.16000226740854401 0 -0.28352461510350541 -0.1593258808735426 0 -0.26992391461010518 -0.16000226740854401 0 -0.28153195246450718 -0.14184585349587631 0 -0.26403396740472579 -0.14772443883123609 0 -0.26751036779410692 -0.13309446092494079 0 -0.28153195246450718 -0.14184585349587631 0 -0.26992391461010518 -0.16000226740854401 0 -0.26403396740472579 -0.14772443883123609 0 -0.28153195246450718 -0.14184585349587631 0 -0.26403396740472579 -0.14772443883123609 0 -0.28153195246450718 -0.14184585349587631 0 -0.2465359823449445 -0.15360302416659621 0 -0.26403396740472579 -0.14772443883123609 0 -0.2465359823449445 -0.15360302416659621 0 -0.26992391461010518 -0.16000226740854401 0 -0.26403396740472579 -0.14772443883123609 0 -0.2465359823449445 -0.15360302416659621 0 -0.26403396740472579 -0.14772443883123609 0 -0.25128146793851153 -0.13889427779402669 0 -0.26403396740472579 -0.14772443883123609 0 -0.25128146793851153 -0.13889427779402669 0 -0.26751036779410692 -0.13309446092494079 0 -0.25465345436680559 -0.12492069913035431 0 -0.25128146793851153 -0.13889427779402669 0 -0.26751036779410692 -0.13309446092494079 0 -0.25465345436680559 -0.12492069913035431 0 -0.27034822741168751 -0.1183985089124647 0 -0.26751036779410692 -0.13309446092494079 0 -0.27034822741168751 -0.1183985089124647 0 -0.26751036779410692 -0.13309446092494079 0 -0.27996170543250909 -0.1281760260983853 0 -0.26751036779410692 -0.13309446092494079 0 -0.27996170543250909 -0.1281760260983853 0 -0.28153195246450718 -0.14184585349587631 0 -0.28664816286220679 -0.1149242258092255 0 -0.27996170543250909 -0.1281760260983853 0 -0.29376981663003748 -0.13261708134941921 0 -0.27996170543250909 -0.1281760260983853 0 -0.29376981663003748 -0.13261708134941921 0 -0.28153195246450718 -0.14184585349587631 0 -0.29376981663003748 -0.13261708134941921 0 -0.28153195246450718 -0.14184585349587631 0 -0.29268744299784483 -0.1500698012154531 0 -0.28352461510350541 -0.1593258808735426 0 -0.28153195246450718 -0.14184585349587631 0 -0.29268744299784483 -0.1500698012154531 0 -0.30107496931584521 -0.16055353250907939 0 -0.29268744299784483 -0.1500698012154531 0 -0.30448909893603721 -0.144321683623133 0 -0.30107496931584521 -0.16055353250907939 0 -0.30448909893603721 -0.144321683623133 0 -0.30888473866771649 -0.16158887837034619 0 -0.30448909893603721 -0.144321683623133 0 -0.32208682170226222 -0.15020068839091871 0 -0.30888473866771649 -0.16158887837034619 0 -0.30107496931584521 -0.16055353250907939 0 -0.30448909893603721 -0.144321683623133 0 -0.29376981663003748 -0.13261708134941921 0 -0.29268744299784483 -0.1500698012154531 0 -0.30448909893603721 -0.144321683623133 0 -0.30448909893603721 -0.144321683623133 0 -0.30790322855622859 -0.12808983473718649 0 -0.32208682170226222 -0.15020068839091871 0 -0.29376981663003748 -0.13261708134941921 0 -0.30448909893603721 -0.144321683623133 0 -0.30790322855622859 -0.12808983473718649 0 -0.30448909893603721 -0.144321683623133 0 -0.30790322855622859 -0.12808983473718649 0 -0.30124628125525937 -0.11771229598259519 0 -0.29376981663003748 -0.13261708134941921 0 -0.30790322855622859 -0.12808983473718649 0 -0.30790322855622859 -0.12808983473718649 0 -0.32470466741968712 -0.13293852559442321 0 -0.32208682170226222 -0.15020068839091871 0 -0.32500274828009817 -0.118332520156467 0 -0.30790322855622859 -0.12808983473718649 0 -0.32470466741968712 -0.13293852559442321 0 -0.30790322855622859 -0.12808983473718649 0 -0.32208682170226222 -0.15020068839091871 0 -0.30888473866771649 -0.16158887837034619 0 -0.32208682170226222 -0.15020068839091871 0 -0.32208682170226222 -0.15020068839091871 0 -0.3392875297675601 -0.1353632623032579 0 -0.32208682170226222 -0.15020068839091871 0 -0.3392875297675601 -0.1353632623032579 0 -0.34494893328384768 -0.1521357449154053 0 -0.32470466741968712 -0.13293852559442321 0 -0.32208682170226222 -0.15020068839091871 0 -0.3392875297675601 -0.1353632623032579 0 -0.32500274828009817 -0.118332520156467 0 -0.32470466741968712 -0.13293852559442321 0 -0.33490070474143713 -0.1253959329129388 0 -0.32470466741968712 -0.13293852559442321 0 -0.3392875297675601 -0.1353632623032579 0 -0.33490070474143713 -0.1253959329129388 0 -0.3392875297675601 -0.1353632623032579 0 -0.33490070474143713 -0.1253959329129388 0 -0.34552997967133392 -0.1277330043593963 0 -0.35648823783285721 -0.12052583621559609 0 -0.3392875297675601 -0.1353632623032579 0 -0.34552997967133392 -0.1277330043593963 0 -0.35648823783285721 -0.12052583621559609 0 -0.3392875297675601 -0.1353632623032579 0 -0.35436068798744041 -0.13736628306084131 0 -0.35648823783285721 -0.12052583621559609 0 -0.35436068798744041 -0.13736628306084131 0 -0.3656984313398951 -0.13398409145171669 0 -0.35648823783285721 -0.12052583621559609 0 -0.3392875297675601 -0.1353632623032579 0 -0.35648823783285721 -0.12052583621559609 0 -0.36834332587110852 -0.1236902703169086 0 -0.3656984313398951 -0.13398409145171669 0 -0.35436068798744041 -0.13736628306084131 0 -0.3656984313398951 -0.13398409145171669 0 -0.3620168597719105 -0.14816445891879271 0 -0.3656984313398951 -0.13398409145171669 0 -0.37606326436239101 -0.1417057825119187 0 -0.37660811984927961 -0.13008761310785 0 -0.36834332587110852 -0.1236902703169086 0 -0.3656984313398951 -0.13398409145171669 0 -0.37660811984927961 -0.13008761310785 0 -0.3620168597719105 -0.14816445891879271 0 -0.37622771002777472 -0.16028897214742749 0 -0.37606326436239101 -0.1417057825119187 0 -0.3656984313398951 -0.13398409145171669 0 -0.3620168597719105 -0.14816445891879271 0 -0.37606326436239101 -0.1417057825119187 0 -0.3392875297675601 -0.1353632623032579 0 -0.35436068798744041 -0.13736628306084131 0 -0.34494893328384768 -0.1521357449154053 0 -0.35436068798744041 -0.13736628306084131 0 -0.3620168597719105 -0.14816445891879271 0 -0.34494893328384768 -0.1521357449154053 0 -0.3620168597719105 -0.14816445891879271 0 -0.34494893328384768 -0.1521357449154053 0 -0.35925526417339543 -0.17106106321107989 0 -0.34494893328384768 -0.1521357449154053 0 -0.35925526417339543 -0.17106106321107989 0 -0.33701337849806567 -0.1734697507130018 0 -0.35925526417339543 -0.17106106321107989 0 -0.37540161455022469 -0.17567077419270491 0 -0.37622771002777472 -0.16028897214742749 0 -0.3620168597719105 -0.14816445891879271 0 -0.35925526417339543 -0.17106106321107989 0 -0.37622771002777472 -0.16028897214742749 0 -0.35925526417339543 -0.17106106321107989 0 -0.35193993529386941 -0.19673881303508481 0 -0.37011137104458081 -0.18992026118201349 0 -0.35925526417339543 -0.17106106321107989 0 -0.37011137104458081 -0.18992026118201349 0 -0.37540161455022469 -0.17567077419270491 0 -0.35925526417339543 -0.17106106321107989 0 -0.33701337849806567 -0.1734697507130018 0 -0.35193993529386941 -0.19673881303508481 0 -0.33701337849806567 -0.1734697507130018 0 -0.35193993529386941 -0.19673881303508481 0 -0.33701337849806567 -0.1734697507130018 0 -0.32113527030988698 -0.17831482757554501 0 -0.33497505704075498 -0.19187862102050021 0 -0.33701337849806567 -0.1734697507130018 0 -0.33497505704075498 -0.19187862102050021 0 -0.35193993529386941 -0.19673881303508481 0 -0.32208682170226222 -0.15020068839091871 0 -0.33701337849806567 -0.1734697507130018 0 -0.32208682170226222 -0.15020068839091871 0 -0.34494893328384768 -0.1521357449154053 0 -0.33701337849806567 -0.1734697507130018 0 -0.30697889816600338 -0.17279155861189491 0 -0.3188362124806009 -0.15717773469677179 0 -0.32113527030988698 -0.17831482757554501 0 -0.33701337849806567 -0.1734697507130018 0 -0.3188362124806009 -0.15717773469677179 0 -0.32113527030988698 -0.17831482757554501 0 -0.32208682170226222 -0.15020068839091871 0 -0.33701337849806567 -0.1734697507130018 0 -0.3188362124806009 -0.15717773469677179 0 -0.30888473866771649 -0.16158887837034619 0 -0.32208682170226222 -0.15020068839091871 0 -0.3188362124806009 -0.15717773469677179 0 -0.30697889816600338 -0.17279155861189491 0 -0.3188362124806009 -0.15717773469677179 0 -0.3098006823865857 -0.18629728256625869 0 -0.30697889816600338 -0.17279155861189491 0 -0.32113527030988698 -0.17831482757554501 0 -0.3098006823865857 -0.18629728256625869 0 -0.32113527030988698 -0.17831482757554501 0 -0.32015935089569159 -0.19135964972216499 0 -0.32113527030988698 -0.17831482757554501 0 -0.32015935089569159 -0.19135964972216499 0 -0.33497505704075498 -0.19187862102050021 0 -0.32015935089569159 -0.19135964972216499 0 -0.32169285594207381 -0.2069419255334306 0 -0.33400222870001678 -0.2047598098285516 0 -0.32015935089569159 -0.19135964972216499 0 -0.33400222870001678 -0.2047598098285516 0 -0.30900192321030401 -0.20129939946549319 0 -0.3098006823865857 -0.18629728256625869 0 -0.32015935089569159 -0.19135964972216499 0 -0.30900192321030401 -0.20129939946549319 0 -0.32015935089569159 -0.19135964972216499 0 -0.32169285594207381 -0.2069419255334306 0 -0.32169285594207381 -0.2069419255334306 0 -0.33334582434030802 -0.2167513815853086 0 -0.31480979493563688 -0.2192996413014571 0 -0.30900192321030401 -0.20129939946549319 0 -0.32169285594207381 -0.2069419255334306 0 -0.31480979493563688 -0.2192996413014571 0 -0.32169285594207381 -0.2069419255334306 0 -0.33400222870001678 -0.2047598098285516 0 -0.33334582434030802 -0.2167513815853086 0 -0.33334582434030802 -0.2167513815853086 0 -0.34784510650434158 -0.2181599699349385 0 -0.33400222870001678 -0.2047598098285516 0 -0.34784510650434158 -0.2181599699349385 0 -0.33400222870001678 -0.2047598098285516 0 -0.33334582434030802 -0.2167513815853086 0 -0.34784510650434158 -0.2181599699349385 0 -0.33400222870001678 -0.2047598098285516 0 -0.34560017854699943 -0.20662887524865339 0 -0.34784510650434158 -0.2181599699349385 0 -0.33400222870001678 -0.2047598098285516 0 -0.33497505704075498 -0.19187862102050021 0 -0.34560017854699943 -0.20662887524865339 0 -0.32015935089569159 -0.19135964972216499 0 -0.33400222870001678 -0.2047598098285516 0 -0.33497505704075498 -0.19187862102050021 0 -0.33497505704075498 -0.19187862102050021 0 -0.35193993529386941 -0.19673881303508481 0 -0.34560017854699943 -0.20662887524865339 0 -0.35193993529386941 -0.19673881303508481 0 -0.37011137104458081 -0.18992026118201349 0 -0.36959938077861743 -0.20417117896095241 0 -0.37011137104458081 -0.18992026118201349 0 -0.36959938077861743 -0.20417117896095241 0 -0.38148461719747062 -0.2013399835281644 0 -0.35193993529386941 -0.19673881303508481 0 -0.36959938077861743 -0.20417117896095241 0 -0.36686649208967392 -0.22000787535716729 0 -0.36959938077861743 -0.20417117896095241 0 -0.36686649208967392 -0.22000787535716729 0 -0.3792727839211969 -0.21198518199970681 0 -0.35193993529386941 -0.19673881303508481 0 -0.36686649208967392 -0.22000787535716729 0 -0.34560017854699943 -0.20662887524865339 0 -0.34784510650434158 -0.2181599699349385 0 -0.36686649208967392 -0.22000787535716729 0 -0.35193993529386941 -0.19673881303508481 0 -0.34560017854699943 -0.20662887524865339 0 -0.36686649208967392 -0.22000787535716729 0 -0.34784510650434158 -0.2181599699349385 0 -0.36686649208967392 -0.22000787535716729 0 -0.34784510650434158 -0.2181599699349385 0 -0.35618122780568939 -0.226229488548289 0 -0.36686649208967392 -0.22000787535716729 0 -0.34784510650434158 -0.2181599699349385 0 -0.35618122780568939 -0.226229488548289 0 -0.33549551137066302 -0.22276456492487401 0 -0.35618122780568939 -0.226229488548289 0 -0.34294106032841909 -0.24179406536881409 0 -0.33549551137066302 -0.22276456492487401 0 -0.35618122780568939 -0.226229488548289 0 -0.33549551137066302 -0.22276456492487401 0 -0.34784510650434158 -0.2181599699349385 0 -0.35618122780568939 -0.226229488548289 0 -0.35618122780568939 -0.226229488548289 0 -0.37792049780345538 -0.22987088576108219 0 -0.35618122780568939 -0.226229488548289 0 -0.37046566887256849 -0.2256186448075567 0 -0.37792049780345538 -0.22987088576108219 0 -0.35618122780568939 -0.226229488548289 0 -0.37176744018693869 -0.241317228562551 0 -0.37792049780345538 -0.22987088576108219 0 -0.35618122780568939 -0.226229488548289 0 -0.36686649208967392 -0.22000787535716729 0 -0.37046566887256849 -0.2256186448075567 0 -0.35618122780568939 -0.226229488548289 0 -0.37176744018693869 -0.241317228562551 0 -0.36686649208967392 -0.22000787535716729 0 -0.37046566887256849 -0.2256186448075567 0 -0.3569482669838222 -0.25662797097489809 0 -0.37176744018693869 -0.241317228562551 0 -0.34294106032841909 -0.24179406536881409 0 -0.35618122780568939 -0.226229488548289 0 -0.37176744018693869 -0.241317228562551 0 -0.34294106032841909 -0.24179406536881409 0 -0.32493017335586422 -0.25814995515877809 0 -0.34294106032841909 -0.24179406536881409 0 -0.32109483400438721 -0.2405373646159136 0 -0.34294106032841909 -0.24179406536881409 0 -0.33549551137066302 -0.22276456492487401 0 -0.32109483400438721 -0.2405373646159136 0 -0.33334582434030802 -0.2167513815853086 0 -0.34784510650434158 -0.2181599699349385 0 -0.33549551137066302 -0.22276456492487401 0 -0.33549551137066302 -0.22276456492487401 0 -0.31480979493563688 -0.2192996413014571 0 -0.32109483400438721 -0.2405373646159136 0 -0.33549551137066302 -0.22276456492487401 0 -0.31480979493563688 -0.2192996413014571 0 -0.30829567243185491 -0.2333337785859399 0 -0.31480979493563688 -0.2192996413014571 0 -0.32109483400438721 -0.2405373646159136 0 -0.33334582434030802 -0.2167513815853086 0 -0.33549551137066302 -0.22276456492487401 0 -0.31480979493563688 -0.2192996413014571 0 -0.32493017335586422 -0.25814995515877809 0 -0.30846408808500381 -0.2499303869099207 0 -0.32109483400438721 -0.2405373646159136 0 -0.30846408808500381 -0.2499303869099207 0 -0.30829567243185491 -0.2333337785859399 0 -0.32109483400438721 -0.2405373646159136 0 -0.42526550406559183 -0.25163026709429731 0 -0.41867042955141898 -0.236696629583378 0 -0.43768109130161581 -0.23988097619288609 0 -0.41867042955141898 -0.236696629583378 0 -0.43768109130161581 -0.23988097619288609 0 -0.42672895844592212 -0.227792369088058 0 -0.41867042955141898 -0.236696629583378 0 -0.43768109130161581 -0.23988097619288609 0 -0.42672895844592212 -0.227792369088058 0 -0.43599632625878049 -0.2186012451447526 0 -0.43768109130161581 -0.23988097619288609 0 -0.42672895844592212 -0.227792369088058 0 -0.43599632625878049 -0.2186012451447526 0 -0.42260478448853278 -0.2116885144257547 0 -0.43599632625878049 -0.2186012451447526 0 -0.43768109130161581 -0.23988097619288609 0 -0.42672895844592212 -0.227792369088058 0 -0.41276495166890848 -0.22446685716729151 0 -0.41867042955141898 -0.236696629583378 0 -0.42672895844592212 -0.227792369088058 0 -0.41276495166890848 -0.22446685716729151 0 -0.42260478448853278 -0.2116885144257547 0 -0.41276495166890848 -0.22446685716729151 0 -0.41867042955141898 -0.236696629583378 0 -0.40204617031512208 -0.22907293217646041 0 -0.41867042955141898 -0.236696629583378 0 -0.39965976780122192 -0.2335122829738718 0 -0.40204617031512208 -0.22907293217646041 0 -0.41867042955141898 -0.236696629583378 0 -0.39965976780122192 -0.2335122829738718 0 -0.40954989830364158 -0.25378595709655738 0 -0.41867042955141898 -0.236696629583378 0 -0.39965976780122192 -0.2335122829738718 0 -0.40954989830364158 -0.25378595709655738 0 -0.42526550406559183 -0.25163026709429731 0 -0.41867042955141898 -0.236696629583378 0 -0.38735365256818771 -0.25640496857681327 0 -0.39965976780122192 -0.2335122829738718 0 -0.38735365256818771 -0.25640496857681327 0 -0.40954989830364158 -0.25378595709655738 0 -0.39965976780122192 -0.2335122829738718 0 -0.38735365256818771 -0.25640496857681327 0 -0.37176744018693869 -0.241317228562551 0 -0.37792049780345538 -0.22987088576108219 0 -0.38735365256818771 -0.25640496857681327 0 -0.37792049780345538 -0.22987088576108219 0 -0.39965976780122192 -0.2335122829738718 0 -0.38735365256818771 -0.25640496857681327 0 -0.37176744018693869 -0.241317228562551 0 -0.37046566887256849 -0.2256186448075567 0 -0.37792049780345538 -0.22987088576108219 0 -0.3898157218792912 -0.22223736626222909 0 -0.37792049780345538 -0.22987088576108219 0 -0.39965976780122192 -0.2335122829738718 0 -0.36686649208967392 -0.22000787535716729 0 -0.3898157218792912 -0.22223736626222909 0 -0.37792049780345538 -0.22987088576108219 0 -0.3898157218792912 -0.22223736626222909 0 -0.39965976780122192 -0.2335122829738718 0 -0.36686649208967392 -0.22000787535716729 0 -0.37046566887256849 -0.2256186448075567 0 -0.3898157218792912 -0.22223736626222909 0 -0.41276495166890848 -0.22446685716729151 0 -0.3898157218792912 -0.22223736626222909 0 -0.4022941858702096 -0.21301900673172619 0 -0.41276495166890848 -0.22446685716729151 0 -0.3898157218792912 -0.22223736626222909 0 -0.40204617031512208 -0.22907293217646041 0 -0.41276495166890848 -0.22446685716729151 0 -0.3898157218792912 -0.22223736626222909 0 -0.3898157218792912 -0.22223736626222909 0 -0.39965976780122192 -0.2335122829738718 0 -0.40204617031512208 -0.22907293217646041 0 -0.39965976780122192 -0.2335122829738718 0 -0.40204617031512208 -0.22907293217646041 0 -0.4022941858702096 -0.21301900673172619 0 -0.39622330861776722 -0.200652453445503 0 -0.41263700956170002 -0.2027618541422618 0 -0.4022941858702096 -0.21301900673172619 0 -0.39036017013116447 -0.2099750527605059 0 -0.39622330861776722 -0.200652453445503 0 -0.3898157218792912 -0.22223736626222909 0 -0.4022941858702096 -0.21301900673172619 0 -0.39036017013116447 -0.2099750527605059 0 -0.3898157218792912 -0.22223736626222909 0 -0.39036017013116447 -0.2099750527605059 0 -0.3792727839211969 -0.21198518199970681 0 -0.36686649208967392 -0.22000787535716729 0 -0.3898157218792912 -0.22223736626222909 0 -0.3792727839211969 -0.21198518199970681 0 -0.39036017013116447 -0.2099750527605059 0 -0.3792727839211969 -0.21198518199970681 0 -0.38148461719747062 -0.2013399835281644 0 -0.39036017013116447 -0.2099750527605059 0 -0.38148461719747062 -0.2013399835281644 0 -0.39622330861776722 -0.200652453445503 0 -0.36959938077861743 -0.20417117896095241 0 -0.3792727839211969 -0.21198518199970681 0 -0.38148461719747062 -0.2013399835281644 0 -0.37011137104458081 -0.18992026118201349 0 -0.38148461719747062 -0.2013399835281644 0 -0.38701532384279919 -0.18846668287779389 0 -0.38148461719747062 -0.2013399835281644 0 -0.38701532384279919 -0.18846668287779389 0 -0.39622330861776722 -0.200652453445503 0 -0.39622330861776722 -0.200652453445503 0 -0.40354854510325922 -0.18835214063256561 0 -0.41263700956170002 -0.2027618541422618 0 -0.38701532384279919 -0.18846668287779389 0 -0.39622330861776722 -0.200652453445503 0 -0.40354854510325922 -0.18835214063256561 0 -0.40354854510325922 -0.18835214063256561 0 -0.41263700956170002 -0.2027618541422618 0 -0.41673598750621488 -0.1871227240794015 0 -0.41263700956170002 -0.2027618541422618 0 -0.42233927682484101 -0.1970798755393238 0 -0.41673598750621488 -0.1871227240794015 0 -0.42233927682484101 -0.1970798755393238 0 -0.42540704135181112 -0.18650477095258219 0 -0.41673598750621488 -0.1871227240794015 0 -0.4022941858702096 -0.21301900673172619 0 -0.41263700956170002 -0.2027618541422618 0 -0.41255345149433797 -0.21385008565330729 0 -0.41276495166890848 -0.22446685716729151 0 -0.4022941858702096 -0.21301900673172619 0 -0.41255345149433797 -0.21385008565330729 0 -0.41276495166890848 -0.22446685716729151 0 -0.41255345149433797 -0.21385008565330729 0 -0.42260478448853278 -0.2116885144257547 0 -0.41263700956170002 -0.2027618541422618 0 -0.42260478448853278 -0.2116885144257547 0 -0.42233927682484101 -0.1970798755393238 0 -0.41263700956170002 -0.2027618541422618 0 -0.41255345149433797 -0.21385008565330729 0 -0.42260478448853278 -0.2116885144257547 0 -0.43599632625878049 -0.2186012451447526 0 -0.43431156121594611 -0.19732151409661899 0 -0.43599632625878049 -0.2186012451447526 0 -0.42260478448853278 -0.2116885144257547 0 -0.43431156121594611 -0.19732151409661899 0 -0.43431156121594611 -0.19732151409661899 0 -0.42233927682484101 -0.1970798755393238 0 -0.42540704135181112 -0.18650477095258219 0 -0.42260478448853278 -0.2116885144257547 0 -0.43431156121594611 -0.19732151409661899 0 -0.42233927682484101 -0.1970798755393238 0 -0.43431156121594611 -0.19732151409661899 0 -0.43262679617311173 -0.1760417830484855 0 -0.43431156121594611 -0.19732151409661899 0 -0.43262679617311173 -0.1760417830484855 0 -0.43998854769571583 -0.18121411451562661 0 -0.43431156121594611 -0.19732151409661899 0 -0.42540704135181112 -0.18650477095258219 0 -0.43262679617311173 -0.1760417830484855 0 -0.42540704135181112 -0.18650477095258219 0 -0.43262679617311173 -0.1760417830484855 0 -0.42011196389996652 -0.17531692542380339 0 -0.43262679617311173 -0.1760417830484855 0 -0.41866638992769872 -0.16279383461628699 0 -0.42946866281160612 -0.15319909086300371 0 -0.43262679617311173 -0.1760417830484855 0 -0.42946866281160612 -0.15319909086300371 0 -0.43998854769571583 -0.18121411451562661 0 -0.42946866281160612 -0.15319909086300371 0 -0.43998854769571583 -0.18121411451562661 0 -0.43262679617311173 -0.1760417830484855 0 -0.41866638992769872 -0.16279383461628699 0 -0.42011196389996652 -0.17531692542380339 0 -0.41866638992769872 -0.16279383461628699 0 -0.41064261538631219 -0.1679445971706654 0 -0.42011196389996652 -0.17531692542380339 0 -0.41866638992769872 -0.16279383461628699 0 -0.41064261538631219 -0.1679445971706654 0 -0.40459418751255161 -0.15581600703016971 0 -0.41064261538631219 -0.1679445971706654 0 -0.41027277485250507 -0.1791205665922275 0 -0.42011196389996652 -0.17531692542380339 0 -0.41027277485250507 -0.1791205665922275 0 -0.42011196389996652 -0.17531692542380339 0 -0.41673598750621488 -0.1871227240794015 0 -0.42540704135181112 -0.18650477095258219 0 -0.42011196389996652 -0.17531692542380339 0 -0.41673598750621488 -0.1871227240794015 0 -0.40354854510325922 -0.18835214063256561 0 -0.41027277485250507 -0.1791205665922275 0 -0.41673598750621488 -0.1871227240794015 0 -0.41064261538631219 -0.1679445971706654 0 -0.41027277485250507 -0.1791205665922275 0 -0.39429054902731031 -0.17335943274798679 0 -0.40354854510325922 -0.18835214063256561 0 -0.41027277485250507 -0.1791205665922275 0 -0.39429054902731031 -0.17335943274798679 0 -0.38701532384279919 -0.18846668287779389 0 -0.40354854510325922 -0.18835214063256561 0 -0.39429054902731031 -0.17335943274798679 0 -0.37011137104458081 -0.18992026118201349 0 -0.38701532384279919 -0.18846668287779389 0 -0.37540161455022469 -0.17567077419270491 0 -0.38701532384279919 -0.18846668287779389 0 -0.39429054902731031 -0.17335943274798679 0 -0.37540161455022469 -0.17567077419270491 0 -0.39429054902731031 -0.17335943274798679 0 -0.37622771002777472 -0.16028897214742749 0 -0.39033870828141648 -0.15177232130208221 0 -0.39429054902731031 -0.17335943274798679 0 -0.37540161455022469 -0.17567077419270491 0 -0.37622771002777472 -0.16028897214742749 0 -0.39429054902731031 -0.17335943274798679 0 -0.40459418751255161 -0.15581600703016971 0 -0.39033870828141648 -0.15177232130208221 0 -0.41064261538631219 -0.1679445971706654 0 -0.39429054902731031 -0.17335943274798679 0 -0.40459418751255161 -0.15581600703016971 0 -0.40459418751255161 -0.15581600703016971 0 -0.39033870828141648 -0.15177232130208221 0 -0.40361437930207722 -0.13707944573985531 0 -0.37622771002777472 -0.16028897214742749 0 -0.39033870828141648 -0.15177232130208221 0 -0.37606326436239101 -0.1417057825119187 0 -0.39033870828141648 -0.15177232130208221 0 -0.37606326436239101 -0.1417057825119187 0 -0.38918659054706572 -0.13200442973639029 0 -0.37606326436239101 -0.1417057825119187 0 -0.37660811984927961 -0.13008761310785 0 -0.38918659054706572 -0.13200442973639029 0 -0.37660811984927961 -0.13008761310785 0 -0.38918659054706572 -0.13200442973639029 0 -0.38280078160759462 -0.12063144682871781 0 -0.38918659054706572 -0.13200442973639029 0 -0.40206816450786748 -0.12534119825959489 0 -0.39362740265852347 -0.12023929836753899 0 -0.39033870828141648 -0.15177232130208221 0 -0.38918659054706572 -0.13200442973639029 0 -0.40361437930207722 -0.13707944573985531 0 -0.38918659054706572 -0.13200442973639029 0 -0.40361437930207722 -0.13707944573985531 0 -0.40206816450786748 -0.12534119825959489 0 -0.40361437930207722 -0.13707944573985531 0 -0.40206816450786748 -0.12534119825959489 0 -0.40808680778215001 -0.13065799625154201 0 -0.40808680778215001 -0.13065799625154201 0 -0.41440068079573672 -0.13627359269513761 0 -0.41226400652291861 -0.1239377483115803 0 -0.40206816450786748 -0.12534119825959489 0 -0.40808680778215001 -0.13065799625154201 0 -0.41226400652291861 -0.1239377483115803 0 -0.41894877792749702 -0.12518406721038061 0 -0.41440068079573672 -0.13627359269513761 0 -0.42946866281160612 -0.15319909086300371 0 -0.41894877792749702 -0.12518406721038061 0 -0.41440068079573672 -0.13627359269513761 0 -0.41226400652291861 -0.1239377483115803 0 -0.40361437930207722 -0.13707944573985531 0 -0.41440068079573672 -0.13627359269513761 0 -0.41455411378264428 -0.14844460416159461 0 -0.40361437930207722 -0.13707944573985531 0 -0.40808680778215001 -0.13065799625154201 0 -0.41440068079573672 -0.13627359269513761 0 -0.41440068079573672 -0.13627359269513761 0 -0.41455411378264428 -0.14844460416159461 0 -0.42946866281160612 -0.15319909086300371 0 -0.40459418751255161 -0.15581600703016971 0 -0.40361437930207722 -0.13707944573985531 0 -0.41455411378264428 -0.14844460416159461 0 -0.41866638992769872 -0.16279383461628699 0 -0.40459418751255161 -0.15581600703016971 0 -0.41455411378264428 -0.14844460416159461 0 -0.41866638992769872 -0.16279383461628699 0 -0.41455411378264428 -0.14844460416159461 0 -0.42946866281160612 -0.15319909086300371 0 -0.41894877792749702 -0.12518406721038061 0 -0.44045734787150531 -0.13277265485056591 0 -0.44322140784488478 -0.12970949307144969 0 -0.41894877792749702 -0.12518406721038061 0 -0.44322140784488478 -0.12970949307144969 0 -0.43566435235120449 -0.1212664494772297 0 -0.41894877792749702 -0.12518406721038061 0 -0.42946866281160612 -0.15319909086300371 0 -0.41894877792749702 -0.12518406721038061 0 -0.42946866281160612 -0.15319909086300371 0 -0.44045734787150531 -0.13277265485056591 0 -0.41894877792749702 -0.12518406721038061 0 -0.44322140784488478 -0.12970949307144969 0 -0.44045734787150531 -0.13277265485056591 0 -0.44322140784488478 -0.12970949307144969 0 -0.4674940377622725 -0.13423491893251921 0 -0.44322140784488478 -0.12970949307144969 0 -0.44733428235407358 -0.1238748093235674 0 -0.45692601649221087 -0.12356048664681669 0 -0.44322140784488478 -0.12970949307144969 0 -0.44733428235407358 -0.1238748093235674 0 -0.44294579078483792 -0.12321074044094479 0 -0.44045734787150531 -0.13277265485056591 0 -0.44272645135067812 -0.14673642271107551 0 -0.45237062095080027 -0.14111946822045579 0 -0.42946866281160612 -0.15319909086300371 0 -0.44045734787150531 -0.13277265485056591 0 -0.44272645135067812 -0.14673642271107551 0 -0.45072392628580149 -0.1493237746598193 0 -0.4594136712387516 -0.15907520598671959 0 -0.44369838129204831 -0.15983318794453441 0 -0.42946866281160612 -0.15319909086300371 0 -0.44272645135067812 -0.14673642271107551 0 -0.44369838129204831 -0.15983318794453441 0 -0.44272645135067812 -0.14673642271107551 0 -0.45072392628580149 -0.1493237746598193 0 -0.44369838129204831 -0.15983318794453441 0 -0.44272645135067812 -0.14673642271107551 0 -0.45072392628580149 -0.1493237746598193 0 -0.45237062095080027 -0.14111946822045579 0 -0.45072392628580149 -0.1493237746598193 0 -0.45237062095080027 -0.14111946822045579 0 -0.46234589278656069 -0.1462976492047568 0 -0.45072392628580149 -0.1493237746598193 0 -0.46234589278656069 -0.1462976492047568 0 -0.4594136712387516 -0.15907520598671959 0 -0.46234589278656069 -0.1462976492047568 0 -0.47126195880699367 -0.15114855879433189 0 -0.4594136712387516 -0.15907520598671959 0 -0.46234589278656069 -0.1462976492047568 0 -0.47263579455304677 -0.14227319708552469 0 -0.47126195880699367 -0.15114855879433189 0 -0.46234589278656069 -0.1462976492047568 0 -0.4674940377622725 -0.13423491893251921 0 -0.47263579455304677 -0.14227319708552469 0 -0.44322140784488478 -0.12970949307144969 0 -0.4674940377622725 -0.13423491893251921 0 -0.44322140784488478 -0.12970949307144969 0 -0.4674940377622725 -0.13423491893251921 0 -0.45692601649221087 -0.12356048664681669 0 -0.44045734787150531 -0.13277265485056591 0 -0.4674940377622725 -0.13423491893251921 0 -0.44045734787150531 -0.13277265485056591 0 -0.45237062095080027 -0.14111946822045579 0 -0.4674940377622725 -0.13423491893251921 0 -0.45237062095080027 -0.14111946822045579 0 -0.46234589278656069 -0.1462976492047568 0 -0.4674940377622725 -0.13423491893251921 0 -0.4674940377622725 -0.13423491893251921 0 -0.48374701888113703 -0.13511395222434611 0 -0.48287724029030338 -0.1371029864959995 0 -0.4674940377622725 -0.13423491893251921 0 -0.47763063677159262 -0.12743973822845001 0 -0.46967506937988168 -0.1156176767753732 0 -0.4674940377622725 -0.13423491893251921 0 -0.48374701888113703 -0.13511395222434611 0 -0.4674940377622725 -0.13423491893251921 0 -0.48374701888113703 -0.13511395222434611 0 -0.47763063677159262 -0.12743973822845001 0 -0.4674940377622725 -0.13423491893251921 0 -0.48287724029030338 -0.1371029864959995 0 -0.47263579455304677 -0.14227319708552469 0 -0.4674940377622725 -0.13423491893251921 0 -0.48287724029030338 -0.1371029864959995 0 -0.48374701888113703 -0.13511395222434611 0 -0.50000000000000155 -0.135992985516173 0 -0.48374701888113703 -0.13511395222434611 0 -0.49205522913860639 -0.12740517559633521 0 -0.50000000000000155 -0.135992985516173 0 -0.48374701888113703 -0.13511395222434611 0 -0.50000000000000155 -0.135992985516173 0 -0.49826044281833443 -0.13997105405947971 0 -0.48374701888113703 -0.13511395222434611 0 -0.47763063677159262 -0.12743973822845001 0 -0.49205522913860639 -0.12740517559633521 0 -0.48287724029030338 -0.1371029864959995 0 -0.49826044281833443 -0.13997105405947971 0 -0.48970767335880078 -0.14315599262379999 0 -0.48374701888113703 -0.13511395222434611 0 -0.48287724029030338 -0.1371029864959995 0 -0.49826044281833443 -0.13997105405947971 0 -0.48287724029030338 -0.1371029864959995 0 -0.49826044281833443 -0.13997105405947971 0 -0.49826044281833443 -0.13997105405947971 0 -0.48880400060070173 -0.15204336264114099 0 -0.5 -0.16257722613166559 0 -0.50000000000000155 -0.135992985516173 0 -0.49826044281833443 -0.13997105405947971 0 -0.5 -0.16257722613166559 0 -0.49826044281833443 -0.13997105405947971 0 -0.48970767335880078 -0.14315599262379999 0 -0.48880400060070173 -0.15204336264114099 0 -0.48287724029030338 -0.1371029864959995 0 -0.48970767335880078 -0.14315599262379999 0 -0.48109439442191998 -0.14634995125647379 0 -0.48970767335880078 -0.14315599262379999 0 -0.48880400060070173 -0.15204336264114099 0 -0.48109439442191998 -0.14634995125647379 0 -0.48880400060070173 -0.15204336264114099 0 -0.47963691241901019 -0.15527409117642871 0 -0.48109439442191998 -0.14634995125647379 0 -0.47963691241901019 -0.15527409117642871 0 -0.48109439442191998 -0.14634995125647379 0 -0.47126195880699367 -0.15114855879433189 0 -0.48287724029030338 -0.1371029864959995 0 -0.48109439442191998 -0.14634995125647379 0 -0.47263579455304677 -0.14227319708552469 0 -0.48109439442191998 -0.14634995125647379 0 -0.47263579455304677 -0.14227319708552469 0 -0.47126195880699367 -0.15114855879433189 0 -0.47963691241901019 -0.15527409117642871 0 -0.47126195880699367 -0.15114855879433189 0 -0.47245641001431532 -0.16410528104960509 0 -0.47245641001431532 -0.16410528104960509 0 -0.48456779825112051 -0.16272330214059169 0 -0.48203689297531532 -0.18026514525766901 0 -0.47963691241901019 -0.15527409117642871 0 -0.47245641001431532 -0.16410528104960509 0 -0.48456779825112051 -0.16272330214059169 0 -0.48880400060070173 -0.15204336264114099 0 -0.47963691241901019 -0.15527409117642871 0 -0.48456779825112051 -0.16272330214059169 0 -0.48880400060070173 -0.15204336264114099 0 -0.48456779825112051 -0.16272330214059169 0 -0.5 -0.16257722613166559 0 -0.48456779825112051 -0.16272330214059169 0 -0.5 -0.16257722613166559 0 -0.48203689297531532 -0.18026514525766901 0 -0.5 -0.16257722613166559 0 -0.48203689297531532 -0.18026514525766901 0 -0.5 -0.18916146674715831 0 -0.48203689297531532 -0.18026514525766901 0 -0.46298931177680752 -0.17444523791590999 0 -0.46469577716211852 -0.18836469606845241 0 -0.47245641001431532 -0.16410528104960509 0 -0.48203689297531532 -0.18026514525766901 0 -0.46298931177680752 -0.17444523791590999 0 -0.46298931177680752 -0.17444523791590999 0 -0.45287945294922188 -0.1812555272221191 0 -0.46469577716211852 -0.18836469606845241 0 -0.45287945294922188 -0.1812555272221191 0 -0.45428713313978042 -0.19262575075787 0 -0.46469577716211852 -0.18836469606845241 0 -0.46298931177680752 -0.17444523791590999 0 -0.45241981770873502 -0.1683727523380795 0 -0.45287945294922188 -0.1812555272221191 0 -0.47245641001431532 -0.16410528104960509 0 -0.46298931177680752 -0.17444523791590999 0 -0.4594136712387516 -0.15907520598671959 0 -0.47126195880699367 -0.15114855879433189 0 -0.47245641001431532 -0.16410528104960509 0 -0.4594136712387516 -0.15907520598671959 0 -0.46298931177680752 -0.17444523791590999 0 -0.4594136712387516 -0.15907520598671959 0 -0.45241981770873502 -0.1683727523380795 0 -0.42946866281160612 -0.15319909086300371 0 -0.44369838129204831 -0.15983318794453441 0 -0.43998854769571583 -0.18121411451562661 0 -0.45241981770873502 -0.1683727523380795 0 -0.44369838129204831 -0.15983318794453441 0 -0.44724654991143031 -0.17266889550508979 0 -0.44369838129204831 -0.15983318794453441 0 -0.43998854769571583 -0.18121411451562661 0 -0.44724654991143031 -0.17266889550508979 0 -0.4594136712387516 -0.15907520598671959 0 -0.45241981770873502 -0.1683727523380795 0 -0.44369838129204831 -0.15983318794453441 0 -0.43998854769571583 -0.18121411451562661 0 -0.45287945294922188 -0.1812555272221191 0 -0.45428713313978042 -0.19262575075787 0 -0.43998854769571583 -0.18121411451562661 0 -0.45287945294922188 -0.1812555272221191 0 -0.44724654991143031 -0.17266889550508979 0 -0.45241981770873502 -0.1683727523380795 0 -0.45287945294922188 -0.1812555272221191 0 -0.44724654991143031 -0.17266889550508979 0 -0.43431156121594611 -0.19732151409661899 0 -0.43998854769571583 -0.18121411451562661 0 -0.45050843257982548 -0.20922913816824931 0 -0.43998854769571583 -0.18121411451562661 0 -0.45050843257982548 -0.20922913816824931 0 -0.43998854769571583 -0.18121411451562661 0 -0.45050843257982548 -0.20922913816824931 0 -0.45428713313978042 -0.19262575075787 0 -0.43599632625878049 -0.2186012451447526 0 -0.45050843257982548 -0.20922913816824931 0 -0.45220777374996862 -0.2200568739728504 0 -0.43599632625878049 -0.2186012451447526 0 -0.43431156121594611 -0.19732151409661899 0 -0.45050843257982548 -0.20922913816824931 0 -0.45050843257982548 -0.20922913816824931 0 -0.46358199538875849 -0.21621606839911139 0 -0.46416234351701913 -0.20206936003933609 0 -0.45050843257982548 -0.20922913816824931 0 -0.46358199538875849 -0.21621606839911139 0 -0.45220777374996862 -0.2200568739728504 0 -0.46358199538875849 -0.21621606839911139 0 -0.46416234351701913 -0.20206936003933609 0 -0.47584177389025878 -0.2099599387464354 0 -0.46416234351701913 -0.20206936003933609 0 -0.46469577716211852 -0.18836469606845241 0 -0.47543198611444948 -0.1964372659635831 0 -0.45050843257982548 -0.20922913816824931 0 -0.46416234351701913 -0.20206936003933609 0 -0.45428713313978042 -0.19262575075787 0 -0.46416234351701913 -0.20206936003933609 0 -0.45428713313978042 -0.19262575075787 0 -0.46469577716211852 -0.18836469606845241 0 -0.48203689297531532 -0.18026514525766901 0 -0.47543198611444948 -0.1964372659635831 0 -0.48896798164452709 -0.20246918393678889 0 -0.48203689297531532 -0.18026514525766901 0 -0.46469577716211852 -0.18836469606845241 0 -0.47543198611444948 -0.1964372659635831 0 -0.46416234351701913 -0.20206936003933609 0 -0.47543198611444948 -0.1964372659635831 0 -0.47584177389025878 -0.2099599387464354 0 -0.47543198611444948 -0.1964372659635831 0 -0.48896798164452709 -0.20246918393678889 0 -0.47584177389025878 -0.2099599387464354 0 -0.48203689297531532 -0.18026514525766901 0 -0.5 -0.18916146674715831 0 -0.48896798164452709 -0.20246918393678889 0 -0.5 -0.18916146674715831 0 -0.48896798164452709 -0.20246918393678889 0 -0.5 -0.21574570736265089 0 -0.48896798164452709 -0.20246918393678889 0 -0.5 -0.21574570736265089 0 -0.4855904510003024 -0.2225834573442762 0 -0.48896798164452709 -0.20246918393678889 0 -0.47584177389025878 -0.2099599387464354 0 -0.4855904510003024 -0.2225834573442762 0 -0.46358199538875849 -0.21621606839911139 0 -0.47584177389025878 -0.2099599387464354 0 -0.47180050520052819 -0.2265679125371455 0 -0.47584177389025878 -0.2099599387464354 0 -0.47180050520052819 -0.2265679125371455 0 -0.4855904510003024 -0.2225834573442762 0 -0.47180050520052819 -0.2265679125371455 0 -0.4855904510003024 -0.2225834573442762 0 -0.47930384830573691 -0.24047285468383381 0 -0.4855904510003024 -0.2225834573442762 0 -0.5 -0.2307035027613078 0 -0.47930384830573691 -0.24047285468383381 0 -0.5 -0.21574570736265089 0 -0.4855904510003024 -0.2225834573442762 0 -0.5 -0.2307035027613078 0 -0.48812836472625931 -0.25507586270891369 0 -0.5 -0.24232994797814361 0 -0.47930384830573691 -0.24047285468383381 0 -0.5 -0.2307035027613078 0 -0.47930384830573691 -0.24047285468383381 0 -0.5 -0.2307035027613078 0 -0.5 -0.24232994797814361 0 -0.47930384830573691 -0.24047285468383381 0 -0.45928936195740799 -0.25024220660635982 0 -0.47930384830573691 -0.24047285468383381 0 -0.47180050520052819 -0.2265679125371455 0 -0.47930384830573691 -0.24047285468383381 0 -0.46319243784012082 -0.23833960216517289 0 -0.45928936195740799 -0.25024220660635982 0 -0.46418071873126332 -0.25557144543121929 0 -0.47930384830573691 -0.24047285468383381 0 -0.45928936195740799 -0.25024220660635982 0 -0.47930384830573691 -0.24047285468383381 0 -0.46319243784012082 -0.23833960216517289 0 -0.45928936195740799 -0.25024220660635982 0 -0.45458035191101348 -0.2437803501201424 0 -0.46319243784012082 -0.23833960216517289 0 -0.45928936195740799 -0.25024220660635982 0 -0.45458035191101348 -0.2437803501201424 0 -0.44847237959020703 -0.24783071556647349 0 -0.45356765673120403 -0.23681519036679599 0 -0.46319243784012082 -0.23833960216517289 0 -0.45957494200362309 -0.22873452762666641 0 -0.45458035191101348 -0.2437803501201424 0 -0.45356765673120403 -0.23681519036679599 0 -0.46319243784012082 -0.23833960216517289 0 -0.47180050520052819 -0.2265679125371455 0 -0.46319243784012082 -0.23833960216517289 0 -0.45957494200362309 -0.22873452762666641 0 -0.46358199538875849 -0.21621606839911139 0 -0.47180050520052819 -0.2265679125371455 0 -0.45957494200362309 -0.22873452762666641 0 -0.46358199538875849 -0.21621606839911139 0 -0.45957494200362309 -0.22873452762666641 0 -0.45220777374996862 -0.2200568739728504 0 -0.45356765673120403 -0.23681519036679599 0 -0.45957494200362309 -0.22873452762666641 0 -0.44659793836102479 -0.2285622183178144 0 -0.43599632625878049 -0.2186012451447526 0 -0.44659793836102479 -0.2285622183178144 0 -0.43768109130161581 -0.23988097619288609 0 -0.43599632625878049 -0.2186012451447526 0 -0.44659793836102479 -0.2285622183178144 0 -0.45220777374996862 -0.2200568739728504 0 -0.45356765673120403 -0.23681519036679599 0 -0.44659793836102479 -0.2285622183178144 0 -0.44566619387870238 -0.23742638446287709 0 -0.45957494200362309 -0.22873452762666641 0 -0.44659793836102479 -0.2285622183178144 0 -0.45220777374996862 -0.2200568739728504 0 -0.44159202179432488 -0.2405360695514466 0 -0.43768109130161581 -0.23988097619288609 0 -0.44566619387870238 -0.23742638446287709 0 -0.43927487560907968 -0.26001155852888652 0 -0.44159202179432488 -0.2405360695514466 0 -0.44847237959020703 -0.24783071556647349 0 -0.43927487560907968 -0.26001155852888652 0 -0.44159202179432488 -0.2405360695514466 0 -0.43768109130161581 -0.23988097619288609 0 -0.44659793836102479 -0.2285622183178144 0 -0.43768109130161581 -0.23988097619288609 0 -0.44566619387870238 -0.23742638446287709 0 -0.43927487560907968 -0.26001155852888652 0 -0.43768109130161581 -0.23988097619288609 0 -0.44159202179432488 -0.2405360695514466 0 -0.43768109130161581 -0.23988097619288609 0 -0.44159202179432488 -0.2405360695514466 0 -0.44847237959020703 -0.24783071556647349 0 -0.4488922612053432 -0.24133746788544219 0 -0.45458035191101348 -0.2437803501201424 0 -0.44847237959020703 -0.24783071556647349 0 -0.4488922612053432 -0.24133746788544219 0 -0.45458035191101348 -0.2437803501201424 0 -0.45356765673120403 -0.23681519036679599 0 -0.4488922612053432 -0.24133746788544219 0 -0.45356765673120403 -0.23681519036679599 0 -0.44566619387870238 -0.23742638446287709 0 -0.4488922612053432 -0.24133746788544219 0 -0.44159202179432488 -0.2405360695514466 0 -0.44566619387870238 -0.23742638446287709 0 -0.4488922612053432 -0.24133746788544219 0 -0.42696903595728403 -0.043524300661642583 0 -0.42283401094015027 -0.066147271592615908 0 -0.45483938044406208 -0.055905589402946598 0 -0.41063423193552823 -0.035530945541751971 0 -0.42696903595728403 -0.043524300661642583 0 -0.42201807453036411 -0.024090737102640258 0 -0.41063423193552823 -0.035530945541751971 0 -0.4066230890275816 -0.049627156055233733 0 -0.42696903595728403 -0.043524300661642583 0 -0.4066230890275816 -0.049627156055233733 0 -0.40238892602494208 -0.063678346112828174 0 -0.42283401094015027 -0.066147271592615908 0 -0.4066230890275816 -0.049627156055233733 0 -0.42696903595728403 -0.043524300661642583 0 -0.42283401094015027 -0.066147271592615908 0 -0.42696903595728403 -0.043524300661642583 0 -0.42201807453036411 -0.024090737102640258 0 -0.44460929842883218 -0.03024602865086606 0 -0.42201807453036411 -0.024090737102640258 0 -0.44065572886467891 -0.008724382811930529 0 -0.42201807453036411 -0.024090737102640258 0 -0.44065572886467891 -0.008724382811930529 0 -0.44460929842883218 -0.03024602865086606 0 -0.42201807453036411 -0.024090737102640258 0 -0.42371987986013321 -0.0023373594758670131 0 -0.44065572886467891 -0.008724382811930529 0 -0.42201807453036411 -0.024090737102640258 0 -0.42371987986013321 -0.0023373594758670131 0 -0.40568778554657942 -0.0071128094684239128 0 -0.42201807453036411 -0.024090737102640258 0 -0.39936453760363672 -0.025233990291440401 0 -0.40568778554657942 -0.0071128094684239128 0 -0.41063423193552823 -0.035530945541751971 0 -0.42201807453036411 -0.024090737102640258 0 -0.39936453760363672 -0.025233990291440401 0 -0.39936453760363672 -0.025233990291440401 0 -0.40568778554657942 -0.0071128094684239128 0 -0.39487078458156022 -0.0136413796972156 0 -0.40568778554657942 -0.0071128094684239128 0 -0.39511222313640543 -0.0043980754813927143 0 -0.39500107419647112 0.0080372471967794061 0 -0.40568778554657942 -0.0071128094684239128 0 -0.39487078458156022 -0.0136413796972156 0 -0.39511222313640543 -0.0043980754813927143 0 -0.39487078458156022 -0.0136413796972156 0 -0.39511222313640543 -0.0043980754813927143 0 -0.38517766961433092 -0.0063721784754573246 0 -0.39511222313640543 -0.0043980754813927143 0 -0.38517766961433092 -0.0063721784754573246 0 -0.39500107419647112 0.0080372471967794061 0 -0.38517766961433092 -0.0063721784754573246 0 -0.37912460818950078 -0.0065278018498123114 0 -0.37677101586784778 -0.032104785925230361 0 -0.38517766961433092 -0.0063721784754573246 0 -0.37677101586784778 -0.032104785925230361 0 -0.39936453760363672 -0.025233990291440401 0 -0.39487078458156022 -0.0136413796972156 0 -0.37677101586784778 -0.032104785925230361 0 -0.37912460818950078 -0.0065278018498123114 0 -0.37677101586784778 -0.032104785925230361 0 -0.39487078458156022 -0.0136413796972156 0 -0.38517766961433092 -0.0063721784754573246 0 -0.37677101586784778 -0.032104785925230361 0 -0.39936453760363672 -0.025233990291440401 0 -0.37677101586784778 -0.032104785925230361 0 -0.39455732130724991 -0.040889085134838507 0 -0.37466409336866269 -0.055001157023149803 0 -0.37677101586784778 -0.032104785925230361 0 -0.38255415621163902 -0.048319504309389492 0 -0.37466409336866269 -0.055001157023149803 0 -0.37677101586784778 -0.032104785925230361 0 -0.37677101586784778 -0.032104785925230361 0 -0.39455732130724991 -0.040889085134838507 0 -0.38255415621163902 -0.048319504309389492 0 -0.41063423193552823 -0.035530945541751971 0 -0.39936453760363672 -0.025233990291440401 0 -0.39455732130724991 -0.040889085134838507 0 -0.41063423193552823 -0.035530945541751971 0 -0.4066230890275816 -0.049627156055233733 0 -0.39455732130724991 -0.040889085134838507 0 -0.4066230890275816 -0.049627156055233733 0 -0.39114076676008103 -0.054920053062184178 0 -0.40238892602494208 -0.063678346112828174 0 -0.4066230890275816 -0.049627156055233733 0 -0.39455732130724991 -0.040889085134838507 0 -0.39114076676008103 -0.054920053062184178 0 -0.39114076676008103 -0.054920053062184178 0 -0.38881217329319029 -0.067442069541619853 0 -0.40238892602494208 -0.063678346112828174 0 -0.39114076676008103 -0.054920053062184178 0 -0.38320848948076558 -0.059622719259999242 0 -0.38881217329319029 -0.067442069541619853 0 -0.39455732130724991 -0.040889085134838507 0 -0.39114076676008103 -0.054920053062184178 0 -0.38255415621163902 -0.048319504309389492 0 -0.39114076676008103 -0.054920053062184178 0 -0.38320848948076558 -0.059622719259999242 0 -0.38255415621163902 -0.048319504309389492 0 -0.37466409336866269 -0.055001157023149803 0 -0.38320848948076558 -0.059622719259999242 0 -0.38255415621163902 -0.048319504309389492 0 -0.37466409336866269 -0.055001157023149803 0 -0.38320848948076558 -0.059622719259999242 0 -0.3806672124350467 -0.067697076131995715 0 -0.37255717086947798 -0.077897528121069384 0 -0.37466409336866269 -0.055001157023149803 0 -0.3806672124350467 -0.067697076131995715 0 -0.38320848948076558 -0.059622719259999242 0 -0.3806672124350467 -0.067697076131995715 0 -0.38881217329319029 -0.067442069541619853 0 -0.3806672124350467 -0.067697076131995715 0 -0.38881217329319029 -0.067442069541619853 0 -0.38465271641365772 -0.078075209509904653 0 -0.37255717086947798 -0.077897528121069384 0 -0.3806672124350467 -0.067697076131995715 0 -0.38465271641365772 -0.078075209509904653 0 -0.37255717086947798 -0.077897528121069384 0 -0.38465271641365772 -0.078075209509904653 0 -0.38662875777426398 -0.090737519564571309 0 -0.37045024837029322 -0.100793899218989 0 -0.37255717086947798 -0.077897528121069384 0 -0.38662875777426398 -0.090737519564571309 0 -0.38662875777426398 -0.090737519564571309 0 -0.40253459010370718 -0.080255180312487157 0 -0.39925582892748629 -0.098179458085420737 0 -0.40253459010370718 -0.080255180312487157 0 -0.39925582892748629 -0.098179458085420737 0 -0.41195792929376451 -0.099189307442586166 0 -0.38465271641365772 -0.078075209509904653 0 -0.38662875777426398 -0.090737519564571309 0 -0.40253459010370718 -0.080255180312487157 0 -0.38881217329319029 -0.067442069541619853 0 -0.38465271641365772 -0.078075209509904653 0 -0.40253459010370718 -0.080255180312487157 0 -0.38881217329319029 -0.067442069541619853 0 -0.40253459010370718 -0.080255180312487157 0 -0.40238892602494208 -0.063678346112828174 0 -0.38918659054706572 -0.13200442973639029 0 -0.38280078160759462 -0.12063144682871781 0 -0.39362740265852347 -0.12023929836753899 0 -0.36834332587110852 -0.1236902703169086 0 -0.37660811984927961 -0.13008761310785 0 -0.38280078160759462 -0.12063144682871781 0 -0.36834332587110852 -0.1236902703169086 0 -0.38280078160759462 -0.12063144682871781 0 -0.38020522973052651 -0.10912133061679551 0 -0.38280078160759462 -0.12063144682871781 0 -0.38020522973052651 -0.10912133061679551 0 -0.39280303502937208 -0.1097535171547909 0 -0.38280078160759462 -0.12063144682871781 0 -0.39280303502937208 -0.1097535171547909 0 -0.39362740265852347 -0.12023929836753899 0 -0.37045024837029322 -0.100793899218989 0 -0.38662875777426398 -0.090737519564571309 0 -0.38020522973052651 -0.10912133061679551 0 -0.38662875777426398 -0.090737519564571309 0 -0.38020522973052651 -0.10912133061679551 0 -0.39280303502937208 -0.1097535171547909 0 -0.38662875777426398 -0.090737519564571309 0 -0.39925582892748629 -0.098179458085420737 0 -0.39280303502937208 -0.1097535171547909 0 -0.39925582892748629 -0.098179458085420737 0 -0.40127844160071741 -0.11346589985820101 0 -0.41007296611702743 -0.1086730916312295 0 -0.39925582892748629 -0.098179458085420737 0 -0.39280303502937208 -0.1097535171547909 0 -0.40127844160071741 -0.11346589985820101 0 -0.39280303502937208 -0.1097535171547909 0 -0.40127844160071741 -0.11346589985820101 0 -0.39362740265852347 -0.12023929836753899 0 -0.40206816450786748 -0.12534119825959489 0 -0.40127844160071741 -0.11346589985820101 0 -0.39362740265852347 -0.12023929836753899 0 -0.40206816450786748 -0.12534119825959489 0 -0.40127844160071741 -0.11346589985820101 0 -0.40850720505109822 -0.11787023202284461 0 -0.41894877792749702 -0.12518406721038061 0 -0.41226400652291861 -0.1239377483115803 0 -0.41581705584610729 -0.1168441215598276 0 -0.41894877792749702 -0.12518406721038061 0 -0.41581705584610729 -0.1168441215598276 0 -0.41894877792749702 -0.12518406721038061 0 -0.41581705584610729 -0.1168441215598276 0 -0.42659002794683198 -0.1168674784615648 0 -0.41894877792749702 -0.12518406721038061 0 -0.41226400652291861 -0.1239377483115803 0 -0.40206816450786748 -0.12534119825959489 0 -0.41226400652291861 -0.1239377483115803 0 -0.40850720505109822 -0.11787023202284461 0 -0.41226400652291861 -0.1239377483115803 0 -0.40850720505109822 -0.11787023202284461 0 -0.41581705584610729 -0.1168441215598276 0 -0.40127844160071741 -0.11346589985820101 0 -0.40850720505109822 -0.11787023202284461 0 -0.41007296611702743 -0.1086730916312295 0 -0.40850720505109822 -0.11787023202284461 0 -0.41581705584610729 -0.1168441215598276 0 -0.41007296611702743 -0.1086730916312295 0 -0.41581705584610729 -0.1168441215598276 0 -0.41007296611702743 -0.1086730916312295 0 -0.42362133598299101 -0.10648953081849689 0 -0.41007296611702743 -0.1086730916312295 0 -0.41195792929376451 -0.099189307442586166 0 -0.42362133598299101 -0.10648953081849689 0 -0.39925582892748629 -0.098179458085420737 0 -0.41007296611702743 -0.1086730916312295 0 -0.41195792929376451 -0.099189307442586166 0 -0.41195792929376451 -0.099189307442586166 0 -0.42362133598299101 -0.10648953081849689 0 -0.424914749862432 -0.092042679133449185 0 -0.42362133598299101 -0.10648953081849689 0 -0.424914749862432 -0.092042679133449185 0 -0.44729490962115692 -0.1038301779544112 0 -0.42362133598299101 -0.10648953081849689 0 -0.43603619530881432 -0.1136084005439799 0 -0.44729490962115692 -0.1038301779544112 0 -0.424914749862432 -0.092042679133449185 0 -0.44729490962115692 -0.1038301779544112 0 -0.41894877792749702 -0.12518406721038061 0 -0.42659002794683198 -0.1168674784615648 0 -0.43566435235120449 -0.1212664494772297 0 -0.42362133598299101 -0.10648953081849689 0 -0.42659002794683198 -0.1168674784615648 0 -0.43603619530881432 -0.1136084005439799 0 -0.41581705584610729 -0.1168441215598276 0 -0.42362133598299101 -0.10648953081849689 0 -0.42659002794683198 -0.1168674784615648 0 -0.42659002794683198 -0.1168674784615648 0 -0.43603619530881432 -0.1136084005439799 0 -0.43566435235120449 -0.1212664494772297 0 -0.40253459010370718 -0.080255180312487157 0 -0.40238892602494208 -0.063678346112828174 0 -0.42283401094015027 -0.066147271592615908 0 -0.40253459010370718 -0.080255180312487157 0 -0.41195792929376451 -0.099189307442586166 0 -0.424914749862432 -0.092042679133449185 0 -0.40253459010370718 -0.080255180312487157 0 -0.424914749862432 -0.092042679133449185 0 -0.40253459010370718 -0.080255180312487157 0 -0.424914749862432 -0.092042679133449185 0 -0.42283401094015027 -0.066147271592615908 0 -0.424914749862432 -0.092042679133449185 0 -0.42283401094015027 -0.066147271592615908 0 -0.44467927748639929 -0.080269172030114078 0 -0.42283401094015027 -0.066147271592615908 0 -0.44467927748639929 -0.080269172030114078 0 -0.45483938044406208 -0.055905589402946598 0 -0.424914749862432 -0.092042679133449185 0 -0.44467927748639929 -0.080269172030114078 0 -0.44729490962115692 -0.1038301779544112 0 -0.44467927748639929 -0.080269172030114078 0 -0.44729490962115692 -0.1038301779544112 0 -0.46911303574849172 -0.084567605724436556 0 -0.46911303574849172 -0.084567605724436556 0 -0.47823342942478791 -0.062483718422336597 0 -0.45483938044406208 -0.055905589402946598 0 -0.44467927748639929 -0.080269172030114078 0 -0.46911303574849172 -0.084567605724436556 0 -0.45483938044406208 -0.055905589402946598 0 -0.44556312058918851 -0.1179922098915325 0 -0.44729490962115692 -0.1038301779544112 0 -0.45692601649221087 -0.12356048664681669 0 -0.44556312058918851 -0.1179922098915325 0 -0.44733428235407358 -0.1238748093235674 0 -0.45692601649221087 -0.12356048664681669 0 -0.44322140784488478 -0.12970949307144969 0 -0.43566435235120449 -0.1212664494772297 0 -0.44294579078483792 -0.12321074044094479 0 -0.44556312058918851 -0.1179922098915325 0 -0.44733428235407358 -0.1238748093235674 0 -0.44294579078483792 -0.12321074044094479 0 -0.43566435235120449 -0.1212664494772297 0 -0.44556312058918851 -0.1179922098915325 0 -0.44294579078483792 -0.12321074044094479 0 -0.43603619530881432 -0.1136084005439799 0 -0.43566435235120449 -0.1212664494772297 0 -0.44556312058918851 -0.1179922098915325 0 -0.43603619530881432 -0.1136084005439799 0 -0.44556312058918851 -0.1179922098915325 0 -0.44729490962115692 -0.1038301779544112 0 -0.44729490962115692 -0.1038301779544112 0 -0.46967506937988168 -0.1156176767753732 0 -0.46911303574849172 -0.084567605724436556 0 -0.4674940377622725 -0.13423491893251921 0 -0.45692601649221087 -0.12356048664681669 0 -0.46967506937988168 -0.1156176767753732 0 -0.44729490962115692 -0.1038301779544112 0 -0.45692601649221087 -0.12356048664681669 0 -0.46967506937988168 -0.1156176767753732 0 -0.44729490962115692 -0.1038301779544112 0 -0.46967506937988168 -0.1156176767753732 0 -0.49205522913860639 -0.12740517559633521 0 -0.46967506937988168 -0.1156176767753732 0 -0.49205522913860639 -0.12740517559633521 0 -0.46967506937988168 -0.1156176767753732 0 -0.48660401362117528 -0.1119419539188805 0 -0.47763063677159262 -0.12743973822845001 0 -0.49205522913860639 -0.12740517559633521 0 -0.46967506937988168 -0.1156176767753732 0 -0.46967506937988168 -0.1156176767753732 0 -0.48686903347530242 -0.095010728594277019 0 -0.46911303574849172 -0.084567605724436556 0 -0.46967506937988168 -0.1156176767753732 0 -0.48686903347530242 -0.095010728594277019 0 -0.48660401362117528 -0.1119419539188805 0 -0.5 -0.10771144711820731 0 -0.48686903347530242 -0.095010728594277019 0 -0.48660401362117528 -0.1119419539188805 0 -0.5 -0.10771144711820731 0 -0.48686903347530242 -0.095010728594277019 0 -0.5 -0.079429908720241693 0 -0.49205522913860639 -0.12740517559633521 0 -0.5 -0.10771144711820731 0 -0.48660401362117528 -0.1119419539188805 0 -0.49205522913860639 -0.12740517559633521 0 -0.50000000000000155 -0.135992985516173 0 -0.5 -0.10771144711820731 0 -0.46911303574849172 -0.084567605724436556 0 -0.5 -0.079429908720241693 0 -0.47823342942478791 -0.062483718422336597 0 -0.48686903347530242 -0.095010728594277019 0 -0.46911303574849172 -0.084567605724436556 0 -0.5 -0.079429908720241693 0 -0.5 -0.079429908720241693 0 -0.5 -0.051148370322275823 0 -0.47823342942478791 -0.062483718422336597 0 -0.5 -0.051148370322275823 0 -0.48014693938875658 -0.04387740800154806 0 -0.47823342942478791 -0.062483718422336597 0 -0.5 -0.051148370322275823 0 -0.48014693938875658 -0.04387740800154806 0 -0.5 -0.022866831924309938 0 -0.48014693938875658 -0.04387740800154806 0 -0.47823342942478791 -0.062483718422336597 0 -0.45483938044406208 -0.055905589402946598 0 -0.45483938044406208 -0.055905589402946598 0 -0.44460929842883218 -0.03024602865086606 0 -0.467661887074933 -0.02698252993587132 0 -0.48014693938875658 -0.04387740800154806 0 -0.45483938044406208 -0.055905589402946598 0 -0.467661887074933 -0.02698252993587132 0 -0.42696903595728403 -0.043524300661642583 0 -0.45483938044406208 -0.055905589402946598 0 -0.44460929842883218 -0.03024602865086606 0 -0.44065572886467891 -0.008724382811930529 0 -0.45851882049580273 -0.0114044346152048 0 -0.45929338319899371 0.0066419714787792064 0 -0.44065572886467891 -0.008724382811930529 0 -0.45929338319899371 0.0066419714787792064 0 -0.44065572886467891 -0.008724382811930529 0 -0.44460929842883218 -0.03024602865086606 0 -0.45851882049580273 -0.0114044346152048 0 -0.44460929842883218 -0.03024602865086606 0 -0.467661887074933 -0.02698252993587132 0 -0.45851882049580273 -0.0114044346152048 0 -0.467661887074933 -0.02698252993587132 0 -0.45851882049580273 -0.0114044346152048 0 -0.47723418805050632 -0.004531465458910337 0 -0.45851882049580273 -0.0114044346152048 0 -0.47723418805050632 -0.004531465458910337 0 -0.45929338319899371 0.0066419714787792064 0 -0.48014693938875658 -0.04387740800154806 0 -0.467661887074933 -0.02698252993587132 0 -0.5 -0.022866831924309938 0 -0.467661887074933 -0.02698252993587132 0 -0.47723418805050632 -0.004531465458910337 0 -0.5 -0.022866831924309938 0 -0.47723418805050632 -0.004531465458910337 0 -0.5 -0.022866831924309938 0 -0.5 0.0054147064736558836 0 -0.47723418805050632 -0.004531465458910337 0 -0.5 0.0054147064736558836 0 -0.47793103753330862 0.02200832576948894 0 -0.47793103753330862 0.02200832576948894 0 -0.49656869186762342 0.037374680060198673 0 -0.47793103753330862 0.02200832576948894 0 -0.5 0.033696244871621761 0 -0.49656869186762342 0.037374680060198673 0 -0.5 0.0054147064736558836 0 -0.47793103753330862 0.02200832576948894 0 -0.5 0.033696244871621761 0 -0.47723418805050632 -0.004531465458910337 0 -0.47793103753330862 0.02200832576948894 0 -0.45929338319899371 0.0066419714787792064 0 -0.5 0.061977783269587527 0 -0.49656869186762342 0.037374680060198673 0 -0.48388610632301671 0.052995498784365262 0 -0.5 0.061977783269587527 0 -0.48388610632301671 0.052995498784365262 0 -0.48328753368330202 0.069302228146094644 0 -0.47793103753330862 0.02200832576948894 0 -0.49656869186762342 0.037374680060198673 0 -0.4801331079816139 0.038963211717754867 0 -0.5 0.061977783269587527 0 -0.5 0.033696244871621761 0 -0.49656869186762342 0.037374680060198673 0 -0.49656869186762342 0.037374680060198673 0 -0.4801331079816139 0.038963211717754867 0 -0.48388610632301671 0.052995498784365262 0 -0.47793103753330862 0.02200832576948894 0 -0.4801331079816139 0.038963211717754867 0 -0.46780951646236069 0.036579176158469243 0 -0.4801331079816139 0.038963211717754867 0 -0.47042809880942521 0.049666478338352499 0 -0.46780951646236069 0.036579176158469243 0 -0.48388610632301671 0.052995498784365262 0 -0.48328753368330202 0.069302228146094644 0 -0.47128019631414492 0.062760320865599586 0 -0.4801331079816139 0.038963211717754867 0 -0.48388610632301671 0.052995498784365262 0 -0.47042809880942521 0.049666478338352499 0 -0.48388610632301671 0.052995498784365262 0 -0.47042809880942521 0.049666478338352499 0 -0.47128019631414492 0.062760320865599586 0 -0.47042809880942521 0.049666478338352499 0 -0.45200741150973489 0.049554560164058237 0 -0.45802253781367752 0.063482282034478657 0 -0.47042809880942521 0.049666478338352499 0 -0.45802253781367752 0.063482282034478657 0 -0.47128019631414492 0.062760320865599586 0 -0.47042809880942521 0.049666478338352499 0 -0.46780951646236069 0.036579176158469243 0 -0.45200741150973489 0.049554560164058237 0 -0.46780951646236069 0.036579176158469243 0 -0.45200741150973489 0.049554560164058237 0 -0.45519858727346219 0.02842831947724896 0 -0.45200741150973489 0.049554560164058237 0 -0.45519858727346219 0.02842831947724896 0 -0.43702221690191972 0.039733917298284543 0 -0.45200741150973489 0.049554560164058237 0 -0.43702221690191972 0.039733917298284543 0 -0.43388981384462799 0.056865247185560741 0 -0.45200741150973489 0.049554560164058237 0 -0.43388981384462799 0.056865247185560741 0 -0.44358941909877581 0.066251547043131548 0 -0.45200741150973489 0.049554560164058237 0 -0.44358941909877581 0.066251547043131548 0 -0.45802253781367752 0.063482282034478657 0 -0.47793103753330862 0.02200832576948894 0 -0.45929338319899371 0.0066419714787792064 0 -0.47793103753330862 0.02200832576948894 0 -0.45929338319899371 0.0066419714787792064 0 -0.45519858727346219 0.02842831947724896 0 -0.47793103753330862 0.02200832576948894 0 -0.46780951646236069 0.036579176158469243 0 -0.45519858727346219 0.02842831947724896 0 -0.45929338319899371 0.0066419714787792064 0 -0.45519858727346219 0.02842831947724896 0 -0.43651938359816039 0.0163670645231235 0 -0.45519858727346219 0.02842831947724896 0 -0.43651938359816039 0.0163670645231235 0 -0.43702221690191972 0.039733917298284543 0 -0.44065572886467891 -0.008724382811930529 0 -0.45929338319899371 0.0066419714787792064 0 -0.43651938359816039 0.0163670645231235 0 -0.42371987986013321 -0.0023373594758670131 0 -0.41371842676088322 0.011874067480536141 0 -0.43651938359816039 0.0163670645231235 0 -0.42371987986013321 -0.0023373594758670131 0 -0.44065572886467891 -0.008724382811930529 0 -0.43651938359816039 0.0163670645231235 0 -0.42371987986013321 -0.0023373594758670131 0 -0.40568778554657942 -0.0071128094684239128 0 -0.41371842676088322 0.011874067480536141 0 -0.41371842676088322 0.011874067480536141 0 -0.42303420607939513 0.03027514035493422 0 -0.39804375089273841 0.025582859754169691 0 -0.42303420607939513 0.03027514035493422 0 -0.43651938359816039 0.0163670645231235 0 -0.43702221690191972 0.039733917298284543 0 -0.41371842676088322 0.011874067480536141 0 -0.42303420607939513 0.03027514035493422 0 -0.43651938359816039 0.0163670645231235 0 -0.42303420607939513 0.03027514035493422 0 -0.43702221690191972 0.039733917298284543 0 -0.42127775759704672 0.047928340711726893 0 -0.43702221690191972 0.039733917298284543 0 -0.43388981384462799 0.056865247185560741 0 -0.42127775759704672 0.047928340711726893 0 -0.43388981384462799 0.056865247185560741 0 -0.42127775759704672 0.047928340711726893 0 -0.41924651013108949 0.065572272984079527 0 -0.42127775759704672 0.047928340711726893 0 -0.40843050834279382 0.039598648579304292 0 -0.4019845501408113 0.056176917340899538 0 -0.42127775759704672 0.047928340711726893 0 -0.4019845501408113 0.056176917340899538 0 -0.41924651013108949 0.065572272984079527 0 -0.42303420607939513 0.03027514035493422 0 -0.42127775759704672 0.047928340711726893 0 -0.40843050834279382 0.039598648579304292 0 -0.42303420607939513 0.03027514035493422 0 -0.40843050834279382 0.039598648579304292 0 -0.39804375089273841 0.025582859754169691 0 -0.40843050834279382 0.039598648579304292 0 -0.4019845501408113 0.056176917340899538 0 -0.38383179283280738 0.044626166301023701 0 -0.40843050834279382 0.039598648579304292 0 -0.38383179283280738 0.044626166301023701 0 -0.39804375089273841 0.025582859754169691 0 -0.4019845501408113 0.056176917340899538 0 -0.38383179283280738 0.044626166301023701 0 -0.38618538515446071 0.070203150376441606 0 -0.38383179283280738 0.044626166301023701 0 -0.38618538515446071 0.070203150376441606 0 -0.38383179283280738 0.044626166301023701 0 -0.38618538515446071 0.070203150376441606 0 -0.36555211422520678 0.060095309267582192 0 -0.38383179283280738 0.044626166301023701 0 -0.38147820051115411 0.019049182225605761 0 -0.38383179283280738 0.044626166301023701 0 -0.38147820051115411 0.019049182225605761 0 -0.39804375089273841 0.025582859754169691 0 -0.38383179283280738 0.044626166301023701 0 -0.38147820051115411 0.019049182225605761 0 -0.36649990139404232 0.024441610025915519 0 -0.38517766961433092 -0.0063721784754573246 0 -0.38147820051115411 0.019049182225605761 0 -0.39500107419647112 0.0080372471967794061 0 -0.38517766961433092 -0.0063721784754573246 0 -0.37912460818950078 -0.0065278018498123114 0 -0.38147820051115411 0.019049182225605761 0 -0.37912460818950078 -0.0065278018498123114 0 -0.38147820051115411 0.019049182225605761 0 -0.37912460818950078 -0.0065278018498123114 0 -0.38147820051115411 0.019049182225605761 0 -0.36782225349506198 0.0048657833312758091 0 -0.40568778554657942 -0.0071128094684239128 0 -0.41371842676088322 0.011874067480536141 0 -0.39500107419647112 0.0080372471967794061 0 -0.41371842676088322 0.011874067480536141 0 -0.39500107419647112 0.0080372471967794061 0 -0.39804375089273841 0.025582859754169691 0 -0.38147820051115411 0.019049182225605761 0 -0.39500107419647112 0.0080372471967794061 0 -0.39804375089273841 0.025582859754169691 0 -0.39096607744150452 0.1062128193945954 0 -0.40570018320824108 0.1087502723171956 0 -0.40125501452309831 0.092537130979411963 0 -0.39096607744150452 0.1062128193945954 0 -0.38044628307441097 0.092456129427715528 0 -0.40125501452309831 0.092537130979411963 0 -0.40570018320824108 0.1087502723171956 0 -0.41331671127124342 0.1183359578508147 0 -0.38927342918587599 0.1255134882067182 0 -0.39096607744150452 0.1062128193945954 0 -0.40570018320824108 0.1087502723171956 0 -0.38927342918587599 0.1255134882067182 0 -0.39096607744150452 0.1062128193945954 0 -0.37665747635832342 0.11002337083399689 0 -0.38927342918587599 0.1255134882067182 0 -0.37665747635832342 0.11002337083399689 0 -0.38927342918587599 0.1255134882067182 0 -0.36006253610573752 0.1198919621846538 0 -0.39096607744150452 0.1062128193945954 0 -0.37665747635832342 0.11002337083399689 0 -0.38044628307441097 0.092456129427715528 0 -0.38044628307441097 0.092456129427715528 0 -0.38618538515446071 0.070203150376441606 0 -0.40125501452309831 0.092537130979411963 0 -0.38044628307441097 0.092456129427715528 0 -0.38618538515446071 0.070203150376441606 0 -0.36763344039030971 0.079060927352334748 0 -0.4019845501408113 0.056176917340899538 0 -0.38618538515446071 0.070203150376441606 0 -0.40772145285935418 0.076037117993934089 0 -0.38618538515446071 0.070203150376441606 0 -0.40125501452309831 0.092537130979411963 0 -0.40772145285935418 0.076037117993934089 0 -0.41638412285923643 0.091080662019301276 0 -0.40772145285935418 0.076037117993934089 0 -0.42384016665171481 0.08185121886435838 0 -0.40125501452309831 0.092537130979411963 0 -0.41638412285923643 0.091080662019301276 0 -0.40772145285935418 0.076037117993934089 0 -0.40772145285935418 0.076037117993934089 0 -0.41924651013108949 0.065572272984079527 0 -0.42384016665171481 0.08185121886435838 0 -0.4019845501408113 0.056176917340899538 0 -0.40772145285935418 0.076037117993934089 0 -0.41924651013108949 0.065572272984079527 0 -0.41924651013108949 0.065572272984079527 0 -0.43019556782920149 0.072150844912083692 0 -0.42384016665171481 0.08185121886435838 0 -0.43388981384462799 0.056865247185560741 0 -0.41924651013108949 0.065572272984079527 0 -0.43019556782920149 0.072150844912083692 0 -0.43019556782920149 0.072150844912083692 0 -0.42384016665171481 0.08185121886435838 0 -0.43235993024407759 0.079879659623298682 0 -0.43019556782920149 0.072150844912083692 0 -0.43235993024407759 0.079879659623298682 0 -0.4403146270292867 0.078507516966347474 0 -0.43388981384462799 0.056865247185560741 0 -0.43019556782920149 0.072150844912083692 0 -0.44358941909877581 0.066251547043131548 0 -0.41638412285923643 0.091080662019301276 0 -0.42560206036465381 0.091106385495738074 0 -0.42384016665171481 0.08185121886435838 0 -0.42560206036465381 0.091106385495738074 0 -0.42384016665171481 0.08185121886435838 0 -0.43282138525159131 0.087917162947370536 0 -0.42384016665171481 0.08185121886435838 0 -0.43235993024407759 0.079879659623298682 0 -0.43282138525159131 0.087917162947370536 0 -0.43235993024407759 0.079879659623298682 0 -0.43282138525159131 0.087917162947370536 0 -0.4403146270292867 0.078507516966347474 0 -0.43282138525159131 0.087917162947370536 0 -0.43362250875064462 0.094695983420591406 0 -0.43901162219300932 0.098415602326793986 0 -0.42560206036465381 0.091106385495738074 0 -0.43282138525159131 0.087917162947370536 0 -0.43362250875064462 0.094695983420591406 0 -0.43282138525159131 0.087917162947370536 0 -0.43362250875064462 0.094695983420591406 0 -0.43362250875064462 0.094695983420591406 0 -0.43560139944858373 0.111440648623032 0 -0.43362250875064462 0.094695983420591406 0 -0.43560139944858373 0.111440648623032 0 -0.43901162219300932 0.098415602326793986 0 -0.43362250875064462 0.094695983420591406 0 -0.42204767405473131 0.099903517389425614 0 -0.42570063763599891 0.1129571902434999 0 -0.43362250875064462 0.094695983420591406 0 -0.42570063763599891 0.1129571902434999 0 -0.43362250875064462 0.094695983420591406 0 -0.42570063763599891 0.1129571902434999 0 -0.43560139944858373 0.111440648623032 0 -0.42560206036465381 0.091106385495738074 0 -0.43362250875064462 0.094695983420591406 0 -0.42204767405473131 0.099903517389425614 0 -0.41638412285923643 0.091080662019301276 0 -0.42560206036465381 0.091106385495738074 0 -0.42204767405473131 0.099903517389425614 0 -0.41638412285923643 0.091080662019301276 0 -0.42204767405473131 0.099903517389425614 0 -0.41308380056262289 0.100728989300401 0 -0.40570018320824108 0.1087502723171956 0 -0.40125501452309831 0.092537130979411963 0 -0.41308380056262289 0.100728989300401 0 -0.42204767405473131 0.099903517389425614 0 -0.41716384400525119 0.10832629090722989 0 -0.41308380056262289 0.100728989300401 0 -0.42204767405473131 0.099903517389425614 0 -0.41716384400525119 0.10832629090722989 0 -0.42570063763599891 0.1129571902434999 0 -0.40570018320824108 0.1087502723171956 0 -0.41716384400525119 0.10832629090722989 0 -0.41308380056262289 0.100728989300401 0 -0.40125501452309831 0.092537130979411963 0 -0.41638412285923643 0.091080662019301276 0 -0.41308380056262289 0.100728989300401 0 -0.41331671127124342 0.1183359578508147 0 -0.42570063763599891 0.1129571902434999 0 -0.41848432226601678 0.13113501422877091 0 -0.41331671127124342 0.1183359578508147 0 -0.41848432226601678 0.13113501422877091 0 -0.38927342918587599 0.1255134882067182 0 -0.40570018320824108 0.1087502723171956 0 -0.41716384400525119 0.10832629090722989 0 -0.41331671127124342 0.1183359578508147 0 -0.41716384400525119 0.10832629090722989 0 -0.41331671127124342 0.1183359578508147 0 -0.42570063763599891 0.1129571902434999 0 -0.42570063763599891 0.1129571902434999 0 -0.42974187347053111 0.1238689273704415 0 -0.41848432226601678 0.13113501422877091 0 -0.43560139944858373 0.111440648623032 0 -0.43838141364557631 0.13496413429869339 0 -0.43560139944858373 0.111440648623032 0 -0.42974187347053111 0.1238689273704415 0 -0.43838141364557631 0.13496413429869339 0 -0.42570063763599891 0.1129571902434999 0 -0.41848432226601678 0.13113501422877091 0 -0.42570063763599891 0.1129571902434999 0 -0.43560139944858373 0.111440648623032 0 -0.42974187347053111 0.1238689273704415 0 -0.43560139944858373 0.111440648623032 0 -0.43901162219300932 0.098415602326793986 0 -0.4566436177489161 0.1201437198754424 0 -0.43560139944858373 0.111440648623032 0 -0.4467387360795691 0.12624162216463949 0 -0.43838141364557631 0.13496413429869339 0 -0.43560139944858373 0.111440648623032 0 -0.4566436177489161 0.1201437198754424 0 -0.4467387360795691 0.12624162216463949 0 -0.43901162219300932 0.098415602326793986 0 -0.4566436177489161 0.1201437198754424 0 -0.43901162219300932 0.098415602326793986 0 -0.45462044308834498 0.099586517411388936 0 -0.4566436177489161 0.1201437198754424 0 -0.43901162219300932 0.098415602326793986 0 -0.45462044308834498 0.099586517411388936 0 -0.44386863401159982 0.089721699903261343 0 -0.45462044308834498 0.099586517411388936 0 -0.4566436177489161 0.1201437198754424 0 -0.47020449133502701 0.10311632864541009 0 -0.45462044308834498 0.099586517411388936 0 -0.46430106959496947 0.089973247684177179 0 -0.47020449133502701 0.10311632864541009 0 -0.4566436177489161 0.1201437198754424 0 -0.47871073377917861 0.12048979192622571 0 -0.47020449133502701 0.10311632864541009 0 -0.44358941909877581 0.066251547043131548 0 -0.45194395164690943 0.0735533574175537 0 -0.45802253781367752 0.063482282034478657 0 -0.44358941909877581 0.066251547043131548 0 -0.45194395164690943 0.0735533574175537 0 -0.4403146270292867 0.078507516966347474 0 -0.43019556782920149 0.072150844912083692 0 -0.44358941909877581 0.066251547043131548 0 -0.4403146270292867 0.078507516966347474 0 -0.45257509249576638 0.084181699864405837 0 -0.4403146270292867 0.078507516966347474 0 -0.44386863401159982 0.089721699903261343 0 -0.45194395164690943 0.0735533574175537 0 -0.45257509249576638 0.084181699864405837 0 -0.4403146270292867 0.078507516966347474 0 -0.43282138525159131 0.087917162947370536 0 -0.4403146270292867 0.078507516966347474 0 -0.44386863401159982 0.089721699903261343 0 -0.43282138525159131 0.087917162947370536 0 -0.43901162219300932 0.098415602326793986 0 -0.44386863401159982 0.089721699903261343 0 -0.45462044308834498 0.099586517411388936 0 -0.45257509249576638 0.084181699864405837 0 -0.44386863401159982 0.089721699903261343 0 -0.45462044308834498 0.099586517411388936 0 -0.45257509249576638 0.084181699864405837 0 -0.46430106959496947 0.089973247684177179 0 -0.45257509249576638 0.084181699864405837 0 -0.46430106959496947 0.089973247684177179 0 -0.46521808179704061 0.075343741179405052 0 -0.45194395164690943 0.0735533574175537 0 -0.45257509249576638 0.084181699864405837 0 -0.46521808179704061 0.075343741179405052 0 -0.45194395164690943 0.0735533574175537 0 -0.46521808179704061 0.075343741179405052 0 -0.45802253781367752 0.063482282034478657 0 -0.46521808179704061 0.075343741179405052 0 -0.45802253781367752 0.063482282034478657 0 -0.47128019631414492 0.062760320865599586 0 -0.46521808179704061 0.075343741179405052 0 -0.48328753368330202 0.069302228146094644 0 -0.47128019631414492 0.062760320865599586 0 -0.46521808179704061 0.075343741179405052 0 -0.48328753368330202 0.069302228146094644 0 -0.47888723925866827 0.087637951320275922 0 -0.46430106959496947 0.089973247684177179 0 -0.46521808179704061 0.075343741179405052 0 -0.47888723925866827 0.087637951320275922 0 -0.46430106959496947 0.089973247684177179 0 -0.47888723925866827 0.087637951320275922 0 -0.47020449133502701 0.10311632864541009 0 -0.48328753368330202 0.069302228146094644 0 -0.47888723925866827 0.087637951320275922 0 -0.5 0.090259321667553349 0 -0.5 0.061977783269587527 0 -0.48328753368330202 0.069302228146094644 0 -0.5 0.090259321667553349 0 -0.47888723925866827 0.087637951320275922 0 -0.47020449133502701 0.10311632864541009 0 -0.48556049287457481 0.1040088507249968 0 -0.47871073377917861 0.12048979192622571 0 -0.47020449133502701 0.10311632864541009 0 -0.48556049287457481 0.1040088507249968 0 -0.47888723925866827 0.087637951320275922 0 -0.5 0.090259321667553349 0 -0.48556049287457481 0.1040088507249968 0 -0.5 0.090259321667553349 0 -0.48556049287457481 0.1040088507249968 0 -0.5 0.1185408600655191 0 -0.47871073377917861 0.12048979192622571 0 -0.48556049287457481 0.1040088507249968 0 -0.5 0.1185408600655191 0 -0.47871073377917861 0.12048979192622571 0 -0.5 0.1185408600655191 0 -0.48851683390530642 0.13242820264548791 0 -0.48851683390530642 0.13242820264548791 0 -0.4742756133048236 0.1418718374240904 0 -0.50000000000001221 0.14682239846348491 0 -0.5 0.1185408600655191 0 -0.48851683390530642 0.13242820264548791 0 -0.50000000000001221 0.14682239846348491 0 -0.47871073377917861 0.12048979192622571 0 -0.48851683390530642 0.13242820264548791 0 -0.4742756133048236 0.1418718374240904 0 -0.4566436177489161 0.1201437198754424 0 -0.47871073377917861 0.12048979192622571 0 -0.4742756133048236 0.1418718374240904 0 -0.4742756133048236 0.1418718374240904 0 -0.48713780665241169 0.1577220710578118 0 -0.4742756133048236 0.1418718374240904 0 -0.48713780665241169 0.1577220710578118 0 -0.46481045671311561 0.16000364538176159 0 -0.4742756133048236 0.1418718374240904 0 -0.50000000000001221 0.14682239846348491 0 -0.48713780665241169 0.1577220710578118 0 -0.4742756133048236 0.1418718374240904 0 -0.50000000000001221 0.14682239846348491 0 -0.48713780665241169 0.1577220710578118 0 -0.50000000000000022 0.17357230469153259 0 -0.50000000000001221 0.14682239846348491 0 -0.48713780665241169 0.1577220710578118 0 -0.50000000000000022 0.17357230469153259 0 -0.48713780665241169 0.1577220710578118 0 -0.50000000000000022 0.17357230469153259 0 -0.47657740009093391 0.17045548742169669 0 -0.50000000000000022 0.17357230469153259 0 -0.48476364230739311 0.1847234059334735 0 -0.5 0.20254301646023179 0 -0.50000000000000022 0.17357230469153259 0 -0.48476364230739311 0.1847234059334735 0 -0.47657740009093391 0.17045548742169669 0 -0.48476364230739311 0.1847234059334735 0 -0.47657740009093391 0.17045548742169669 0 -0.46811548670188441 0.18290081426643609 0 -0.48713780665241169 0.1577220710578118 0 -0.47657740009093391 0.17045548742169669 0 -0.46481045671311561 0.16000364538176159 0 -0.46481045671311561 0.16000364538176159 0 -0.45599978470605829 0.17400387348920629 0 -0.44210582301088069 0.1664787540620844 0 -0.47657740009093391 0.17045548742169669 0 -0.46481045671311561 0.16000364538176159 0 -0.45599978470605829 0.17400387348920629 0 -0.46481045671311561 0.16000364538176159 0 -0.44210582301088069 0.1664787540620844 0 -0.45356189660593971 0.1514670589619509 0 -0.47657740009093391 0.17045548742169669 0 -0.45599978470605829 0.17400387348920629 0 -0.46811548670188441 0.18290081426643609 0 -0.45599978470605829 0.17400387348920629 0 -0.46811548670188441 0.18290081426643609 0 -0.44781915684397211 0.1869598544700288 0 -0.45599978470605829 0.17400387348920629 0 -0.44210582301088069 0.1664787540620844 0 -0.43680697802404622 0.178994336425251 0 -0.45599978470605829 0.17400387348920629 0 -0.44781915684397211 0.1869598544700288 0 -0.43680697802404622 0.178994336425251 0 -0.44781915684397211 0.1869598544700288 0 -0.43282576461303601 0.19247394461444631 0 -0.43680697802404622 0.178994336425251 0 -0.44210582301088069 0.1664787540620844 0 -0.44024361832822828 0.15072144418038891 0 -0.44024361832822828 0.15072144418038891 0 -0.43838141364557631 0.13496413429869339 0 -0.44024361832822828 0.15072144418038891 0 -0.43838141364557631 0.13496413429869339 0 -0.45632851347520009 0.13841798586139101 0 -0.44210582301088069 0.1664787540620844 0 -0.44024361832822828 0.15072144418038891 0 -0.45356189660593971 0.1514670589619509 0 -0.44024361832822828 0.15072144418038891 0 -0.45632851347520009 0.13841798586139101 0 -0.45356189660593971 0.1514670589619509 0 -0.4467387360795691 0.12624162216463949 0 -0.43838141364557631 0.13496413429869339 0 -0.45632851347520009 0.13841798586139101 0 -0.43838141364557631 0.13496413429869339 0 -0.45632851347520009 0.13841798586139101 0 -0.4566436177489161 0.1201437198754424 0 -0.4467387360795691 0.12624162216463949 0 -0.45632851347520009 0.13841798586139101 0 -0.4742756133048236 0.1418718374240904 0 -0.45632851347520009 0.13841798586139101 0 -0.4566436177489161 0.1201437198754424 0 -0.4742756133048236 0.1418718374240904 0 -0.4566436177489161 0.1201437198754424 0 -0.4742756133048236 0.1418718374240904 0 -0.45632851347520009 0.13841798586139101 0 -0.4742756133048236 0.1418718374240904 0 -0.45632851347520009 0.13841798586139101 0 -0.45356189660593971 0.1514670589619509 0 -0.4742756133048236 0.1418718374240904 0 -0.46481045671311561 0.16000364538176159 0 -0.45356189660593971 0.1514670589619509 0 -0.48160793071992181 0.23328550792606029 0 -0.46393451125687979 0.23002728790426369 0 -0.47718539364661477 0.25142720972220611 0 -0.5 0.23151372822893071 0 -0.48160793071992181 0.23328550792606029 0 -0.47718539364661477 0.25142720972220611 0 -0.5 0.23151372822893071 0 -0.49999999999999573 0.2604844399976296 0 -0.47718539364661477 0.25142720972220611 0 -0.5 0.23151372822893071 0 -0.48160793071992181 0.23328550792606029 0 -0.48657715505772708 0.21708320909761991 0 -0.48160793071992181 0.23328550792606029 0 -0.48657715505772708 0.21708320909761991 0 -0.46393451125687979 0.23002728790426369 0 -0.48657715505772708 0.21708320909761991 0 -0.46384115896416328 0.21210914723959659 0 -0.46393451125687979 0.23002728790426369 0 -0.48657715505772708 0.21708320909761991 0 -0.46384115896416328 0.21210914723959659 0 -0.48657715505772708 0.21708320909761991 0 -0.47753948183656653 0.1990061627170871 0 -0.46384115896416328 0.21210914723959659 0 -0.48657715505772708 0.21708320909761991 0 -0.5 0.20254301646023179 0 -0.47753948183656653 0.1990061627170871 0 -0.5 0.23151372822893071 0 -0.48657715505772708 0.21708320909761991 0 -0.5 0.20254301646023179 0 -0.48476364230739311 0.1847234059334735 0 -0.5 0.20254301646023179 0 -0.47753948183656653 0.1990061627170871 0 -0.48476364230739311 0.1847234059334735 0 -0.46811548670188441 0.18290081426643609 0 -0.47753948183656653 0.1990061627170871 0 -0.46811548670188441 0.18290081426643609 0 -0.47753948183656653 0.1990061627170871 0 -0.46102822996019899 0.19622293570396229 0 -0.46811548670188441 0.18290081426643609 0 -0.44781915684397211 0.1869598544700288 0 -0.46102822996019899 0.19622293570396229 0 -0.47753948183656653 0.1990061627170871 0 -0.46102822996019899 0.19622293570396229 0 -0.46384115896416328 0.21210914723959659 0 -0.44781915684397211 0.1869598544700288 0 -0.46102822996019899 0.19622293570396229 0 -0.44110516287059942 0.20713508538157319 0 -0.44781915684397211 0.1869598544700288 0 -0.44110516287059942 0.20713508538157319 0 -0.43282576461303601 0.19247394461444631 0 -0.44110516287059942 0.20713508538157319 0 -0.46384115896416328 0.21210914723959659 0 -0.44547847730451062 0.2256032132433396 0 -0.44110516287059942 0.20713508538157319 0 -0.46384115896416328 0.21210914723959659 0 -0.46102822996019899 0.19622293570396229 0 -0.44110516287059942 0.20713508538157319 0 -0.46384115896416328 0.21210914723959659 0 -0.46384115896416328 0.21210914723959659 0 -0.46393451125687979 0.23002728790426369 0 -0.44547847730451062 0.2256032132433396 0 -0.46393451125687979 0.23002728790426369 0 -0.44547847730451062 0.2256032132433396 0 -0.45437078729323399 0.24236997944678271 0 -0.44110516287059942 0.20713508538157319 0 -0.44547847730451062 0.2256032132433396 0 -0.42719247661382248 0.23158039077241849 0 -0.44547847730451062 0.2256032132433396 0 -0.45437078729323399 0.24236997944678271 0 -0.42719247661382248 0.23158039077241849 0 -0.45437078729323399 0.24236997944678271 0 -0.42719247661382248 0.23158039077241849 0 -0.45437078729323399 0.24236997944678271 0 -0.43540858778534303 0.24504742794071729 0 -0.43967319471912858 0.2613383072916392 0 -0.45437078729323399 0.24236997944678271 0 -0.43540858778534303 0.24504742794071729 0 -0.42719247661382248 0.23158039077241849 0 -0.45437078729323399 0.24236997944678271 0 -0.47718539364661477 0.25142720972220611 0 -0.46393451125687979 0.23002728790426369 0 -0.45437078729323399 0.24236997944678271 0 -0.47718539364661477 0.25142720972220611 0 -0.46393451125687979 0.23002728790426369 0 -0.45437078729323399 0.24236997944678271 0 -0.41984368032676922 0.24106455469484819 0 -0.39756530599907502 0.23536100507292471 0 -0.40318624257749158 0.25140104498405802 0 -0.41984368032676922 0.24106455469484819 0 -0.43540858778534303 0.24504742794071729 0 -0.43967319471912858 0.2613383072916392 0 -0.41984368032676922 0.24106455469484819 0 -0.43540858778534303 0.24504742794071729 0 -0.42719247661382248 0.23158039077241849 0 -0.42719247661382248 0.23158039077241849 0 -0.41042717951360491 0.21322975279376361 0 -0.40001416593441003 0.22079080209805679 0 -0.42719247661382248 0.23158039077241849 0 -0.40001416593441003 0.22079080209805679 0 -0.41984368032676922 0.24106455469484819 0 -0.42719247661382248 0.23158039077241849 0 -0.40001416593441003 0.22079080209805679 0 -0.41984368032676922 0.24106455469484819 0 -0.40001416593441003 0.22079080209805679 0 -0.41042717951360491 0.21322975279376361 0 -0.41836916677703562 0.20216102352354989 0 -0.40131768620089231 0.2072380719584444 0 -0.42719247661382248 0.23158039077241849 0 -0.41042717951360491 0.21322975279376361 0 -0.41836916677703562 0.20216102352354989 0 -0.44110516287059942 0.20713508538157319 0 -0.41836916677703562 0.20216102352354989 0 -0.44110516287059942 0.20713508538157319 0 -0.42719247661382248 0.23158039077241849 0 -0.41836916677703562 0.20216102352354989 0 -0.43282576461303601 0.19247394461444631 0 -0.41836916677703562 0.20216102352354989 0 -0.42184685873866917 0.1816108316351504 0 -0.44110516287059942 0.20713508538157319 0 -0.43282576461303601 0.19247394461444631 0 -0.41836916677703562 0.20216102352354989 0 -0.40921898960604908 0.1895365298512926 0 -0.41836916677703562 0.20216102352354989 0 -0.3956331706834717 0.19718696166552649 0 -0.40921898960604908 0.1895365298512926 0 -0.41836916677703562 0.20216102352354989 0 -0.42184685873866917 0.1816108316351504 0 -0.41836916677703562 0.20216102352354989 0 -0.3956331706834717 0.19718696166552649 0 -0.40921898960604908 0.1895365298512926 0 -0.3956331706834717 0.19718696166552649 0 -0.40040585690368419 0.17667448200844099 0 -0.39136662422252511 0.19944421589827899 0 -0.40040585690368419 0.17667448200844099 0 -0.3956331706834717 0.19718696166552649 0 -0.39136662422252511 0.19944421589827899 0 -0.40040585690368419 0.17667448200844099 0 -0.41836916677703562 0.20216102352354989 0 -0.3956331706834717 0.19718696166552649 0 -0.40131768620089231 0.2072380719584444 0 -0.3956331706834717 0.19718696166552649 0 -0.39461172943314232 0.20293935826741491 0 -0.40131768620089231 0.2072380719584444 0 -0.3956331706834717 0.19718696166552649 0 -0.39461172943314232 0.20293935826741491 0 -0.39136662422252511 0.19944421589827899 0 -0.37957872595526382 0.21267808330712329 0 -0.3746996784928851 0.18948155302650541 0 -0.39136662422252511 0.19944421589827899 0 -0.37957872595526382 0.21267808330712329 0 -0.3746996784928851 0.18948155302650541 0 -0.39136662422252511 0.19944421589827899 0 -0.38810522912230011 0.18365509031558741 0 -0.3746996784928851 0.18948155302650541 0 -0.39136662422252511 0.19944421589827899 0 -0.38870143383519468 0.2092246322345333 0 -0.37957872595526382 0.21267808330712329 0 -0.37957872595526382 0.21267808330712329 0 -0.40001416593441003 0.22079080209805679 0 -0.391979914133611 0.22157543393250739 0 -0.37957872595526382 0.21267808330712329 0 -0.40001416593441003 0.22079080209805679 0 -0.38870143383519468 0.2092246322345333 0 -0.37957872595526382 0.21267808330712329 0 -0.40001416593441003 0.22079080209805679 0 -0.38870143383519468 0.2092246322345333 0 -0.40001416593441003 0.22079080209805679 0 -0.38870143383519468 0.2092246322345333 0 -0.40131768620089231 0.2072380719584444 0 -0.40001416593441003 0.22079080209805679 0 -0.39461172943314232 0.20293935826741491 0 -0.39136662422252511 0.19944421589827899 0 -0.38870143383519468 0.2092246322345333 0 -0.39461172943314232 0.20293935826741491 0 -0.38870143383519468 0.2092246322345333 0 -0.40131768620089231 0.2072380719584444 0 -0.41042717951360491 0.21322975279376361 0 -0.40131768620089231 0.2072380719584444 0 -0.40001416593441003 0.22079080209805679 0 -0.41984368032676922 0.24106455469484819 0 -0.40001416593441003 0.22079080209805679 0 -0.39756530599907502 0.23536100507292471 0 -0.391979914133611 0.22157543393250739 0 -0.38353991952141497 0.2315108467128881 0 -0.39756530599907502 0.23536100507292471 0 -0.40001416593441003 0.22079080209805679 0 -0.391979914133611 0.22157543393250739 0 -0.39756530599907502 0.23536100507292471 0 -0.37957872595526382 0.21267808330712329 0 -0.38353991952141497 0.2315108467128881 0 -0.37957872595526382 0.21267808330712329 0 -0.391979914133611 0.22157543393250739 0 -0.38353991952141497 0.2315108467128881 0 -0.391979914133611 0.22157543393250739 0 -0.38353991952141497 0.2315108467128881 0 -0.37957872595526382 0.21267808330712329 0 -0.38353991952141497 0.2315108467128881 0 -0.36842819702888713 0.22416747728564271 0 -0.38353991952141497 0.2315108467128881 0 -0.38668427731165073 0.24646011524464351 0 -0.39756530599907502 0.23536100507292471 0 -0.38353991952141497 0.2315108467128881 0 -0.38668427731165073 0.24646011524464351 0 -0.37102133932541642 0.24624749849840419 0 -0.38353991952141497 0.2315108467128881 0 -0.38668427731165073 0.24646011524464351 0 -0.38353991952141497 0.2315108467128881 0 -0.37102133932541642 0.24624749849840419 0 -0.38668427731165073 0.24646011524464351 0 -0.39756530599907502 0.23536100507292471 0 -0.40318624257749158 0.25140104498405802 0 -0.40944508958484332 0.15390474811860311 0 -0.41848432226601678 0.13113501422877091 0 -0.42639290675778779 0.14683848485349399 0 -0.40944508958484332 0.15390474811860311 0 -0.42639290675778779 0.14683848485349399 0 -0.4254100899642746 0.16346708344101191 0 -0.40944508958484332 0.15390474811860311 0 -0.41848432226601678 0.13113501422877091 0 -0.43838141364557631 0.13496413429869339 0 -0.41848432226601678 0.13113501422877091 0 -0.42974187347053111 0.1238689273704415 0 -0.43838141364557631 0.13496413429869339 0 -0.41848432226601678 0.13113501422877091 0 -0.43838141364557631 0.13496413429869339 0 -0.41848432226601678 0.13113501422877091 0 -0.42639290675778779 0.14683848485349399 0 -0.44024361832822828 0.15072144418038891 0 -0.42639290675778779 0.14683848485349399 0 -0.4254100899642746 0.16346708344101191 0 -0.44024361832822828 0.15072144418038891 0 -0.43838141364557631 0.13496413429869339 0 -0.42639290675778779 0.14683848485349399 0 -0.44210582301088069 0.1664787540620844 0 -0.44024361832822828 0.15072144418038891 0 -0.4254100899642746 0.16346708344101191 0 -0.44210582301088069 0.1664787540620844 0 -0.4254100899642746 0.16346708344101191 0 -0.43680697802404622 0.178994336425251 0 -0.4254100899642746 0.16346708344101191 0 -0.43680697802404622 0.178994336425251 0 -0.42184685873866917 0.1816108316351504 0 -0.43282576461303601 0.19247394461444631 0 -0.43680697802404622 0.178994336425251 0 -0.42184685873866917 0.1816108316351504 0 -0.4254100899642746 0.16346708344101191 0 -0.42184685873866917 0.1816108316351504 0 -0.40040585690368419 0.17667448200844099 0 -0.40921898960604908 0.1895365298512926 0 -0.42184685873866917 0.1816108316351504 0 -0.40040585690368419 0.17667448200844099 0 -0.40944508958484332 0.15390474811860311 0 -0.4254100899642746 0.16346708344101191 0 -0.40040585690368419 0.17667448200844099 0 -0.40944508958484332 0.15390474811860311 0 -0.40040585690368419 0.17667448200844099 0 -0.40944508958484332 0.15390474811860311 0 -0.38594875687010621 0.16902011032912409 0 -0.38667519079408541 0.15062853217378661 0 -0.40944508958484332 0.15390474811860311 0 -0.40040585690368419 0.17667448200844099 0 -0.38594875687010621 0.16902011032912409 0 -0.39136662422252511 0.19944421589827899 0 -0.40040585690368419 0.17667448200844099 0 -0.38810522912230011 0.18365509031558741 0 -0.40040585690368419 0.17667448200844099 0 -0.38810522912230011 0.18365509031558741 0 -0.38594875687010621 0.16902011032912409 0 -0.38810522912230011 0.18365509031558741 0 -0.38594875687010621 0.16902011032912409 0 -0.3746996784928851 0.18948155302650541 0 -0.38594875687010621 0.16902011032912409 0 -0.36982063103050372 0.16628502274588799 0 -0.3746996784928851 0.18948155302650541 0 -0.38594875687010621 0.16902011032912409 0 -0.38667519079408541 0.15062853217378661 0 -0.36982063103050372 0.16628502274588799 0 -0.40944508958484332 0.15390474811860311 0 -0.38667519079408541 0.15062853217378661 0 -0.38927342918587599 0.1255134882067182 0 -0.41848432226601678 0.13113501422877091 0 -0.38927342918587599 0.1255134882067182 0 -0.40944508958484332 0.15390474811860311 0 -0.41848432226601678 0.13113501422877091 0 -0.38927342918587599 0.1255134882067182 0 -0.38667519079408541 0.15062853217378661 0 -0.38927342918587599 0.1255134882067182 0 -0.36494158356812217 0.1430884924652705 0 -0.36494158356812217 0.1430884924652705 0 -0.36006253610573752 0.1198919621846538 0 -0.38927342918587599 0.1255134882067182 0 -0.36494158356812217 0.1430884924652705 0 -0.36006253610573752 0.1198919621846538 0 -0.36494158356812217 0.1430884924652705 0 -0.34132796265181431 0.1387815269220975 0 -0.36006253610573752 0.1198919621846538 0 -0.36494158356812217 0.1430884924652705 0 -0.34642931593700238 0.16495012311779489 0 -0.34132796265181431 0.1387815269220975 0 -0.36494158356812217 0.1430884924652705 0 -0.36982063103050372 0.16628502274588799 0 -0.38667519079408541 0.15062853217378661 0 -0.36494158356812217 0.1430884924652705 0 -0.36982063103050372 0.16628502274588799 0 -0.36494158356812217 0.1430884924652705 0 -0.36982063103050372 0.16628502274588799 0 -0.34642931593700238 0.16495012311779489 0 -0.36982063103050372 0.16628502274588799 0 -0.35831981659726492 0.1787350813167283 0 -0.3746996784928851 0.18948155302650541 0 -0.36982063103050372 0.16628502274588799 0 -0.3746996784928851 0.18948155302650541 0 -0.35831981659726492 0.1787350813167283 0 -0.34642931593700238 0.16495012311779489 0 -0.34477465914825001 0.18967901598593481 0 -0.36982063103050372 0.16628502274588799 0 -0.35831981659726492 0.1787350813167283 0 -0.34642931593700238 0.16495012311779489 0 -0.34642931593700238 0.16495012311779489 0 -0.32456845077204499 0.1791391416261279 0 -0.32415475829339491 0.15404044755861879 0 -0.34642931593700238 0.16495012311779489 0 -0.32456845077204499 0.1791391416261279 0 -0.34477465914825001 0.18967901598593481 0 -0.32456845077204499 0.1791391416261279 0 -0.31098467378763761 0.19784771544744709 0 -0.30713310058805848 0.16956639084136371 0 -0.32456845077204499 0.1791391416261279 0 -0.32415475829339491 0.15404044755861879 0 -0.30713310058805848 0.16956639084136371 0 -0.32415475829339491 0.15404044755861879 0 -0.31941148630632099 0.13121281313144209 0 -0.30135063422710362 0.14378726030397651 0 -0.31941148630632099 0.13121281313144209 0 -0.34132796265181431 0.1387815269220975 0 -0.33628010120049001 0.1153151224310511 0 -0.34642931593700238 0.16495012311779489 0 -0.32415475829339491 0.15404044755861879 0 -0.34132796265181431 0.1387815269220975 0 -0.32415475829339491 0.15404044755861879 0 -0.31941148630632099 0.13121281313144209 0 -0.34132796265181431 0.1387815269220975 0 -0.37102133932541642 0.24624749849840419 0 -0.35100911747949021 0.23011423748141849 0 -0.34218203211383003 0.24969530508137319 0 -0.37102133932541642 0.24624749849840419 0 -0.35100911747949021 0.23011423748141849 0 -0.37102133932541642 0.24624749849840419 0 -0.36842819702888713 0.22416747728564271 0 -0.35100911747949021 0.23011423748141849 0 -0.36842819702888713 0.22416747728564271 0 -0.35100911747949021 0.23011423748141849 0 -0.35891639883350279 0.21739360045671841 0 -0.38353991952141497 0.2315108467128881 0 -0.37102133932541642 0.24624749849840419 0 -0.36842819702888713 0.22416747728564271 0 -0.34868139470931231 0.20739115533417829 0 -0.3675468861163218 0.20790153172563419 0 -0.35911767775857051 0.1944511284126606 0 -0.35100911747949021 0.23011423748141849 0 -0.35891639883350279 0.21739360045671841 0 -0.34868139470931231 0.20739115533417829 0 -0.35891639883350279 0.21739360045671841 0 -0.34868139470931231 0.20739115533417829 0 -0.3675468861163218 0.20790153172563419 0 -0.36842819702888713 0.22416747728564271 0 -0.35891639883350279 0.21739360045671841 0 -0.3675468861163218 0.20790153172563419 0 -0.37957872595526382 0.21267808330712329 0 -0.3675468861163218 0.20790153172563419 0 -0.3746996784928851 0.18948155302650541 0 -0.37957872595526382 0.21267808330712329 0 -0.36842819702888713 0.22416747728564271 0 -0.3675468861163218 0.20790153172563419 0 -0.37957872595526382 0.21267808330712329 0 -0.3675468861163218 0.20790153172563419 0 -0.35831981659726492 0.1787350813167283 0 -0.3746996784928851 0.18948155302650541 0 -0.35911767775857051 0.1944511284126606 0 -0.3675468861163218 0.20790153172563419 0 -0.3746996784928851 0.18948155302650541 0 -0.35911767775857051 0.1944511284126606 0 -0.34868139470931231 0.20739115533417829 0 -0.34477465914825001 0.18967901598593481 0 -0.35911767775857051 0.1944511284126606 0 -0.35831981659726492 0.1787350813167283 0 -0.34477465914825001 0.18967901598593481 0 -0.35911767775857051 0.1944511284126606 0 -0.32456845077204499 0.1791391416261279 0 -0.33099689563356388 0.21398097646443279 0 -0.31098467378763761 0.19784771544744709 0 -0.32456845077204499 0.1791391416261279 0 -0.34477465914825001 0.18967901598593481 0 -0.33099689563356388 0.21398097646443279 0 -0.33099689563356388 0.21398097646443279 0 -0.31098467378763761 0.19784771544744709 0 -0.33099689563356388 0.21398097646443279 0 -0.31353693820809098 0.22051039047122661 0 -0.31098467378763761 0.19784771544744709 0 -0.34868139470931231 0.20739115533417829 0 -0.34477465914825001 0.18967901598593481 0 -0.33099689563356388 0.21398097646443279 0 -0.35100911747949021 0.23011423748141849 0 -0.34868139470931231 0.20739115533417829 0 -0.33099689563356388 0.21398097646443279 0 -0.35100911747949021 0.23011423748141849 0 -0.33099689563356388 0.21398097646443279 0 -0.32620842538989009 0.2360343346498103 0 -0.35100911747949021 0.23011423748141849 0 -0.33099689563356388 0.21398097646443279 0 -0.33099689563356388 0.21398097646443279 0 -0.31353693820809098 0.22051039047122661 0 -0.32620842538989009 0.2360343346498103 0 -0.31353693820809098 0.22051039047122661 0 -0.32620842538989009 0.2360343346498103 0 -0.30826866969894839 0.23634148903406429 0 -0.32620842538989009 0.2360343346498103 0 -0.30826866969894839 0.23634148903406429 0 -0.31237949306787027 0.2511543050774091 0 -0.32620842538989009 0.2360343346498103 0 -0.32718323085999013 0.25286507485387549 0 -0.31237949306787027 0.2511543050774091 0 -0.32620842538989009 0.2360343346498103 0 -0.34218203211383003 0.24969530508137319 0 -0.32718323085999013 0.25286507485387549 0 -0.35100911747949021 0.23011423748141849 0 -0.32620842538989009 0.2360343346498103 0 -0.34218203211383003 0.24969530508137319 0 -0.29406882567944492 0.24808579016521951 0 -0.28202324201123952 0.23559536686418181 0 -0.27438734738757331 0.25539565657640151 0 -0.29406882567944492 0.24808579016521951 0 -0.28202324201123952 0.23559536686418181 0 -0.29514966614944582 0.22592262480665609 0 -0.29406882567944492 0.24808579016521951 0 -0.30826866969894839 0.23634148903406429 0 -0.31237949306787027 0.2511543050774091 0 -0.29406882567944492 0.24808579016521951 0 -0.30826866969894839 0.23634148903406429 0 -0.29514966614944582 0.22592262480665609 0 -0.31353693820809098 0.22051039047122661 0 -0.30826866969894839 0.23634148903406429 0 -0.29514966614944582 0.22592262480665609 0 -0.28202324201123952 0.23559536686418181 0 -0.29514966614944582 0.22592262480665609 0 -0.27220161997487519 0.21941323598648621 0 -0.29514966614944582 0.22592262480665609 0 -0.29076456833970682 0.20550251089957811 0 -0.27220161997487519 0.21941323598648621 0 -0.31353693820809098 0.22051039047122661 0 -0.29514966614944582 0.22592262480665609 0 -0.29076456833970682 0.20550251089957811 0 -0.31353693820809098 0.22051039047122661 0 -0.29076456833970682 0.20550251089957811 0 -0.31098467378763761 0.19784771544744709 0 -0.31098467378763761 0.19784771544744709 0 -0.2909724519417114 0.18171445443046139 0 -0.29076456833970682 0.20550251089957811 0 -0.31098467378763761 0.19784771544744709 0 -0.2909724519417114 0.18171445443046139 0 -0.29076456833970682 0.20550251089957811 0 -0.26360111949022269 0.19020955072881179 0 -0.2909724519417114 0.18171445443046139 0 -0.26360111949022269 0.19020955072881179 0 -0.24867924549348591 0.21477896355887771 0 -0.24003375834807469 0.19097967105946809 0 -0.26360111949022269 0.19020955072881179 0 -0.27220161997487519 0.21941323598648621 0 -0.24867924549348591 0.21477896355887771 0 -0.29076456833970682 0.20550251089957811 0 -0.26360111949022269 0.19020955072881179 0 -0.27220161997487519 0.21941323598648621 0 -0.28202324201123952 0.23559536686418181 0 -0.27220161997487519 0.21941323598648621 0 -0.26741474898719458 0.24132224523012019 0 -0.27220161997487519 0.21941323598648621 0 -0.24819191351699149 0.23495274290407281 0 -0.24867924549348591 0.21477896355887771 0 -0.27220161997487519 0.21941323598648621 0 -0.26741474898719458 0.24132224523012019 0 -0.24819191351699149 0.23495274290407281 0 -0.26741474898719458 0.24132224523012019 0 -0.25499370846812258 0.25382717309031783 0 -0.24819191351699149 0.23495274290407281 0 -0.28202324201123952 0.23559536686418181 0 -0.26741474898719458 0.24132224523012019 0 -0.27438734738757331 0.25539565657640151 0 -0.30135063422710362 0.14378726030397651 0 -0.29076763450645893 0.1608693256815506 0 -0.27687856386052229 0.14577460991692809 0 -0.2827968976252605 0.1259680264203796 0 -0.30135063422710362 0.14378726030397651 0 -0.27687856386052229 0.14577460991692809 0 -0.2827968976252605 0.1259680264203796 0 -0.30135063422710362 0.14378726030397651 0 -0.30090707476115791 0.1240832828729921 0 -0.31941148630632099 0.13121281313144209 0 -0.30135063422710362 0.14378726030397651 0 -0.30090707476115791 0.1240832828729921 0 -0.32415475829339491 0.15404044755861879 0 -0.30135063422710362 0.14378726030397651 0 -0.30713310058805848 0.16956639084136371 0 -0.30135063422710362 0.14378726030397651 0 -0.30713310058805848 0.16956639084136371 0 -0.29076763450645893 0.1608693256815506 0 -0.31098467378763761 0.19784771544744709 0 -0.30713310058805848 0.16956639084136371 0 -0.2909724519417114 0.18171445443046139 0 -0.30713310058805848 0.16956639084136371 0 -0.2909724519417114 0.18171445443046139 0 -0.29076763450645893 0.1608693256815506 0 -0.2909724519417114 0.18171445443046139 0 -0.29076763450645893 0.1608693256815506 0 -0.2709602300957844 0.1655811934134766 0 -0.29076763450645893 0.1608693256815506 0 -0.2709602300957844 0.1655811934134766 0 -0.27687856386052229 0.14577460991692809 0 -0.26360111949022269 0.19020955072881179 0 -0.2709602300957844 0.1655811934134766 0 -0.2909724519417114 0.18171445443046139 0 -0.2709602300957844 0.1655811934134766 0 -0.26360111949022269 0.19020955072881179 0 -0.2909724519417114 0.18171445443046139 0 -0.2709602300957844 0.1655811934134766 0 -0.26360111949022269 0.19020955072881179 0 -0.25912112614351812 0.16855492642609951 0 -0.24851141791789419 0.17283258723328199 0 -0.26360111949022269 0.19020955072881179 0 -0.24851141791789419 0.17283258723328199 0 -0.24003375834807469 0.19097967105946809 0 -0.26360111949022269 0.19020955072881179 0 -0.2709602300957844 0.1655811934134766 0 -0.25912112614351812 0.16855492642609951 0 -0.2595150430760933 0.15635442234335131 0 -0.25912112614351812 0.16855492642609951 0 -0.24851141791789419 0.17283258723328199 0 -0.2709602300957844 0.1655811934134766 0 -0.2595150430760933 0.15635442234335131 0 -0.25912112614351812 0.16855492642609951 0 -0.2709602300957844 0.1655811934134766 0 -0.2595150430760933 0.15635442234335131 0 -0.2595150430760933 0.15635442234335131 0 -0.26464293840580078 0.13549103795087361 0 -0.24622100901902591 0.14003801238151611 0 -0.2709602300957844 0.1655811934134766 0 -0.27687856386052229 0.14577460991692809 0 -0.2595150430760933 0.15635442234335131 0 -0.27687856386052229 0.14577460991692809 0 -0.26464293840580078 0.13549103795087361 0 -0.2709602300957844 0.1655811934134766 0 -0.2595150430760933 0.15635442234335131 0 -0.27687856386052229 0.14577460991692809 0 -0.2827968976252605 0.1259680264203796 0 -0.26464293840580078 0.13549103795087361 0 -0.26980885604635652 0.11871065676394919 0 -0.2827968976252605 0.1259680264203796 0 -0.27687856386052229 0.14577460991692809 0 -0.26464293840580078 0.13549103795087361 0 -0.2827968976252605 0.1259680264203796 0 -0.27687856386052229 0.14577460991692809 0 -0.26464293840580078 0.13549103795087361 0 -0.25468488244533621 0.12734607261513969 0 -0.26980885604635652 0.11871065676394919 0 -0.26464293840580078 0.13549103795087361 0 -0.25468488244533621 0.12734607261513969 0 -0.24622100901902591 0.14003801238151611 0 -0.25468488244533621 0.12734607261513969 0 -0.26229957364096629 0.10107784938156621 0 -0.2377119113784632 0.1184279918264306 0 -0.25468488244533621 0.12734607261513969 0 -0.26229957364096629 0.10107784938156621 0 -0.26980885604635652 0.11871065676394919 0 -0.26229957364096629 0.10107784938156621 0 -0.28065310620891548 0.094233499920799435 0 -0.28871523138999838 0.1061614429238311 0 -0.26229957364096629 0.10107784938156621 0 -0.28871523138999838 0.1061614429238311 0 -0.26229957364096629 0.10107784938156621 0 -0.26980885604635652 0.11871065676394919 0 -0.28871523138999838 0.1061614429238311 0 -0.2827968976252605 0.1259680264203796 0 -0.26980885604635652 0.11871065676394919 0 -0.28871523138999838 0.1061614429238311 0 -0.2827968976252605 0.1259680264203796 0 -0.28871523138999838 0.1061614429238311 0 -0.30090707476115791 0.1240832828729921 0 -0.2827968976252605 0.1259680264203796 0 -0.28871523138999838 0.1061614429238311 0 -0.28065310620891548 0.094233499920799435 0 -0.28871523138999838 0.1061614429238311 0 -0.2938877384059736 0.088850879483021117 0 -0.28871523138999838 0.1061614429238311 0 -0.2938877384059736 0.088850879483021117 0 -0.28871523138999838 0.1061614429238311 0 -0.31249766629524461 0.1107382826774396 0 -0.28871523138999838 0.1061614429238311 0 -0.31129262223520948 0.092501275728831808 0 -0.2938877384059736 0.088850879483021117 0 -0.28871523138999838 0.1061614429238311 0 -0.31249766629524461 0.1107382826774396 0 -0.31129262223520948 0.092501275728831808 0 -0.31941148630632099 0.13121281313144209 0 -0.31249766629524461 0.1107382826774396 0 -0.30090707476115791 0.1240832828729921 0 -0.28871523138999838 0.1061614429238311 0 -0.31249766629524461 0.1107382826774396 0 -0.30090707476115791 0.1240832828729921 0 -0.29906024542194831 0.071540316042210991 0 -0.30722926079115598 0.068202459258340967 0 -0.30729932333812449 0.073592412733717957 0 -0.29906024542194831 0.071540316042210991 0 -0.30729932333812449 0.073592412733717957 0 -0.29906024542194831 0.071540316042210991 0 -0.30729932333812449 0.073592412733717957 0 -0.30476262567174273 0.082609649905928631 0 -0.29906024542194831 0.071540316042210991 0 -0.30722926079115598 0.068202459258340967 0 -0.30831055542055308 0.0605147960965342 0 -0.30722926079115598 0.068202459258340967 0 -0.30831055542055308 0.0605147960965342 0 -0.31424691898399798 0.067162312160900683 0 -0.30722926079115598 0.068202459258340967 0 -0.30729932333812449 0.073592412733717957 0 -0.31424691898399798 0.067162312160900683 0 -0.30729932333812449 0.073592412733717957 0 -0.30476262567174273 0.082609649905928631 0 -0.31506299613273109 0.078088456198681488 0 -0.30729932333812449 0.073592412733717957 0 -0.31506299613273109 0.078088456198681488 0 -0.31424691898399798 0.067162312160900683 0 -0.30476262567174273 0.082609649905928631 0 -0.31129262223520948 0.092501275728831808 0 -0.2938877384059736 0.088850879483021117 0 -0.30476262567174273 0.082609649905928631 0 -0.31129262223520948 0.092501275728831808 0 -0.31506299613273109 0.078088456198681488 0 -0.29906024542194831 0.071540316042210991 0 -0.30476262567174273 0.082609649905928631 0 -0.2938877384059736 0.088850879483021117 0 -0.28065310620891548 0.094233499920799435 0 -0.2938877384059736 0.088850879483021117 0 -0.27770988139872349 0.080843827894779188 0 -0.29906024542194831 0.071540316042210991 0 -0.2938877384059736 0.088850879483021117 0 -0.29906024542194831 0.071540316042210991 0 -0.2938877384059736 0.088850879483021117 0 -0.27770988139872349 0.080843827894779188 0 -0.29906024542194831 0.071540316042210991 0 -0.27030980239680352 0.064379479646241147 0 -0.29906024542194831 0.071540316042210991 0 -0.27030980239680352 0.064379479646241147 0 -0.27770988139872349 0.080843827894779188 0 -0.29906024542194831 0.071540316042210991 0 -0.27030980239680352 0.064379479646241147 0 -0.28570192820287638 0.053589624809495702 0 -0.27030980239680352 0.064379479646241147 0 -0.27770988139872349 0.080843827894779188 0 -0.25965921563801592 0.080940771584705584 0 -0.27030980239680352 0.064379479646241147 0 -0.2648272076325589 0.0630139367188573 0 -0.26229957364096629 0.10107784938156621 0 -0.28065310620891548 0.094233499920799435 0 -0.27770988139872349 0.080843827894779188 0 -0.26229957364096629 0.10107784938156621 0 -0.27770988139872349 0.080843827894779188 0 -0.25965921563801592 0.080940771584705584 0 -0.26229957364096629 0.10107784938156621 0 -0.25965921563801592 0.080940771584705584 0 -0.23588391589193361 0.095994255839304377 0 -0.25965921563801592 0.080940771584705584 0 -0.2648272076325589 0.0630139367188573 0 -0.24155935937165779 0.057218643250274363 0 -0.27030980239680352 0.064379479646241147 0 -0.25965921563801592 0.080940771584705584 0 -0.2648272076325589 0.0630139367188573 0 -0.25965921563801592 0.080940771584705584 0 -0.24155935937165779 0.057218643250274363 0 -0.2648272076325589 0.0630139367188573 0 -0.25683717479782531 0.046290360374415418 0 -0.27175161203649112 0.046765168806836399 0 -0.2648272076325589 0.0630139367188573 0 -0.24155935937165779 0.057218643250274363 0 -0.2648272076325589 0.0630139367188573 0 -0.25683717479782531 0.046290360374415418 0 -0.24155935937165779 0.057218643250274363 0 -0.25683717479782531 0.046290360374415418 0 -0.26423482878968158 0.032966491532556069 0 -0.24509905070280441 0.028053838272241571 0 -0.25683717479782531 0.046290360374415418 0 -0.26423482878968158 0.032966491532556069 0 -0.27175161203649112 0.046765168806836399 0 -0.26423482878968158 0.032966491532556069 0 -0.27175161203649112 0.046765168806836399 0 -0.28058932942500808 0.027465130035003969 0 -0.27030980239680352 0.064379479646241147 0 -0.2648272076325589 0.0630139367188573 0 -0.28570192820287638 0.053589624809495702 0 -0.2648272076325589 0.0630139367188573 0 -0.28570192820287638 0.053589624809495702 0 -0.2648272076325589 0.0630139367188573 0 -0.27175161203649112 0.046765168806836399 0 -0.28570192820287638 0.053589624809495702 0 -0.25183928942381151 -0.0075624078338361357 0 -0.26231918469715187 0.011442998676570891 0 -0.24064278425173949 0.0039350805849091954 0 -0.26423482878968158 0.032966491532556069 0 -0.26231918469715187 0.011442998676570891 0 -0.24509905070280441 0.028053838272241571 0 -0.26231918469715187 0.011442998676570891 0 -0.28058932942500808 0.027465130035003969 0 -0.28183843873369202 0.0091895247227355304 0 -0.26423482878968158 0.032966491532556069 0 -0.26231918469715187 0.011442998676570891 0 -0.28058932942500808 0.027465130035003969 0 -0.26984196325799531 -0.012984777539566179 0 -0.26231918469715187 0.011442998676570891 0 -0.28183843873369202 0.0091895247227355304 0 -0.29701101476603092 -0.014621766165129181 0 -0.28183843873369202 0.0091895247227355304 0 -0.3102633006888777 0.0077601655750476131 0 -0.28183843873369202 0.0091895247227355304 0 -0.29709593771607801 0.02515328111835765 0 -0.3102633006888777 0.0077601655750476131 0 -0.28183843873369202 0.0091895247227355304 0 -0.3102633006888777 0.0077601655750476131 0 -0.28058932942500808 0.027465130035003969 0 -0.29709593771607801 0.02515328111835765 0 -0.2920017148422821 0.039612978477250899 0 -0.28058932942500808 0.027465130035003969 0 -0.28183843873369202 0.0091895247227355304 0 -0.29709593771607801 0.02515328111835765 0 -0.29709593771607801 0.02515328111835765 0 -0.30897765297328811 0.021169349536114181 0 -0.3102633006888777 0.0077601655750476131 0 -0.29709593771607801 0.02515328111835765 0 -0.30987359062039682 0.029792474193326712 0 -0.30191129314261722 0.03620943000446486 0 -0.29709593771607801 0.02515328111835765 0 -0.30987359062039682 0.029792474193326712 0 -0.30897765297328811 0.021169349536114181 0 -0.28570192820287638 0.053589624809495702 0 -0.3063970966247983 0.044886206874948958 0 -0.27175161203649112 0.046765168806836399 0 -0.28058932942500808 0.027465130035003969 0 -0.2920017148422821 0.039612978477250899 0 -0.27175161203649112 0.046765168806836399 0 -0.28570192820287638 0.053589624809495702 0 -0.2920017148422821 0.039612978477250899 0 -0.28570192820287638 0.053589624809495702 0 -0.2920017148422821 0.039612978477250899 0 -0.3063970966247983 0.044886206874948958 0 -0.2920017148422821 0.039612978477250899 0 -0.30191129314261722 0.03620943000446486 0 -0.3063970966247983 0.044886206874948958 0 -0.29709593771607801 0.02515328111835765 0 -0.2920017148422821 0.039612978477250899 0 -0.30191129314261722 0.03620943000446486 0 -0.30987359062039682 0.029792474193326712 0 -0.30191129314261722 0.03620943000446486 0 -0.31131856135863312 0.036767725003285803 0 -0.30191129314261722 0.03620943000446486 0 -0.31131856135863312 0.036767725003285803 0 -0.3063970966247983 0.044886206874948958 0 -0.3063970966247983 0.044886206874948958 0 -0.30916370084657319 0.047912463688777489 0 -0.31418387586950342 0.046824220035231158 0 -0.29906024542194831 0.071540316042210991 0 -0.30591302258948833 0.048606478825931471 0 -0.30831055542055308 0.0605147960965342 0 -0.30916370084657319 0.047912463688777489 0 -0.31016080830250309 0.051332949018998368 0 -0.31418387586950342 0.046824220035231158 0 -0.28570192820287638 0.053589624809495702 0 -0.3063970966247983 0.044886206874948958 0 -0.30591302258948833 0.048606478825931471 0 -0.31016080830250309 0.051332949018998368 0 -0.30591302258948833 0.048606478825931471 0 -0.30831055542055308 0.0605147960965342 0 -0.29906024542194831 0.071540316042210991 0 -0.28570192820287638 0.053589624809495702 0 -0.30591302258948833 0.048606478825931471 0 -0.29906024542194831 0.071540316042210991 0 -0.30591302258948833 0.048606478825931471 0 -0.30916370084657319 0.047912463688777489 0 -0.31016080830250309 0.051332949018998368 0 -0.30591302258948833 0.048606478825931471 0 -0.3063970966247983 0.044886206874948958 0 -0.30916370084657319 0.047912463688777489 0 -0.30591302258948833 0.048606478825931471 0 -0.31016080830250309 0.051332949018998368 0 -0.30831055542055308 0.0605147960965342 0 -0.313617628451068 0.05363149094091571 0 -0.30831055542055308 0.0605147960965342 0 -0.31448773688283149 0.059729311243778303 0 -0.313617628451068 0.05363149094091571 0 -0.30831055542055308 0.0605147960965342 0 -0.31448773688283149 0.059729311243778303 0 -0.31424691898399798 0.067162312160900683 0 -0.31448773688283149 0.059729311243778303 0 -0.31876327652527908 0.055260681592637882 0 -0.313617628451068 0.05363149094091571 0 -0.31448773688283149 0.059729311243778303 0 -0.31876327652527908 0.055260681592637882 0 -0.3209143030536632 0.06088141231844519 0 -0.31876327652527908 0.055260681592637882 0 -0.3209143030536632 0.06088141231844519 0 -0.32504030590961031 0.053761826952615471 0 -0.3209143030536632 0.06088141231844519 0 -0.32504030590961031 0.053761826952615471 0 -0.32822695698409188 0.060978720206715478 0 -0.31876327652527908 0.055260681592637882 0 -0.32504030590961031 0.053761826952615471 0 -0.31975640832922247 0.048299366507434723 0 -0.327288669391818 0.047902198711607967 0 -0.32504030590961031 0.053761826952615471 0 -0.31975640832922247 0.048299366507434723 0 -0.31876327652527908 0.055260681592637882 0 -0.31975640832922247 0.048299366507434723 0 -0.313617628451068 0.05363149094091571 0 -0.31975640832922247 0.048299366507434723 0 -0.313617628451068 0.05363149094091571 0 -0.31418387586950342 0.046824220035231158 0 -0.31016080830250309 0.051332949018998368 0 -0.313617628451068 0.05363149094091571 0 -0.31418387586950342 0.046824220035231158 0 -0.30987359062039682 0.029792474193326712 0 -0.31131856135863312 0.036767725003285803 0 -0.32709226504672051 0.036182788940402673 0 -0.31131856135863312 0.036767725003285803 0 -0.3063970966247983 0.044886206874948958 0 -0.32709226504672051 0.036182788940402673 0 -0.3063970966247983 0.044886206874948958 0 -0.32709226504672051 0.036182788940402673 0 -0.3063970966247983 0.044886206874948958 0 -0.31418387586950342 0.046824220035231158 0 -0.32709226504672051 0.036182788940402673 0 -0.31975640832922247 0.048299366507434723 0 -0.31418387586950342 0.046824220035231158 0 -0.32709226504672051 0.036182788940402673 0 -0.327288669391818 0.047902198711607967 0 -0.31975640832922247 0.048299366507434723 0 -0.32709226504672051 0.036182788940402673 0 -0.34120699915372399 0.030246793278824211 0 -0.34592088339172888 0.05265808550528131 0 -0.33780783904711931 0.042662270023997931 0 -0.34120699915372399 0.030246793278824211 0 -0.34592088339172888 0.05265808550528131 0 -0.32709226504672051 0.036182788940402673 0 -0.33726569828171887 0.053364812445978967 0 -0.327288669391818 0.047902198711607967 0 -0.32709226504672051 0.036182788940402673 0 -0.33726569828171887 0.053364812445978967 0 -0.32709226504672051 0.036182788940402673 0 -0.33780783904711931 0.042662270023997931 0 -0.33726569828171887 0.053364812445978967 0 -0.32709226504672051 0.036182788940402673 0 -0.34120699915372399 0.030246793278824211 0 -0.32709226504672051 0.036182788940402673 0 -0.33780783904711931 0.042662270023997931 0 -0.34120699915372399 0.030246793278824211 0 -0.33780783904711931 0.042662270023997931 0 -0.33726569828171887 0.053364812445978967 0 -0.34592088339172888 0.05265808550528131 0 -0.33726569828171887 0.053364812445978967 0 -0.34592088339172888 0.05265808550528131 0 -0.33590100009990548 0.065495079406543616 0 -0.32504030590961031 0.053761826952615471 0 -0.33726569828171887 0.053364812445978967 0 -0.32822695698409188 0.060978720206715478 0 -0.33726569828171887 0.053364812445978967 0 -0.32822695698409188 0.060978720206715478 0 -0.33590100009990548 0.065495079406543616 0 -0.327288669391818 0.047902198711607967 0 -0.32504030590961031 0.053761826952615471 0 -0.33726569828171887 0.053364812445978967 0 -0.31546801871320929 -0.01043582355740966 0 -0.3102633006888777 0.0077601655750476131 0 -0.33620291068688851 0.0064557786303970676 0 -0.3102633006888777 0.0077601655750476131 0 -0.33620291068688851 0.0064557786303970676 0 -0.3102633006888777 0.0077601655750476131 0 -0.31867778286779919 0.021971477257725022 0 -0.33620291068688851 0.0064557786303970676 0 -0.3102633006888777 0.0077601655750476131 0 -0.31867778286779919 0.021971477257725022 0 -0.30987359062039682 0.029792474193326712 0 -0.32709226504672051 0.036182788940402673 0 -0.31867778286779919 0.021971477257725022 0 -0.30897765297328811 0.021169349536114181 0 -0.3102633006888777 0.0077601655750476131 0 -0.31867778286779919 0.021971477257725022 0 -0.30987359062039682 0.029792474193326712 0 -0.30897765297328811 0.021169349536114181 0 -0.31867778286779919 0.021971477257725022 0 -0.32709226504672051 0.036182788940402673 0 -0.31867778286779919 0.021971477257725022 0 -0.33051067534235912 0.024562003945940429 0 -0.32709226504672051 0.036182788940402673 0 -0.31867778286779919 0.021971477257725022 0 -0.31867778286779919 0.021971477257725022 0 -0.33051067534235912 0.024562003945940429 0 -0.33620291068688851 0.0064557786303970676 0 -0.34120699915372399 0.030246793278824211 0 -0.33620291068688851 0.0064557786303970676 0 -0.34770239690733351 0.027515133398202239 0 -0.33051067534235912 0.024562003945940429 0 -0.34120699915372399 0.030246793278824211 0 -0.33620291068688851 0.0064557786303970676 0 -0.34120699915372399 0.030246793278824211 0 -0.33620291068688851 0.0064557786303970676 0 -0.32709226504672051 0.036182788940402673 0 -0.33051067534235912 0.024562003945940429 0 -0.34120699915372399 0.030246793278824211 0 -0.33620291068688851 0.0064557786303970676 0 -0.35201258209097508 0.0056607809808327421 0 -0.35396316357688568 0.016516956486029109 0 -0.34370585250575481 -0.0094211722746199381 0 -0.33620291068688851 0.0064557786303970676 0 -0.35201258209097508 0.0056607809808327421 0 -0.35201258209097508 0.0056607809808327421 0 -0.35396316357688568 0.016516956486029109 0 -0.36782225349506198 0.0048657833312758091 0 -0.33620291068688851 0.0064557786303970676 0 -0.35201258209097508 0.0056607809808327421 0 -0.33620291068688851 0.0064557786303970676 0 -0.35396316357688568 0.016516956486029109 0 -0.34770239690733351 0.027515133398202239 0 -0.35396316357688568 0.016516956486029109 0 -0.3566247867558644 0.026642619270324831 0 -0.36649990139404232 0.024441610025915519 0 -0.34120699915372399 0.030246793278824211 0 -0.34770239690733351 0.027515133398202239 0 -0.34770239690733351 0.027515133398202239 0 -0.3566247867558644 0.026642619270324831 0 -0.35833368514519631 0.038096777171152472 0 -0.35396316357688568 0.016516956486029109 0 -0.34770239690733351 0.027515133398202239 0 -0.3566247867558644 0.026642619270324831 0 -0.38147820051115411 0.019049182225605761 0 -0.36649990139404232 0.024441610025915519 0 -0.36782225349506198 0.0048657833312758091 0 -0.3566247867558644 0.026642619270324831 0 -0.36649990139404232 0.024441610025915519 0 -0.35833368514519631 0.038096777171152472 0 -0.35201258209097508 0.0056607809808327421 0 -0.36782225349506198 0.0048657833312758091 0 -0.35396316357688568 0.016516956486029109 0 -0.36649990139404232 0.024441610025915519 0 -0.36782225349506198 0.0048657833312758091 0 -0.36590378191011091 -0.01025690750480699 0 -0.35201258209097508 0.0056607809808327421 0 -0.36782225349506198 0.0048657833312758091 0 -0.34592088339172888 0.05265808550528131 0 -0.35833368514519631 0.038096777171152472 0 -0.36555211422520678 0.060095309267582192 0 -0.34120699915372399 0.030246793278824211 0 -0.34770239690733351 0.027515133398202239 0 -0.35833368514519631 0.038096777171152472 0 -0.34120699915372399 0.030246793278824211 0 -0.34592088339172888 0.05265808550528131 0 -0.35833368514519631 0.038096777171152472 0 -0.38383179283280738 0.044626166301023701 0 -0.36649990139404232 0.024441610025915519 0 -0.35833368514519631 0.038096777171152472 0 -0.38383179283280738 0.044626166301023701 0 -0.35833368514519631 0.038096777171152472 0 -0.36555211422520678 0.060095309267582192 0 -0.38618538515446071 0.070203150376441606 0 -0.36555211422520678 0.060095309267582192 0 -0.36763344039030971 0.079060927352334748 0 -0.36555211422520678 0.060095309267582192 0 -0.35063476762973289 0.075069377731738579 0 -0.36763344039030971 0.079060927352334748 0 -0.34592088339172888 0.05265808550528131 0 -0.35063476762973289 0.075069377731738579 0 -0.34592088339172888 0.05265808550528131 0 -0.36555211422520678 0.060095309267582192 0 -0.35063476762973289 0.075069377731738579 0 -0.34592088339172888 0.05265808550528131 0 -0.35063476762973289 0.075069377731738579 0 -0.33590100009990548 0.065495079406543616 0 -0.35063476762973289 0.075069377731738579 0 -0.3553486518677369 0.097480669958195806 0 -0.35063476762973289 0.075069377731738579 0 -0.3553486518677369 0.097480669958195806 0 -0.33964070122000961 0.093532785902245563 0 -0.35063476762973289 0.075069377731738579 0 -0.36763344039030971 0.079060927352334748 0 -0.3553486518677369 0.097480669958195806 0 -0.38044628307441097 0.092456129427715528 0 -0.36763344039030971 0.079060927352334748 0 -0.3553486518677369 0.097480669958195806 0 -0.37665747635832342 0.11002337083399689 0 -0.38044628307441097 0.092456129427715528 0 -0.3553486518677369 0.097480669958195806 0 -0.37665747635832342 0.11002337083399689 0 -0.36006253610573752 0.1198919621846538 0 -0.3553486518677369 0.097480669958195806 0 -0.38927342918587599 0.1255134882067182 0 -0.36006253610573752 0.1198919621846538 0 -0.36006253610573752 0.1198919621846538 0 -0.33628010120049001 0.1153151224310511 0 -0.34132796265181431 0.1387815269220975 0 -0.36006253610573752 0.1198919621846538 0 -0.33628010120049001 0.1153151224310511 0 -0.36006253610573752 0.1198919621846538 0 -0.3553486518677369 0.097480669958195806 0 -0.33628010120049001 0.1153151224310511 0 -0.36006253610573752 0.1198919621846538 0 -0.3553486518677369 0.097480669958195806 0 -0.3553486518677369 0.097480669958195806 0 -0.33628010120049001 0.1153151224310511 0 -0.33964070122000961 0.093532785902245563 0 -0.33628010120049001 0.1153151224310511 0 -0.32624961676337461 0.098129034645597357 0 -0.33964070122000961 0.093532785902245563 0 -0.31249766629524461 0.1107382826774396 0 -0.33628010120049001 0.1153151224310511 0 -0.31941148630632099 0.13121281313144209 0 -0.31249766629524461 0.1107382826774396 0 -0.33628010120049001 0.1153151224310511 0 -0.31249766629524461 0.1107382826774396 0 -0.33628010120049001 0.1153151224310511 0 -0.32624961676337461 0.098129034645597357 0 -0.31249766629524461 0.1107382826774396 0 -0.31129262223520948 0.092501275728831808 0 -0.32624961676337461 0.098129034645597357 0 -0.31129262223520948 0.092501275728831808 0 -0.32624961676337461 0.098129034645597357 0 -0.32969036863871382 0.081669724744645025 0 -0.31129262223520948 0.092501275728831808 0 -0.31506299613273109 0.078088456198681488 0 -0.32969036863871382 0.081669724744645025 0 -0.31506299613273109 0.078088456198681488 0 -0.31424691898399798 0.067162312160900683 0 -0.32391001494159238 0.069098466543773468 0 -0.3209143030536632 0.06088141231844519 0 -0.31424691898399798 0.067162312160900683 0 -0.32391001494159238 0.069098466543773468 0 -0.31448773688283149 0.059729311243778303 0 -0.3209143030536632 0.06088141231844519 0 -0.31424691898399798 0.067162312160900683 0 -0.3209143030536632 0.06088141231844519 0 -0.32822695698409188 0.060978720206715478 0 -0.32391001494159238 0.069098466543773468 0 -0.31506299613273109 0.078088456198681488 0 -0.32391001494159238 0.069098466543773468 0 -0.32969036863871382 0.081669724744645025 0 -0.32391001494159238 0.069098466543773468 0 -0.33590100009990548 0.065495079406543616 0 -0.32969036863871382 0.081669724744645025 0 -0.35063476762973289 0.075069377731738579 0 -0.33590100009990548 0.065495079406543616 0 -0.32969036863871382 0.081669724744645025 0 -0.32822695698409188 0.060978720206715478 0 -0.32391001494159238 0.069098466543773468 0 -0.33590100009990548 0.065495079406543616 0 -0.35063476762973289 0.075069377731738579 0 -0.33964070122000961 0.093532785902245563 0 -0.32969036863871382 0.081669724744645025 0 -0.32624961676337461 0.098129034645597357 0 -0.33964070122000961 0.093532785902245563 0 -0.32969036863871382 0.081669724744645025 0 -0.38929572517217831 0.47137053177936961 0 -0.40195879339205098 0.45673073817012277 0 -0.4080899991723399 0.48031880442591918 0 -0.38890625485748659 0.48653209473169728 0 -0.38929572517217831 0.47137053177936961 0 -0.4080899991723399 0.48031880442591918 0 -0.40036949895133589 0.5 0 -0.38890625485748659 0.48653209473169728 0 -0.4080899991723399 0.48031880442591918 0 -0.40036949895133589 0.5 0 -0.38890625485748659 0.48653209473169728 0 -0.37158416539771549 0.5 0 -0.38890625485748659 0.48653209473169728 0 -0.37158416539771549 0.5 0 -0.37168132825398981 0.48806615700376049 0 -0.38890625485748659 0.48653209473169728 0 -0.37287448475472412 0.47584895735093802 0 -0.38929572517217831 0.47137053177936961 0 -0.37434924209356119 0.46074833573343188 0 -0.37287448475472412 0.47584895735093802 0 -0.38890625485748659 0.48653209473169728 0 -0.38929572517217831 0.47137053177936961 0 -0.37287448475472412 0.47584895735093802 0 -0.38890625485748659 0.48653209473169728 0 -0.37287448475472412 0.47584895735093802 0 -0.37168132825398981 0.48806615700376049 0 -0.38929572517217831 0.47137053177936961 0 -0.40195879339205098 0.45673073817012277 0 -0.37434924209356119 0.46074833573343188 0 -0.37582399943241629 0.44564771411592752 0 -0.40195879339205098 0.45673073817012277 0 -0.37434924209356119 0.46074833573343188 0 -0.37582399943241629 0.44564771411592752 0 -0.37434924209356119 0.46074833573343188 0 -0.37582399943241629 0.44564771411592752 0 -0.39299164118098068 0.43927465351186168 0 -0.40195879339205098 0.45673073817012277 0 -0.37582399943241629 0.44564771411592752 0 -0.40195879339205098 0.45673073817012277 0 -0.39299164118098068 0.43927465351186168 0 -0.40195879339205098 0.45673073817012277 0 -0.4080582816146211 0.4544145734092539 0 -0.39299164118098068 0.43927465351186168 0 -0.4080582816146211 0.4544145734092539 0 -0.40730450805039919 0.4432472278084254 0 -0.39299164118098068 0.43927465351186168 0 -0.4080582816146211 0.4544145734092539 0 -0.40195879339205098 0.45673073817012277 0 -0.42809358735168368 0.46781376222432303 0 -0.4080899991723399 0.48031880442591918 0 -0.40195879339205098 0.45673073817012277 0 -0.42809358735168368 0.46781376222432303 0 -0.40195879339205098 0.45673073817012277 0 -0.4080582816146211 0.4544145734092539 0 -0.42809358735168368 0.46781376222432303 0 -0.4080582816146211 0.4544145734092539 0 -0.41410905373428641 0.454029707086543 0 -0.42809358735168368 0.46781376222432303 0 -0.41410905373428641 0.454029707086543 0 -0.40730450805039919 0.4432472278084254 0 -0.4156815187520192 0.43865404396780677 0 -0.4080582816146211 0.4544145734092539 0 -0.41410905373428641 0.454029707086543 0 -0.40730450805039919 0.4432472278084254 0 -0.41410905373428641 0.454029707086543 0 -0.4156815187520192 0.43865404396780677 0 -0.41410905373428641 0.454029707086543 0 -0.4156815187520192 0.43865404396780677 0 -0.42679268400504772 0.45033272447932521 0 -0.4156815187520192 0.43865404396780677 0 -0.42679268400504772 0.45033272447932521 0 -0.42879848250356067 0.43634510971893697 0 -0.42679268400504772 0.45033272447932521 0 -0.43396248135411142 0.45733611527947621 0 -0.44034298123736848 0.44941183858880368 0 -0.42679268400504772 0.45033272447932521 0 -0.44034298123736848 0.44941183858880368 0 -0.42879848250356067 0.43634510971893697 0 -0.44034298123736848 0.44941183858880368 0 -0.42879848250356067 0.43634510971893697 0 -0.44034298123736848 0.44941183858880368 0 -0.43933292756509451 0.43806004985056668 0 -0.42879848250356067 0.43634510971893697 0 -0.41410905373428641 0.454029707086543 0 -0.42679268400504772 0.45033272447932521 0 -0.42809358735168368 0.46781376222432303 0 -0.42679268400504772 0.45033272447932521 0 -0.42809358735168368 0.46781376222432303 0 -0.43396248135411142 0.45733611527947621 0 -0.42809358735168368 0.46781376222432303 0 -0.43396248135411142 0.45733611527947621 0 -0.44062067282234568 0.46178613582545303 0 -0.42809358735168368 0.46781376222432303 0 -0.4080899991723399 0.48031880442591918 0 -0.42915483250495651 0.5 0 -0.42809358735168368 0.46781376222432303 0 -0.42915483250495651 0.5 0 -0.45422838131131599 0.47889678627852422 0 -0.40036949895133589 0.5 0 -0.4080899991723399 0.48031880442591918 0 -0.42915483250495651 0.5 0 -0.42915483250495651 0.5 0 -0.45422838131131599 0.47889678627852422 0 -0.4579401660585769 0.50000000000000278 0 -0.42809358735168368 0.46781376222432303 0 -0.45422838131131599 0.47889678627852422 0 -0.42809358735168368 0.46781376222432303 0 -0.45422838131131599 0.47889678627852422 0 -0.44062067282234568 0.46178613582545303 0 -0.4713117899383889 0.48614137481570519 0 -0.47302582119031328 0.46553288692427941 0 -0.46141794774517708 0.46667213134190771 0 -0.45422838131131599 0.47889678627852422 0 -0.4713117899383889 0.48614137481570519 0 -0.45422838131131599 0.47889678627852422 0 -0.4713117899383889 0.48614137481570519 0 -0.46141794774517708 0.46667213134190771 0 -0.45422838131131599 0.47889678627852422 0 -0.4579401660585769 0.50000000000000278 0 -0.46120237068699849 0.50000000000000078 0 -0.45422838131131599 0.47889678627852422 0 -0.46120237068699849 0.50000000000000078 0 -0.4713117899383889 0.48614137481570519 0 -0.45422838131131599 0.47889678627852422 0 -0.4579401660585769 0.50000000000000278 0 -0.46120237068699849 0.50000000000000078 0 -0.48839519856545999 0.49338596335289059 0 -0.4713117899383889 0.48614137481570519 0 -0.48584959905754938 0.47562430036245812 0 -0.48839519856545999 0.49338596335289059 0 -0.46120237068699849 0.50000000000000078 0 -0.4713117899383889 0.48614137481570519 0 -0.48839519856545999 0.49338596335289059 0 -0.4713117899383889 0.48614137481570519 0 -0.48839519856545999 0.49338596335289059 0 -0.46120237068699849 0.50000000000000078 0 -0.5 0.5 0 -0.48839519856545999 0.49338596335289059 0 -0.4713117899383889 0.48614137481570519 0 -0.48584959905754938 0.47562430036245812 0 -0.47302582119031328 0.46553288692427941 0 -0.48584959905754938 0.47562430036245812 0 -0.50000000000000344 0.49056335945478108 0 -0.5 0.46459149010359002 0 -0.50000000000000344 0.49056335945478108 0 -0.48839519856545999 0.49338596335289059 0 -0.48584959905754938 0.47562430036245812 0 -0.50000000000000344 0.49056335945478108 0 -0.48839519856545999 0.49338596335289059 0 -0.50000000000001221 0.49830723013777728 0 -0.48839519856545999 0.49338596335289059 0 -0.50000000000000344 0.49056335945478108 0 -0.50000000000001221 0.49830723013777728 0 -0.48839519856545999 0.49338596335289059 0 -0.5 0.5 0 -0.50000000000001221 0.49830723013777728 0 -0.48839519856545999 0.49338596335289059 0 -0.5 0.4386196207523988 0 -0.5 0.46459149010359002 0 -0.48387456845957938 0.45358364587783828 0 -0.5 0.4386196207523988 0 -0.48387456845957938 0.45358364587783828 0 -0.47440722703859622 0.43665496418018268 0 -0.48584959905754938 0.47562430036245812 0 -0.5 0.46459149010359002 0 -0.48387456845957938 0.45358364587783828 0 -0.48387456845957938 0.45358364587783828 0 -0.47302582119031328 0.46553288692427941 0 -0.46611878680933788 0.45179643347756371 0 -0.48584959905754938 0.47562430036245812 0 -0.48387456845957938 0.45358364587783828 0 -0.47302582119031328 0.46553288692427941 0 -0.48387456845957938 0.45358364587783828 0 -0.46611878680933788 0.45179643347756371 0 -0.47440722703859622 0.43665496418018268 0 -0.46611878680933788 0.45179643347756371 0 -0.45893539076292328 0.43899376691396602 0 -0.44983598368570771 0.45392397342582658 0 -0.46611878680933788 0.45179643347756371 0 -0.45893539076292328 0.43899376691396602 0 -0.47440722703859622 0.43665496418018268 0 -0.45422838131131599 0.47889678627852422 0 -0.46141794774517708 0.46667213134190771 0 -0.44983598368570771 0.45392397342582658 0 -0.46611878680933788 0.45179643347756371 0 -0.46141794774517708 0.46667213134190771 0 -0.44983598368570771 0.45392397342582658 0 -0.47302582119031328 0.46553288692427941 0 -0.46611878680933788 0.45179643347756371 0 -0.46141794774517708 0.46667213134190771 0 -0.45422838131131599 0.47889678627852422 0 -0.44983598368570771 0.45392397342582658 0 -0.44062067282234568 0.46178613582545303 0 -0.45422838131131599 0.47889678627852422 0 -0.44983598368570771 0.45392397342582658 0 -0.43396248135411142 0.45733611527947621 0 -0.44062067282234568 0.46178613582545303 0 -0.44034298123736848 0.44941183858880368 0 -0.44983598368570771 0.45392397342582658 0 -0.44062067282234568 0.46178613582545303 0 -0.44034298123736848 0.44941183858880368 0 -0.45893539076292328 0.43899376691396602 0 -0.44983598368570771 0.45392397342582658 0 -0.44544358606010143 0.42895116057312871 0 -0.44983598368570771 0.45392397342582658 0 -0.44544358606010143 0.42895116057312871 0 -0.44983598368570771 0.45392397342582658 0 -0.44034298123736848 0.44941183858880368 0 -0.43933292756509451 0.43806004985056668 0 -0.44983598368570771 0.45392397342582658 0 -0.43933292756509451 0.43806004985056668 0 -0.44544358606010143 0.42895116057312871 0 -0.43933292756509451 0.43806004985056668 0 -0.44544358606010143 0.42895116057312871 0 -0.43224360433873388 0.42166816694613712 0 -0.44544358606010143 0.42895116057312871 0 -0.44105118843449509 0.40397834772043079 0 -0.43224360433873388 0.42166816694613712 0 -0.44544358606010143 0.42895116057312871 0 -0.44105118843449509 0.40397834772043079 0 -0.44544358606010143 0.42895116057312871 0 -0.46085665236754769 0.40664074779963461 0 -0.44105118843449509 0.40397834772043079 0 -0.46085665236754769 0.40664074779963461 0 -0.46378356811643129 0.4256800786343094 0 -0.47927498435298782 0.41715975370463487 0 -0.44544358606010143 0.42895116057312871 0 -0.46085665236754769 0.40664074779963461 0 -0.46378356811643129 0.4256800786343094 0 -0.45893539076292328 0.43899376691396602 0 -0.44544358606010143 0.42895116057312871 0 -0.46378356811643129 0.4256800786343094 0 -0.45893539076292328 0.43899376691396602 0 -0.46378356811643129 0.4256800786343094 0 -0.47440722703859622 0.43665496418018268 0 -0.46378356811643129 0.4256800786343094 0 -0.47440722703859622 0.43665496418018268 0 -0.47927498435298782 0.41715975370463487 0 -0.47927498435298782 0.41715975370463487 0 -0.50000000000000422 0.41264775140120769 0 -0.47930012765392088 0.39491459104617122 0 -0.5 0.4386196207523988 0 -0.47440722703859622 0.43665496418018268 0 -0.47927498435298782 0.41715975370463487 0 -0.5 0.4386196207523988 0 -0.47927498435298782 0.41715975370463487 0 -0.50000000000000422 0.41264775140120769 0 -0.5 0.3918405935280137 0 -0.4820242442145537 0.37448340686729348 0 -0.5 0.37103343565481972 0 -0.5 0.3918405935280137 0 -0.47930012765392088 0.39491459104617122 0 -0.4820242442145537 0.37448340686729348 0 -0.50000000000000422 0.41264775140120769 0 -0.5 0.3918405935280137 0 -0.47930012765392088 0.39491459104617122 0 -0.50000000000000422 0.41264775140120769 0 -0.47930012765392088 0.39491459104617122 0 -0.46085665236754769 0.40664074779963461 0 -0.47927498435298782 0.41715975370463487 0 -0.47930012765392088 0.39491459104617122 0 -0.47930012765392088 0.39491459104617122 0 -0.45860025530783588 0.37718143069113669 0 -0.4820242442145537 0.37448340686729348 0 -0.47930012765392088 0.39491459104617122 0 -0.45860025530783588 0.37718143069113669 0 -0.47930012765392088 0.39491459104617122 0 -0.45860025530783588 0.37718143069113669 0 -0.4615825785606138 0.39131312265017898 0 -0.45860025530783588 0.37718143069113669 0 -0.4615825785606138 0.39131312265017898 0 -0.4492110906738237 0.38320955120225392 0 -0.46085665236754769 0.40664074779963461 0 -0.4492110906738237 0.38320955120225392 0 -0.46085665236754769 0.40664074779963461 0 -0.47930012765392088 0.39491459104617122 0 -0.4615825785606138 0.39131312265017898 0 -0.46085665236754769 0.40664074779963461 0 -0.4615825785606138 0.39131312265017898 0 -0.4492110906738237 0.38320955120225392 0 -0.46085665236754769 0.40664074779963461 0 -0.44105118843449509 0.40397834772043079 0 -0.4492110906738237 0.38320955120225392 0 -0.44105118843449509 0.40397834772043079 0 -0.43665879080888881 0.37900553486773292 0 -0.44105118843449509 0.40397834772043079 0 -0.4492110906738237 0.38320955120225392 0 -0.43665879080888881 0.37900553486773292 0 -0.42191973330561072 0.37765638465153778 0 -0.41958685853768141 0.40046738275030419 0 -0.42861304127111349 0.39092484424672153 0 -0.43665879080888881 0.37900553486773292 0 -0.42191973330561072 0.37765638465153778 0 -0.42861304127111349 0.39092484424672153 0 -0.42191973330561072 0.37765638465153778 0 -0.41958685853768141 0.40046738275030419 0 -0.41714400140127789 0.37990899472704948 0 -0.39672247382245063 0.40003963484922689 0 -0.42191973330561072 0.37765638465153778 0 -0.41714400140127789 0.37990899472704948 0 -0.41958685853768141 0.40046738275030419 0 -0.41714400140127789 0.37990899472704948 0 -0.41011039063937738 0.3980187550439328 0 -0.41958685853768141 0.40046738275030419 0 -0.41714400140127789 0.37990899472704948 0 -0.41011039063937738 0.3980187550439328 0 -0.39672247382245063 0.40003963484922689 0 -0.41011039063937738 0.3980187550439328 0 -0.41958685853768141 0.40046738275030419 0 -0.40698822879609953 0.41165900784915038 0 -0.44105118843449509 0.40397834772043079 0 -0.42861304127111349 0.39092484424672153 0 -0.42919224925330762 0.40911141412646018 0 -0.41958685853768141 0.40046738275030419 0 -0.42861304127111349 0.39092484424672153 0 -0.42919224925330762 0.40911141412646018 0 -0.44105118843449509 0.40397834772043079 0 -0.43665879080888881 0.37900553486773292 0 -0.42861304127111349 0.39092484424672153 0 -0.44105118843449509 0.40397834772043079 0 -0.43224360433873388 0.42166816694613712 0 -0.42919224925330762 0.40911141412646018 0 -0.41958685853768141 0.40046738275030419 0 -0.42919224925330762 0.40911141412646018 0 -0.41725398376975242 0.4232783808490706 0 -0.43224360433873388 0.42166816694613712 0 -0.42919224925330762 0.40911141412646018 0 -0.41725398376975242 0.4232783808490706 0 -0.43933292756509451 0.43806004985056668 0 -0.43224360433873388 0.42166816694613712 0 -0.42879848250356067 0.43634510971893697 0 -0.43224360433873388 0.42166816694613712 0 -0.42879848250356067 0.43634510971893697 0 -0.41725398376975242 0.4232783808490706 0 -0.42879848250356067 0.43634510971893697 0 -0.41725398376975242 0.4232783808490706 0 -0.4156815187520192 0.43865404396780677 0 -0.42879848250356067 0.43634510971893697 0 -0.41725398376975242 0.4232783808490706 0 -0.4156815187520192 0.43865404396780677 0 -0.41725398376975242 0.4232783808490706 0 -0.4156815187520192 0.43865404396780677 0 -0.41725398376975242 0.4232783808490706 0 -0.40568204497008908 0.429863161066662 0 -0.40730450805039919 0.4432472278084254 0 -0.4156815187520192 0.43865404396780677 0 -0.40568204497008908 0.429863161066662 0 -0.41958685853768141 0.40046738275030419 0 -0.41725398376975242 0.4232783808490706 0 -0.41958685853768141 0.40046738275030419 0 -0.41725398376975242 0.4232783808490706 0 -0.40698822879609953 0.41165900784915038 0 -0.41725398376975242 0.4232783808490706 0 -0.40698822879609953 0.41165900784915038 0 -0.40568204497008908 0.429863161066662 0 -0.41725398376975242 0.4232783808490706 0 -0.40698822879609953 0.41165900784915038 0 -0.40698822879609953 0.41165900784915038 0 -0.40568204497008908 0.429863161066662 0 -0.39295811882680631 0.42237545763459727 0 -0.40698822879609953 0.41165900784915038 0 -0.39379881208076362 0.41301264869178128 0 -0.39672247382245063 0.40003963484922689 0 -0.40698822879609953 0.41165900784915038 0 -0.39379881208076362 0.41301264869178128 0 -0.39295811882680631 0.42237545763459727 0 -0.39299164118098068 0.43927465351186168 0 -0.40568204497008908 0.429863161066662 0 -0.39295811882680631 0.42237545763459727 0 -0.39299164118098068 0.43927465351186168 0 -0.40730450805039919 0.4432472278084254 0 -0.40568204497008908 0.429863161066662 0 -0.37582399943241629 0.44564771411592752 0 -0.39299164118098068 0.43927465351186168 0 -0.37792500074733981 0.42413473361447018 0 -0.39299164118098068 0.43927465351186168 0 -0.39295811882680631 0.42237545763459727 0 -0.37792500074733981 0.42413473361447018 0 -0.37582399943241629 0.44564771411592752 0 -0.37792500074733981 0.42413473361447018 0 -0.39299164118098068 0.43927465351186168 0 -0.37792500074733981 0.42413473361447018 0 -0.37792500074733981 0.42413473361447018 0 -0.37512919784843002 0.42132533279782503 0 -0.37852642687769961 0.41797649443415208 0 -0.3807228886519915 0.39548605666694842 0 -0.37852642687769961 0.41797649443415208 0 -0.38679420773953349 0.40092113630208692 0 -0.39672247382245063 0.40003963484922689 0 -0.39379881208076362 0.41301264869178128 0 -0.37852642687769961 0.41797649443415208 0 -0.39672247382245063 0.40003963484922689 0 -0.37852642687769961 0.41797649443415208 0 -0.39672247382245063 0.40003963484922689 0 -0.37852642687769961 0.41797649443415208 0 -0.3807228886519915 0.39548605666694842 0 -0.37187472498789442 0.40815864712156008 0 -0.39379881208076362 0.41301264869178128 0 -0.39295811882680631 0.42237545763459727 0 -0.37852642687769961 0.41797649443415208 0 -0.39295811882680631 0.42237545763459727 0 -0.37792500074733981 0.42413473361447018 0 -0.37852642687769961 0.41797649443415208 0 -0.37852642687769961 0.41797649443415208 0 -0.37512919784843002 0.42132533279782503 0 -0.37187472498789442 0.40815864712156008 0 -0.37792500074733981 0.42413473361447018 0 -0.37852642687769961 0.41797649443415208 0 -0.37792500074733981 0.42413473361447018 0 -0.37852642687769961 0.41797649443415208 0 -0.37512919784843002 0.42132533279782503 0 -0.37852642687769961 0.41797649443415208 0 -0.37512919784843002 0.42132533279782503 0 -0.37852642687769961 0.41797649443415208 0 -0.38679420773953349 0.40092113630208692 0 -0.3807228886519915 0.39548605666694842 0 -0.38679420773953349 0.40092113630208692 0 -0.38918144997208731 0.39150426953576961 0 -0.3807228886519915 0.39548605666694842 0 -0.3807228886519915 0.39548605666694842 0 -0.38291935042628078 0.37299561889974409 0 -0.3807228886519915 0.39548605666694842 0 -0.38291935042628078 0.37299561889974409 0 -0.37351888366060432 0.38674041426089339 0 -0.38918144997208731 0.39150426953576961 0 -0.3807228886519915 0.39548605666694842 0 -0.38291935042628078 0.37299561889974409 0 -0.38291935042628078 0.37299561889974409 0 -0.3700479854434211 0.37862834780246279 0 -0.37351888366060432 0.38674041426089339 0 -0.38918144997208731 0.39150426953576961 0 -0.39980026584449663 0.37759790182387182 0 -0.38291935042628078 0.37299561889974409 0 -0.38918144997208731 0.39150426953576961 0 -0.39980026584449663 0.37759790182387182 0 -0.39672247382245063 0.40003963484922689 0 -0.41714400140127789 0.37990899472704948 0 -0.39980026584449663 0.37759790182387182 0 -0.39672247382245063 0.40003963484922689 0 -0.41011039063937738 0.3980187550439328 0 -0.40698822879609953 0.41165900784915038 0 -0.39672247382245063 0.40003963484922689 0 -0.40698822879609953 0.41165900784915038 0 -0.39672247382245063 0.40003963484922689 0 -0.38679420773953349 0.40092113630208692 0 -0.38918144997208731 0.39150426953576961 0 -0.39672247382245063 0.40003963484922689 0 -0.38918144997208731 0.39150426953576961 0 -0.39672247382245063 0.40003963484922689 0 -0.38490491667756072 0.35690605861696312 0 -0.3973455439443096 0.34138612771474403 0 -0.40665122753379301 0.35954356754638478 0 -0.39980026584449663 0.37759790182387182 0 -0.38490491667756072 0.35690605861696312 0 -0.40665122753379301 0.35954356754638478 0 -0.39980026584449663 0.37759790182387182 0 -0.38291935042628078 0.37299561889974409 0 -0.38490491667756072 0.35690605861696312 0 -0.38291935042628078 0.37299561889974409 0 -0.37695531163432172 0.36344163853771733 0 -0.38490491667756072 0.35690605861696312 0 -0.38291935042628078 0.37299561889974409 0 -0.37695531163432172 0.36344163853771733 0 -0.36841413419743602 0.36886247267623928 0 -0.37695531163432172 0.36344163853771733 0 -0.38490491667756072 0.35690605861696312 0 -0.36985304539504033 0.35697347243616012 0 -0.38490491667756072 0.35690605861696312 0 -0.37600153790046992 0.33856611455287222 0 -0.3973455439443096 0.34138612771474403 0 -0.38490491667756072 0.35690605861696312 0 -0.37600153790046992 0.33856611455287222 0 -0.36902635102756842 0.34740155714343701 0 -0.37600153790046992 0.33856611455287222 0 -0.3973455439443096 0.34138612771474403 0 -0.37600153790046992 0.33856611455287222 0 -0.38811173404745408 0.32990489815133489 0 -0.3973455439443096 0.34138612771474403 0 -0.37600153790046992 0.33856611455287222 0 -0.38811173404745408 0.32990489815133489 0 -0.37934864065580282 0.32696515794957332 0 -0.37934864065580282 0.32696515794957332 0 -0.3863838018062758 0.31481291074979939 0 -0.36726733204387851 0.32439139499574871 0 -0.3863838018062758 0.31481291074979939 0 -0.36726733204387851 0.32439139499574871 0 -0.37406976088246752 0.31487651660629618 0 -0.3863838018062758 0.31481291074979939 0 -0.36726733204387851 0.32439139499574871 0 -0.3863838018062758 0.31481291074979939 0 -0.38449534383174649 0.31369725763295508 0 -0.37406976088246752 0.31487651660629618 0 -0.38811173404745408 0.32990489815133489 0 -0.37934864065580282 0.32696515794957332 0 -0.3863838018062758 0.31481291074979939 0 -0.3863838018062758 0.31481291074979939 0 -0.38449534383174649 0.31369725763295508 0 -0.3863838018062758 0.31481291074979939 0 -0.4067931204701527 0.32687021903367758 0 -0.3863838018062758 0.31481291074979939 0 -0.4067931204701527 0.32687021903367758 0 -0.40243210891479009 0.30677175782126959 0 -0.3863838018062758 0.31481291074979939 0 -0.40301981805020848 0.32956679858067139 0 -0.38811173404745408 0.32990489815133489 0 -0.3863838018062758 0.31481291074979939 0 -0.40301981805020848 0.32956679858067139 0 -0.3863838018062758 0.31481291074979939 0 -0.40301981805020848 0.32956679858067139 0 -0.4067931204701527 0.32687021903367758 0 -0.38811173404745408 0.32990489815133489 0 -0.3973455439443096 0.34138612771474403 0 -0.40301981805020848 0.32956679858067139 0 -0.4067931204701527 0.32687021903367758 0 -0.42720243913402922 0.33892752731755599 0 -0.4200256774690081 0.34413537306300529 0 -0.4067931204701527 0.32687021903367758 0 -0.42720243913402922 0.33892752731755599 0 -0.40301981805020848 0.32956679858067139 0 -0.4067931204701527 0.32687021903367758 0 -0.4200256774690081 0.34413537306300529 0 -0.4067931204701527 0.32687021903367758 0 -0.42720243913402922 0.33892752731755599 0 -0.42540086516824738 0.33530270999340178 0 -0.3973455439443096 0.34138612771474403 0 -0.40301981805020848 0.32956679858067139 0 -0.4200256774690081 0.34413537306300529 0 -0.40301981805020848 0.32956679858067139 0 -0.4200256774690081 0.34413537306300529 0 -0.4067931204701527 0.32687021903367758 0 -0.42013924568838112 0.32098507972290968 0 -0.42540086516824738 0.33530270999340178 0 -0.4067931204701527 0.32687021903367758 0 -0.42013924568838112 0.32098507972290968 0 -0.40243210891479009 0.30677175782126959 0 -0.42013924568838112 0.32098507972290968 0 -0.40243210891479009 0.30677175782126959 0 -0.42013924568838112 0.32098507972290968 0 -0.43708409751294119 0.32018916208201831 0 -0.43784638246197272 0.33519840162454889 0 -0.42013924568838112 0.32098507972290968 0 -0.43708409751294119 0.32018916208201831 0 -0.42773272325970318 0.30940922817445132 0 -0.42013924568838112 0.32098507972290968 0 -0.43784638246197272 0.33519840162454889 0 -0.42013924568838112 0.32098507972290968 0 -0.42540086516824738 0.33530270999340178 0 -0.43784638246197272 0.33519840162454889 0 -0.42720243913402922 0.33892752731755599 0 -0.42540086516824738 0.33530270999340178 0 -0.42720243913402922 0.33892752731755599 0 -0.42540086516824738 0.33530270999340178 0 -0.43784638246197272 0.33519840162454889 0 -0.42720243913402922 0.33892752731755599 0 -0.44155538660213273 0.34740688497056238 0 -0.42720243913402922 0.33892752731755599 0 -0.44155538660213273 0.34740688497056238 0 -0.43784638246197272 0.33519840162454889 0 -0.42720243913402922 0.33892752731755599 0 -0.4200256774690081 0.34413537306300529 0 -0.43790038296174738 0.35944827033610632 0 -0.42720243913402922 0.33892752731755599 0 -0.43790038296174738 0.35944827033610632 0 -0.42720243913402922 0.33892752731755599 0 -0.43790038296174738 0.35944827033610632 0 -0.44155538660213273 0.34740688497056238 0 -0.4200256774690081 0.34413537306300529 0 -0.43790038296174738 0.35944827033610632 0 -0.4200256774690081 0.34413537306300529 0 -0.42368359445439829 0.36041404749733019 0 -0.43790038296174738 0.35944827033610632 0 -0.3973455439443096 0.34138612771474403 0 -0.4200256774690081 0.34413537306300529 0 -0.40665122753379301 0.35954356754638478 0 -0.4200256774690081 0.34413537306300529 0 -0.40665122753379301 0.35954356754638478 0 -0.42368359445439829 0.36041404749733019 0 -0.41714400140127789 0.37990899472704948 0 -0.39980026584449663 0.37759790182387182 0 -0.40665122753379301 0.35954356754638478 0 -0.41714400140127789 0.37990899472704948 0 -0.40665122753379301 0.35954356754638478 0 -0.42368359445439829 0.36041404749733019 0 -0.41714400140127789 0.37990899472704948 0 -0.43790038296174738 0.35944827033610632 0 -0.43665879080888881 0.37900553486773292 0 -0.42191973330561072 0.37765638465153778 0 -0.43790038296174738 0.35944827033610632 0 -0.41714400140127789 0.37990899472704948 0 -0.42368359445439829 0.36041404749733019 0 -0.43790038296174738 0.35944827033610632 0 -0.42191973330561072 0.37765638465153778 0 -0.41714400140127789 0.37990899472704948 0 -0.43790038296174738 0.35944827033610632 0 -0.4492110906738237 0.38320955120225392 0 -0.43790038296174738 0.35944827033610632 0 -0.4492110906738237 0.38320955120225392 0 -0.43665879080888881 0.37900553486773292 0 -0.43790038296174738 0.35944827033610632 0 -0.45860025530783588 0.37718143069113669 0 -0.43790038296174738 0.35944827033610632 0 -0.45860025530783588 0.37718143069113669 0 -0.4492110906738237 0.38320955120225392 0 -0.43790038296174738 0.35944827033610632 0 -0.45860025530783588 0.37718143069113669 0 -0.43790038296174738 0.35944827033610632 0 -0.45560281789647711 0.35962327781199499 0 -0.43790038296174738 0.35944827033610632 0 -0.45560281789647711 0.35962327781199499 0 -0.45414579988229858 0.34343425569395969 0 -0.43790038296174738 0.35944827033610632 0 -0.45414579988229858 0.34343425569395969 0 -0.43790038296174738 0.35944827033610632 0 -0.44155538660213273 0.34740688497056238 0 -0.45414579988229858 0.34343425569395969 0 -0.4626096701827983 0.3513224768656445 0 -0.46990853527216381 0.34338943032325592 0 -0.45414579988229858 0.34343425569395969 0 -0.4626096701827983 0.3513224768656445 0 -0.45560281789647711 0.35962327781199499 0 -0.45414579988229858 0.34343425569395969 0 -0.4626096701827983 0.3513224768656445 0 -0.45560281789647711 0.35962327781199499 0 -0.47078152768025389 0.35884294363336738 0 -0.4626096701827983 0.3513224768656445 0 -0.47078152768025389 0.35884294363336738 0 -0.46990853527216381 0.34338943032325592 0 -0.45860025530783588 0.37718143069113669 0 -0.45560281789647711 0.35962327781199499 0 -0.47078152768025389 0.35884294363336738 0 -0.45860025530783588 0.37718143069113669 0 -0.4820242442145537 0.37448340686729348 0 -0.47078152768025389 0.35884294363336738 0 -0.4820242442145537 0.37448340686729348 0 -0.47078152768025389 0.35884294363336738 0 -0.48452727950191049 0.35411706808178672 0 -0.47078152768025389 0.35884294363336738 0 -0.48452727950191049 0.35411706808178672 0 -0.46990853527216381 0.34338943032325592 0 -0.48452727950191049 0.35411706808178672 0 -0.48234016987972611 0.33598944535793618 0 -0.46990853527216381 0.34338943032325592 0 -0.50000000000000444 0.35022627778162557 0 -0.48452727950191049 0.35411706808178672 0 -0.5 0.37103343565481972 0 -0.50000000000000444 0.35022627778162557 0 -0.48452727950191049 0.35411706808178672 0 -0.48234016987972611 0.33598944535793618 0 -0.4820242442145537 0.37448340686729348 0 -0.48452727950191049 0.35411706808178672 0 -0.5 0.37103343565481972 0 -0.49999999999999711 0.32301660666997423 0 -0.47989106490637351 0.30245717354386309 0 -0.49999999999999711 0.32301660666997423 0 -0.48234016987972611 0.33598944535793618 0 -0.4817278936363863 0.32080395962650549 0 -0.49999999999999711 0.32301660666997423 0 -0.4817278936363863 0.32080395962650549 0 -0.47989106490637351 0.30245717354386309 0 -0.50000000000000444 0.35022627778162557 0 -0.48234016987972611 0.33598944535793618 0 -0.50000000000000444 0.35022627778162557 0 -0.49999999999999711 0.32301660666997423 0 -0.48234016987972611 0.33598944535793618 0 -0.48234016987972611 0.33598944535793618 0 -0.46990853527216381 0.34338943032325592 0 -0.47039121680284962 0.32742024105181278 0 -0.48234016987972611 0.33598944535793618 0 -0.46468033975944578 0.32175261293424889 0 -0.48234016987972611 0.33598944535793618 0 -0.47039121680284962 0.32742024105181278 0 -0.46468033975944578 0.32175261293424889 0 -0.48234016987972611 0.33598944535793618 0 -0.4817278936363863 0.32080395962650549 0 -0.46468033975944578 0.32175261293424889 0 -0.4817278936363863 0.32080395962650549 0 -0.46468033975944578 0.32175261293424889 0 -0.47989106490637351 0.30245717354386309 0 -0.47039121680284962 0.32742024105181278 0 -0.46468033975944578 0.32175261293424889 0 -0.45136813900330658 0.32868461405330679 0 -0.46468033975944578 0.32175261293424889 0 -0.44702050963916568 0.30751578051056161 0 -0.46468033975944578 0.32175261293424889 0 -0.45136813900330658 0.32868461405330679 0 -0.44702050963916568 0.30751578051056161 0 -0.47039121680284962 0.32742024105181278 0 -0.45414579988229858 0.34343425569395969 0 -0.45136813900330658 0.32868461405330679 0 -0.46990853527216381 0.34338943032325592 0 -0.47039121680284962 0.32742024105181278 0 -0.45414579988229858 0.34343425569395969 0 -0.47039121680284962 0.32742024105181278 0 -0.45414579988229858 0.34343425569395969 0 -0.45414579988229858 0.34343425569395969 0 -0.44710382282413008 0.33712403865103041 0 -0.45136813900330658 0.32868461405330679 0 -0.44155538660213273 0.34740688497056238 0 -0.45414579988229858 0.34343425569395969 0 -0.44710382282413008 0.33712403865103041 0 -0.44710382282413008 0.33712403865103041 0 -0.45136813900330658 0.32868461405330679 0 -0.43784638246197272 0.33519840162454889 0 -0.44155538660213273 0.34740688497056238 0 -0.44710382282413008 0.33712403865103041 0 -0.43784638246197272 0.33519840162454889 0 -0.43708409751294119 0.32018916208201831 0 -0.45136813900330658 0.32868461405330679 0 -0.44702050963916568 0.30751578051056161 0 -0.43708409751294119 0.32018916208201831 0 -0.45136813900330658 0.32868461405330679 0 -0.43784638246197272 0.33519840162454889 0 -0.44702050963916568 0.30751578051056161 0 -0.42936067951888612 0.2932789480868736 0 -0.44702050963916568 0.30751578051056161 0 -0.44790085547064729 0.28398922119281977 0 -0.45985497991767682 0.2995225057198489 0 -0.44790085547064729 0.28398922119281977 0 -0.42936067951888612 0.2932789480868736 0 -0.44702050963916568 0.30751578051056161 0 -0.44790085547064729 0.28398922119281977 0 -0.42936067951888612 0.2932789480868736 0 -0.44790085547064729 0.28398922119281977 0 -0.45978212981275141 0.28189774041775079 0 -0.45985497991767682 0.2995225057198489 0 -0.45978212981275141 0.28189774041775079 0 -0.45985497991767682 0.2995225057198489 0 -0.47989106490637351 0.30245717354386309 0 -0.46468033975944578 0.32175261293424889 0 -0.45985497991767682 0.2995225057198489 0 -0.47989106490637351 0.30245717354386309 0 -0.46468033975944578 0.32175261293424889 0 -0.44702050963916568 0.30751578051056161 0 -0.45985497991767682 0.2995225057198489 0 -0.45978212981275141 0.28189774041775079 0 -0.47989106490637351 0.30245717354386309 0 -0.45978212981275141 0.28189774041775079 0 -0.47989106490637351 0.30245717354386309 0 -0.48479457606323562 0.28699048108605929 0 -0.5 0.28132849555507777 0 -0.48479457606323562 0.28699048108605929 0 -0.5 0.302172551112526 0 -0.47989106490637351 0.30245717354386309 0 -0.48479457606323562 0.28699048108605929 0 -0.5 0.302172551112526 0 -0.49999999999999711 0.32301660666997423 0 -0.47989106490637351 0.30245717354386309 0 -0.5 0.302172551112526 0 -0.49999999999999573 0.2604844399976296 0 -0.47718539364661477 0.25142720972220611 0 -0.49999999999999573 0.2604844399976296 0 -0.48026141654621379 0.2706480830516747 0 -0.47718539364661477 0.25142720972220611 0 -0.5 0.28132849555507777 0 -0.49999999999999573 0.2604844399976296 0 -0.48026141654621379 0.2706480830516747 0 -0.5 0.28132849555507777 0 -0.48479457606323562 0.28699048108605929 0 -0.48026141654621379 0.2706480830516747 0 -0.45978212981275141 0.28189774041775079 0 -0.48479457606323562 0.28699048108605929 0 -0.48026141654621379 0.2706480830516747 0 -0.48026141654621379 0.2706480830516747 0 -0.47718539364661477 0.25142720972220611 0 -0.46225458440358869 0.26153626398601032 0 -0.45437078729323399 0.24236997944678271 0 -0.47718539364661477 0.25142720972220611 0 -0.46225458440358869 0.26153626398601032 0 -0.45978212981275141 0.28189774041775079 0 -0.46225458440358869 0.26153626398601032 0 -0.43967319471912858 0.2613383072916392 0 -0.45978212981275141 0.28189774041775079 0 -0.48026141654621379 0.2706480830516747 0 -0.46225458440358869 0.26153626398601032 0 -0.45978212981275141 0.28189774041775079 0 -0.44228911649314467 0.27660346955078507 0 -0.43967319471912858 0.2613383072916392 0 -0.44790085547064729 0.28398922119281977 0 -0.45978212981275141 0.28189774041775079 0 -0.44228911649314467 0.27660346955078507 0 -0.45978212981275141 0.28189774041775079 0 -0.43967319471912858 0.2613383072916392 0 -0.44790085547064729 0.28398922119281977 0 -0.44228911649314467 0.27660346955078507 0 -0.43401544386311253 0.28206524896035118 0 -0.45437078729323399 0.24236997944678271 0 -0.43967319471912858 0.2613383072916392 0 -0.45437078729323399 0.24236997944678271 0 -0.46225458440358869 0.26153626398601032 0 -0.43967319471912858 0.2613383072916392 0 -0.41984368032676922 0.24106455469484819 0 -0.43967319471912858 0.2613383072916392 0 -0.41759493836436429 0.26120546953705831 0 -0.43967319471912858 0.2613383072916392 0 -0.41759493836436429 0.26120546953705831 0 -0.43007395860008307 0.27372682989136521 0 -0.41984368032676922 0.24106455469484819 0 -0.43967319471912858 0.2613383072916392 0 -0.41984368032676922 0.24106455469484819 0 -0.41759493836436429 0.26120546953705831 0 -0.40318624257749158 0.25140104498405802 0 -0.41759493836436429 0.26120546953705831 0 -0.40318624257749158 0.25140104498405802 0 -0.40515167879147262 0.27376236813374671 0 -0.4204747224810495 0.28611535249110048 0 -0.40515167879147262 0.27376236813374671 0 -0.41759493836436429 0.26120546953705831 0 -0.41832382455924239 0.27370250501331761 0 -0.40515167879147262 0.27376236813374671 0 -0.41832382455924239 0.27370250501331761 0 -0.4204747224810495 0.28611535249110048 0 -0.40515167879147262 0.27376236813374671 0 -0.43007395860008307 0.27372682989136521 0 -0.4204747224810495 0.28611535249110048 0 -0.41832382455924239 0.27370250501331761 0 -0.43007395860008307 0.27372682989136521 0 -0.4204747224810495 0.28611535249110048 0 -0.43007395860008307 0.27372682989136521 0 -0.43401544386311253 0.28206524896035118 0 -0.4204747224810495 0.28611535249110048 0 -0.41759493836436429 0.26120546953705831 0 -0.41832382455924239 0.27370250501331761 0 -0.43007395860008307 0.27372682989136521 0 -0.44228911649314467 0.27660346955078507 0 -0.43967319471912858 0.2613383072916392 0 -0.43007395860008307 0.27372682989136521 0 -0.43967319471912858 0.2613383072916392 0 -0.43007395860008307 0.27372682989136521 0 -0.44228911649314467 0.27660346955078507 0 -0.43007395860008307 0.27372682989136521 0 -0.43401544386311253 0.28206524896035118 0 -0.44790085547064729 0.28398922119281977 0 -0.43401544386311253 0.28206524896035118 0 -0.42936067951888612 0.2932789480868736 0 -0.42936067951888612 0.2932789480868736 0 -0.4204747224810495 0.28611535249110048 0 -0.43401544386311253 0.28206524896035118 0 -0.42936067951888612 0.2932789480868736 0 -0.4204747224810495 0.28611535249110048 0 -0.43708409751294119 0.32018916208201831 0 -0.44702050963916568 0.30751578051056161 0 -0.42773272325970318 0.30940922817445132 0 -0.44702050963916568 0.30751578051056161 0 -0.42936067951888612 0.2932789480868736 0 -0.42773272325970318 0.30940922817445132 0 -0.42936067951888612 0.2932789480868736 0 -0.40243210891479009 0.30677175782126959 0 -0.42936067951888612 0.2932789480868736 0 -0.40991568930742073 0.29974256401923621 0 -0.40243210891479009 0.30677175782126959 0 -0.42013924568838112 0.32098507972290968 0 -0.42773272325970318 0.30940922817445132 0 -0.40243210891479009 0.30677175782126959 0 -0.42936067951888612 0.2932789480868736 0 -0.42773272325970318 0.30940922817445132 0 -0.40243210891479009 0.30677175782126959 0 -0.42936067951888612 0.2932789480868736 0 -0.40991568930742073 0.29974256401923621 0 -0.4204747224810495 0.28611535249110048 0 -0.40991568930742073 0.29974256401923621 0 -0.4204747224810495 0.28611535249110048 0 -0.40991568930742073 0.29974256401923621 0 -0.4204747224810495 0.28611535249110048 0 -0.40620235032179891 0.28733469521940619 0 -0.4204747224810495 0.28611535249110048 0 -0.40620235032179891 0.28733469521940619 0 -0.40515167879147262 0.27376236813374671 0 -0.40620235032179891 0.28733469521940619 0 -0.39617859150802592 0.28345208664931959 0 -0.40515167879147262 0.27376236813374671 0 -0.40620235032179891 0.28733469521940619 0 -0.40079827235341481 0.2947003721026123 0 -0.39617859150802592 0.28345208664931959 0 -0.40991568930742073 0.29974256401923621 0 -0.40620235032179891 0.28733469521940619 0 -0.40079827235341481 0.2947003721026123 0 -0.40079827235341481 0.2947003721026123 0 -0.39617859150802592 0.28345208664931959 0 -0.38926262171503961 0.29620075680383212 0 -0.3863838018062758 0.31481291074979939 0 -0.40243210891479009 0.30677175782126959 0 -0.38925273496798363 0.30769150684441482 0 -0.3863838018062758 0.31481291074979939 0 -0.40243210891479009 0.30677175782126959 0 -0.40991568930742073 0.29974256401923621 0 -0.40079827235341481 0.2947003721026123 0 -0.40243210891479009 0.30677175782126959 0 -0.40243210891479009 0.30677175782126959 0 -0.38926262171503961 0.29620075680383212 0 -0.40243210891479009 0.30677175782126959 0 -0.38925273496798363 0.30769150684441482 0 -0.38926262171503961 0.29620075680383212 0 -0.40079827235341481 0.2947003721026123 0 -0.40243210891479009 0.30677175782126959 0 -0.38926262171503961 0.29620075680383212 0 -0.38449534383174649 0.31369725763295508 0 -0.36664146643107381 0.29840220336344769 0 -0.38449534383174649 0.31369725763295508 0 -0.37847340168646981 0.30265873551188061 0 -0.36664146643107381 0.29840220336344769 0 -0.38449534383174649 0.31369725763295508 0 -0.38925273496798363 0.30769150684441482 0 -0.38430249061953209 0.30627777139791151 0 -0.3863838018062758 0.31481291074979939 0 -0.38449534383174649 0.31369725763295508 0 -0.38925273496798363 0.30769150684441482 0 -0.38430249061953209 0.30627777139791151 0 -0.37847340168646981 0.30265873551188061 0 -0.38926262171503961 0.29620075680383212 0 -0.38925273496798363 0.30769150684441482 0 -0.38430249061953209 0.30627777139791151 0 -0.38926262171503961 0.29620075680383212 0 -0.37847340168646981 0.30265873551188061 0 -0.38926262171503961 0.29620075680383212 0 -0.3747262976341364 0.29450165243203158 0 -0.38449534383174649 0.31369725763295508 0 -0.38430249061953209 0.30627777139791151 0 -0.37847340168646981 0.30265873551188061 0 -0.38449534383174649 0.31369725763295508 0 -0.36980820407800152 0.30502046764619622 0 -0.38449534383174649 0.31369725763295508 0 -0.36980820407800152 0.30502046764619622 0 -0.37406976088246752 0.31487651660629618 0 -0.39617859150802592 0.28345208664931959 0 -0.38926262171503961 0.29620075680383212 0 -0.38509345832221648 0.27855329381336791 0 -0.38926262171503961 0.29620075680383212 0 -0.37609313451528981 0.28562975578639349 0 -0.38509345832221648 0.27855329381336791 0 -0.38926262171503961 0.29620075680383212 0 -0.37609313451528981 0.28562975578639349 0 -0.3747262976341364 0.29450165243203158 0 -0.38926262171503961 0.29620075680383212 0 -0.37609313451528981 0.28562975578639349 0 -0.37609313451528981 0.28562975578639349 0 -0.38509345832221648 0.27855329381336791 0 -0.37487726731349291 0.26893530770647561 0 -0.3833500282293687 0.26715318761585638 0 -0.38982863510189192 0.26140938377639761 0 -0.39159356277106289 0.269800406498926 0 -0.38509345832221648 0.27855329381336791 0 -0.3833500282293687 0.26715318761585638 0 -0.39159356277106289 0.269800406498926 0 -0.38509345832221648 0.27855329381336791 0 -0.3833500282293687 0.26715318761585638 0 -0.37487726731349291 0.26893530770647561 0 -0.37102133932541642 0.24624749849840419 0 -0.3833500282293687 0.26715318761585638 0 -0.38982863510189192 0.26140938377639761 0 -0.38668427731165073 0.24646011524464351 0 -0.37102133932541642 0.24624749849840419 0 -0.38982863510189192 0.26140938377639761 0 -0.37102133932541642 0.24624749849840419 0 -0.3833500282293687 0.26715318761585638 0 -0.37487726731349291 0.26893530770647561 0 -0.37102133932541642 0.24624749849840419 0 -0.38982863510189192 0.26140938377639761 0 -0.38668427731165073 0.24646011524464351 0 -0.38982863510189192 0.26140938377639761 0 -0.38982863510189192 0.26140938377639761 0 -0.40318624257749158 0.25140104498405802 0 -0.40515167879147262 0.27376236813374671 0 -0.38982863510189192 0.26140938377639761 0 -0.39159356277106289 0.269800406498926 0 -0.38668427731165073 0.24646011524464351 0 -0.38982863510189192 0.26140938377639761 0 -0.40318624257749158 0.25140104498405802 0 -0.39617859150802592 0.28345208664931959 0 -0.38509345832221648 0.27855329381336791 0 -0.39159356277106289 0.269800406498926 0 -0.39617859150802592 0.28345208664931959 0 -0.40515167879147262 0.27376236813374671 0 -0.39159356277106289 0.269800406498926 0 -0.38982863510189192 0.26140938377639761 0 -0.40515167879147262 0.27376236813374671 0 -0.38982863510189192 0.26140938377639761 0 -0.40515167879147262 0.27376236813374671 0 -0.39159356277106289 0.269800406498926 0 -0.35251143260307238 0.26803703418686331 0 -0.34878758903040119 0.28310714909394002 0 -0.3340015258807284 0.2898265698753224 0 -0.36370394777819759 0.27314554759917498 0 -0.36235029588113871 0.28534335602303668 0 -0.34878758903040119 0.28310714909394002 0 -0.35251143260307238 0.26803703418686331 0 -0.36370394777819759 0.27314554759917498 0 -0.34878758903040119 0.28310714909394002 0 -0.37102133932541642 0.24624749849840419 0 -0.34218203211383003 0.24969530508137319 0 -0.35251143260307238 0.26803703418686331 0 -0.37102133932541642 0.24624749849840419 0 -0.35251143260307238 0.26803703418686331 0 -0.37102133932541642 0.24624749849840419 0 -0.35251143260307238 0.26803703418686331 0 -0.36370394777819759 0.27314554759917498 0 -0.37102133932541642 0.24624749849840419 0 -0.37487726731349291 0.26893530770647561 0 -0.36370394777819759 0.27314554759917498 0 -0.37609313451528981 0.28562975578639349 0 -0.37487726731349291 0.26893530770647561 0 -0.36370394777819759 0.27314554759917498 0 -0.37609313451528981 0.28562975578639349 0 -0.3747262976341364 0.29450165243203158 0 -0.36235029588113871 0.28534335602303668 0 -0.37609313451528981 0.28562975578639349 0 -0.36370394777819759 0.27314554759917498 0 -0.36235029588113871 0.28534335602303668 0 -0.3747262976341364 0.29450165243203158 0 -0.36235029588113871 0.28534335602303668 0 -0.36664146643107381 0.29840220336344769 0 -0.38449534383174649 0.31369725763295508 0 -0.36980820407800152 0.30502046764619622 0 -0.36664146643107381 0.29840220336344769 0 -0.36980820407800152 0.30502046764619622 0 -0.36685557735733498 0.31197196086717432 0 -0.37406976088246752 0.31487651660629618 0 -0.37847340168646981 0.30265873551188061 0 -0.3747262976341364 0.29450165243203158 0 -0.36664146643107381 0.29840220336344769 0 -0.36980820407800152 0.30502046764619622 0 -0.36017911299685001 0.30654617880224683 0 -0.35512106432425627 0.29634367765943748 0 -0.36980820407800152 0.30502046764619622 0 -0.35512106432425627 0.29634367765943748 0 -0.36980820407800152 0.30502046764619622 0 -0.36664146643107381 0.29840220336344769 0 -0.35512106432425627 0.29634367765943748 0 -0.36980820407800152 0.30502046764619622 0 -0.36017911299685001 0.30654617880224683 0 -0.36685557735733498 0.31197196086717432 0 -0.36017911299685001 0.30654617880224683 0 -0.36685557735733498 0.31197196086717432 0 -0.35951062720028087 0.31373064496140179 0 -0.36017911299685001 0.30654617880224683 0 -0.34987919167519133 0.30659530863122458 0 -0.35951062720028087 0.31373064496140179 0 -0.36017911299685001 0.30654617880224683 0 -0.34987919167519133 0.30659530863122458 0 -0.35512106432425627 0.29634367765943748 0 -0.34987919167519133 0.30659530863122458 0 -0.35512106432425627 0.29634367765943748 0 -0.3446352933987108 0.29651570846768338 0 -0.34987919167519133 0.30659530863122458 0 -0.3446352933987108 0.29651570846768338 0 -0.33725640904880932 0.307988856090054 0 -0.36664146643107381 0.29840220336344769 0 -0.34878758903040119 0.28310714909394002 0 -0.36235029588113871 0.28534335602303668 0 -0.36664146643107381 0.29840220336344769 0 -0.34878758903040119 0.28310714909394002 0 -0.36664146643107381 0.29840220336344769 0 -0.35512106432425627 0.29634367765943748 0 -0.34878758903040119 0.28310714909394002 0 -0.35512106432425627 0.29634367765943748 0 -0.3446352933987108 0.29651570846768338 0 -0.34878758903040119 0.28310714909394002 0 -0.3446352933987108 0.29651570846768338 0 -0.34878758903040119 0.28310714909394002 0 -0.3340015258807284 0.2898265698753224 0 -0.3446352933987108 0.29651570846768338 0 -0.3340015258807284 0.2898265698753224 0 -0.33725640904880932 0.307988856090054 0 -0.3340015258807284 0.2898265698753224 0 -0.33725640904880932 0.307988856090054 0 -0.31549161915838442 0.3116161055637815 0 -0.34987919167519133 0.30659530863122458 0 -0.33725640904880932 0.307988856090054 0 -0.34350729956515702 0.3190882953123047 0 -0.3340015258807284 0.2898265698753224 0 -0.31549161915838442 0.3116161055637815 0 -0.3340015258807284 0.2898265698753224 0 -0.31549161915838442 0.3116161055637815 0 -0.31282305566356899 0.29425111592644698 0 -0.3340015258807284 0.2898265698753224 0 -0.31282305566356899 0.29425111592644698 0 -0.3208776176159408 0.28034059641294601 0 -0.31282305566356899 0.29425111592644698 0 -0.3208776176159408 0.28034059641294601 0 -0.30623762002181831 0.28109761969070851 0 -0.31675184592199379 0.26649280120069369 0 -0.3208776176159408 0.28034059641294601 0 -0.30623762002181831 0.28109761969070851 0 -0.31675184592199379 0.26649280120069369 0 -0.3208776176159408 0.28034059641294601 0 -0.33227269326121228 0.26814094181069809 0 -0.3340015258807284 0.2898265698753224 0 -0.3208776176159408 0.28034059641294601 0 -0.33227269326121228 0.26814094181069809 0 -0.35251143260307238 0.26803703418686331 0 -0.3340015258807284 0.2898265698753224 0 -0.35251143260307238 0.26803703418686331 0 -0.3340015258807284 0.2898265698753224 0 -0.33227269326121228 0.26814094181069809 0 -0.34218203211383003 0.24969530508137319 0 -0.35251143260307238 0.26803703418686331 0 -0.33227269326121228 0.26814094181069809 0 -0.34218203211383003 0.24969530508137319 0 -0.33227269326121228 0.26814094181069809 0 -0.32718323085999013 0.25286507485387549 0 -0.31675184592199379 0.26649280120069369 0 -0.33227269326121228 0.26814094181069809 0 -0.32718323085999013 0.25286507485387549 0 -0.31675184592199379 0.26649280120069369 0 -0.32718323085999013 0.25286507485387549 0 -0.31237949306787027 0.2511543050774091 0 -0.29406882567944492 0.24808579016521951 0 -0.31237949306787027 0.2511543050774091 0 -0.30156042070513078 0.26535826935852502 0 -0.31675184592199379 0.26649280120069369 0 -0.31237949306787027 0.2511543050774091 0 -0.30156042070513078 0.26535826935852502 0 -0.31675184592199379 0.26649280120069369 0 -0.30156042070513078 0.26535826935852502 0 -0.30623762002181831 0.28109761969070851 0 -0.30156042070513078 0.26535826935852502 0 -0.30623762002181831 0.28109761969070851 0 -0.29042532091793971 0.27856611991701502 0 -0.30156042070513078 0.26535826935852502 0 -0.29042532091793971 0.27856611991701502 0 -0.2863190905078023 0.26427717422018632 0 -0.29042532091793971 0.27856611991701502 0 -0.2863190905078023 0.26427717422018632 0 -0.27490272379756631 0.27435639096625819 0 -0.29406882567944492 0.24808579016521951 0 -0.2863190905078023 0.26427717422018632 0 -0.27438734738757331 0.25539565657640151 0 -0.29406882567944492 0.24808579016521951 0 -0.30156042070513078 0.26535826935852502 0 -0.2863190905078023 0.26427717422018632 0 -0.2863190905078023 0.26427717422018632 0 -0.27438734738757331 0.25539565657640151 0 -0.27490272379756631 0.27435639096625819 0 -0.27438734738757331 0.25539565657640151 0 -0.27490272379756631 0.27435639096625819 0 -0.25992987173167259 0.27024378052177628 0 -0.27490272379756631 0.27435639096625819 0 -0.25992987173167259 0.27024378052177628 0 -0.2644193132904995 0.28370672988866968 0 -0.25992987173167259 0.27024378052177628 0 -0.2497019672081322 0.28301844179522329 0 -0.2429518053774273 0.26707266061814627 0 -0.25992987173167259 0.27024378052177628 0 -0.2644193132904995 0.28370672988866968 0 -0.2497019672081322 0.28301844179522329 0 -0.26741474898719458 0.24132224523012019 0 -0.27438734738757331 0.25539565657640151 0 -0.25499370846812258 0.25382717309031783 0 -0.27438734738757331 0.25539565657640151 0 -0.25992987173167259 0.27024378052177628 0 -0.25499370846812258 0.25382717309031783 0 -0.25992987173167259 0.27024378052177628 0 -0.25499370846812258 0.25382717309031783 0 -0.2429518053774273 0.26707266061814627 0 -0.26020144662002492 0.29806372512065299 0 -0.25082215645828948 0.30725659750656648 0 -0.26521594109948482 0.31623046416797351 0 -0.26020144662002492 0.29806372512065299 0 -0.2644193132904995 0.28370672988866968 0 -0.2497019672081322 0.28301844179522329 0 -0.26020144662002492 0.29806372512065299 0 -0.2644193132904995 0.28370672988866968 0 -0.27740906279776067 0.29103666627902081 0 -0.27490272379756631 0.27435639096625819 0 -0.2644193132904995 0.28370672988866968 0 -0.27740906279776067 0.29103666627902081 0 -0.29042532091793971 0.27856611991701502 0 -0.27490272379756631 0.27435639096625819 0 -0.27740906279776067 0.29103666627902081 0 -0.26020144662002492 0.29806372512065299 0 -0.27823142354435049 0.30673225203414289 0 -0.26521594109948482 0.31623046416797351 0 -0.26020144662002492 0.29806372512065299 0 -0.27740906279776067 0.29103666627902081 0 -0.27823142354435049 0.30673225203414289 0 -0.27740906279776067 0.29103666627902081 0 -0.27823142354435049 0.30673225203414289 0 -0.29562187525892353 0.29578125461450178 0 -0.27823142354435049 0.30673225203414289 0 -0.29562187525892353 0.29578125461450178 0 -0.29245992986284503 0.31418361032420539 0 -0.29042532091793971 0.27856611991701502 0 -0.27740906279776067 0.29103666627902081 0 -0.29562187525892353 0.29578125461450178 0 -0.30623762002181831 0.28109761969070851 0 -0.29042532091793971 0.27856611991701502 0 -0.29562187525892353 0.29578125461450178 0 -0.31282305566356899 0.29425111592644698 0 -0.30623762002181831 0.28109761969070851 0 -0.29562187525892353 0.29578125461450178 0 -0.31549161915838442 0.3116161055637815 0 -0.31282305566356899 0.29425111592644698 0 -0.30363047338892268 0.30736852579649782 0 -0.31282305566356899 0.29425111592644698 0 -0.29562187525892353 0.29578125461450178 0 -0.30363047338892268 0.30736852579649782 0 -0.29562187525892353 0.29578125461450178 0 -0.30363047338892268 0.30736852579649782 0 -0.29245992986284503 0.31418361032420539 0 -0.31549161915838442 0.3116161055637815 0 -0.30363047338892268 0.30736852579649782 0 -0.30900410360489389 0.32971427829790168 0 -0.30900410360489389 0.32971427829790168 0 -0.29245992986284503 0.31418361032420539 0 -0.2903613367575843 0.32726694892948571 0 -0.30363047338892268 0.30736852579649782 0 -0.30900410360489389 0.32971427829790168 0 -0.29245992986284503 0.31418361032420539 0 -0.30900410360489389 0.32971427829790168 0 -0.29439218389858512 0.34019563906556538 0 -0.2903613367575843 0.32726694892948571 0 -0.30900410360489389 0.32971427829790168 0 -0.30739372270134319 0.34419451985642818 0 -0.3173001272913632 0.34267452985038682 0 -0.30900410360489389 0.32971427829790168 0 -0.29439218389858512 0.34019563906556538 0 -0.30739372270134319 0.34419451985642818 0 -0.29439218389858512 0.34019563906556538 0 -0.2903613367575843 0.32726694892948571 0 -0.27651033442219519 0.33302862149431389 0 -0.29439218389858512 0.34019563906556538 0 -0.27651033442219519 0.33302862149431389 0 -0.28334243951230259 0.3449868682262936 0 -0.2903613367575843 0.32726694892948571 0 -0.27944013199940232 0.31921259546544212 0 -0.27651033442219519 0.33302862149431389 0 -0.27823142354435049 0.30673225203414289 0 -0.29245992986284503 0.31418361032420539 0 -0.27944013199940232 0.31921259546544212 0 -0.29245992986284503 0.31418361032420539 0 -0.2903613367575843 0.32726694892948571 0 -0.27944013199940232 0.31921259546544212 0 -0.27944013199940232 0.31921259546544212 0 -0.27651033442219519 0.33302862149431389 0 -0.26521594109948482 0.31623046416797351 0 -0.27823142354435049 0.30673225203414289 0 -0.27944013199940232 0.31921259546544212 0 -0.26521594109948482 0.31623046416797351 0 -0.27651033442219519 0.33302862149431389 0 -0.26067069456868269 0.33180133549005458 0 -0.26521594109948482 0.31623046416797351 0 -0.27651033442219519 0.33302862149431389 0 -0.27061864049115059 0.351370230589096 0 -0.28334243951230259 0.3449868682262936 0 -0.27651033442219519 0.33302862149431389 0 -0.26067069456868269 0.33180133549005458 0 -0.27061864049115059 0.351370230589096 0 -0.26067069456868269 0.33180133549005458 0 -0.27061864049115059 0.351370230589096 0 -0.24938868174502141 0.34738747942199327 0 -0.26067069456868269 0.33180133549005458 0 -0.24938868174502141 0.34738747942199327 0 -0.2451531799809791 0.330223803792838 0 -0.26067069456868269 0.33180133549005458 0 -0.25401802485225888 0.3197267147461782 0 -0.2451531799809791 0.330223803792838 0 -0.25082215645828948 0.30725659750656648 0 -0.25401802485225888 0.3197267147461782 0 -0.26521594109948482 0.31623046416797351 0 -0.25082215645828948 0.30725659750656648 0 -0.25401802485225888 0.3197267147461782 0 -0.24723650295103011 0.31501016826620992 0 -0.26067069456868269 0.33180133549005458 0 -0.25401802485225888 0.3197267147461782 0 -0.26521594109948482 0.31623046416797351 0 -0.25608611531703879 0.36559084292903887 0 -0.26816773020024959 0.37241237148721618 0 -0.26042223072547288 0.38558990368876928 0 -0.25513743600172878 0.37068336237299943 0 -0.25608611531703879 0.36559084292903887 0 -0.24938868174502141 0.34738747942199327 0 -0.25513743600172878 0.37068336237299943 0 -0.25608611531703879 0.36559084292903887 0 -0.26042223072547288 0.38558990368876928 0 -0.25608611531703879 0.36559084292903887 0 -0.26696118377512301 0.36216849765101111 0 -0.26816773020024959 0.37241237148721618 0 -0.27061864049115059 0.351370230589096 0 -0.24938868174502141 0.34738747942199327 0 -0.25608611531703879 0.36559084292903887 0 -0.26696118377512301 0.36216849765101111 0 -0.24938868174502141 0.34738747942199327 0 -0.25513743600172878 0.37068336237299943 0 -0.24938868174502141 0.34738747942199327 0 -0.27061864049115059 0.351370230589096 0 -0.26696118377512301 0.36216849765101111 0 -0.24938868174502141 0.34738747942199327 0 -0.27061864049115059 0.351370230589096 0 -0.29184859923727968 0.35535298175619923 0 -0.27061864049115059 0.351370230589096 0 -0.27939784360223002 0.36429113568460192 0 -0.26696118377512301 0.36216849765101111 0 -0.27061864049115059 0.351370230589096 0 -0.27939784360223002 0.36429113568460192 0 -0.29184859923727968 0.35535298175619923 0 -0.27939784360223002 0.36429113568460192 0 -0.26696118377512301 0.36216849765101111 0 -0.26816773020024959 0.37241237148721618 0 -0.27939784360223002 0.36429113568460192 0 -0.26816773020024959 0.37241237148721618 0 -0.28043391261645428 0.37946787168632901 0 -0.27939784360223002 0.36429113568460192 0 -0.29184859923727968 0.35535298175619923 0 -0.30044559450743491 0.37334583968388541 0 -0.27939784360223002 0.36429113568460192 0 -0.30044559450743491 0.37334583968388541 0 -0.28043391261645428 0.37946787168632901 0 -0.27061864049115059 0.351370230589096 0 -0.28334243951230259 0.3449868682262936 0 -0.29184859923727968 0.35535298175619923 0 -0.29439218389858512 0.34019563906556538 0 -0.28334243951230259 0.3449868682262936 0 -0.29184859923727968 0.35535298175619923 0 -0.29439218389858512 0.34019563906556538 0 -0.29184859923727968 0.35535298175619923 0 -0.3105700751401424 0.35645221454997278 0 -0.29184859923727968 0.35535298175619923 0 -0.3105700751401424 0.35645221454997278 0 -0.31325997337202011 0.35915519561215009 0 -0.29439218389858512 0.34019563906556538 0 -0.3105700751401424 0.35645221454997278 0 -0.29439218389858512 0.34019563906556538 0 -0.3105700751401424 0.35645221454997278 0 -0.30739372270134319 0.34419451985642818 0 -0.29184859923727968 0.35535298175619923 0 -0.31325997337202011 0.35915519561215009 0 -0.3105700751401424 0.35645221454997278 0 -0.31325997337202011 0.35915519561215009 0 -0.3105700751401424 0.35645221454997278 0 -0.30739372270134319 0.34419451985642818 0 -0.31388353019453569 0.34985341089589372 0 -0.30044559450743491 0.37334583968388541 0 -0.32087542327380419 0.36680768469911218 0 -0.29184859923727968 0.35535298175619923 0 -0.30044559450743491 0.37334583968388541 0 -0.31325997337202011 0.35915519561215009 0 -0.30044559450743491 0.37334583968388541 0 -0.32087542327380419 0.36680768469911218 0 -0.31325997337202011 0.35915519561215009 0 -0.30044559450743491 0.37334583968388541 0 -0.32087542327380419 0.36680768469911218 0 -0.31640607848916319 0.37564691192914368 0 -0.32056439436941719 0.36084999907078602 0 -0.32087542327380419 0.36680768469911218 0 -0.31325997337202011 0.35915519561215009 0 -0.32087542327380419 0.36680768469911218 0 -0.31325997337202011 0.35915519561215009 0 -0.32056439436941719 0.36084999907078602 0 -0.32087542327380419 0.36680768469911218 0 -0.32674796638169962 0.37270879003438012 0 -0.32056439436941719 0.36084999907078602 0 -0.32735712554349949 0.36268434494687402 0 -0.32674796638169962 0.37270879003438012 0 -0.32056439436941719 0.36084999907078602 0 -0.32735712554349949 0.36268434494687402 0 -0.32324075254877371 0.35528782925629548 0 -0.32087542327380419 0.36680768469911218 0 -0.32674796638169962 0.37270879003438012 0 -0.31640607848916319 0.37564691192914368 0 -0.32087542327380419 0.36680768469911218 0 -0.32674796638169962 0.37270879003438012 0 -0.32674796638169962 0.37270879003438012 0 -0.33325695529526672 0.36746669880797472 0 -0.33826194868966258 0.37349623452695802 0 -0.33826194868966258 0.37349623452695802 0 -0.34403548547578799 0.36318624740322197 0 -0.3447596177746326 0.38064674330837478 0 -0.32735712554349949 0.36268434494687402 0 -0.32674796638169962 0.37270879003438012 0 -0.33325695529526672 0.36746669880797472 0 -0.32735712554349949 0.36268434494687402 0 -0.33325695529526672 0.36746669880797472 0 -0.33489594447280119 0.36205736098547808 0 -0.32735712554349949 0.36268434494687402 0 -0.33489594447280119 0.36205736098547808 0 -0.33001118896026937 0.3553848431267419 0 -0.33325695529526672 0.36746669880797472 0 -0.33489594447280119 0.36205736098547808 0 -0.33761258348337958 0.36655163543090818 0 -0.33489594447280119 0.36205736098547808 0 -0.33714080258940798 0.35459650970210399 0 -0.34403548547578799 0.36318624740322197 0 -0.33489594447280119 0.36205736098547808 0 -0.33761258348337958 0.36655163543090818 0 -0.34403548547578799 0.36318624740322197 0 -0.33761258348337958 0.36655163543090818 0 -0.33826194868966258 0.37349623452695802 0 -0.34403548547578799 0.36318624740322197 0 -0.33325695529526672 0.36746669880797472 0 -0.33761258348337958 0.36655163543090818 0 -0.33826194868966258 0.37349623452695802 0 -0.34331135317694378 0.34572575149806922 0 -0.33714080258940798 0.35459650970210399 0 -0.34403548547578799 0.36318624740322197 0 -0.34331135317694378 0.34572575149806922 0 -0.34403548547578799 0.36318624740322197 0 -0.34331135317694378 0.34572575149806922 0 -0.33714080258940798 0.35459650970210399 0 -0.33357818660823002 0.34720545507991241 0 -0.33714080258940798 0.35459650970210399 0 -0.33001118896026937 0.3553848431267419 0 -0.33357818660823002 0.34720545507991241 0 -0.33489594447280119 0.36205736098547808 0 -0.33714080258940798 0.35459650970210399 0 -0.33001118896026937 0.3553848431267419 0 -0.33001118896026937 0.3553848431267419 0 -0.33357818660823002 0.34720545507991241 0 -0.32559677058376713 0.34758998122819601 0 -0.32559677058376713 0.34758998122819601 0 -0.31865201436177659 0.35035350795845749 0 -0.3173001272913632 0.34267452985038682 0 -0.32559677058376713 0.34758998122819601 0 -0.32324075254877371 0.35528782925629548 0 -0.31865201436177659 0.35035350795845749 0 -0.32735712554349949 0.36268434494687402 0 -0.33001118896026937 0.3553848431267419 0 -0.32324075254877371 0.35528782925629548 0 -0.33001118896026937 0.3553848431267419 0 -0.32559677058376713 0.34758998122819601 0 -0.32324075254877371 0.35528782925629548 0 -0.32056439436941719 0.36084999907078602 0 -0.32324075254877371 0.35528782925629548 0 -0.31726302147391261 0.35486429920671803 0 -0.3105700751401424 0.35645221454997278 0 -0.32056439436941719 0.36084999907078602 0 -0.31325997337202011 0.35915519561215009 0 -0.3105700751401424 0.35645221454997278 0 -0.32056439436941719 0.36084999907078602 0 -0.31726302147391261 0.35486429920671803 0 -0.31726302147391261 0.35486429920671803 0 -0.31865201436177659 0.35035350795845749 0 -0.31388353019453569 0.34985341089589372 0 -0.32324075254877371 0.35528782925629548 0 -0.31726302147391261 0.35486429920671803 0 -0.31865201436177659 0.35035350795845749 0 -0.3105700751401424 0.35645221454997278 0 -0.31726302147391261 0.35486429920671803 0 -0.31388353019453569 0.34985341089589372 0 -0.30739372270134319 0.34419451985642818 0 -0.31388353019453569 0.34985341089589372 0 -0.3173001272913632 0.34267452985038682 0 -0.31865201436177659 0.35035350795845749 0 -0.31388353019453569 0.34985341089589372 0 -0.3173001272913632 0.34267452985038682 0 -0.30900410360489389 0.32971427829790168 0 -0.3173001272913632 0.34267452985038682 0 -0.33183081773076201 0.33273018984445102 0 -0.30900410360489389 0.32971427829790168 0 -0.33183081773076201 0.33273018984445102 0 -0.32559677058376713 0.34758998122819601 0 -0.3173001272913632 0.34267452985038682 0 -0.33183081773076201 0.33273018984445102 0 -0.30900410360489389 0.32971427829790168 0 -0.32818831953008332 0.31866983670989563 0 -0.33183081773076201 0.33273018984445102 0 -0.33725640904880932 0.307988856090054 0 -0.31549161915838442 0.3116161055637815 0 -0.32818831953008332 0.31866983670989563 0 -0.31549161915838442 0.3116161055637815 0 -0.30900410360489389 0.32971427829790168 0 -0.32818831953008332 0.31866983670989563 0 -0.32818831953008332 0.31866983670989563 0 -0.34350729956515702 0.3190882953123047 0 -0.33183081773076201 0.33273018984445102 0 -0.33725640904880932 0.307988856090054 0 -0.32818831953008332 0.31866983670989563 0 -0.34350729956515702 0.3190882953123047 0 -0.33183081773076201 0.33273018984445102 0 -0.35465753185663002 0.33574610139100192 0 -0.34331135317694378 0.34572575149806922 0 -0.33183081773076201 0.33273018984445102 0 -0.35465753185663002 0.33574610139100192 0 -0.34350729956515702 0.3190882953123047 0 -0.33183081773076201 0.33273018984445102 0 -0.35465753185663002 0.33574610139100192 0 -0.33357818660823002 0.34720545507991241 0 -0.32559677058376713 0.34758998122819601 0 -0.33183081773076201 0.33273018984445102 0 -0.34331135317694378 0.34572575149806922 0 -0.33357818660823002 0.34720545507991241 0 -0.33183081773076201 0.33273018984445102 0 -0.34987919167519133 0.30659530863122458 0 -0.34350729956515702 0.3190882953123047 0 -0.35951062720028087 0.31373064496140179 0 -0.35465753185663002 0.33574610139100192 0 -0.35951062720028087 0.31373064496140179 0 -0.34350729956515702 0.3190882953123047 0 -0.35465753185663002 0.33574610139100192 0 -0.35951062720028087 0.31373064496140179 0 -0.35465753185663002 0.33574610139100192 0 -0.35951062720028087 0.31373064496140179 0 -0.36726733204387851 0.32439139499574871 0 -0.36685557735733498 0.31197196086717432 0 -0.35951062720028087 0.31373064496140179 0 -0.36726733204387851 0.32439139499574871 0 -0.36685557735733498 0.31197196086717432 0 -0.36726733204387851 0.32439139499574871 0 -0.37406976088246752 0.31487651660629618 0 -0.37600153790046992 0.33856611455287222 0 -0.35465753185663002 0.33574610139100192 0 -0.36902635102756842 0.34740155714343701 0 -0.37600153790046992 0.33856611455287222 0 -0.35465753185663002 0.33574610139100192 0 -0.36726733204387851 0.32439139499574871 0 -0.37600153790046992 0.33856611455287222 0 -0.35465753185663002 0.33574610139100192 0 -0.37600153790046992 0.33856611455287222 0 -0.37934864065580282 0.32696515794957332 0 -0.36726733204387851 0.32439139499574871 0 -0.35465753185663002 0.33574610139100192 0 -0.36902635102756842 0.34740155714343701 0 -0.36050357368094132 0.35166726256084452 0 -0.38490491667756072 0.35690605861696312 0 -0.36902635102756842 0.34740155714343701 0 -0.36985304539504033 0.35697347243616012 0 -0.36902635102756842 0.34740155714343701 0 -0.36050357368094132 0.35166726256084452 0 -0.36985304539504033 0.35697347243616012 0 -0.36050357368094132 0.35166726256084452 0 -0.36985304539504033 0.35697347243616012 0 -0.35966679049623618 0.36144437140426378 0 -0.37695531163432172 0.36344163853771733 0 -0.36985304539504033 0.35697347243616012 0 -0.36841413419743602 0.36886247267623928 0 -0.38291935042628078 0.37299561889974409 0 -0.36841413419743602 0.36886247267623928 0 -0.3700479854434211 0.37862834780246279 0 -0.36841413419743602 0.36886247267623928 0 -0.35747772320126558 0.37066760982862262 0 -0.36119030587028728 0.37807133350970829 0 -0.36841413419743602 0.36886247267623928 0 -0.35966679049623618 0.36144437140426378 0 -0.35747772320126558 0.37066760982862262 0 -0.36985304539504033 0.35697347243616012 0 -0.36841413419743602 0.36886247267623928 0 -0.35966679049623618 0.36144437140426378 0 -0.35966679049623618 0.36144437140426378 0 -0.3542720751917206 0.36540647255695408 0 -0.35747772320126558 0.37066760982862262 0 -0.35966679049623618 0.36144437140426378 0 -0.3542720751917206 0.36540647255695408 0 -0.3497085748156315 0.35819642234968829 0 -0.3516747453665755 0.37054862701449842 0 -0.3497085748156315 0.35819642234968829 0 -0.3447596177746326 0.38064674330837478 0 -0.34403548547578799 0.36318624740322197 0 -0.3497085748156315 0.35819642234968829 0 -0.3447596177746326 0.38064674330837478 0 -0.3497085748156315 0.35819642234968829 0 -0.3447596177746326 0.38064674330837478 0 -0.3542720751917206 0.36540647255695408 0 -0.3516747453665755 0.37054862701449842 0 -0.3497085748156315 0.35819642234968829 0 -0.34403548547578799 0.36318624740322197 0 -0.3447596177746326 0.38064674330837478 0 -0.3542720751917206 0.36540647255695408 0 -0.35747772320126558 0.37066760982862262 0 -0.3516747453665755 0.37054862701449842 0 -0.35747772320126558 0.37066760982862262 0 -0.3516747453665755 0.37054862701449842 0 -0.35215573584962678 0.37782588702885223 0 -0.35465753185663002 0.33574610139100192 0 -0.36050357368094132 0.35166726256084452 0 -0.3497085748156315 0.35819642234968829 0 -0.34331135317694378 0.34572575149806922 0 -0.34403548547578799 0.36318624740322197 0 -0.3497085748156315 0.35819642234968829 0 -0.35465753185663002 0.33574610139100192 0 -0.3497085748156315 0.35819642234968829 0 -0.34331135317694378 0.34572575149806922 0 -0.35465753185663002 0.33574610139100192 0 -0.3497085748156315 0.35819642234968829 0 -0.36050357368094132 0.35166726256084452 0 -0.35966679049623618 0.36144437140426378 0 -0.3497085748156315 0.35819642234968829 0 -0.34519935936497342 0.39124992486748827 0 -0.36016427860670258 0.40628762883265568 0 -0.34597128073974182 0.40986272535265988 0 -0.34519935936497342 0.39124992486748827 0 -0.34597128073974182 0.40986272535265988 0 -0.34519935936497342 0.39124992486748827 0 -0.34597128073974182 0.40986272535265988 0 -0.34052587717446819 0.3998525748688645 0 -0.35469916296039078 0.39416541710500103 0 -0.35371837503807912 0.38558590967673673 0 -0.35971463883180887 0.39353820504312348 0 -0.35469916296039078 0.39416541710500103 0 -0.34519935936497342 0.39124992486748827 0 -0.36016427860670258 0.40628762883265568 0 -0.35469916296039078 0.39416541710500103 0 -0.35971463883180887 0.39353820504312348 0 -0.36016427860670258 0.40628762883265568 0 -0.34519935936497342 0.39124992486748827 0 -0.36016427860670258 0.40628762883265568 0 -0.34519935936497342 0.39124992486748827 0 -0.3447596177746326 0.38064674330837478 0 -0.34519935936497342 0.39124992486748827 0 -0.3447596177746326 0.38064674330837478 0 -0.35371837503807912 0.38558590967673673 0 -0.3447596177746326 0.38064674330837478 0 -0.34292585762325722 0.38896536551878708 0 -0.34519935936497342 0.39124992486748827 0 -0.3447596177746326 0.38064674330837478 0 -0.34292585762325722 0.38896536551878708 0 -0.35469916296039078 0.39416541710500103 0 -0.34519935936497342 0.39124992486748827 0 -0.35371837503807912 0.38558590967673673 0 -0.34519935936497342 0.39124992486748827 0 -0.34292585762325722 0.38896536551878708 0 -0.3447596177746326 0.38064674330837478 0 -0.35215573584962678 0.37782588702885223 0 -0.35371837503807912 0.38558590967673673 0 -0.3516747453665755 0.37054862701449842 0 -0.3447596177746326 0.38064674330837478 0 -0.35215573584962678 0.37782588702885223 0 -0.35215573584962678 0.37782588702885223 0 -0.35371837503807912 0.38558590967673673 0 -0.36119030587028728 0.37807133350970829 0 -0.35747772320126558 0.37066760982862262 0 -0.35215573584962678 0.37782588702885223 0 -0.36119030587028728 0.37807133350970829 0 -0.35371837503807912 0.38558590967673673 0 -0.36419725306249712 0.38647189966572848 0 -0.35971463883180887 0.39353820504312348 0 -0.35371837503807912 0.38558590967673673 0 -0.36419725306249712 0.38647189966572848 0 -0.36119030587028728 0.37807133350970829 0 -0.36419725306249712 0.38647189966572848 0 -0.36119030587028728 0.37807133350970829 0 -0.3700479854434211 0.37862834780246279 0 -0.36841413419743602 0.36886247267623928 0 -0.36119030587028728 0.37807133350970829 0 -0.3700479854434211 0.37862834780246279 0 -0.36419725306249712 0.38647189966572848 0 -0.37351888366060432 0.38674041426089339 0 -0.36831997467090732 0.39684498219510739 0 -0.36419725306249712 0.38647189966572848 0 -0.3700479854434211 0.37862834780246279 0 -0.37351888366060432 0.38674041426089339 0 -0.3807228886519915 0.39548605666694842 0 -0.37351888366060432 0.38674041426089339 0 -0.36831997467090732 0.39684498219510739 0 -0.36419725306249712 0.38647189966572848 0 -0.36831997467090732 0.39684498219510739 0 -0.35971463883180887 0.39353820504312348 0 -0.36831997467090732 0.39684498219510739 0 -0.35971463883180887 0.39353820504312348 0 -0.36016427860670258 0.40628762883265568 0 -0.36831997467090732 0.39684498219510739 0 -0.37187472498789442 0.40815864712156008 0 -0.36016427860670258 0.40628762883265568 0 -0.3807228886519915 0.39548605666694842 0 -0.36831997467090732 0.39684498219510739 0 -0.37187472498789442 0.40815864712156008 0 -0.37512919784843002 0.42132533279782503 0 -0.36016427860670258 0.40628762883265568 0 -0.37512919784843002 0.42132533279782503 0 -0.37187472498789442 0.40815864712156008 0 -0.36016427860670258 0.40628762883265568 0 -0.37512919784843002 0.42132533279782503 0 -0.36004681795654009 0.42136961634197528 0 -0.36016427860670258 0.40628762883265568 0 -0.37512919784843002 0.42132533279782503 0 -0.35808616487560269 0.43812560212352097 0 -0.37582399943241629 0.44564771411592752 0 -0.37792500074733981 0.42413473361447018 0 -0.35808616487560269 0.43812560212352097 0 -0.37512919784843002 0.42132533279782503 0 -0.36004681795654009 0.42136961634197528 0 -0.35808616487560269 0.43812560212352097 0 -0.37792500074733981 0.42413473361447018 0 -0.37512919784843002 0.42132533279782503 0 -0.35808616487560269 0.43812560212352097 0 -0.33433391332260198 0.4280529466547297 0 -0.35808616487560269 0.43812560212352097 0 -0.34674320211451098 0.42847552583783161 0 -0.33433391332260198 0.4280529466547297 0 -0.35808616487560269 0.43812560212352097 0 -0.36004681795654009 0.42136961634197528 0 -0.34674320211451098 0.42847552583783161 0 -0.35808616487560269 0.43812560212352097 0 -0.36004681795654009 0.42136961634197528 0 -0.34674320211451098 0.42847552583783161 0 -0.35323139485437388 0.41649887409128061 0 -0.34674320211451098 0.42847552583783161 0 -0.35323139485437388 0.41649887409128061 0 -0.34597128073974182 0.40986272535265988 0 -0.34674320211451098 0.42847552583783161 0 -0.34597128073974182 0.40986272535265988 0 -0.34674320211451098 0.42847552583783161 0 -0.34597128073974182 0.40986272535265988 0 -0.33881810191409167 0.4173379624740437 0 -0.36016427860670258 0.40628762883265568 0 -0.35323139485437388 0.41649887409128061 0 -0.34597128073974182 0.40986272535265988 0 -0.36004681795654009 0.42136961634197528 0 -0.36016427860670258 0.40628762883265568 0 -0.35323139485437388 0.41649887409128061 0 -0.34597128073974182 0.40986272535265988 0 -0.3371603598164844 0.40817362999889689 0 -0.33881810191409167 0.4173379624740437 0 -0.33881810191409167 0.4173379624740437 0 -0.32966386856920538 0.41224757202045081 0 -0.33433391332260198 0.4280529466547297 0 -0.3371603598164844 0.40817362999889689 0 -0.32966386856920538 0.41224757202045081 0 -0.33038690066908682 0.40181249026716631 0 -0.3371603598164844 0.40817362999889689 0 -0.33881810191409167 0.4173379624740437 0 -0.32966386856920538 0.41224757202045081 0 -0.34674320211451098 0.42847552583783161 0 -0.33881810191409167 0.4173379624740437 0 -0.33433391332260198 0.4280529466547297 0 -0.33433391332260198 0.4280529466547297 0 -0.31058166176960261 0.41798029118593549 0 -0.33433391332260198 0.4280529466547297 0 -0.31058166176960261 0.41798029118593549 0 -0.32155092574148569 0.44164832770783469 0 -0.32966386856920538 0.41224757202045081 0 -0.31806597580125451 0.40595503618750989 0 -0.31058166176960261 0.41798029118593549 0 -0.32966386856920538 0.41224757202045081 0 -0.33433391332260198 0.4280529466547297 0 -0.31058166176960261 0.41798029118593549 0 -0.32966386856920538 0.41224757202045081 0 -0.31806597580125451 0.40595503618750989 0 -0.33038690066908682 0.40181249026716631 0 -0.31806597580125451 0.40595503618750989 0 -0.32273489077651668 0.39187012392478271 0 -0.30703800012477622 0.3987099774337996 0 -0.32273489077651668 0.39187012392478271 0 -0.31211753112487811 0.38341396385521592 0 -0.30703800012477622 0.3987099774337996 0 -0.31806597580125451 0.40595503618750989 0 -0.32273489077651668 0.39187012392478271 0 -0.33038690066908682 0.40181249026716631 0 -0.32273489077651668 0.39187012392478271 0 -0.33038690066908682 0.40181249026716631 0 -0.33395254686867781 0.39289859209684391 0 -0.33038690066908682 0.40181249026716631 0 -0.33395254686867781 0.39289859209684391 0 -0.34052587717446819 0.3998525748688645 0 -0.34519935936497342 0.39124992486748827 0 -0.34052587717446819 0.3998525748688645 0 -0.34292585762325722 0.38896536551878708 0 -0.34052587717446819 0.3998525748688645 0 -0.34292585762325722 0.38896536551878708 0 -0.33395254686867781 0.39289859209684391 0 -0.34052587717446819 0.3998525748688645 0 -0.34292585762325722 0.38896536551878708 0 -0.3371603598164844 0.40817362999889689 0 -0.33038690066908682 0.40181249026716631 0 -0.34052587717446819 0.3998525748688645 0 -0.34597128073974182 0.40986272535265988 0 -0.3371603598164844 0.40817362999889689 0 -0.34052587717446819 0.3998525748688645 0 -0.32674796638169962 0.37270879003438012 0 -0.34292585762325722 0.38896536551878708 0 -0.32674796638169962 0.37270879003438012 0 -0.34292585762325722 0.38896536551878708 0 -0.32989075269106682 0.38541218107038028 0 -0.32674796638169962 0.37270879003438012 0 -0.33826194868966258 0.37349623452695802 0 -0.34292585762325722 0.38896536551878708 0 -0.33826194868966258 0.37349623452695802 0 -0.3447596177746326 0.38064674330837478 0 -0.34292585762325722 0.38896536551878708 0 -0.33395254686867781 0.39289859209684391 0 -0.34292585762325722 0.38896536551878708 0 -0.32989075269106682 0.38541218107038028 0 -0.32273489077651668 0.39187012392478271 0 -0.33395254686867781 0.39289859209684391 0 -0.32989075269106682 0.38541218107038028 0 -0.32674796638169962 0.37270879003438012 0 -0.32989075269106682 0.38541218107038028 0 -0.32226202403338811 0.38154215839079553 0 -0.32674796638169962 0.37270879003438012 0 -0.32226202403338811 0.38154215839079553 0 -0.31640607848916319 0.37564691192914368 0 -0.32273489077651668 0.39187012392478271 0 -0.32989075269106682 0.38541218107038028 0 -0.32226202403338811 0.38154215839079553 0 -0.32273489077651668 0.39187012392478271 0 -0.32226202403338811 0.38154215839079553 0 -0.31211753112487811 0.38341396385521592 0 -0.32226202403338811 0.38154215839079553 0 -0.31640607848916319 0.37564691192914368 0 -0.31211753112487811 0.38341396385521592 0 -0.31211753112487811 0.38341396385521592 0 -0.30703800012477622 0.3987099774337996 0 -0.29397436642722202 0.3891182926811666 0 -0.30044559450743491 0.37334583968388541 0 -0.31211753112487811 0.38341396385521592 0 -0.29397436642722202 0.3891182926811666 0 -0.30044559450743491 0.37334583968388541 0 -0.31640607848916319 0.37564691192914368 0 -0.31211753112487811 0.38341396385521592 0 -0.29397436642722202 0.3891182926811666 0 -0.27698174997318559 0.39186446771062872 0 -0.28682941021660319 0.40790763571714128 0 -0.30703800012477622 0.3987099774337996 0 -0.29397436642722202 0.3891182926811666 0 -0.28682941021660319 0.40790763571714128 0 -0.30044559450743491 0.37334583968388541 0 -0.28043391261645428 0.37946787168632901 0 -0.29397436642722202 0.3891182926811666 0 -0.28043391261645428 0.37946787168632901 0 -0.27698174997318559 0.39186446771062872 0 -0.30044559450743491 0.37334583968388541 0 -0.29397436642722202 0.3891182926811666 0 -0.28043391261645428 0.37946787168632901 0 -0.28043391261645428 0.37946787168632901 0 -0.27698174997318559 0.39186446771062872 0 -0.26042223072547288 0.38558990368876928 0 -0.28043391261645428 0.37946787168632901 0 -0.26042223072547288 0.38558990368876928 0 -0.26816773020024959 0.37241237148721618 0 -0.28043391261645428 0.37946787168632901 0 -0.26042223072547288 0.38558990368876928 0 -0.27698174997318559 0.39186446771062872 0 -0.26307715866360409 0.39783498024834629 0 -0.28682941021660319 0.40790763571714128 0 -0.26307715866360409 0.39783498024834629 0 -0.28682941021660319 0.40790763571714128 0 -0.27698174997318559 0.39186446771062872 0 -0.26307715866360409 0.39783498024834629 0 -0.26042223072547288 0.38558990368876928 0 -0.26307715866360409 0.39783498024834629 0 -0.26042223072547288 0.38558990368876928 0 -0.26307715866360409 0.39783498024834629 0 -0.24519033963232431 0.39024968817055461 0 -0.24751095862731329 0.4055462583146513 0 -0.26307715866360409 0.39783498024834629 0 -0.26042223072547288 0.38558990368876928 0 -0.24519033963232431 0.39024968817055461 0 -0.26307715866360409 0.39783498024834629 0 -0.24519033963232431 0.39024968817055461 0 -0.25608611531703879 0.36559084292903887 0 -0.26042223072547288 0.38558990368876928 0 -0.26042223072547288 0.38558990368876928 0 -0.24519033963232431 0.39024968817055461 0 -0.2510571553639972 0.38087810156707769 0 -0.26042223072547288 0.38558990368876928 0 -0.24519033963232431 0.39024968817055461 0 -0.25513743600172878 0.37068336237299943 0 -0.2510571553639972 0.38087810156707769 0 -0.26042223072547288 0.38558990368876928 0 -0.25366422526113502 0.41730045962228268 0 -0.26811010713908578 0.421047979184201 0 -0.24942093582390021 0.43246866009568108 0 -0.26811010713908578 0.421047979184201 0 -0.27314305561456592 0.44426097812005599 0 -0.24942093582390021 0.43246866009568108 0 -0.26307715866360409 0.39783498024834629 0 -0.26811010713908578 0.421047979184201 0 -0.26307715866360409 0.39783498024834629 0 -0.25366422526113502 0.41730045962228268 0 -0.26811010713908578 0.421047979184201 0 -0.26307715866360409 0.39783498024834629 0 -0.25366422526113502 0.41730045962228268 0 -0.24751095862731329 0.4055462583146513 0 -0.26307715866360409 0.39783498024834629 0 -0.26811010713908578 0.421047979184201 0 -0.28682941021660319 0.40790763571714128 0 -0.26811010713908578 0.421047979184201 0 -0.2873841096964932 0.43047803203835749 0 -0.28682941021660319 0.40790763571714128 0 -0.26811010713908578 0.421047979184201 0 -0.2873841096964932 0.43047803203835749 0 -0.27314305561456592 0.44426097812005599 0 -0.26811010713908578 0.421047979184201 0 -0.27314305561456592 0.44426097812005599 0 -0.2873841096964932 0.43047803203835749 0 -0.28682941021660319 0.40790763571714128 0 -0.31058166176960261 0.41798029118593549 0 -0.30703800012477622 0.3987099774337996 0 -0.28682941021660319 0.40790763571714128 0 -0.31058166176960261 0.41798029118593549 0 -0.28682941021660319 0.40790763571714128 0 -0.31058166176960261 0.41798029118593549 0 -0.31806597580125451 0.40595503618750989 0 -0.30703800012477622 0.3987099774337996 0 -0.31058166176960261 0.41798029118593549 0 -0.2873841096964932 0.43047803203835749 0 -0.31058166176960261 0.41798029118593549 0 -0.30117306941298189 0.44124895540324571 0 -0.31058166176960261 0.41798029118593549 0 -0.30117306941298189 0.44124895540324571 0 -0.32155092574148569 0.44164832770783469 0 -0.30117306941298189 0.44124895540324571 0 -0.31088175624190129 0.45592816314251777 0 -0.32155092574148569 0.44164832770783469 0 -0.30117306941298189 0.44124895540324571 0 -0.31088175624190129 0.45592816314251777 0 -0.29698492980220709 0.45518619030609631 0 -0.31088175624190129 0.45592816314251777 0 -0.29993700327738171 0.46565280813240351 0 -0.32104894682745949 0.47463525620183661 0 -0.31088175624190129 0.45592816314251777 0 -0.29698492980220709 0.45518619030609631 0 -0.29993700327738171 0.46565280813240351 0 -0.28846546605265089 0.46267867223274811 0 -0.28604239743702342 0.45031969015689749 0 -0.27817600409004362 0.46747397705591159 0 -0.29698492980220709 0.45518619030609631 0 -0.29993700327738171 0.46565280813240351 0 -0.28846546605265089 0.46267867223274811 0 -0.29993700327738171 0.46565280813240351 0 -0.28846546605265089 0.46267867223274811 0 -0.29005634726642238 0.47421521102366271 0 -0.29698492980220709 0.45518619030609631 0 -0.28846546605265089 0.46267867223274811 0 -0.28604239743702342 0.45031969015689749 0 -0.28846546605265089 0.46267867223274811 0 -0.27817600409004362 0.46747397705591159 0 -0.29005634726642238 0.47421521102366271 0 -0.28846546605265089 0.46267867223274811 0 -0.27817600409004362 0.46747397705591159 0 -0.2873841096964932 0.43047803203835749 0 -0.30117306941298189 0.44124895540324571 0 -0.28604239743702342 0.45031969015689749 0 -0.2873841096964932 0.43047803203835749 0 -0.28604239743702342 0.45031969015689749 0 -0.27314305561456592 0.44426097812005599 0 -0.30117306941298189 0.44124895540324571 0 -0.29698492980220709 0.45518619030609631 0 -0.28604239743702342 0.45031969015689749 0 -0.27314305561456592 0.44426097812005599 0 -0.27817600409004362 0.46747397705591159 0 -0.2527984548475557 0.45476999327527351 0 -0.28604239743702342 0.45031969015689749 0 -0.27314305561456592 0.44426097812005599 0 -0.27817600409004362 0.46747397705591159 0 -0.27314305561456592 0.44426097812005599 0 -0.27817600409004362 0.46747397705591159 0 -0.27817600409004362 0.46747397705591159 0 -0.2527984548475557 0.45476999327527351 0 -0.25491190943774428 0.47831598470393971 0 -0.27314305561456592 0.44426097812005599 0 -0.2527984548475557 0.45476999327527351 0 -0.24942093582390021 0.43246866009568108 0 -0.25961334986895179 0.5 0 -0.26773957583034069 0.48684570990002368 0 -0.24680594243500059 0.49154730911233863 0 -0.25491190943774428 0.47831598470393971 0 -0.26773957583034069 0.48684570990002368 0 -0.24680594243500059 0.49154730911233863 0 -0.27817600409004362 0.46747397705591159 0 -0.28170208441345052 0.48373698852795338 0 -0.27817600409004362 0.46747397705591159 0 -0.25491190943774428 0.47831598470393971 0 -0.27817600409004362 0.46747397705591159 0 -0.26773957583034069 0.48684570990002368 0 -0.28170208441345052 0.48373698852795338 0 -0.27817600409004362 0.46747397705591159 0 -0.25491190943774428 0.47831598470393971 0 -0.26773957583034069 0.48684570990002368 0 -0.25961334986895179 0.5 0 -0.26773957583034069 0.48684570990002368 0 -0.2852281647368542 0.49999999999999578 0 -0.26773957583034069 0.48684570990002368 0 -0.2852281647368542 0.49999999999999578 0 -0.28170208441345052 0.48373698852795338 0 -0.2852281647368542 0.49999999999999578 0 -0.28170208441345052 0.48373698852795338 0 -0.2852281647368542 0.49999999999999578 0 -0.29241554216441312 0.48712643818909501 0 -0.28170208441345052 0.48373698852795338 0 -0.2852281647368542 0.49999999999999578 0 -0.29241554216441312 0.48712643818909501 0 -0.30088015944300289 0.49451675620079638 0 -0.27817600409004362 0.46747397705591159 0 -0.28170208441345052 0.48373698852795338 0 -0.29005634726642238 0.47421521102366271 0 -0.29241554216441312 0.48712643818909501 0 -0.28170208441345052 0.48373698852795338 0 -0.29005634726642238 0.47421521102366271 0 -0.29241554216441312 0.48712643818909501 0 -0.29005634726642238 0.47421521102366271 0 -0.29964198360059258 0.47862238200386498 0 -0.29993700327738171 0.46565280813240351 0 -0.29005634726642238 0.47421521102366271 0 -0.29964198360059258 0.47862238200386498 0 -0.29993700327738171 0.46565280813240351 0 -0.29964198360059258 0.47862238200386498 0 -0.32104894682745949 0.47463525620183661 0 -0.29964198360059258 0.47862238200386498 0 -0.30088015944300289 0.49451675620079638 0 -0.32104894682745949 0.47463525620183661 0 -0.30088015944300289 0.49451675620079638 0 -0.31401349829047459 0.5 0 -0.32104894682745949 0.47463525620183661 0 -0.2852281647368542 0.49999999999999578 0 -0.30088015944300289 0.49451675620079638 0 -0.31401349829047459 0.5 0 -0.29241554216441312 0.48712643818909501 0 -0.29964198360059258 0.47862238200386498 0 -0.30088015944300289 0.49451675620079638 0 -0.30088015944300289 0.49451675620079638 0 -0.32104894682745949 0.47463525620183661 0 -0.31401349829047459 0.5 0 -0.3298769779047161 0.48819858079336381 0 -0.32104894682745949 0.47463525620183661 0 -0.3427988318440951 0.5 0 -0.3298769779047161 0.48819858079336381 0 -0.34164663465683531 0.47815906697161847 0 -0.31401349829047459 0.5 0 -0.3427988318440951 0.5 0 -0.3298769779047161 0.48819858079336381 0 -0.3298769779047161 0.48819858079336381 0 -0.34164663465683531 0.47815906697161847 0 -0.32104894682745949 0.47463525620183661 0 -0.34164663465683531 0.47815906697161847 0 -0.32104894682745949 0.47463525620183661 0 -0.34121773421191592 0.45475375620287672 0 -0.31088175624190129 0.45592816314251777 0 -0.32104894682745949 0.47463525620183661 0 -0.32367484075569058 0.4567413758137665 0 -0.31088175624190129 0.45592816314251777 0 -0.32367484075569058 0.4567413758137665 0 -0.32155092574148569 0.44164832770783469 0 -0.32155092574148569 0.44164832770783469 0 -0.34121773421191592 0.45475375620287672 0 -0.33433391332260198 0.4280529466547297 0 -0.32155092574148569 0.44164832770783469 0 -0.34121773421191592 0.45475375620287672 0 -0.32367484075569058 0.4567413758137665 0 -0.32155092574148569 0.44164832770783469 0 -0.34121773421191592 0.45475375620287672 0 -0.32104894682745949 0.47463525620183661 0 -0.34121773421191592 0.45475375620287672 0 -0.32104894682745949 0.47463525620183661 0 -0.32367484075569058 0.4567413758137665 0 -0.34121773421191592 0.45475375620287672 0 -0.34121773421191592 0.45475375620287672 0 -0.35704610948332027 0.46530135677690698 0 -0.36130465001936363 0.45291535299053171 0 -0.34121773421191592 0.45475375620287672 0 -0.35704610948332027 0.46530135677690698 0 -0.34164663465683531 0.47815906697161847 0 -0.34121773421191592 0.45475375620287672 0 -0.35704610948332027 0.46530135677690698 0 -0.34121773421191592 0.45475375620287672 0 -0.35808616487560269 0.43812560212352097 0 -0.36130465001936363 0.45291535299053171 0 -0.33433391332260198 0.4280529466547297 0 -0.34121773421191592 0.45475375620287672 0 -0.35808616487560269 0.43812560212352097 0 -0.34121773421191592 0.45475375620287672 0 -0.35808616487560269 0.43812560212352097 0 -0.37582399943241629 0.44564771411592752 0 -0.35808616487560269 0.43812560212352097 0 -0.36130465001936363 0.45291535299053171 0 -0.37582399943241629 0.44564771411592752 0 -0.35808616487560269 0.43812560212352097 0 -0.37582399943241629 0.44564771411592752 0 -0.36130465001936363 0.45291535299053171 0 -0.37434924209356119 0.46074833573343188 0 -0.35704610948332027 0.46530135677690698 0 -0.36130465001936363 0.45291535299053171 0 -0.37434924209356119 0.46074833573343188 0 -0.35704610948332027 0.46530135677690698 0 -0.37434924209356119 0.46074833573343188 0 -0.37287448475472412 0.47584895735093802 0 -0.37434924209356119 0.46074833573343188 0 -0.37287448475472412 0.47584895735093802 0 -0.35704610948332027 0.46530135677690698 0 -0.37287448475472412 0.47584895735093802 0 -0.35704610948332027 0.46530135677690698 0 -0.37287448475472412 0.47584895735093802 0 -0.35936202050693622 0.4839300090744344 0 -0.37287448475472412 0.47584895735093802 0 -0.37168132825398981 0.48806615700376049 0 -0.37287448475472412 0.47584895735093802 0 -0.37168132825398981 0.48806615700376049 0 -0.35936202050693622 0.4839300090744344 0 -0.37158416539771549 0.5 0 -0.37168132825398981 0.48806615700376049 0 -0.35936202050693622 0.4839300090744344 0 -0.3427988318440951 0.5 0 -0.34164663465683531 0.47815906697161847 0 -0.35936202050693622 0.4839300090744344 0 -0.3427988318440951 0.5 0 -0.37158416539771549 0.5 0 -0.35936202050693622 0.4839300090744344 0 -0.34164663465683531 0.47815906697161847 0 -0.35704610948332027 0.46530135677690698 0 -0.35936202050693622 0.4839300090744344 0 -0.138942231070775 0.48447267014090178 0 -0.13625357232312629 0.46381464741799988 0 -0.16235358266841551 0.47468196523381401 0 -0.1528305288832493 0.5 0 -0.138942231070775 0.48447267014090178 0 -0.16235358266841551 0.47468196523381401 0 -0.1528305288832493 0.5 0 -0.138942231070775 0.48447267014090178 0 -0.1250539332583005 0.5 0 -0.138942231070775 0.48447267014090178 0 -0.1250539332583005 0.5 0 -0.1111439796713484 0.47585227863606272 0 -0.138942231070775 0.48447267014090178 0 -0.13625357232312629 0.46381464741799988 0 -0.1111439796713484 0.47585227863606272 0 -0.13625357232312629 0.46381464741799988 0 -0.13653170374439841 0.44473011964112202 0 -0.1195037747543428 0.45466364534398118 0 -0.13653170374439841 0.44473011964112202 0 -0.1197819061756151 0.4355791175671036 0 -0.1195037747543428 0.45466364534398118 0 -0.13625357232312629 0.46381464741799988 0 -0.13653170374439841 0.44473011964112202 0 -0.15647698963696191 0.44751655951707858 0 -0.13653170374439841 0.44473011964112202 0 -0.15647698963696191 0.44751655951707858 0 -0.14111820654548951 0.42482867821219639 0 -0.13625357232312629 0.46381464741799988 0 -0.15647698963696191 0.44751655951707858 0 -0.16235358266841551 0.47468196523381401 0 -0.15647698963696191 0.44751655951707858 0 -0.18412151213304959 0.45092913181606359 0 -0.16235358266841551 0.47468196523381401 0 -0.15647698963696191 0.44751655951707858 0 -0.18412151213304959 0.45092913181606359 0 -0.16769775208292989 0.42746010418096048 0 -0.18412151213304959 0.45092913181606359 0 -0.16235358266841551 0.47468196523381401 0 -0.1890457276332129 0.47847482603549851 0 -0.1528305288832493 0.5 0 -0.16235358266841551 0.47468196523381401 0 -0.18060712450819799 0.5 0 -0.16235358266841551 0.47468196523381401 0 -0.18060712450819799 0.5 0 -0.1890457276332129 0.47847482603549851 0 -0.20838372013314671 0.49999999999999828 0 -0.23164781478544519 0.48915799235196827 0 -0.20976269872325479 0.46676303312761491 0 -0.18060712450819799 0.5 0 -0.1890457276332129 0.47847482603549851 0 -0.20838372013314671 0.49999999999999828 0 -0.1890457276332129 0.47847482603549851 0 -0.20838372013314671 0.49999999999999828 0 -0.20976269872325479 0.46676303312761491 0 -0.20838372013314671 0.49999999999999828 0 -0.23164781478544519 0.48915799235196827 0 -0.20838372013314671 0.49999999999999828 0 -0.2339985350010492 0.5 0 -0.23164781478544519 0.48915799235196827 0 -0.23164781478544519 0.48915799235196827 0 -0.23252187616178699 0.46433752233840619 0 -0.20976269872325479 0.46676303312761491 0 -0.25491190943774428 0.47831598470393971 0 -0.23164781478544519 0.48915799235196827 0 -0.25491190943774428 0.47831598470393971 0 -0.23164781478544519 0.48915799235196827 0 -0.23252187616178699 0.46433752233840619 0 -0.25961334986895179 0.5 0 -0.2339985350010492 0.5 0 -0.24680594243500059 0.49154730911233863 0 -0.25491190943774428 0.47831598470393971 0 -0.23164781478544519 0.48915799235196827 0 -0.24680594243500059 0.49154730911233863 0 -0.2339985350010492 0.5 0 -0.23164781478544519 0.48915799235196827 0 -0.24680594243500059 0.49154730911233863 0 -0.2527984548475557 0.45476999327527351 0 -0.2286169479572937 0.44176283733764682 0 -0.24942093582390021 0.43246866009568108 0 -0.2527984548475557 0.45476999327527351 0 -0.25491190943774428 0.47831598470393971 0 -0.23252187616178699 0.46433752233840619 0 -0.2527984548475557 0.45476999327527351 0 -0.23252187616178699 0.46433752233840619 0 -0.2286169479572937 0.44176283733764682 0 -0.23252187616178699 0.46433752233840619 0 -0.21882451630746999 0.4539466897030614 0 -0.20976269872325479 0.46676303312761491 0 -0.23252187616178699 0.46433752233840619 0 -0.21882451630746999 0.4539466897030614 0 -0.2286169479572937 0.44176283733764682 0 -0.21882451630746999 0.4539466897030614 0 -0.2286169479572937 0.44176283733764682 0 -0.20439654238754459 0.4429233660085779 0 -0.21882451630746999 0.4539466897030614 0 -0.20439654238754459 0.4429233660085779 0 -0.20976269872325479 0.46676303312761491 0 -0.18412151213304959 0.45092913181606359 0 -0.1890457276332129 0.47847482603549851 0 -0.20976269872325479 0.46676303312761491 0 -0.18412151213304959 0.45092913181606359 0 -0.20439654238754459 0.4429233660085779 0 -0.20976269872325479 0.46676303312761491 0 -0.18412151213304959 0.45092913181606359 0 -0.20439654238754459 0.4429233660085779 0 -0.19339903836805869 0.42447658022663942 0 -0.19339903836805869 0.42447658022663942 0 -0.1938177966866618 0.40596572611647358 0 -0.17727141269942101 0.40911927427158962 0 -0.19339903836805869 0.42447658022663942 0 -0.20987222857522819 0.41226289546222339 0 -0.1938177966866618 0.40596572611647358 0 -0.19339903836805869 0.42447658022663942 0 -0.20987222857522819 0.41226289546222339 0 -0.2157397405852903 0.42612151122116992 0 -0.20987222857522819 0.41226289546222339 0 -0.2157397405852903 0.42612151122116992 0 -0.22514793222406601 0.41353484758448339 0 -0.20987222857522819 0.41226289546222339 0 -0.22514793222406601 0.41353484758448339 0 -0.2195040681594935 0.39810770714351529 0 -0.2286169479572937 0.44176283733764682 0 -0.20439654238754459 0.4429233660085779 0 -0.2157397405852903 0.42612151122116992 0 -0.20439654238754459 0.4429233660085779 0 -0.19339903836805869 0.42447658022663942 0 -0.2157397405852903 0.42612151122116992 0 -0.2286169479572937 0.44176283733764682 0 -0.2157397405852903 0.42612151122116992 0 -0.23055972152786081 0.42669608081385207 0 -0.2157397405852903 0.42612151122116992 0 -0.23055972152786081 0.42669608081385207 0 -0.22514793222406601 0.41353484758448339 0 -0.22514793222406601 0.41353484758448339 0 -0.23987090378071221 0.41672215161494558 0 -0.23571419994201731 0.40414668753024902 0 -0.23055972152786081 0.42669608081385207 0 -0.22514793222406601 0.41353484758448339 0 -0.23987090378071221 0.41672215161494558 0 -0.23987090378071221 0.41672215161494558 0 -0.24751095862731329 0.4055462583146513 0 -0.23571419994201731 0.40414668753024902 0 -0.25366422526113502 0.41730045962228268 0 -0.23987090378071221 0.41672215161494558 0 -0.24751095862731329 0.4055462583146513 0 -0.25366422526113502 0.41730045962228268 0 -0.23987090378071221 0.41672215161494558 0 -0.24942093582390021 0.43246866009568108 0 -0.2286169479572937 0.44176283733764682 0 -0.23055972152786081 0.42669608081385207 0 -0.24942093582390021 0.43246866009568108 0 -0.23055972152786081 0.42669608081385207 0 -0.23987090378071221 0.41672215161494558 0 -0.24942093582390021 0.43246866009568108 0 -0.24347861509646249 0.37698945203598899 0 -0.24519033963232431 0.39024968817055461 0 -0.23057772106406141 0.38405289154238492 0 -0.24519033963232431 0.39024968817055461 0 -0.23057772106406141 0.38405289154238492 0 -0.23485332728865579 0.37561931773976881 0 -0.24347861509646249 0.37698945203598899 0 -0.23057772106406141 0.38405289154238492 0 -0.2510571553639972 0.38087810156707769 0 -0.24347861509646249 0.37698945203598899 0 -0.24519033963232431 0.39024968817055461 0 -0.25513743600172878 0.37068336237299943 0 -0.2510571553639972 0.38087810156707769 0 -0.24347861509646249 0.37698945203598899 0 -0.24519033963232431 0.39024968817055461 0 -0.24751095862731329 0.4055462583146513 0 -0.23571419994201731 0.40414668753024902 0 -0.24519033963232431 0.39024968817055461 0 -0.2195040681594935 0.39810770714351529 0 -0.22514793222406601 0.41353484758448339 0 -0.23571419994201731 0.40414668753024902 0 -0.2195040681594935 0.39810770714351529 0 -0.24519033963232431 0.39024968817055461 0 -0.2195040681594935 0.39810770714351529 0 -0.23057772106406141 0.38405289154238492 0 -0.24519033963232431 0.39024968817055461 0 -0.23571419994201731 0.40414668753024902 0 -0.2195040681594935 0.39810770714351529 0 -0.22042197003950531 0.38924114828972062 0 -0.2201391810212516 0.38342955769447967 0 -0.23057772106406141 0.38405289154238492 0 -0.2195040681594935 0.39810770714351529 0 -0.22042197003950531 0.38924114828972062 0 -0.23057772106406141 0.38405289154238492 0 -0.22042197003950531 0.38924114828972062 0 -0.2201391810212516 0.38342955769447967 0 -0.2168148767670586 0.38495212803489948 0 -0.23485332728865579 0.37561931773976881 0 -0.23057772106406141 0.38405289154238492 0 -0.22734931244881801 0.37297605980961662 0 -0.23057772106406141 0.38405289154238492 0 -0.2159651024957977 0.37785609491421718 0 -0.23057772106406141 0.38405289154238492 0 -0.2159651024957977 0.37785609491421718 0 -0.22734931244881801 0.37297605980961662 0 -0.2201391810212516 0.38342955769447967 0 -0.23057772106406141 0.38405289154238492 0 -0.2159651024957977 0.37785609491421718 0 -0.2159651024957977 0.37785609491421718 0 -0.21490349070545581 0.3806128508915132 0 -0.19252705290990679 0.36791668357830998 0 -0.21490349070545581 0.3806128508915132 0 -0.21691623473983529 0.38104552569117639 0 -0.2168148767670586 0.38495212803489948 0 -0.2201391810212516 0.38342955769447967 0 -0.2159651024957977 0.37785609491421718 0 -0.21691623473983529 0.38104552569117639 0 -0.21490349070545581 0.3806128508915132 0 -0.21691623473983529 0.38104552569117639 0 -0.2159651024957977 0.37785609491421718 0 -0.21490349070545581 0.3806128508915132 0 -0.21691623473983529 0.38104552569117639 0 -0.2159651024957977 0.37785609491421718 0 -0.21490349070545581 0.3806128508915132 0 -0.21490349070545581 0.3806128508915132 0 -0.2115099245123403 0.38942514364526087 0 -0.2201391810212516 0.38342955769447967 0 -0.21691623473983529 0.38104552569117639 0 -0.2168148767670586 0.38495212803489948 0 -0.22042197003950531 0.38924114828972062 0 -0.2168148767670586 0.38495212803489948 0 -0.2115099245123403 0.38942514364526087 0 -0.21490349070545581 0.3806128508915132 0 -0.2115099245123403 0.38942514364526087 0 -0.20809119598219469 0.38467011685021169 0 -0.21490349070545581 0.3806128508915132 0 -0.2168148767670586 0.38495212803489948 0 -0.2115099245123403 0.38942514364526087 0 -0.2115099245123403 0.38942514364526087 0 -0.20495192287367611 0.38632741373853668 0 -0.19988382976124239 0.39192610164908631 0 -0.2115099245123403 0.38942514364526087 0 -0.20809119598219469 0.38467011685021169 0 -0.20495192287367611 0.38632741373853668 0 -0.20809119598219469 0.38467011685021169 0 -0.20495192287367611 0.38632741373853668 0 -0.20099944583730661 0.38231505912553609 0 -0.21490349070545581 0.3806128508915132 0 -0.20809119598219469 0.38467011685021169 0 -0.20099944583730661 0.38231505912553609 0 -0.2195040681594935 0.39810770714351529 0 -0.19988382976124239 0.39192610164908631 0 -0.1938177966866618 0.40596572611647358 0 -0.2195040681594935 0.39810770714351529 0 -0.2115099245123403 0.38942514364526087 0 -0.19988382976124239 0.39192610164908631 0 -0.20987222857522819 0.41226289546222339 0 -0.2195040681594935 0.39810770714351529 0 -0.1938177966866618 0.40596572611647358 0 -0.2195040681594935 0.39810770714351529 0 -0.1938177966866618 0.40596572611647358 0 -0.2195040681594935 0.39810770714351529 0 -0.22042197003950531 0.38924114828972062 0 -0.2115099245123403 0.38942514364526087 0 -0.19988382976124239 0.39192610164908631 0 -0.1938177966866618 0.40596572611647358 0 -0.18571026938573759 0.39413682918676329 0 -0.21490349070545581 0.3806128508915132 0 -0.20099944583730661 0.38231505912553609 0 -0.18671134103000711 0.37455245150414379 0 -0.21490349070545581 0.3806128508915132 0 -0.18671134103000711 0.37455245150414379 0 -0.19988382976124239 0.39192610164908631 0 -0.20099944583730661 0.38231505912553609 0 -0.19093697341784829 0.38521640862080542 0 -0.20495192287367611 0.38632741373853668 0 -0.19988382976124239 0.39192610164908631 0 -0.20099944583730661 0.38231505912553609 0 -0.19988382976124239 0.39192610164908631 0 -0.19093697341784829 0.38521640862080542 0 -0.18571026938573759 0.39413682918676329 0 -0.20099944583730661 0.38231505912553609 0 -0.19093697341784829 0.38521640862080542 0 -0.18671134103000711 0.37455245150414379 0 -0.18083371065543441 0.38536597396341649 0 -0.17036481392393391 0.38058526880823412 0 -0.18671134103000711 0.37455245150414379 0 -0.19093697341784829 0.38521640862080542 0 -0.18083371065543441 0.38536597396341649 0 -0.18671134103000711 0.37455245150414379 0 -0.19093697341784829 0.38521640862080542 0 -0.18083371065543441 0.38536597396341649 0 -0.18571026938573759 0.39413682918676329 0 -0.18083371065543441 0.38536597396341649 0 -0.17036481392393391 0.38058526880823412 0 -0.17044515551964479 0.39233891169713597 0 -0.18083371065543441 0.38536597396341649 0 -0.17044515551964479 0.39233891169713597 0 -0.18571026938573759 0.39413682918676329 0 -0.17036481392393391 0.38058526880823412 0 -0.15476840064051159 0.38439132708461932 0 -0.1585191913545585 0.36849205211677388 0 -0.17036481392393391 0.38058526880823412 0 -0.17044515551964479 0.39233891169713597 0 -0.15476840064051159 0.38439132708461932 0 -0.17044515551964479 0.39233891169713597 0 -0.15476840064051159 0.38439132708461932 0 -0.15264006003393599 0.40596667566987038 0 -0.17044515551964479 0.39233891169713597 0 -0.17727141269942101 0.40911927427158962 0 -0.15264006003393599 0.40596667566987038 0 -0.17044515551964479 0.39233891169713597 0 -0.18571026938573759 0.39413682918676329 0 -0.17727141269942101 0.40911927427158962 0 -0.1938177966866618 0.40596572611647358 0 -0.18571026938573759 0.39413682918676329 0 -0.17727141269942101 0.40911927427158962 0 -0.19339903836805869 0.42447658022663942 0 -0.17727141269942101 0.40911927427158962 0 -0.16769775208292989 0.42746010418096048 0 -0.18412151213304959 0.45092913181606359 0 -0.19339903836805869 0.42447658022663942 0 -0.16769775208292989 0.42746010418096048 0 -0.17727141269942101 0.40911927427158962 0 -0.16769775208292989 0.42746010418096048 0 -0.15264006003393599 0.40596667566987038 0 -0.16769775208292989 0.42746010418096048 0 -0.14111820654548951 0.42482867821219639 0 -0.15264006003393599 0.40596667566987038 0 -0.14111820654548951 0.42482867821219639 0 -0.1344521605938403 0.40542947756698 0 -0.15264006003393599 0.40596667566987038 0 -0.15647698963696191 0.44751655951707858 0 -0.16769775208292989 0.42746010418096048 0 -0.14111820654548951 0.42482867821219639 0 -0.13653170374439841 0.44473011964112202 0 -0.14111820654548951 0.42482867821219639 0 -0.1197819061756151 0.4355791175671036 0 -0.14111820654548951 0.42482867821219639 0 -0.1197131320615713 0.41509851415471072 0 -0.1197819061756151 0.4355791175671036 0 -0.14111820654548951 0.42482867821219639 0 -0.1344521605938403 0.40542947756698 0 -0.1197131320615713 0.41509851415471072 0 -0.1344521605938403 0.40542947756698 0 -0.13863411957581009 0.38993129933501802 0 -0.1197635140281522 0.39469053651664998 0 -0.12911823288158131 0.37983536022227982 0 -0.13863411957581009 0.38993129933501802 0 -0.1197635140281522 0.39469053651664998 0 -0.12911823288158131 0.37983536022227982 0 -0.13863411957581009 0.38993129933501802 0 -0.1421011434622077 0.3765056914167888 0 -0.13863411957581009 0.38993129933501802 0 -0.15476840064051159 0.38439132708461932 0 -0.1421011434622077 0.3765056914167888 0 -0.15476840064051159 0.38439132708461932 0 -0.1421011434622077 0.3765056914167888 0 -0.1585191913545585 0.36849205211677388 0 -0.1344521605938403 0.40542947756698 0 -0.13863411957581009 0.38993129933501802 0 -0.15264006003393599 0.40596667566987038 0 -0.13863411957581009 0.38993129933501802 0 -0.15476840064051159 0.38439132708461932 0 -0.15264006003393599 0.40596667566987038 0 -0.14454845620976189 0.35032773942290452 0 -0.14565095373812489 0.34803786090649619 0 -0.1690890033240158 0.35797727224240311 0 -0.13032704167910961 0.36243165272940508 0 -0.1585191913545585 0.36849205211677388 0 -0.14454845620976189 0.35032773942290452 0 -0.13328480609637161 0.35977082576090252 0 -0.1585191913545585 0.36849205211677388 0 -0.1421011434622077 0.3765056914167888 0 -0.13032704167910961 0.36243165272940508 0 -0.1585191913545585 0.36849205211677388 0 -0.13328480609637161 0.35977082576090252 0 -0.13032704167910961 0.36243165272940508 0 -0.1585191913545585 0.36849205211677388 0 -0.12911823288158131 0.37983536022227982 0 -0.1421011434622077 0.3765056914167888 0 -0.13032704167910961 0.36243165272940508 0 -0.13328480609637161 0.35977082576090252 0 -0.13032704167910961 0.36243165272940508 0 -0.1176919397273571 0.36268383656905362 0 -0.13328480609637161 0.35977082576090252 0 -0.13032704167910961 0.36243165272940508 0 -0.14454845620976189 0.35032773942290452 0 -0.12506826247722341 0.35250158281848121 0 -0.1176919397273571 0.36268383656905362 0 -0.14454845620976189 0.35032773942290452 0 -0.1176919397273571 0.36268383656905362 0 -0.14454845620976189 0.35032773942290452 0 -0.13328480609637161 0.35977082576090252 0 -0.1176919397273571 0.36268383656905362 0 -0.14565095373812489 0.34803786090649619 0 -0.12506826247722341 0.35250158281848121 0 -0.1222129041522336 0.33809844957058988 0 -0.14454845620976189 0.35032773942290452 0 -0.14565095373812489 0.34803786090649619 0 -0.12506826247722341 0.35250158281848121 0 -0.13840657251158989 0.3324422949857867 0 -0.13118095557009671 0.32106855211246149 0 -0.1222129041522336 0.33809844957058988 0 -0.14565095373812489 0.34803786090649619 0 -0.1222129041522336 0.33809844957058988 0 -0.14565095373812489 0.34803786090649619 0 -0.13840657251158989 0.3324422949857867 0 -0.1222129041522336 0.33809844957058988 0 -0.13118095557009671 0.32106855211246149 0 -0.1439529364198058 0.31943769442418879 0 -0.13459429445289589 0.30488228729345501 0 -0.13840657251158989 0.3324422949857867 0 -0.13118095557009671 0.32106855211246149 0 -0.1439529364198058 0.31943769442418879 0 -0.1439529364198058 0.31943769442418879 0 -0.16117228657518889 0.31775699436375598 0 -0.15112483073394259 0.30302504382424622 0 -0.1439529364198058 0.31943769442418879 0 -0.15234489427742501 0.33433644863819972 0 -0.16117228657518889 0.31775699436375598 0 -0.14565095373812489 0.34803786090649619 0 -0.15234489427742501 0.33433644863819972 0 -0.16201608059986189 0.3436468942178536 0 -0.14565095373812489 0.34803786090649619 0 -0.13840657251158989 0.3324422949857867 0 -0.15234489427742501 0.33433644863819972 0 -0.13840657251158989 0.3324422949857867 0 -0.1439529364198058 0.31943769442418879 0 -0.15234489427742501 0.33433644863819972 0 -0.15234489427742501 0.33433644863819972 0 -0.16950639711308391 0.3329609337176298 0 -0.16117228657518889 0.31775699436375598 0 -0.15234489427742501 0.33433644863819972 0 -0.16201608059986189 0.3436468942178536 0 -0.16950639711308391 0.3329609337176298 0 -0.16201608059986189 0.3436468942178536 0 -0.16950639711308391 0.3329609337176298 0 -0.17395536545816839 0.34437131705446899 0 -0.16950639711308391 0.3329609337176298 0 -0.16117228657518889 0.31775699436375598 0 -0.18628525215535749 0.31893606699113258 0 -0.16117228657518889 0.31775699436375598 0 -0.18628525215535749 0.31893606699113258 0 -0.16927085490465249 0.30155332011034619 0 -0.16950639711308391 0.3329609337176298 0 -0.18628525215535749 0.31893606699113258 0 -0.18425670598034341 0.33575348148189849 0 -0.16950639711308391 0.3329609337176298 0 -0.18425670598034341 0.33575348148189849 0 -0.17395536545816839 0.34437131705446899 0 -0.18425670598034341 0.33575348148189849 0 -0.18625280097239569 0.35010770082876902 0 -0.17395536545816839 0.34437131705446899 0 -0.18625280097239569 0.35010770082876902 0 -0.17395536545816839 0.34437131705446899 0 -0.1690890033240158 0.35797727224240311 0 -0.18625280097239569 0.35010770082876902 0 -0.1690890033240158 0.35797727224240311 0 -0.19252705290990679 0.36791668357830998 0 -0.14565095373812489 0.34803786090649619 0 -0.1690890033240158 0.35797727224240311 0 -0.14454845620976189 0.35032773942290452 0 -0.1690890033240158 0.35797727224240311 0 -0.1585191913545585 0.36849205211677388 0 -0.14565095373812489 0.34803786090649619 0 -0.16201608059986189 0.3436468942178536 0 -0.1690890033240158 0.35797727224240311 0 -0.16201608059986189 0.3436468942178536 0 -0.17395536545816839 0.34437131705446899 0 -0.1690890033240158 0.35797727224240311 0 -0.1690890033240158 0.35797727224240311 0 -0.1585191913545585 0.36849205211677388 0 -0.18671134103000711 0.37455245150414379 0 -0.17036481392393391 0.38058526880823412 0 -0.1585191913545585 0.36849205211677388 0 -0.18671134103000711 0.37455245150414379 0 -0.1690890033240158 0.35797727224240311 0 -0.18671134103000711 0.37455245150414379 0 -0.19252705290990679 0.36791668357830998 0 -0.1690890033240158 0.35797727224240311 0 -0.19252705290990679 0.36791668357830998 0 -0.1585191913545585 0.36849205211677388 0 -0.18671134103000711 0.37455245150414379 0 -0.19252705290990679 0.36791668357830998 0 -0.1989770294913418 0.35492734699648232 0 -0.20815852955223821 0.36261648835616678 0 -0.21490349070545581 0.3806128508915132 0 -0.18671134103000711 0.37455245150414379 0 -0.19252705290990679 0.36791668357830998 0 -0.18625280097239569 0.35010770082876902 0 -0.19252705290990679 0.36791668357830998 0 -0.1989770294913418 0.35492734699648232 0 -0.18625280097239569 0.35010770082876902 0 -0.1989770294913418 0.35492734699648232 0 -0.200994186156083 0.33830864718811682 0 -0.1989770294913418 0.35492734699648232 0 -0.2119704035941245 0.35203386605149428 0 -0.200994186156083 0.33830864718811682 0 -0.2119704035941245 0.35203386605149428 0 -0.2291598143487108 0.34359253350639951 0 -0.200994186156083 0.33830864718811682 0 -0.1989770294913418 0.35492734699648232 0 -0.2119704035941245 0.35203386605149428 0 -0.20815852955223821 0.36261648835616678 0 -0.2119704035941245 0.35203386605149428 0 -0.20815852955223821 0.36261648835616678 0 -0.22256245842224859 0.36072431421030621 0 -0.2159651024957977 0.37785609491421718 0 -0.20815852955223821 0.36261648835616678 0 -0.22256245842224859 0.36072431421030621 0 -0.2159651024957977 0.37785609491421718 0 -0.19252705290990679 0.36791668357830998 0 -0.20815852955223821 0.36261648835616678 0 -0.2159651024957977 0.37785609491421718 0 -0.19252705290990679 0.36791668357830998 0 -0.2159651024957977 0.37785609491421718 0 -0.22256245842224859 0.36072431421030621 0 -0.2159651024957977 0.37785609491421718 0 -0.22734931244881801 0.37297605980961662 0 -0.22256245842224859 0.36072431421030621 0 -0.23485332728865579 0.37561931773976881 0 -0.22734931244881801 0.37297605980961662 0 -0.23800766054528119 0.36845886757108498 0 -0.22734931244881801 0.37297605980961662 0 -0.22256245842224859 0.36072431421030621 0 -0.23800766054528119 0.36845886757108498 0 -0.22256245842224859 0.36072431421030621 0 -0.23741467854812129 0.35580001952082979 0 -0.23800766054528119 0.36845886757108498 0 -0.22256245842224859 0.36072431421030621 0 -0.2291598143487108 0.34359253350639951 0 -0.22256245842224859 0.36072431421030621 0 -0.23741467854812129 0.35580001952082979 0 -0.2291598143487108 0.34359253350639951 0 -0.2119704035941245 0.35203386605149428 0 -0.22256245842224859 0.36072431421030621 0 -0.2291598143487108 0.34359253350639951 0 -0.24938868174502141 0.34738747942199327 0 -0.2291598143487108 0.34359253350639951 0 -0.23741467854812129 0.35580001952082979 0 -0.24938868174502141 0.34738747942199327 0 -0.2291598143487108 0.34359253350639951 0 -0.23741467854812129 0.35580001952082979 0 -0.24938868174502141 0.34738747942199327 0 -0.24532888368726019 0.36239907906864788 0 -0.25513743600172878 0.37068336237299943 0 -0.24938868174502141 0.34738747942199327 0 -0.24532888368726019 0.36239907906864788 0 -0.24532888368726019 0.36239907906864788 0 -0.24548814883268319 0.36963269026218032 0 -0.23800766054528119 0.36845886757108498 0 -0.24347861509646249 0.37698945203598899 0 -0.24548814883268319 0.36963269026218032 0 -0.23800766054528119 0.36845886757108498 0 -0.25513743600172878 0.37068336237299943 0 -0.24532888368726019 0.36239907906864788 0 -0.24548814883268319 0.36963269026218032 0 -0.25513743600172878 0.37068336237299943 0 -0.24347861509646249 0.37698945203598899 0 -0.24548814883268319 0.36963269026218032 0 -0.23485332728865579 0.37561931773976881 0 -0.24347861509646249 0.37698945203598899 0 -0.23800766054528119 0.36845886757108498 0 -0.23741467854812129 0.35580001952082979 0 -0.24532888368726019 0.36239907906864788 0 -0.23800766054528119 0.36845886757108498 0 -0.24091767821693821 0.31306012816368228 0 -0.24723650295103011 0.31501016826620992 0 -0.2451531799809791 0.330223803792838 0 -0.24091767821693821 0.31306012816368228 0 -0.2451531799809791 0.330223803792838 0 -0.24091767821693821 0.31306012816368228 0 -0.2451531799809791 0.330223803792838 0 -0.23503874628282401 0.3283263308350407 0 -0.24091767821693821 0.31306012816368228 0 -0.23503874628282401 0.3283263308350407 0 -0.25401802485225888 0.3197267147461782 0 -0.24723650295103011 0.31501016826620992 0 -0.2451531799809791 0.330223803792838 0 -0.24938868174502141 0.34738747942199327 0 -0.2451531799809791 0.330223803792838 0 -0.24938868174502141 0.34738747942199327 0 -0.2451531799809791 0.330223803792838 0 -0.23931441098442111 0.33766782883185043 0 -0.24938868174502141 0.34738747942199327 0 -0.23931441098442111 0.33766782883185043 0 -0.2291598143487108 0.34359253350639951 0 -0.23931441098442111 0.33766782883185043 0 -0.23503874628282401 0.3283263308350407 0 -0.2291598143487108 0.34359253350639951 0 -0.2451531799809791 0.330223803792838 0 -0.23931441098442111 0.33766782883185043 0 -0.23503874628282401 0.3283263308350407 0 -0.23503874628282401 0.3283263308350407 0 -0.2291598143487108 0.34359253350639951 0 -0.2183152893572263 0.32957191476193859 0 -0.23503874628282401 0.3283263308350407 0 -0.2291598143487108 0.34359253350639951 0 -0.23503874628282401 0.3283263308350407 0 -0.2271447026835838 0.31764925552004952 0 -0.2183152893572263 0.32957191476193859 0 -0.2271447026835838 0.31764925552004952 0 -0.2183152893572263 0.32957191476193859 0 -0.2127940352121909 0.31099493937387801 0 -0.24091767821693821 0.31306012816368228 0 -0.23503874628282401 0.3283263308350407 0 -0.2271447026835838 0.31764925552004952 0 -0.2183152893572263 0.32957191476193859 0 -0.200994186156083 0.33830864718811682 0 -0.2127940352121909 0.31099493937387801 0 -0.2291598143487108 0.34359253350639951 0 -0.2183152893572263 0.32957191476193859 0 -0.200994186156083 0.33830864718811682 0 -0.2291598143487108 0.34359253350639951 0 -0.200994186156083 0.33830864718811682 0 -0.18425670598034341 0.33575348148189849 0 -0.18625280097239569 0.35010770082876902 0 -0.200994186156083 0.33830864718811682 0 -0.18628525215535749 0.31893606699113258 0 -0.18425670598034341 0.33575348148189849 0 -0.200994186156083 0.33830864718811682 0 -0.18628525215535749 0.31893606699113258 0 -0.200994186156083 0.33830864718811682 0 -0.2127940352121909 0.31099493937387801 0 -0.18628525215535749 0.31893606699113258 0 -0.1908486561183203 0.29483902242428278 0 -0.2127940352121909 0.31099493937387801 0 -0.1908486561183203 0.29483902242428278 0 -0.20865053199836611 0.28637225763903951 0 -0.1913835433487058 0.27399141546072842 0 -0.20865053199836611 0.28637225763903951 0 -0.2127940352121909 0.31099493937387801 0 -0.22293252467231819 0.29458967393184038 0 -0.1908486561183203 0.29483902242428278 0 -0.20865053199836611 0.28637225763903951 0 -0.2127940352121909 0.31099493937387801 0 -0.2127940352121909 0.31099493937387801 0 -0.22865776434873941 0.30629296446570797 0 -0.22293252467231819 0.29458967393184038 0 -0.2271447026835838 0.31764925552004952 0 -0.2127940352121909 0.31099493937387801 0 -0.22865776434873941 0.30629296446570797 0 -0.24091767821693821 0.31306012816368228 0 -0.2271447026835838 0.31764925552004952 0 -0.22865776434873941 0.30629296446570797 0 -0.22865776434873941 0.30629296446570797 0 -0.22293252467231819 0.29458967393184038 0 -0.2367282987769769 0.29608335568174943 0 -0.20865053199836611 0.28637225763903951 0 -0.22293252467231819 0.29458967393184038 0 -0.23253891933701559 0.2791065831998164 0 -0.22293252467231819 0.29458967393184038 0 -0.2367282987769769 0.29608335568174943 0 -0.23253891933701559 0.2791065831998164 0 -0.2367282987769769 0.29608335568174943 0 -0.2497019672081322 0.28301844179522329 0 -0.23253891933701559 0.2791065831998164 0 -0.26020144662002492 0.29806372512065299 0 -0.2367282987769769 0.29608335568174943 0 -0.2497019672081322 0.28301844179522329 0 -0.2367282987769769 0.29608335568174943 0 -0.23253891933701559 0.2791065831998164 0 -0.25082215645828948 0.30725659750656648 0 -0.24091767821693821 0.31306012816368228 0 -0.2367282987769769 0.29608335568174943 0 -0.24091767821693821 0.31306012816368228 0 -0.2367282987769769 0.29608335568174943 0 -0.24091767821693821 0.31306012816368228 0 -0.22865776434873941 0.30629296446570797 0 -0.2367282987769769 0.29608335568174943 0 -0.26020144662002492 0.29806372512065299 0 -0.25082215645828948 0.30725659750656648 0 -0.2367282987769769 0.29608335568174943 0 -0.25082215645828948 0.30725659750656648 0 -0.24091767821693821 0.31306012816368228 0 -0.24723650295103011 0.31501016826620992 0 -0.25499370846812258 0.25382717309031783 0 -0.235708961880149 0.25177341949651721 0 -0.2429518053774273 0.26707266061814627 0 -0.2497019672081322 0.28301844179522329 0 -0.2429518053774273 0.26707266061814627 0 -0.23253891933701559 0.2791065831998164 0 -0.20865053199836611 0.28637225763903951 0 -0.23253891933701559 0.2791065831998164 0 -0.22426340283625179 0.26354884344069712 0 -0.2429518053774273 0.26707266061814627 0 -0.23253891933701559 0.2791065831998164 0 -0.22426340283625179 0.26354884344069712 0 -0.235708961880149 0.25177341949651721 0 -0.22426340283625179 0.26354884344069712 0 -0.21704530339763251 0.24959003801806731 0 -0.235708961880149 0.25177341949651721 0 -0.2429518053774273 0.26707266061814627 0 -0.22426340283625179 0.26354884344069712 0 -0.22426340283625179 0.26354884344069712 0 -0.20676410203082751 0.26147473855227699 0 -0.21704530339763251 0.24959003801806731 0 -0.20676410203082751 0.26147473855227699 0 -0.20231806928452301 0.2402473460012845 0 -0.21704530339763251 0.24959003801806731 0 -0.20865053199836611 0.28637225763903951 0 -0.22426340283625179 0.26354884344069712 0 -0.20676410203082751 0.26147473855227699 0 -0.20865053199836611 0.28637225763903951 0 -0.20676410203082751 0.26147473855227699 0 -0.1913835433487058 0.27399141546072842 0 -0.20676410203082751 0.26147473855227699 0 -0.1913835433487058 0.27399141546072842 0 -0.17734599942912599 0.25099626575524658 0 -0.20676410203082751 0.26147473855227699 0 -0.17734599942912599 0.25099626575524658 0 -0.20231806928452301 0.2402473460012845 0 -0.17734599942912599 0.25099626575524658 0 -0.17330842716688921 0.27627479293279628 0 -0.17734599942912599 0.25099626575524658 0 -0.15753354274428891 0.25858197071336853 0 -0.17330842716688921 0.27627479293279628 0 -0.17734599942912599 0.25099626575524658 0 -0.15753354274428891 0.25858197071336853 0 -0.15760459646338579 0.24197264035209939 0 -0.15753354274428891 0.25858197071336853 0 -0.17330842716688921 0.27627479293279628 0 -0.15394977735528551 0.27458559126712351 0 -0.17330842716688921 0.27627479293279628 0 -0.1578868861391772 0.28830895391484662 0 -0.15394977735528551 0.27458559126712351 0 -0.1913835433487058 0.27399141546072842 0 -0.17734599942912599 0.25099626575524658 0 -0.17330842716688921 0.27627479293279628 0 -0.1908486561183203 0.29483902242428278 0 -0.1913835433487058 0.27399141546072842 0 -0.17330842716688921 0.27627479293279628 0 -0.1908486561183203 0.29483902242428278 0 -0.17330842716688921 0.27627479293279628 0 -0.16927085490465249 0.30155332011034619 0 -0.18628525215535749 0.31893606699113258 0 -0.1908486561183203 0.29483902242428278 0 -0.16927085490465249 0.30155332011034619 0 -0.16117228657518889 0.31775699436375598 0 -0.16927085490465249 0.30155332011034619 0 -0.15112483073394259 0.30302504382424622 0 -0.16927085490465249 0.30155332011034619 0 -0.1578868861391772 0.28830895391484662 0 -0.15112483073394259 0.30302504382424622 0 -0.17330842716688921 0.27627479293279628 0 -0.16927085490465249 0.30155332011034619 0 -0.1578868861391772 0.28830895391484662 0 -0.17330842716688921 0.27627479293279628 0 -0.16927085490465249 0.30155332011034619 0 -0.1578868861391772 0.28830895391484662 0 -0.1417805405351163 0.28610602143972069 0 -0.15394977735528551 0.27458559126712351 0 -0.1578868861391772 0.28830895391484662 0 -0.1417805405351163 0.28610602143972069 0 -0.15112483073394259 0.30302504382424622 0 -0.1417805405351163 0.28610602143972069 0 -0.15112483073394259 0.30302504382424622 0 -0.13459429445289589 0.30488228729345501 0 -0.1439529364198058 0.31943769442418879 0 -0.15112483073394259 0.30302504382424622 0 -0.13459429445289589 0.30488228729345501 0 -0.13459429445289589 0.30488228729345501 0 -0.12668004417838821 0.29184759013762263 0 -0.1167380703139579 0.31048203428828741 0 -0.13118095557009671 0.32106855211246149 0 -0.13459429445289589 0.30488228729345501 0 -0.1167380703139579 0.31048203428828741 0 -0.1417805405351163 0.28610602143972069 0 -0.12668004417838821 0.29184759013762263 0 -0.12902407911428779 0.27490198866066518 0 -0.1417805405351163 0.28610602143972069 0 -0.13459429445289589 0.30488228729345501 0 -0.12668004417838821 0.29184759013762263 0 -0.1417805405351163 0.28610602143972069 0 -0.12902407911428779 0.27490198866066518 0 -0.1409872189014634 0.269699008770872 0 -0.12902407911428779 0.27490198866066518 0 -0.13194018833849969 0.26269540241438938 0 -0.1409872189014634 0.269699008770872 0 -0.12902407911428779 0.27490198866066518 0 -0.13194018833849969 0.26269540241438938 0 -0.116733836902012 0.26738912034311502 0 -0.13194018833849969 0.26269540241438938 0 -0.13243016478697431 0.25209722541406521 0 -0.1239531221148822 0.25532768312897258 0 -0.13243016478697431 0.25209722541406521 0 -0.1239531221148822 0.25532768312897258 0 -0.1255001957498163 0.24628542454034369 0 -0.13194018833849969 0.26269540241438938 0 -0.13243016478697431 0.25209722541406521 0 -0.1428175167599289 0.25447727587941171 0 -0.13194018833849969 0.26269540241438938 0 -0.1428175167599289 0.25447727587941171 0 -0.1409872189014634 0.269699008770872 0 -0.15753354274428891 0.25858197071336853 0 -0.1428175167599289 0.25447727587941171 0 -0.15760459646338579 0.24197264035209939 0 -0.15753354274428891 0.25858197071336853 0 -0.1428175167599289 0.25447727587941171 0 -0.1409872189014634 0.269699008770872 0 -0.1417805405351163 0.28610602143972069 0 -0.15394977735528551 0.27458559126712351 0 -0.1409872189014634 0.269699008770872 0 -0.15753354274428891 0.25858197071336853 0 -0.15394977735528551 0.27458559126712351 0 -0.1409872189014634 0.269699008770872 0 -0.099110315392266293 0.27059235188270209 0 -0.1057884026374087 0.25524920372368182 0 -0.1112632364756833 0.28286561900598473 0 -0.099110315392266293 0.27059235188270209 0 -0.1112632364756833 0.28286561900598473 0 -0.0919151159495184 0.28263119636283451 0 -0.1057884026374087 0.25524920372368182 0 -0.1112632364756833 0.28286561900598473 0 -0.099110315392266293 0.27059235188270209 0 -0.096094146256345964 0.26075755230572001 0 -0.087353436639252338 0.26780083816002098 0 -0.099110315392266293 0.27059235188270209 0 -0.096094146256345964 0.26075755230572001 0 -0.1057884026374087 0.25524920372368182 0 -0.093841004053488664 0.25633116332211819 0 -0.1004635180975432 0.25391368625496658 0 -0.088114880810680918 0.25177782386922759 0 -0.1004635180975432 0.25391368625496658 0 -0.1057884026374087 0.25524920372368182 0 -0.098254434968115534 0.2456333193106548 0 -0.096094146256345964 0.26075755230572001 0 -0.1004635180975432 0.25391368625496658 0 -0.1057884026374087 0.25524920372368182 0 -0.096094146256345964 0.26075755230572001 0 -0.093841004053488664 0.25633116332211819 0 -0.1004635180975432 0.25391368625496658 0 -0.1057884026374087 0.25524920372368182 0 -0.1149807726357945 0.25662266459793281 0 -0.116733836902012 0.26738912034311502 0 -0.1057884026374087 0.25524920372368182 0 -0.1149807726357945 0.25662266459793281 0 -0.114554315497749 0.24628049261128021 0 -0.1149807726357945 0.25662266459793281 0 -0.1239531221148822 0.25532768312897258 0 -0.114554315497749 0.24628049261128021 0 -0.1149807726357945 0.25662266459793281 0 -0.1239531221148822 0.25532768312897258 0 -0.116733836902012 0.26738912034311502 0 -0.13194018833849969 0.26269540241438938 0 -0.1239531221148822 0.25532768312897258 0 -0.116733836902012 0.26738912034311502 0 -0.1057884026374087 0.25524920372368182 0 -0.116733836902012 0.26738912034311502 0 -0.1112632364756833 0.28286561900598473 0 -0.12902407911428779 0.27490198866066518 0 -0.116733836902012 0.26738912034311502 0 -0.1112632364756833 0.28286561900598473 0 -0.12668004417838821 0.29184759013762263 0 -0.12902407911428779 0.27490198866066518 0 -0.1112632364756833 0.28286561900598473 0 -0.1112632364756833 0.28286561900598473 0 -0.1167380703139579 0.31048203428828741 0 -0.12668004417838821 0.29184759013762263 0 -0.1112632364756833 0.28286561900598473 0 -0.1167380703139579 0.31048203428828741 0 -0.1112632364756833 0.28286561900598473 0 -0.1167380703139579 0.31048203428828741 0 -0.092693397477012857 0.30294179723835191 0 -0.1112632364756833 0.28286561900598473 0 -0.0919151159495184 0.28263119636283451 0 -0.092693397477012857 0.30294179723835191 0 -0.0919151159495184 0.28263119636283451 0 -0.080794797933091189 0.2924503641346205 0 -0.092693397477012857 0.30294179723835191 0 -0.0919151159495184 0.28263119636283451 0 -0.080794797933091189 0.2924503641346205 0 -0.077253578215269667 0.27791129364968109 0 -0.092693397477012857 0.30294179723835191 0 -0.071137331529621622 0.30455762061511921 0 -0.077265852040733884 0.31903768098421459 0 -0.080794797933091189 0.2924503641346205 0 -0.092693397477012857 0.30294179723835191 0 -0.071137331529621622 0.30455762061511921 0 -0.071137331529621622 0.30455762061511921 0 -0.054792325984982078 0.30950729669103172 0 -0.077265852040733884 0.31903768098421459 0 -0.071137331529621622 0.30455762061511921 0 -0.067013381953673429 0.29133520189092199 0 -0.054792325984982078 0.30950729669103172 0 -0.080794797933091189 0.2924503641346205 0 -0.067013381953673429 0.29133520189092199 0 -0.077253578215269667 0.27791129364968109 0 -0.080794797933091189 0.2924503641346205 0 -0.071137331529621622 0.30455762061511921 0 -0.067013381953673429 0.29133520189092199 0 -0.067013381953673429 0.29133520189092199 0 -0.064720399311902183 0.27598720151518641 0 -0.077253578215269667 0.27791129364968109 0 -0.064720399311902183 0.27598720151518641 0 -0.071239148682508205 0.2708599979095675 0 -0.065925506631533695 0.26439464521164657 0 -0.071239148682508205 0.2708599979095675 0 -0.077253578215269667 0.27791129364968109 0 -0.077057110571327248 0.26514685126175558 0 -0.071239148682508205 0.2708599979095675 0 -0.077057110571327248 0.26514685126175558 0 -0.065925506631533695 0.26439464521164657 0 -0.064720399311902183 0.27598720151518641 0 -0.071239148682508205 0.2708599979095675 0 -0.077253578215269667 0.27791129364968109 0 -0.0919151159495184 0.28263119636283451 0 -0.077253578215269667 0.27791129364968109 0 -0.087353436639252338 0.26780083816002098 0 -0.077253578215269667 0.27791129364968109 0 -0.087353436639252338 0.26780083816002098 0 -0.077057110571327248 0.26514685126175558 0 -0.099110315392266293 0.27059235188270209 0 -0.0919151159495184 0.28263119636283451 0 -0.087353436639252338 0.26780083816002098 0 -0.088114880810680918 0.25177782386922759 0 -0.088929340793596989 0.25820234274221238 0 -0.082167006219431279 0.25112813484404639 0 -0.093841004053488664 0.25633116332211819 0 -0.088114880810680918 0.25177782386922759 0 -0.088929340793596989 0.25820234274221238 0 -0.096094146256345964 0.26075755230572001 0 -0.087353436639252338 0.26780083816002098 0 -0.088929340793596989 0.25820234274221238 0 -0.096094146256345964 0.26075755230572001 0 -0.093841004053488664 0.25633116332211819 0 -0.088929340793596989 0.25820234274221238 0 -0.087353436639252338 0.26780083816002098 0 -0.080880621063232752 0.2581494491120499 0 -0.077057110571327248 0.26514685126175558 0 -0.087353436639252338 0.26780083816002098 0 -0.088929340793596989 0.25820234274221238 0 -0.080880621063232752 0.2581494491120499 0 -0.088929340793596989 0.25820234274221238 0 -0.080880621063232752 0.2581494491120499 0 -0.082167006219431279 0.25112813484404639 0 -0.080880621063232752 0.2581494491120499 0 -0.082167006219431279 0.25112813484404639 0 -0.076666686671242767 0.25204862571865688 0 -0.082167006219431279 0.25112813484404639 0 -0.076666686671242767 0.25204862571865688 0 -0.076004334722877626 0.24723302118292681 0 -0.076666686671242767 0.25204862571865688 0 -0.071802969642164455 0.25851494532730768 0 -0.070010111111491954 0.2464415319862093 0 -0.080880621063232752 0.2581494491120499 0 -0.076666686671242767 0.25204862571865688 0 -0.071802969642164455 0.25851494532730768 0 -0.071802969642164455 0.25851494532730768 0 -0.077057110571327248 0.26514685126175558 0 -0.065925506631533695 0.26439464521164657 0 -0.080880621063232752 0.2581494491120499 0 -0.071802969642164455 0.25851494532730768 0 -0.077057110571327248 0.26514685126175558 0 -0.071802969642164455 0.25851494532730768 0 -0.065925506631533695 0.26439464521164657 0 -0.063825786058281639 0.25388910503181172 0 -0.065925506631533695 0.26439464521164657 0 -0.063825786058281639 0.25388910503181172 0 -0.058669852390860061 0.25948994217654481 0 -0.071802969642164455 0.25851494532730768 0 -0.063825786058281639 0.25388910503181172 0 -0.070010111111491954 0.2464415319862093 0 -0.063825786058281639 0.25388910503181172 0 -0.052956725364248503 0.25398844567396672 0 -0.05838690939615615 0.24685761960527891 0 -0.063825786058281639 0.25388910503181172 0 -0.058669852390860061 0.25948994217654481 0 -0.052956725364248503 0.25398844567396672 0 -0.065925506631533695 0.26439464521164657 0 -0.058669852390860061 0.25948994217654481 0 -0.051971391509376401 0.26568757278875399 0 -0.052956725364248503 0.25398844567396672 0 -0.051971391509376401 0.26568757278875399 0 -0.038769726128567897 0.2581562343505211 0 -0.058669852390860061 0.25948994217654481 0 -0.052956725364248503 0.25398844567396672 0 -0.051971391509376401 0.26568757278875399 0 -0.064720399311902183 0.27598720151518641 0 -0.051971391509376401 0.26568757278875399 0 -0.05338185874717391 0.28759743473989319 0 -0.051971391509376401 0.26568757278875399 0 -0.05338185874717391 0.28759743473989319 0 -0.051971391509376401 0.26568757278875399 0 -0.042985949806576912 0.2770499600542346 0 -0.05338185874717391 0.28759743473989319 0 -0.064720399311902183 0.27598720151518641 0 -0.065925506631533695 0.26439464521164657 0 -0.051971391509376401 0.26568757278875399 0 -0.042985949806576912 0.2770499600542346 0 -0.038769726128567897 0.2581562343505211 0 -0.027501845728561531 0.27084910897345538 0 -0.051971391509376401 0.26568757278875399 0 -0.042985949806576912 0.2770499600542346 0 -0.038769726128567897 0.2581562343505211 0 -0.052956725364248503 0.25398844567396672 0 -0.038769726128567897 0.2581562343505211 0 -0.045951081437063501 0.2421735950950713 0 -0.038769726128567897 0.2581562343505211 0 -0.02023321952338877 0.25379143963427492 0 -0.027501845728561531 0.27084910897345538 0 -0.02023321952338877 0.25379143963427492 0 -0.027501845728561531 0.27084910897345538 0 -0.01507923724336137 0.26434370000051249 0 -0.038769726128567897 0.2581562343505211 0 -0.02023321952338877 0.25379143963427492 0 -0.028393867116377699 0.2428768222591032 0 -0.042985949806576912 0.2770499600542346 0 -0.01798170486332179 0.28454490946597127 0 -0.042985949806576912 0.2770499600542346 0 -0.027501845728561531 0.27084910897345538 0 -0.01798170486332179 0.28454490946597127 0 -0.027501845728561531 0.27084910897345538 0 -0.015949968511462249 0.27360042460923911 0 -0.01798170486332179 0.28454490946597127 0 -0.027501845728561531 0.27084910897345538 0 -0.015949968511462249 0.27360042460923911 0 -0.01507923724336137 0.26434370000051249 0 -0.015949968511462249 0.27360042460923911 0 -0.0077384578393843934 0.26989655625375208 0 -0.01507923724336137 0.26434370000051249 0 -0.015949968511462249 0.27360042460923911 0 -0.011055007536545329 0.27924812671609811 0 -0.0077384578393843934 0.26989655625375208 0 -0.015949968511462249 0.27360042460923911 0 -0.011055007536545329 0.27924812671609811 0 -0.01798170486332179 0.28454490946597127 0 -0.011055007536545329 0.27924812671609811 0 -0.0026730804511828099 0.27560396698430911 0 -0.0077384578393843934 0.26989655625375208 0 -0.011055007536545329 0.27924812671609811 0 -0.0026730804511828099 0.27560396698430911 0 0.0010085689623396241 0.28548657445276199 0 -0.0026730804511828099 0.27560396698430911 0 -0.0077384578393843934 0.26989655625375208 0 0.0070925746088588556 0.2677846105146241 0 -0.0077384578393843934 0.26989655625375208 0 -0.004688707870413332 0.2558135020850828 0 0.0070925746088588556 0.2677846105146241 0 -0.02023321952338877 0.25379143963427492 0 -0.004688707870413332 0.2558135020850828 0 -0.01507923724336137 0.26434370000051249 0 -0.0077384578393843934 0.26989655625375208 0 -0.004688707870413332 0.2558135020850828 0 -0.01507923724336137 0.26434370000051249 0 -0.017217590039138989 0.28950667898549393 0 -0.018056624395774309 0.30728632152310559 0 -0.0010984081856968699 0.31269359166515759 0 -0.017217590039138989 0.28950667898549393 0 -0.0010984081856968699 0.31269359166515759 0 0.0070225400799332413 0.292039858877708 0 -0.017217590039138989 0.28950667898549393 0 -0.0010984081856968699 0.31269359166515759 0 -0.017217590039138989 0.28950667898549393 0 -0.01798170486332179 0.28454490946597127 0 0.0070225400799332413 0.292039858877708 0 -0.01798170486332179 0.28454490946597127 0 0.0010085689623396241 0.28548657445276199 0 0.0070225400799332413 0.292039858877708 0 -0.01798170486332179 0.28454490946597127 0 0.0070225400799332413 0.292039858877708 0 -0.011055007536545329 0.27924812671609811 0 -0.01798170486332179 0.28454490946597127 0 0.0010085689623396241 0.28548657445276199 0 -0.042985949806576912 0.2770499600542346 0 -0.01798170486332179 0.28454490946597127 0 -0.02978182388755142 0.2898064773630028 0 -0.017217590039138989 0.28950667898549393 0 -0.01798170486332179 0.28454490946597127 0 -0.02978182388755142 0.2898064773630028 0 -0.017217590039138989 0.28950667898549393 0 -0.02978182388755142 0.2898064773630028 0 -0.024499229821213411 0.29748348204815928 0 -0.02978182388755142 0.2898064773630028 0 -0.024499229821213411 0.29748348204815928 0 -0.034704745452619978 0.30098872414843358 0 -0.018056624395774309 0.30728632152310559 0 -0.034704745452619978 0.30098872414843358 0 -0.037667060515469648 0.31944154917317152 0 -0.024499229821213411 0.29748348204815928 0 -0.018056624395774309 0.30728632152310559 0 -0.034704745452619978 0.30098872414843358 0 -0.017217590039138989 0.28950667898549393 0 -0.024499229821213411 0.29748348204815928 0 -0.018056624395774309 0.30728632152310559 0 -0.034704745452619978 0.30098872414843358 0 -0.054792325984982078 0.30950729669103172 0 -0.037667060515469648 0.31944154917317152 0 -0.034704745452619978 0.30098872414843358 0 -0.054792325984982078 0.30950729669103172 0 -0.034704745452619978 0.30098872414843358 0 -0.043129340775780872 0.29298997859931919 0 -0.054792325984982078 0.30950729669103172 0 -0.042985949806576912 0.2770499600542346 0 -0.043129340775780872 0.29298997859931919 0 -0.05338185874717391 0.28759743473989319 0 -0.042985949806576912 0.2770499600542346 0 -0.02978182388755142 0.2898064773630028 0 -0.043129340775780872 0.29298997859931919 0 -0.02978182388755142 0.2898064773630028 0 -0.034704745452619978 0.30098872414843358 0 -0.043129340775780872 0.29298997859931919 0 -0.043129340775780872 0.29298997859931919 0 -0.05338185874717391 0.28759743473989319 0 -0.054792325984982078 0.30950729669103172 0 -0.067013381953673429 0.29133520189092199 0 -0.05338185874717391 0.28759743473989319 0 -0.054792325984982078 0.30950729669103172 0 -0.067013381953673429 0.29133520189092199 0 -0.064720399311902183 0.27598720151518641 0 -0.05338185874717391 0.28759743473989319 0 -0.05338185874717391 0.28759743473989319 0 -0.054792325984982078 0.30950729669103172 0 -0.054792325984982078 0.30950729669103172 0 -0.056335720156082 0.33348201394715932 0 -0.054792325984982078 0.30950729669103172 0 -0.056335720156082 0.33348201394715932 0 -0.037667060515469648 0.31944154917317152 0 -0.056335720156082 0.33348201394715932 0 -0.037418624461230329 0.33571533733288489 0 -0.037667060515469648 0.31944154917317152 0 -0.056335720156082 0.33348201394715932 0 -0.037418624461230329 0.33571533733288489 0 -0.042274172550674893 0.35095376010721602 0 -0.037418624461230329 0.33571533733288489 0 -0.025970681591511498 0.3440950540400956 0 -0.042274172550674893 0.35095376010721602 0 -0.037418624461230329 0.33571533733288489 0 -0.037667060515469648 0.31944154917317152 0 -0.02454315779184486 0.328734893396045 0 -0.018056624395774309 0.30728632152310559 0 -0.02454315779184486 0.328734893396045 0 -0.0094166299445115342 0.32628581684788749 0 -0.018056624395774309 0.30728632152310559 0 -0.037667060515469648 0.31944154917317152 0 -0.02454315779184486 0.328734893396045 0 -0.02454315779184486 0.328734893396045 0 -0.0071078859541612973 0.3420532230972958 0 -0.025970681591511498 0.3440950540400956 0 -0.037418624461230329 0.33571533733288489 0 -0.02454315779184486 0.328734893396045 0 -0.025970681591511498 0.3440950540400956 0 -0.02454315779184486 0.328734893396045 0 -0.0071078859541612973 0.3420532230972958 0 -0.0094166299445115342 0.32628581684788749 0 -0.0071078859541612973 0.3420532230972958 0 -0.0094166299445115342 0.32628581684788749 0 0.01502077366774526 0.33588050434482142 0 -0.018056624395774309 0.30728632152310559 0 -0.0010984081856968699 0.31269359166515759 0 -0.0094166299445115342 0.32628581684788749 0 -0.018358402349361761 0.36208334826666733 0 0.0055573678519514856 0.37321293642611858 0 -0.018358402349361761 0.36208334826666733 0 -0.024070166689737289 0.38149000389404819 0 0.0055573678519514856 0.37321293642611858 0 -0.018358402349361761 0.36208334826666733 0 0.0081512274939709948 0.35400479806035851 0 0.0055573678519514856 0.37321293642611858 0 -0.0071078859541612973 0.3420532230972958 0 -0.018358402349361761 0.36208334826666733 0 0.0081512274939709948 0.35400479806035851 0 -0.018358402349361761 0.36208334826666733 0 -0.042274172550674893 0.35095376010721602 0 -0.0071078859541612973 0.3420532230972958 0 -0.025970681591511498 0.3440950540400956 0 -0.018358402349361761 0.36208334826666733 0 -0.025970681591511498 0.3440950540400956 0 -0.018358402349361761 0.36208334826666733 0 -0.042274172550674893 0.35095376010721602 0 -0.018358402349361761 0.36208334826666733 0 -0.039922269688873011 0.36896199025645221 0 -0.024070166689737289 0.38149000389404819 0 -0.018358402349361761 0.36208334826666733 0 -0.039922269688873011 0.36896199025645221 0 -0.042274172550674893 0.35095376010721602 0 -0.039922269688873011 0.36896199025645221 0 -0.042274172550674893 0.35095376010721602 0 -0.057879114327192581 0.35745673120328619 0 -0.056335720156082 0.33348201394715932 0 -0.042274172550674893 0.35095376010721602 0 -0.057879114327192581 0.35745673120328619 0 -0.056335720156082 0.33348201394715932 0 -0.057879114327192581 0.35745673120328619 0 -0.067823599482729355 0.34477950862267798 0 -0.056335720156082 0.33348201394715932 0 -0.057879114327192581 0.35745673120328619 0 -0.039922269688873011 0.36896199025645221 0 -0.057879114327192581 0.35745673120328619 0 -0.050429987128583743 0.37346132338962512 0 -0.057879114327192581 0.35745673120328619 0 -0.050429987128583743 0.37346132338962512 0 -0.059422508498303168 0.38143144845941318 0 -0.057879114327192581 0.35745673120328619 0 -0.059422508498303168 0.38143144845941318 0 -0.057879114327192581 0.35745673120328619 0 -0.064972817907804944 0.36898185957824903 0 -0.059422508498303168 0.38143144845941318 0 -0.057879114327192581 0.35745673120328619 0 -0.064972817907804944 0.36898185957824903 0 -0.074727189152500706 0.36034313138512991 0 -0.064972817907804944 0.36898185957824903 0 -0.074410504969373445 0.37470461090138368 0 -0.065465142457903275 0.377905461339614 0 -0.064972817907804944 0.36898185957824903 0 -0.074727189152500706 0.36034313138512991 0 -0.074410504969373445 0.37470461090138368 0 -0.074410504969373445 0.37470461090138368 0 -0.087039586873410277 0.36302288024274731 0 -0.090835423244952196 0.37503993371520261 0 -0.074727189152500706 0.36034313138512991 0 -0.074410504969373445 0.37470461090138368 0 -0.087039586873410277 0.36302288024274731 0 -0.087039586873410277 0.36302288024274731 0 -0.098896301204299542 0.35945476356882938 0 -0.090835423244952196 0.37503993371520261 0 -0.087039586873410277 0.36302288024274731 0 -0.088804060589383574 0.34893466452703797 0 -0.098896301204299542 0.35945476356882938 0 -0.074727189152500706 0.36034313138512991 0 -0.087039586873410277 0.36302288024274731 0 -0.088804060589383574 0.34893466452703797 0 -0.057879114327192581 0.35745673120328619 0 -0.074727189152500706 0.36034313138512991 0 -0.067823599482729355 0.34477950862267798 0 -0.074727189152500706 0.36034313138512991 0 -0.088804060589383574 0.34893466452703797 0 -0.067823599482729355 0.34477950862267798 0 -0.056335720156082 0.33348201394715932 0 -0.067823599482729355 0.34477950862267798 0 -0.077993722073082528 0.33496038667169831 0 -0.056335720156082 0.33348201394715932 0 -0.077993722073082528 0.33496038667169831 0 -0.077265852040733884 0.31903768098421459 0 -0.054792325984982078 0.30950729669103172 0 -0.077265852040733884 0.31903768098421459 0 -0.054792325984982078 0.30950729669103172 0 -0.056335720156082 0.33348201394715932 0 -0.077265852040733884 0.31903768098421459 0 -0.077993722073082528 0.33496038667169831 0 -0.077265852040733884 0.31903768098421459 0 -0.099739378096483811 0.3285680652774019 0 -0.092693397477012857 0.30294179723835191 0 -0.077265852040733884 0.31903768098421459 0 -0.099739378096483811 0.3285680652774019 0 -0.077265852040733884 0.31903768098421459 0 -0.099739378096483811 0.3285680652774019 0 -0.088804060589383574 0.34893466452703797 0 -0.067823599482729355 0.34477950862267798 0 -0.077993722073082528 0.33496038667169831 0 -0.088804060589383574 0.34893466452703797 0 -0.077993722073082528 0.33496038667169831 0 -0.099739378096483811 0.3285680652774019 0 -0.088804060589383574 0.34893466452703797 0 -0.099739378096483811 0.3285680652774019 0 -0.1085429007516984 0.34829306589090719 0 -0.1167380703139579 0.31048203428828741 0 -0.092693397477012857 0.30294179723835191 0 -0.099739378096483811 0.3285680652774019 0 -0.13118095557009671 0.32106855211246149 0 -0.1167380703139579 0.31048203428828741 0 -0.1222129041522336 0.33809844957058988 0 -0.1167380703139579 0.31048203428828741 0 -0.1222129041522336 0.33809844957058988 0 -0.1167380703139579 0.31048203428828741 0 -0.099739378096483811 0.3285680652774019 0 -0.1222129041522336 0.33809844957058988 0 -0.099739378096483811 0.3285680652774019 0 -0.1222129041522336 0.33809844957058988 0 -0.1085429007516984 0.34829306589090719 0 -0.099739378096483811 0.3285680652774019 0 -0.1222129041522336 0.33809844957058988 0 -0.12506826247722341 0.35250158281848121 0 -0.1222129041522336 0.33809844957058988 0 -0.12506826247722341 0.35250158281848121 0 -0.1222129041522336 0.33809844957058988 0 -0.1085429007516984 0.34829306589090719 0 -0.12506826247722341 0.35250158281848121 0 -0.1176919397273571 0.36268383656905362 0 -0.1085429007516984 0.34829306589090719 0 -0.12911823288158131 0.37983536022227982 0 -0.13032704167910961 0.36243165272940508 0 -0.11327102142864 0.37777537597962968 0 -0.13032704167910961 0.36243165272940508 0 -0.11327102142864 0.37777537597962968 0 -0.13032704167910961 0.36243165272940508 0 -0.1176919397273571 0.36268383656905362 0 -0.11327102142864 0.37777537597962968 0 -0.1176919397273571 0.36268383656905362 0 -0.11327102142864 0.37777537597962968 0 -0.090835423244952196 0.37503993371520261 0 -0.1176919397273571 0.36268383656905362 0 -0.098896301204299542 0.35945476356882938 0 -0.090835423244952196 0.37503993371520261 0 -0.1176919397273571 0.36268383656905362 0 -0.090835423244952196 0.37503993371520261 0 -0.088804060589383574 0.34893466452703797 0 -0.098896301204299542 0.35945476356882938 0 -0.1085429007516984 0.34829306589090719 0 -0.1176919397273571 0.36268383656905362 0 -0.098896301204299542 0.35945476356882938 0 -0.1085429007516984 0.34829306589090719 0 -0.096215001178169141 0.39311909922985278 0 -0.1197635140281522 0.39469053651664998 0 -0.1028692788283667 0.40792697715546422 0 -0.096215001178169141 0.39311909922985278 0 -0.11327102142864 0.37777537597962968 0 -0.096215001178169141 0.39311909922985278 0 -0.11327102142864 0.37777537597962968 0 -0.090835423244952196 0.37503993371520261 0 -0.12911823288158131 0.37983536022227982 0 -0.11327102142864 0.37777537597962968 0 -0.1197635140281522 0.39469053651664998 0 -0.096215001178169141 0.39311909922985278 0 -0.11327102142864 0.37777537597962968 0 -0.1197635140281522 0.39469053651664998 0 -0.1344521605938403 0.40542947756698 0 -0.1197635140281522 0.39469053651664998 0 -0.1197131320615713 0.41509851415471072 0 -0.1197635140281522 0.39469053651664998 0 -0.1197131320615713 0.41509851415471072 0 -0.1028692788283667 0.40792697715546422 0 -0.1197131320615713 0.41509851415471072 0 -0.1197819061756151 0.4355791175671036 0 -0.1004273264596484 0.4260506424736451 0 -0.1197819061756151 0.4355791175671036 0 -0.1004273264596484 0.4260506424736451 0 -0.1010179582116431 0.44991273550442917 0 -0.1004273264596484 0.4260506424736451 0 -0.1028692788283667 0.40792697715546422 0 -0.079158980927698269 0.40846282248007582 0 -0.1197131320615713 0.41509851415471072 0 -0.1004273264596484 0.4260506424736451 0 -0.1028692788283667 0.40792697715546422 0 -0.1004273264596484 0.4260506424736451 0 -0.079158980927698269 0.40846282248007582 0 -0.078062670353996305 0.43873108162098451 0 -0.062102960677227412 0.42380654573029891 0 -0.049543308782333227 0.44258485767637462 0 -0.078062670353996305 0.43873108162098451 0 -0.079158980927698269 0.40846282248007582 0 -0.062102960677227412 0.42380654573029891 0 -0.078062670353996305 0.43873108162098451 0 -0.079158980927698269 0.40846282248007582 0 -0.060043517503651389 0.40544053978577538 0 -0.062102960677227412 0.42380654573029891 0 -0.079158980927698269 0.40846282248007582 0 -0.062102960677227412 0.42380654573029891 0 -0.079158980927698269 0.40846282248007582 0 -0.0709000042091847 0.39841011549711591 0 -0.060043517503651389 0.40544053978577538 0 -0.0709000042091847 0.39841011549711591 0 -0.063978906762547333 0.38739603086135171 0 -0.060043517503651389 0.40544053978577538 0 -0.079158980927698269 0.40846282248007582 0 -0.0709000042091847 0.39841011549711591 0 -0.080418611642841795 0.39234106886126058 0 -0.0709000042091847 0.39841011549711591 0 -0.080418611642841795 0.39234106886126058 0 -0.063978906762547333 0.38739603086135171 0 -0.096215001178169141 0.39311909922985278 0 -0.079158980927698269 0.40846282248007582 0 -0.096215001178169141 0.39311909922985278 0 -0.1028692788283667 0.40792697715546422 0 -0.079158980927698269 0.40846282248007582 0 -0.096215001178169141 0.39311909922985278 0 -0.079158980927698269 0.40846282248007582 0 -0.080418611642841795 0.39234106886126058 0 -0.080418611642841795 0.39234106886126058 0 -0.090835423244952196 0.37503993371520261 0 -0.063978906762547333 0.38739603086135171 0 -0.096215001178169141 0.39311909922985278 0 -0.080418611642841795 0.39234106886126058 0 -0.090835423244952196 0.37503993371520261 0 -0.074410504969373445 0.37470461090138368 0 -0.090835423244952196 0.37503993371520261 0 -0.063978906762547333 0.38739603086135171 0 -0.090835423244952196 0.37503993371520261 0 -0.063978906762547333 0.38739603086135171 0 -0.063978906762547333 0.38739603086135171 0 -0.065465142457903275 0.377905461339614 0 -0.059422508498303168 0.38143144845941318 0 -0.064972817907804944 0.36898185957824903 0 -0.065465142457903275 0.377905461339614 0 -0.059422508498303168 0.38143144845941318 0 -0.074410504969373445 0.37470461090138368 0 -0.063978906762547333 0.38739603086135171 0 -0.065465142457903275 0.377905461339614 0 -0.063978906762547333 0.38739603086135171 0 -0.059422508498303168 0.38143144845941318 0 -0.044496055999966228 0.38599512363934863 0 -0.050429987128583743 0.37346132338962512 0 -0.059422508498303168 0.38143144845941318 0 -0.044496055999966228 0.38599512363934863 0 -0.063978906762547333 0.38739603086135171 0 -0.037122390280142463 0.39975212800750071 0 -0.044496055999966228 0.38599512363934863 0 -0.063978906762547333 0.38739603086135171 0 -0.037122390280142463 0.39975212800750071 0 -0.063978906762547333 0.38739603086135171 0 -0.060043517503651389 0.40544053978577538 0 -0.037122390280142463 0.39975212800750071 0 -0.039922269688873011 0.36896199025645221 0 -0.044496055999966228 0.38599512363934863 0 -0.024070166689737289 0.38149000389404819 0 -0.039922269688873011 0.36896199025645221 0 -0.050429987128583743 0.37346132338962512 0 -0.044496055999966228 0.38599512363934863 0 -0.037122390280142463 0.39975212800750071 0 -0.044496055999966228 0.38599512363934863 0 -0.024070166689737289 0.38149000389404819 0 -0.037122390280142463 0.39975212800750071 0 -0.024070166689737289 0.38149000389404819 0 -0.010079249672031819 0.39893449676820197 0 -0.024070166689737289 0.38149000389404819 0 -0.010079249672031819 0.39893449676820197 0 0.0055573678519514856 0.37321293642611858 0 -0.024132303542891202 0.42584906098864062 0 -0.0069543589259730403 0.44297919860842278 0 0.0060319477193199467 0.42371076879434411 0 -0.010079249672031819 0.39893449676820197 0 -0.024132303542891202 0.42584906098864062 0 0.0060319477193199467 0.42371076879434411 0 -0.037122390280142463 0.39975212800750071 0 -0.010079249672031819 0.39893449676820197 0 -0.024132303542891202 0.42584906098864062 0 -0.024132303542891202 0.42584906098864062 0 -0.046210239764630977 0.41697716499392651 0 -0.049543308782333227 0.44258485767637462 0 -0.037122390280142463 0.39975212800750071 0 -0.024132303542891202 0.42584906098864062 0 -0.046210239764630977 0.41697716499392651 0 -0.060043517503651389 0.40544053978577538 0 -0.046210239764630977 0.41697716499392651 0 -0.062102960677227412 0.42380654573029891 0 -0.060043517503651389 0.40544053978577538 0 -0.037122390280142463 0.39975212800750071 0 -0.046210239764630977 0.41697716499392651 0 -0.046210239764630977 0.41697716499392651 0 -0.062102960677227412 0.42380654573029891 0 -0.049543308782333227 0.44258485767637462 0 -0.049543308782333227 0.44258485767637462 0 -0.027350823556969481 0.45793495061936129 0 -0.043998745743371877 0.47493102995471059 0 -0.049543308782333227 0.44258485767637462 0 -0.043998745743371877 0.47493102995471059 0 -0.065162537328425599 0.46130308120502139 0 -0.024132303542891202 0.42584906098864062 0 -0.049543308782333227 0.44258485767637462 0 -0.027350823556969481 0.45793495061936129 0 -0.024132303542891202 0.42584906098864062 0 -0.027350823556969481 0.45793495061936129 0 -0.0069543589259730403 0.44297919860842278 0 -0.027350823556969481 0.45793495061936129 0 -0.0069543589259730403 0.44297919860842278 0 -0.01072829015554656 0.47276361289802232 0 -0.0069543589259730403 0.44297919860842278 0 -0.01072829015554656 0.47276361289802232 0 0.0074618156551188993 0.4591590341350224 0 -0.013947550758504731 0.5 0 -0.01072829015554656 0.47276361289802232 0 0.0098370932449210607 0.47853771561760389 0 -0.027350823556969481 0.45793495061936129 0 -0.01072829015554656 0.47276361289802232 0 -0.02771179241367281 0.48255498525049012 0 -0.013947550758504731 0.5 0 -0.02771179241367281 0.48255498525049012 0 -0.041724146383453682 0.5 0 -0.013947550758504731 0.5 0 -0.01072829015554656 0.47276361289802232 0 -0.02771179241367281 0.48255498525049012 0 -0.02771179241367281 0.48255498525049012 0 -0.041724146383453682 0.5 0 -0.043998745743371877 0.47493102995471059 0 -0.027350823556969481 0.45793495061936129 0 -0.02771179241367281 0.48255498525049012 0 -0.043998745743371877 0.47493102995471059 0 -0.043998745743371877 0.47493102995471059 0 -0.061089056887043393 0.48252676808346862 0 -0.065162537328425599 0.46130308120502139 0 -0.041724146383453682 0.5 0 -0.061089056887043393 0.48252676808346862 0 -0.069500742008402616 0.5 0 -0.041724146383453682 0.5 0 -0.043998745743371877 0.47493102995471059 0 -0.061089056887043393 0.48252676808346862 0 -0.061089056887043393 0.48252676808346862 0 -0.069500742008402616 0.5 0 -0.085059112971563197 0.47639972925761093 0 -0.069500742008402616 0.5 0 -0.085059112971563197 0.47639972925761093 0 -0.097277337633351557 0.5 0 -0.061089056887043393 0.48252676808346862 0 -0.085059112971563197 0.47639972925761093 0 -0.065162537328425599 0.46130308120502139 0 -0.085059112971563197 0.47639972925761093 0 -0.065162537328425599 0.46130308120502139 0 -0.08232556971640706 0.45658665689701139 0 -0.065162537328425599 0.46130308120502139 0 -0.078062670353996305 0.43873108162098451 0 -0.08232556971640706 0.45658665689701139 0 -0.049543308782333227 0.44258485767637462 0 -0.065162537328425599 0.46130308120502139 0 -0.078062670353996305 0.43873108162098451 0 -0.1004273264596484 0.4260506424736451 0 -0.078062670353996305 0.43873108162098451 0 -0.1010179582116431 0.44991273550442917 0 -0.078062670353996305 0.43873108162098451 0 -0.08232556971640706 0.45658665689701139 0 -0.1010179582116431 0.44991273550442917 0 -0.085059112971563197 0.47639972925761093 0 -0.08232556971640706 0.45658665689701139 0 -0.1010179582116431 0.44991273550442917 0 -0.085059112971563197 0.47639972925761093 0 -0.1010179582116431 0.44991273550442917 0 -0.1111439796713484 0.47585227863606272 0 -0.1197819061756151 0.4355791175671036 0 -0.1010179582116431 0.44991273550442917 0 -0.1195037747543428 0.45466364534398118 0 -0.13625357232312629 0.46381464741799988 0 -0.1195037747543428 0.45466364534398118 0 -0.1111439796713484 0.47585227863606272 0 -0.1010179582116431 0.44991273550442917 0 -0.1195037747543428 0.45466364534398118 0 -0.1111439796713484 0.47585227863606272 0 -0.1250539332583005 0.5 0 -0.1111439796713484 0.47585227863606272 0 -0.097277337633351557 0.5 0 -0.085059112971563197 0.47639972925761093 0 -0.1111439796713484 0.47585227863606272 0 -0.097277337633351557 0.5 0 -0.15663694264483541 0.080743475212518845 0 -0.1830526003938682 0.085827068754780703 0 -0.1700196107206626 0.1081491983194348 0 -0.15663694264483541 0.080743475212518845 0 -0.1830526003938682 0.085827068754780703 0 -0.15663694264483541 0.080743475212518845 0 -0.1711061680009025 0.066993968969244616 0 -0.15206634029275359 0.056478704007125152 0 -0.15663694264483541 0.080743475212518845 0 -0.1711061680009025 0.066993968969244616 0 -0.1830526003938682 0.085827068754780703 0 -0.1711061680009025 0.066993968969244616 0 -0.1830526003938682 0.085827068754780703 0 -0.19318568222882909 0.073532694628602693 0 -0.1711061680009025 0.066993968969244616 0 -0.1837916851398072 0.059008394714967147 0 -0.19318568222882909 0.073532694628602693 0 -0.1830526003938682 0.085827068754780703 0 -0.1700196107206626 0.1081491983194348 0 -0.19339860991671259 0.1051966207091759 0 -0.1700196107206626 0.1081491983194348 0 -0.19084174445693611 0.1245634351656021 0 -0.17488578910003999 0.13013339449781139 0 -0.1700196107206626 0.1081491983194348 0 -0.19084174445693611 0.1245634351656021 0 -0.19339860991671259 0.1051966207091759 0 -0.1700196107206626 0.1081491983194348 0 -0.15787523076428581 0.12827481072576119 0 -0.17488578910003999 0.13013339449781139 0 -0.1700196107206626 0.1081491983194348 0 -0.15292686983659179 0.1127269500658543 0 -0.15787523076428581 0.12827481072576119 0 -0.15663694264483541 0.080743475212518845 0 -0.1700196107206626 0.1081491983194348 0 -0.1451341910417672 0.09601653139375961 0 -0.1700196107206626 0.1081491983194348 0 -0.1451341910417672 0.09601653139375961 0 -0.15292686983659179 0.1127269500658543 0 -0.1451341910417672 0.09601653139375961 0 -0.15292686983659179 0.1127269500658543 0 -0.13353023720479301 0.1070165600499997 0 -0.15292686983659179 0.1127269500658543 0 -0.1393277982933247 0.1218339919005076 0 -0.15787523076428581 0.12827481072576119 0 -0.15292686983659179 0.1127269500658543 0 -0.13353023720479301 0.1070165600499997 0 -0.15292686983659179 0.1127269500658543 0 -0.1393277982933247 0.1218339919005076 0 -0.13353023720479301 0.1070165600499997 0 -0.13353023720479301 0.1070165600499997 0 -0.11720615843901611 0.1137246367104372 0 -0.1245516134801372 0.1235398944364224 0 -0.1393277982933247 0.1218339919005076 0 -0.13353023720479301 0.1070165600499997 0 -0.1245516134801372 0.1235398944364224 0 -0.1451341910417672 0.09601653139375961 0 -0.13353023720479301 0.1070165600499997 0 -0.12648490221554301 0.093182677969538608 0 -0.1451341910417672 0.09601653139375961 0 -0.12648490221554301 0.093182677969538608 0 -0.13022128489580259 0.075659881670257001 0 -0.15663694264483541 0.080743475212518845 0 -0.13022128489580259 0.075659881670257001 0 -0.15663694264483541 0.080743475212518845 0 -0.1451341910417672 0.09601653139375961 0 -0.13022128489580259 0.075659881670257001 0 -0.15663694264483541 0.080743475212518845 0 -0.13022128489580259 0.075659881670257001 0 -0.15206634029275359 0.056478704007125152 0 -0.13022128489580259 0.075659881670257001 0 -0.127032317358686 0.059237122868742942 0 -0.15206634029275359 0.056478704007125152 0 -0.127032317358686 0.059237122868742942 0 -0.12934916427595389 0.040253564639695323 0 -0.15206634029275359 0.056478704007125152 0 -0.127032317358686 0.059237122868742942 0 -0.15206634029275359 0.056478704007125152 0 -0.15206634029275359 0.056478704007125152 0 -0.14256120327544911 0.02856597864924473 0 -0.1621114551755086 0.032962621493935487 0 -0.12934916427595389 0.040253564639695323 0 -0.15206634029275359 0.056478704007125152 0 -0.14256120327544911 0.02856597864924473 0 -0.1491730936568573 -0.0015986133476244249 0 -0.12871323843160851 0.013123773824541321 0 -0.14256120327544911 0.02856597864924473 0 -0.12934916427595389 0.040253564639695323 0 -0.12871323843160851 0.013123773824541321 0 -0.14256120327544911 0.02856597864924473 0 -0.14256120327544911 0.02856597864924473 0 -0.1645297020792596 0.01354840476793108 0 -0.1491730936568573 -0.0015986133476244249 0 -0.14256120327544911 0.02856597864924473 0 -0.1645297020792596 0.01354840476793108 0 -0.1491730936568573 -0.0015986133476244249 0 -0.165628603269176 -0.0020946546525552911 0 -0.1645297020792596 0.01354840476793108 0 -0.165628603269176 -0.0020946546525552911 0 -0.1645297020792596 0.01354840476793108 0 -0.17747844821372899 0.0046966960789819739 0 -0.1491730936568573 -0.0015986133476244249 0 -0.1645297020792596 0.01354840476793108 0 -0.1645297020792596 0.01354840476793108 0 -0.17747844821372899 0.0046966960789819739 0 -0.14256120327544911 0.02856597864924473 0 -0.1645297020792596 0.01354840476793108 0 -0.1621114551755086 0.032962621493935487 0 -0.1645297020792596 0.01354840476793108 0 -0.1754200945780362 0.024290162838928941 0 -0.1621114551755086 0.032962621493935487 0 -0.1645297020792596 0.01354840476793108 0 -0.1754200945780362 0.024290162838928941 0 -0.1754200945780362 0.024290162838928941 0 -0.1863104870768145 0.035031920909925143 0 -0.18836884071250709 0.015438454149979431 0 -0.1863104870768145 0.035031920909925143 0 -0.18836884071250709 0.015438454149979431 0 -0.1754200945780362 0.024290162838928941 0 -0.1863104870768145 0.035031920909925143 0 -0.1645297020792596 0.01354840476793108 0 -0.1754200945780362 0.024290162838928941 0 -0.17747844821372899 0.0046966960789819739 0 -0.19042719434819899 -0.0041550126099663444 0 -0.17747844821372899 0.0046966960789819739 0 -0.18836884071250709 0.015438454149979431 0 -0.1754200945780362 0.024290162838928941 0 -0.17747844821372899 0.0046966960789819739 0 -0.18836884071250709 0.015438454149979431 0 -0.19042719434819899 -0.0041550126099663444 0 -0.17747844821372899 0.0046966960789819739 0 -0.1711061680009025 0.066993968969244616 0 -0.15206634029275359 0.056478704007125152 0 -0.16769592869189129 0.049187346522841263 0 -0.16769592869189129 0.049187346522841263 0 -0.1621114551755086 0.032962621493935487 0 -0.17506593013241181 0.04009608929611963 0 -0.1754200945780362 0.024290162838928941 0 -0.1621114551755086 0.032962621493935487 0 -0.17506593013241181 0.04009608929611963 0 -0.15206634029275359 0.056478704007125152 0 -0.16769592869189129 0.049187346522841263 0 -0.1621114551755086 0.032962621493935487 0 -0.17506593013241181 0.04009608929611963 0 -0.1863104870768145 0.035031920909925143 0 -0.1837916851398072 0.059008394714967147 0 -0.1754200945780362 0.024290162838928941 0 -0.17506593013241181 0.04009608929611963 0 -0.1863104870768145 0.035031920909925143 0 -0.1711061680009025 0.066993968969244616 0 -0.16769592869189129 0.049187346522841263 0 -0.1837916851398072 0.059008394714967147 0 -0.1863104870768145 0.035031920909925143 0 -0.1837916851398072 0.059008394714967147 0 -0.16769592869189129 0.049187346522841263 0 -0.17506593013241181 0.04009608929611963 0 -0.1837916851398072 0.059008394714967147 0 -0.1837916851398072 0.059008394714967147 0 -0.19452984270563101 0.043139096998774627 0 -0.20332036361259551 0.050689206694382719 0 -0.1837916851398072 0.059008394714967147 0 -0.20332036361259551 0.050689206694382719 0 -0.20456175264065951 0.062578471934716551 0 -0.19452984270563101 0.043139096998774627 0 -0.21037474937150111 0.041304159971551763 0 -0.20085743853258101 0.028503814056718799 0 -0.1863104870768145 0.035031920909925143 0 -0.19452984270563101 0.043139096998774627 0 -0.19452984270563101 0.043139096998774627 0 -0.21037474937150111 0.041304159971551763 0 -0.20332036361259551 0.050689206694382719 0 -0.1863104870768145 0.035031920909925143 0 -0.1837916851398072 0.059008394714967147 0 -0.19452984270563101 0.043139096998774627 0 -0.1863104870768145 0.035031920909925143 0 -0.19452984270563101 0.043139096998774627 0 -0.20085743853258101 0.028503814056718799 0 -0.21037474937150111 0.041304159971551763 0 -0.20085743853258101 0.028503814056718799 0 -0.22545827068029259 0.036116150134317411 0 -0.20332036361259551 0.050689206694382719 0 -0.22296130914615259 0.052586450458242291 0 -0.20456175264065951 0.062578471934716551 0 -0.21037474937150111 0.041304159971551763 0 -0.20332036361259551 0.050689206694382719 0 -0.22296130914615259 0.052586450458242291 0 -0.22296130914615259 0.052586450458242291 0 -0.21675602153729279 0.065690732096641113 0 -0.20456175264065951 0.062578471934716551 0 -0.19042719434819899 -0.0041550126099663444 0 -0.18836884071250709 0.015438454149979431 0 -0.20935718198892739 0.01501365701836067 0 -0.1932560932975623 -0.006088836097596145 0 -0.20935718198892739 0.01501365701836067 0 -0.19042719434819899 -0.0041550126099663444 0 -0.1932560932975623 -0.006088836097596145 0 -0.20935718198892739 0.01501365701836067 0 -0.19042719434819899 -0.0041550126099663444 0 -0.18836884071250709 0.015438454149979431 0 -0.1863104870768145 0.035031920909925143 0 -0.18836884071250709 0.015438454149979431 0 -0.20085743853258101 0.028503814056718799 0 -0.18836884071250709 0.015438454149979431 0 -0.20085743853258101 0.028503814056718799 0 -0.20935718198892739 0.01501365701836067 0 -0.20935718198892739 0.01501365701836067 0 -0.22545827068029259 0.036116150134317411 0 -0.20085743853258101 0.028503814056718799 0 -0.20935718198892739 0.01501365701836067 0 -0.22545827068029259 0.036116150134317411 0 -0.20979008560441481 -0.00036056365726287249 0 -0.20935718198892739 0.01501365701836067 0 -0.22703019481622139 0.013561185150131111 0 -0.1932560932975623 -0.006088836097596145 0 -0.20979008560441481 -0.00036056365726287249 0 -0.20935718198892739 0.01501365701836067 0 -0.20979008560441481 -0.00036056365726287249 0 -0.2246056469087612 -0.0044901169212649451 0 -0.22703019481622139 0.013561185150131111 0 -0.2246056469087612 -0.0044901169212649451 0 -0.22703019481622139 0.013561185150131111 0 -0.24064278425173949 0.0039350805849091954 0 -0.22703019481622139 0.013561185150131111 0 -0.24509905070280441 0.028053838272241571 0 -0.22545827068029259 0.036116150134317411 0 -0.20935718198892739 0.01501365701836067 0 -0.22703019481622139 0.013561185150131111 0 -0.22545827068029259 0.036116150134317411 0 -0.26231918469715187 0.011442998676570891 0 -0.24509905070280441 0.028053838272241571 0 -0.24064278425173949 0.0039350805849091954 0 -0.22703019481622139 0.013561185150131111 0 -0.24509905070280441 0.028053838272241571 0 -0.24064278425173949 0.0039350805849091954 0 -0.22296130914615259 0.052586450458242291 0 -0.24155935937165779 0.057218643250274363 0 -0.22727197142910391 0.0749306041085403 0 -0.22296130914615259 0.052586450458242291 0 -0.22545827068029259 0.036116150134317411 0 -0.24155935937165779 0.057218643250274363 0 -0.22296130914615259 0.052586450458242291 0 -0.24155935937165779 0.057218643250274363 0 -0.21037474937150111 0.041304159971551763 0 -0.22296130914615259 0.052586450458242291 0 -0.22545827068029259 0.036116150134317411 0 -0.22545827068029259 0.036116150134317411 0 -0.24155935937165779 0.057218643250274363 0 -0.24509905070280441 0.028053838272241571 0 -0.22545827068029259 0.036116150134317411 0 -0.24155935937165779 0.057218643250274363 0 -0.25683717479782531 0.046290360374415418 0 -0.24509905070280441 0.028053838272241571 0 -0.24155935937165779 0.057218643250274363 0 -0.24155935937165779 0.057218643250274363 0 -0.24109361558267781 0.07727106869570613 0 -0.22727197142910391 0.0749306041085403 0 -0.25965921563801592 0.080940771584705584 0 -0.24155935937165779 0.057218643250274363 0 -0.24109361558267781 0.07727106869570613 0 -0.24109361558267781 0.07727106869570613 0 -0.22727197142910391 0.0749306041085403 0 -0.23588391589193361 0.095994255839304377 0 -0.25965921563801592 0.080940771584705584 0 -0.24109361558267781 0.07727106869570613 0 -0.23588391589193361 0.095994255839304377 0 -0.22727197142910391 0.0749306041085403 0 -0.2094682581429009 0.090910662297042547 0 -0.23588391589193361 0.095994255839304377 0 -0.2094682581429009 0.090910662297042547 0 -0.23588391589193361 0.095994255839304377 0 -0.22296130914615259 0.052586450458242291 0 -0.22727197142910391 0.0749306041085403 0 -0.21675602153729279 0.065690732096641113 0 -0.22727197142910391 0.0749306041085403 0 -0.21675602153729279 0.065690732096641113 0 -0.2087229699430613 0.074679147994866704 0 -0.21675602153729279 0.065690732096641113 0 -0.20456175264065951 0.062578471934716551 0 -0.2087229699430613 0.074679147994866704 0 -0.22727197142910391 0.0749306041085403 0 -0.2087229699430613 0.074679147994866704 0 -0.2094682581429009 0.090910662297042547 0 -0.2087229699430613 0.074679147994866704 0 -0.2094682581429009 0.090910662297042547 0 -0.19318568222882909 0.073532694628602693 0 -0.1830526003938682 0.085827068754780703 0 -0.2094682581429009 0.090910662297042547 0 -0.1830526003938682 0.085827068754780703 0 -0.2094682581429009 0.090910662297042547 0 -0.19318568222882909 0.073532694628602693 0 -0.1837916851398072 0.059008394714967147 0 -0.20456175264065951 0.062578471934716551 0 -0.19318568222882909 0.073532694628602693 0 -0.20456175264065951 0.062578471934716551 0 -0.2087229699430613 0.074679147994866704 0 -0.19318568222882909 0.073532694628602693 0 -0.19084174445693611 0.1245634351656021 0 -0.19339860991671259 0.1051966207091759 0 -0.21361083586919541 0.1165327390090195 0 -0.1830526003938682 0.085827068754780703 0 -0.2094682581429009 0.090910662297042547 0 -0.19339860991671259 0.1051966207091759 0 -0.2094682581429009 0.090910662297042547 0 -0.19339860991671259 0.1051966207091759 0 -0.21361083586919541 0.1165327390090195 0 -0.21361083586919541 0.1165327390090195 0 -0.23588391589193361 0.095994255839304377 0 -0.2377119113784632 0.1184279918264306 0 -0.21361083586919541 0.1165327390090195 0 -0.2377119113784632 0.1184279918264306 0 -0.22522284473276541 0.1386863335032463 0 -0.2094682581429009 0.090910662297042547 0 -0.21361083586919541 0.1165327390090195 0 -0.23588391589193361 0.095994255839304377 0 -0.26229957364096629 0.10107784938156621 0 -0.23588391589193361 0.095994255839304377 0 -0.26229957364096629 0.10107784938156621 0 -0.23588391589193361 0.095994255839304377 0 -0.2377119113784632 0.1184279918264306 0 -0.25468488244533621 0.12734607261513969 0 -0.2377119113784632 0.1184279918264306 0 -0.24622100901902591 0.14003801238151611 0 -0.2377119113784632 0.1184279918264306 0 -0.24622100901902591 0.14003801238151611 0 -0.22522284473276541 0.1386863335032463 0 -0.22522284473276541 0.1386863335032463 0 -0.23734612993507101 0.15713168557826859 0 -0.2158917477508506 0.15854911747006531 0 -0.2595150430760933 0.15635442234335131 0 -0.24622100901902591 0.14003801238151611 0 -0.23734612993507101 0.15713168557826859 0 -0.24622100901902591 0.14003801238151611 0 -0.22522284473276541 0.1386863335032463 0 -0.23734612993507101 0.15713168557826859 0 -0.2595150430760933 0.15635442234335131 0 -0.23734612993507101 0.15713168557826859 0 -0.24851141791789419 0.17283258723328199 0 -0.23734612993507101 0.15713168557826859 0 -0.24851141791789419 0.17283258723328199 0 -0.22800856341125761 0.17368297724154241 0 -0.24851141791789419 0.17283258723328199 0 -0.22800856341125761 0.17368297724154241 0 -0.24003375834807469 0.19097967105946809 0 -0.22800856341125761 0.17368297724154241 0 -0.2081520135359137 0.1765750809740651 0 -0.2202104826523377 0.18862080058388389 0 -0.22800856341125761 0.17368297724154241 0 -0.24003375834807469 0.19097967105946809 0 -0.2202104826523377 0.18862080058388389 0 -0.23734612993507101 0.15713168557826859 0 -0.22800856341125761 0.17368297724154241 0 -0.2158917477508506 0.15854911747006531 0 -0.22800856341125761 0.17368297724154241 0 -0.2158917477508506 0.15854911747006531 0 -0.2081520135359137 0.1765750809740651 0 -0.2158917477508506 0.15854911747006531 0 -0.2081520135359137 0.1765750809740651 0 -0.19488383523045899 0.1622388996966781 0 -0.2081520135359137 0.1765750809740651 0 -0.2202104826523377 0.18862080058388389 0 -0.20454170784362161 0.19539967970920169 0 -0.2081520135359137 0.1765750809740651 0 -0.1882627849179849 0.18111686009446309 0 -0.19488383523045899 0.1622388996966781 0 -0.2081520135359137 0.1765750809740651 0 -0.1882627849179849 0.18111686009446309 0 -0.20454170784362161 0.19539967970920169 0 -0.19488383523045899 0.1622388996966781 0 -0.20360301612267431 0.14163185673946971 0 -0.1860997814973237 0.14604413987586129 0 -0.19084174445693611 0.1245634351656021 0 -0.20360301612267431 0.14163185673946971 0 -0.1860997814973237 0.14604413987586129 0 -0.19084174445693611 0.1245634351656021 0 -0.21361083586919541 0.1165327390090195 0 -0.20360301612267431 0.14163185673946971 0 -0.21361083586919541 0.1165327390090195 0 -0.22522284473276541 0.1386863335032463 0 -0.20360301612267431 0.14163185673946971 0 -0.2158917477508506 0.15854911747006531 0 -0.19488383523045899 0.1622388996966781 0 -0.20360301612267431 0.14163185673946971 0 -0.22522284473276541 0.1386863335032463 0 -0.2158917477508506 0.15854911747006531 0 -0.20360301612267431 0.14163185673946971 0 -0.235708961880149 0.25177341949651721 0 -0.22440015460856469 0.23570280027985291 0 -0.21704530339763251 0.24959003801806731 0 -0.25499370846812258 0.25382717309031783 0 -0.235708961880149 0.25177341949651721 0 -0.24819191351699149 0.23495274290407281 0 -0.235708961880149 0.25177341949651721 0 -0.22440015460856469 0.23570280027985291 0 -0.24819191351699149 0.23495274290407281 0 -0.24819191351699149 0.23495274290407281 0 -0.232059246576449 0.2201484966464303 0 -0.24867924549348591 0.21477896355887771 0 -0.22440015460856469 0.23570280027985291 0 -0.24819191351699149 0.23495274290407281 0 -0.232059246576449 0.2201484966464303 0 -0.22440015460856469 0.23570280027985291 0 -0.232059246576449 0.2201484966464303 0 -0.2069692845496246 0.21800249482456649 0 -0.232059246576449 0.2201484966464303 0 -0.2255417900286649 0.2046447079793568 0 -0.2069692845496246 0.21800249482456649 0 -0.2255417900286649 0.2046447079793568 0 -0.24867924549348591 0.21477896355887771 0 -0.24003375834807469 0.19097967105946809 0 -0.232059246576449 0.2201484966464303 0 -0.2255417900286649 0.2046447079793568 0 -0.24867924549348591 0.21477896355887771 0 -0.2255417900286649 0.2046447079793568 0 -0.24003375834807469 0.19097967105946809 0 -0.2202104826523377 0.18862080058388389 0 -0.2255417900286649 0.2046447079793568 0 -0.2202104826523377 0.18862080058388389 0 -0.20454170784362161 0.19539967970920169 0 -0.1882627849179849 0.18111686009446309 0 -0.20454170784362161 0.19539967970920169 0 -0.1837859096342922 0.20268643890778701 0 -0.2069692845496246 0.21800249482456649 0 -0.18138357169136271 0.22571773857769681 0 -0.1837859096342922 0.20268643890778701 0 -0.20454170784362161 0.19539967970920169 0 -0.2069692845496246 0.21800249482456649 0 -0.1837859096342922 0.20268643890778701 0 -0.2255417900286649 0.2046447079793568 0 -0.20454170784362161 0.19539967970920169 0 -0.2069692845496246 0.21800249482456649 0 -0.22440015460856469 0.23570280027985291 0 -0.2069692845496246 0.21800249482456649 0 -0.20231806928452301 0.2402473460012845 0 -0.2069692845496246 0.21800249482456649 0 -0.20231806928452301 0.2402473460012845 0 -0.18138357169136271 0.22571773857769681 0 -0.22440015460856469 0.23570280027985291 0 -0.20231806928452301 0.2402473460012845 0 -0.21704530339763251 0.24959003801806731 0 -0.17734599942912599 0.25099626575524658 0 -0.18138357169136271 0.22571773857769681 0 -0.17734599942912599 0.25099626575524658 0 -0.15760459646338579 0.24197264035209939 0 -0.18138357169136271 0.22571773857769681 0 -0.17734599942912599 0.25099626575524658 0 -0.20231806928452301 0.2402473460012845 0 -0.18138357169136271 0.22571773857769681 0 -0.15760459646338579 0.24197264035209939 0 -0.18138357169136271 0.22571773857769681 0 -0.15319132242995681 0.21655189328504029 0 -0.18138357169136271 0.22571773857769681 0 -0.1666265123535097 0.20559731299637149 0 -0.15319132242995681 0.21655189328504029 0 -0.18138357169136271 0.22571773857769681 0 -0.1666265123535097 0.20559731299637149 0 -0.1837859096342922 0.20268643890778701 0 -0.1882627849179849 0.18111686009446309 0 -0.1837859096342922 0.20268643890778701 0 -0.16807210850786741 0.18665824817956761 0 -0.1666265123535097 0.20559731299637149 0 -0.1837859096342922 0.20268643890778701 0 -0.16807210850786741 0.18665824817956761 0 -0.1666265123535097 0.20559731299637149 0 -0.14669964950406919 0.19637224603176559 0 -0.16807210850786741 0.18665824817956761 0 -0.14669964950406919 0.19637224603176559 0 -0.1328116149223689 0.20667813615449909 0 -0.12499868893356809 0.19169464401862171 0 -0.14669964950406919 0.19637224603176559 0 -0.1399231152302392 0.17688636379841899 0 -0.12499868893356809 0.19169464401862171 0 -0.1328116149223689 0.20667813615449909 0 -0.15319132242995681 0.21655189328504029 0 -0.12675244561454579 0.222092340863211 0 -0.14669964950406919 0.19637224603176559 0 -0.1328116149223689 0.20667813615449909 0 -0.15319132242995681 0.21655189328504029 0 -0.1666265123535097 0.20559731299637149 0 -0.14669964950406919 0.19637224603176559 0 -0.15319132242995681 0.21655189328504029 0 -0.15760459646338579 0.24197264035209939 0 -0.15319132242995681 0.21655189328504029 0 -0.13568927126994809 0.24003222742162769 0 -0.15319132242995681 0.21655189328504029 0 -0.12675244561454579 0.222092340863211 0 -0.13568927126994809 0.24003222742162769 0 -0.12675244561454579 0.222092340863211 0 -0.13568927126994809 0.24003222742162769 0 -0.1197488402286296 0.23685543728298239 0 -0.15319132242995681 0.21655189328504029 0 -0.12675244561454579 0.222092340863211 0 -0.13568927126994809 0.24003222742162769 0 -0.1255001957498163 0.24628542454034369 0 -0.1197488402286296 0.23685543728298239 0 -0.13243016478697431 0.25209722541406521 0 -0.13568927126994809 0.24003222742162769 0 -0.1255001957498163 0.24628542454034369 0 -0.13243016478697431 0.25209722541406521 0 -0.1428175167599289 0.25447727587941171 0 -0.13568927126994809 0.24003222742162769 0 -0.1428175167599289 0.25447727587941171 0 -0.15760459646338579 0.24197264035209939 0 -0.13568927126994809 0.24003222742162769 0 -0.16959257806099201 0.14363538840239731 0 -0.17014113475575571 0.1631428130994792 0 -0.15461072186907229 0.14629080684373741 0 -0.16959257806099201 0.14363538840239731 0 -0.15787523076428581 0.12827481072576119 0 -0.15461072186907229 0.14629080684373741 0 -0.16959257806099201 0.14363538840239731 0 -0.15787523076428581 0.12827481072576119 0 -0.17488578910003999 0.13013339449781139 0 -0.19084174445693611 0.1245634351656021 0 -0.17488578910003999 0.13013339449781139 0 -0.1860997814973237 0.14604413987586129 0 -0.16959257806099201 0.14363538840239731 0 -0.17488578910003999 0.13013339449781139 0 -0.1860997814973237 0.14604413987586129 0 -0.16959257806099201 0.14363538840239731 0 -0.1860997814973237 0.14604413987586129 0 -0.17014113475575571 0.1631428130994792 0 -0.19488383523045899 0.1622388996966781 0 -0.1860997814973237 0.14604413987586129 0 -0.17014113475575571 0.1631428130994792 0 -0.1882627849179849 0.18111686009446309 0 -0.19488383523045899 0.1622388996966781 0 -0.17014113475575571 0.1631428130994792 0 -0.1882627849179849 0.18111686009446309 0 -0.16807210850786741 0.18665824817956761 0 -0.17014113475575571 0.1631428130994792 0 -0.16807210850786741 0.18665824817956761 0 -0.17014113475575571 0.1631428130994792 0 -0.15460799896993729 0.17678081089148681 0 -0.14669964950406919 0.19637224603176559 0 -0.16807210850786741 0.18665824817956761 0 -0.15460799896993729 0.17678081089148681 0 -0.17014113475575571 0.1631428130994792 0 -0.14820398685175501 0.1608443833482027 0 -0.15460799896993729 0.17678081089148681 0 -0.17014113475575571 0.1631428130994792 0 -0.14820398685175501 0.1608443833482027 0 -0.15461072186907229 0.14629080684373741 0 -0.14820398685175501 0.1608443833482027 0 -0.1399231152302392 0.17688636379841899 0 -0.13605794162343379 0.16359888296998551 0 -0.14820398685175501 0.1608443833482027 0 -0.15460799896993729 0.17678081089148681 0 -0.1399231152302392 0.17688636379841899 0 -0.14669964950406919 0.19637224603176559 0 -0.15460799896993729 0.17678081089148681 0 -0.1399231152302392 0.17688636379841899 0 -0.1399231152302392 0.17688636379841899 0 -0.1268929288227609 0.1763703484421851 0 -0.13605794162343379 0.16359888296998551 0 -0.1399231152302392 0.17688636379841899 0 -0.1268929288227609 0.1763703484421851 0 -0.12499868893356809 0.19169464401862171 0 -0.14820398685175501 0.1608443833482027 0 -0.13605794162343379 0.16359888296998551 0 -0.1341647101557864 0.1508953536112656 0 -0.1268929288227609 0.1763703484421851 0 -0.13605794162343379 0.16359888296998551 0 -0.1249104133592906 0.16404472514522511 0 -0.13605794162343379 0.16359888296998551 0 -0.1341647101557864 0.1508953536112656 0 -0.1249104133592906 0.16404472514522511 0 -0.1341647101557864 0.1508953536112656 0 -0.13150435411506001 0.13394440018508219 0 -0.1182053426511263 0.14067019212956841 0 -0.1341647101557864 0.1508953536112656 0 -0.12054515040686239 0.15360453176782721 0 -0.1249104133592906 0.16404472514522511 0 -0.14820398685175501 0.1608443833482027 0 -0.1341647101557864 0.1508953536112656 0 -0.15461072186907229 0.14629080684373741 0 -0.1341647101557864 0.1508953536112656 0 -0.15461072186907229 0.14629080684373741 0 -0.14393234826573029 0.13608300399652579 0 -0.15787523076428581 0.12827481072576119 0 -0.15461072186907229 0.14629080684373741 0 -0.14393234826573029 0.13608300399652579 0 -0.1393277982933247 0.1218339919005076 0 -0.15787523076428581 0.12827481072576119 0 -0.14393234826573029 0.13608300399652579 0 -0.1393277982933247 0.1218339919005076 0 -0.14393234826573029 0.13608300399652579 0 -0.13150435411506001 0.13394440018508219 0 -0.1341647101557864 0.1508953536112656 0 -0.14393234826573029 0.13608300399652579 0 -0.13150435411506001 0.13394440018508219 0 -0.1393277982933247 0.1218339919005076 0 -0.13150435411506001 0.13394440018508219 0 -0.1245516134801372 0.1235398944364224 0 -0.1103311508786855 0.1267962204314145 0 -0.1182053426511263 0.14067019212956841 0 -0.1245516134801372 0.1235398944364224 0 -0.13150435411506001 0.13394440018508219 0 -0.1182053426511263 0.14067019212956841 0 -0.1245516134801372 0.1235398944364224 0 -0.1103311508786855 0.1267962204314145 0 -0.10326673707718501 0.13967343542725719 0 -0.1182053426511263 0.14067019212956841 0 -0.1103311508786855 0.1267962204314145 0 -0.10326673707718501 0.13967343542725719 0 -0.09316345007512529 0.12787552256921189 0 -0.10326673707718501 0.13967343542725719 0 -0.09316345007512529 0.12787552256921189 0 -0.092131834798674483 0.1419684547906048 0 -0.097987996390648938 0.14880638782865771 0 -0.1074670061447751 0.1518790602016101 0 -0.096959084729657391 0.15837331258183651 0 -0.10326673707718501 0.13967343542725719 0 -0.097987996390648938 0.14880638782865771 0 -0.092131834798674483 0.1419684547906048 0 -0.10326673707718501 0.13967343542725719 0 -0.097987996390648938 0.14880638782865771 0 -0.1074670061447751 0.1518790602016101 0 -0.1341647101557864 0.1508953536112656 0 -0.1182053426511263 0.14067019212956841 0 -0.12054515040686239 0.15360453176782721 0 -0.1074670061447751 0.1518790602016101 0 -0.12054515040686239 0.15360453176782721 0 -0.1126512217624015 0.16285054606665661 0 -0.1074670061447751 0.1518790602016101 0 -0.1182053426511263 0.14067019212956841 0 -0.12054515040686239 0.15360453176782721 0 -0.10326673707718501 0.13967343542725719 0 -0.1074670061447751 0.1518790602016101 0 -0.1182053426511263 0.14067019212956841 0 -0.12054515040686239 0.15360453176782721 0 -0.1249104133592906 0.16404472514522511 0 -0.1126512217624015 0.16285054606665661 0 -0.1249104133592906 0.16404472514522511 0 -0.1126512217624015 0.16285054606665661 0 -0.11637701785871039 0.17348831127417749 0 -0.1268929288227609 0.1763703484421851 0 -0.1249104133592906 0.16404472514522511 0 -0.11637701785871039 0.17348831127417749 0 -0.1126512217624015 0.16285054606665661 0 -0.11637701785871039 0.17348831127417749 0 -0.1072858333755583 0.17456722243877579 0 -0.1268929288227609 0.1763703484421851 0 -0.1120490126720752 0.184857253361356 0 -0.12499868893356809 0.19169464401862171 0 -0.1268929288227609 0.1763703484421851 0 -0.11637701785871039 0.17348831127417749 0 -0.1120490126720752 0.184857253361356 0 -0.11637701785871039 0.17348831127417749 0 -0.1120490126720752 0.184857253361356 0 -0.1072858333755583 0.17456722243877579 0 -0.1120490126720752 0.184857253361356 0 -0.1023405958079656 0.1824581270336729 0 -0.10028652406250441 0.1902731657093206 0 -0.1120490126720752 0.184857253361356 0 -0.1023405958079656 0.1824581270336729 0 -0.1072858333755583 0.17456722243877579 0 -0.1072858333755583 0.17456722243877579 0 -0.09813084103478012 0.17622802545224531 0 -0.102166311117417 0.16752107144454681 0 -0.1023405958079656 0.1824581270336729 0 -0.1072858333755583 0.17456722243877579 0 -0.09813084103478012 0.17622802545224531 0 -0.1023405958079656 0.1824581270336729 0 -0.094988706548214591 0.18541764039640099 0 -0.10028652406250441 0.1902731657093206 0 -0.1023405958079656 0.1824581270336729 0 -0.09813084103478012 0.17622802545224531 0 -0.094988706548214591 0.18541764039640099 0 -0.09813084103478012 0.17622802545224531 0 -0.094988706548214591 0.18541764039640099 0 -0.088329210134843905 0.1791987974885641 0 -0.1126512217624015 0.16285054606665661 0 -0.1049439554761321 0.16035470777757421 0 -0.102166311117417 0.16752107144454681 0 -0.1074670061447751 0.1518790602016101 0 -0.1049439554761321 0.16035470777757421 0 -0.096959084729657391 0.15837331258183651 0 -0.1074670061447751 0.1518790602016101 0 -0.1126512217624015 0.16285054606665661 0 -0.1049439554761321 0.16035470777757421 0 -0.1126512217624015 0.16285054606665661 0 -0.1072858333755583 0.17456722243877579 0 -0.102166311117417 0.16752107144454681 0 -0.102166311117417 0.16752107144454681 0 -0.096959084729657391 0.15837331258183651 0 -0.092515995629183695 0.1697044090756912 0 -0.09813084103478012 0.17622802545224531 0 -0.102166311117417 0.16752107144454681 0 -0.092515995629183695 0.1697044090756912 0 -0.1049439554761321 0.16035470777757421 0 -0.102166311117417 0.16752107144454681 0 -0.096959084729657391 0.15837331258183651 0 -0.096959084729657391 0.15837331258183651 0 -0.086666267715496362 0.16260468821527621 0 -0.092515995629183695 0.1697044090756912 0 -0.096959084729657391 0.15837331258183651 0 -0.086666267715496362 0.16260468821527621 0 -0.085659100428899987 0.15150151844792581 0 -0.086666267715496362 0.16260468821527621 0 -0.092515995629183695 0.1697044090756912 0 -0.081958627914643867 0.17137670854970369 0 -0.086666267715496362 0.16260468821527621 0 -0.081958627914643867 0.17137670854970369 0 -0.07575840308360747 0.163441139767841 0 -0.086666267715496362 0.16260468821527621 0 -0.07575840308360747 0.163441139767841 0 -0.085659100428899987 0.15150151844792581 0 -0.094988706548214591 0.18541764039640099 0 -0.088329210134843905 0.1791987974885641 0 -0.085591568165451049 0.18964457383416231 0 -0.092515995629183695 0.1697044090756912 0 -0.081958627914643867 0.17137670854970369 0 -0.088329210134843905 0.1791987974885641 0 -0.09813084103478012 0.17622802545224531 0 -0.092515995629183695 0.1697044090756912 0 -0.088329210134843905 0.1791987974885641 0 -0.081958627914643867 0.17137670854970369 0 -0.088329210134843905 0.1791987974885641 0 -0.078463393140294074 0.1817173413167695 0 -0.088329210134843905 0.1791987974885641 0 -0.078463393140294074 0.1817173413167695 0 -0.085591568165451049 0.18964457383416231 0 -0.078463393140294074 0.1817173413167695 0 -0.068234498590854245 0.18510914767529271 0 -0.075499929406126029 0.19337572244943441 0 -0.078463393140294074 0.1817173413167695 0 -0.071080604079637288 0.1733479018593603 0 -0.068234498590854245 0.18510914767529271 0 -0.081958627914643867 0.17137670854970369 0 -0.078463393140294074 0.1817173413167695 0 -0.071080604079637288 0.1733479018593603 0 -0.071080604079637288 0.1733479018593603 0 -0.068234498590854245 0.18510914767529271 0 -0.061037622844945093 0.17744015881265851 0 -0.068234498590854245 0.18510914767529271 0 -0.059303791777487361 0.18821752985612711 0 -0.061037622844945093 0.17744015881265851 0 -0.07575840308360747 0.163441139767841 0 -0.062677877755144787 0.16311566946103709 0 -0.073713676447992704 0.1525404825988903 0 -0.081958627914643867 0.17137670854970369 0 -0.071080604079637288 0.1733479018593603 0 -0.07575840308360747 0.163441139767841 0 -0.071080604079637288 0.1733479018593603 0 -0.062677877755144787 0.16311566946103709 0 -0.061037622844945093 0.17744015881265851 0 -0.071080604079637288 0.1733479018593603 0 -0.07575840308360747 0.163441139767841 0 -0.062677877755144787 0.16311566946103709 0 -0.062677877755144787 0.16311566946103709 0 -0.063507891657163182 0.15297234448059571 0 -0.073713676447992704 0.1525404825988903 0 -0.063507891657163182 0.15297234448059571 0 -0.073713676447992704 0.1525404825988903 0 -0.065727996859345772 0.1431286184142449 0 -0.073713676447992704 0.1525404825988903 0 -0.065727996859345772 0.1431286184142449 0 -0.079940899611227356 0.13974459364193351 0 -0.065727996859345772 0.1431286184142449 0 -0.068451934850009277 0.1311807054156269 0 -0.054622120689069617 0.13438025008977261 0 -0.068451934850009277 0.1311807054156269 0 -0.079119924600213776 0.12813268639280359 0 -0.072308681266802843 0.12006084568152101 0 -0.068451934850009277 0.1311807054156269 0 -0.079940899611227356 0.13974459364193351 0 -0.079119924600213776 0.12813268639280359 0 -0.065727996859345772 0.1431286184142449 0 -0.068451934850009277 0.1311807054156269 0 -0.079940899611227356 0.13974459364193351 0 -0.079119924600213776 0.12813268639280359 0 -0.09316345007512529 0.12787552256921189 0 -0.084402678968613865 0.12032923123529531 0 -0.079940899611227356 0.13974459364193351 0 -0.079119924600213776 0.12813268639280359 0 -0.09316345007512529 0.12787552256921189 0 -0.079940899611227356 0.13974459364193351 0 -0.09316345007512529 0.12787552256921189 0 -0.092131834798674483 0.1419684547906048 0 -0.097987996390648938 0.14880638782865771 0 -0.092131834798674483 0.1419684547906048 0 -0.085659100428899987 0.15150151844792581 0 -0.097987996390648938 0.14880638782865771 0 -0.096959084729657391 0.15837331258183651 0 -0.085659100428899987 0.15150151844792581 0 -0.07575840308360747 0.163441139767841 0 -0.073713676447992704 0.1525404825988903 0 -0.085659100428899987 0.15150151844792581 0 -0.073713676447992704 0.1525404825988903 0 -0.079940899611227356 0.13974459364193351 0 -0.085659100428899987 0.15150151844792581 0 -0.079940899611227356 0.13974459364193351 0 -0.092131834798674483 0.1419684547906048 0 -0.085659100428899987 0.15150151844792581 0 -0.1057884026374087 0.25524920372368182 0 -0.098995626970016917 0.23980607547375249 0 -0.1003135687991342 0.22763278844137899 0 -0.1057884026374087 0.25524920372368182 0 -0.114554315497749 0.24628049261128021 0 -0.1003135687991342 0.22763278844137899 0 -0.1057884026374087 0.25524920372368182 0 -0.1003135687991342 0.22763278844137899 0 -0.1004635180975432 0.25391368625496658 0 -0.098254434968115534 0.2456333193106548 0 -0.094325998903308533 0.2442355412820274 0 -0.1057884026374087 0.25524920372368182 0 -0.098254434968115534 0.2456333193106548 0 -0.098995626970016917 0.23980607547375249 0 -0.098254434968115534 0.2456333193106548 0 -0.094325998903308533 0.2442355412820274 0 -0.095632395195425254 0.24125013291497449 0 -0.098254434968115534 0.2456333193106548 0 -0.095632395195425254 0.24125013291497449 0 -0.098995626970016917 0.23980607547375249 0 -0.094325998903308533 0.2442355412820274 0 -0.095632395195425254 0.24125013291497449 0 -0.092040447864893127 0.23974005489579189 0 -0.095632395195425254 0.24125013291497449 0 -0.094791572115441272 0.23691594532256741 0 -0.092040447864893127 0.23974005489579189 0 -0.095632395195425254 0.24125013291497449 0 -0.094791572115441272 0.23691594532256741 0 -0.098995626970016917 0.23980607547375249 0 -0.094791572115441272 0.23691594532256741 0 -0.098995626970016917 0.23980607547375249 0 -0.0965747618056291 0.2340322738551531 0 -0.114554315497749 0.24628049261128021 0 -0.1197488402286296 0.23685543728298239 0 -0.1003135687991342 0.22763278844137899 0 -0.1255001957498163 0.24628542454034369 0 -0.114554315497749 0.24628049261128021 0 -0.1197488402286296 0.23685543728298239 0 -0.1239531221148822 0.25532768312897258 0 -0.1255001957498163 0.24628542454034369 0 -0.114554315497749 0.24628049261128021 0 -0.12675244561454579 0.222092340863211 0 -0.107683593369889 0.21876324957596649 0 -0.1003135687991342 0.22763278844137899 0 -0.12675244561454579 0.222092340863211 0 -0.1197488402286296 0.23685543728298239 0 -0.1003135687991342 0.22763278844137899 0 -0.12675244561454579 0.222092340863211 0 -0.1003135687991342 0.22763278844137899 0 -0.107683593369889 0.21876324957596649 0 -0.09944650591744128 0.22325910892451389 0 -0.09894152409911651 0.2171798410480775 0 -0.107683593369889 0.21876324957596649 0 -0.1003135687991342 0.22763278844137899 0 -0.09944650591744128 0.22325910892451389 0 -0.098995626970016917 0.23980607547375249 0 -0.1003135687991342 0.22763278844137899 0 -0.0965747618056291 0.2340322738551531 0 -0.1003135687991342 0.22763278844137899 0 -0.0965747618056291 0.2340322738551531 0 -0.092198279337924016 0.23177428618291351 0 -0.094791572115441272 0.23691594532256741 0 -0.0965747618056291 0.2340322738551531 0 -0.092198279337924016 0.23177428618291351 0 -0.1003135687991342 0.22763278844137899 0 -0.096856857170683805 0.22450312179766219 0 -0.093543817587319195 0.22619915835580379 0 -0.096856857170683805 0.22450312179766219 0 -0.094123536378840578 0.2209214314689523 0 -0.09944650591744128 0.22325910892451389 0 -0.096856857170683805 0.22450312179766219 0 -0.094123536378840578 0.2209214314689523 0 -0.093543817587319195 0.22619915835580379 0 -0.094123536378840578 0.2209214314689523 0 -0.09944650591744128 0.22325910892451389 0 -0.09894152409911651 0.2171798410480775 0 -0.1003135687991342 0.22763278844137899 0 -0.096856857170683805 0.22450312179766219 0 -0.09944650591744128 0.22325910892451389 0 -0.1003135687991342 0.22763278844137899 0 -0.09944650591744128 0.22325910892451389 0 -0.09894152409911651 0.2171798410480775 0 -0.1020386828459633 0.2119243570316294 0 -0.092386596503907598 0.21190232114485291 0 -0.094123536378840578 0.2209214314689523 0 -0.09894152409911651 0.2171798410480775 0 -0.092386596503907598 0.21190232114485291 0 -0.099020506856099338 0.20381157994298571 0 -0.1020386828459633 0.2119243570316294 0 -0.092386596503907598 0.21190232114485291 0 -0.099020506856099338 0.20381157994298571 0 -0.1020386828459633 0.2119243570316294 0 -0.11241596812970479 0.20667955657385659 0 -0.107683593369889 0.21876324957596649 0 -0.1020386828459633 0.2119243570316294 0 -0.11241596812970479 0.20667955657385659 0 -0.107683593369889 0.21876324957596649 0 -0.09894152409911651 0.2171798410480775 0 -0.1020386828459633 0.2119243570316294 0 -0.12675244561454579 0.222092340863211 0 -0.107683593369889 0.21876324957596649 0 -0.11241596812970479 0.20667955657385659 0 -0.1328116149223689 0.20667813615449909 0 -0.12675244561454579 0.222092340863211 0 -0.11241596812970479 0.20667955657385659 0 -0.1120490126720752 0.184857253361356 0 -0.12499868893356809 0.19169464401862171 0 -0.1069171207851044 0.19560173701714359 0 -0.1328116149223689 0.20667813615449909 0 -0.11241596812970479 0.20667955657385659 0 -0.12499868893356809 0.19169464401862171 0 -0.11241596812970479 0.20667955657385659 0 -0.12499868893356809 0.19169464401862171 0 -0.1069171207851044 0.19560173701714359 0 -0.1120490126720752 0.184857253361356 0 -0.1069171207851044 0.19560173701714359 0 -0.10028652406250441 0.1902731657093206 0 -0.099020506856099338 0.20381157994298571 0 -0.11241596812970479 0.20667955657385659 0 -0.1069171207851044 0.19560173701714359 0 -0.099020506856099338 0.20381157994298571 0 -0.1069171207851044 0.19560173701714359 0 -0.094625032386634819 0.1954291738421681 0 -0.094988706548214591 0.18541764039640099 0 -0.094625032386634819 0.1954291738421681 0 -0.10028652406250441 0.1902731657093206 0 -0.1069171207851044 0.19560173701714359 0 -0.094625032386634819 0.1954291738421681 0 -0.10028652406250441 0.1902731657093206 0 -0.094988706548214591 0.18541764039640099 0 -0.094625032386634819 0.1954291738421681 0 -0.085591568165451049 0.18964457383416231 0 -0.099020506856099338 0.20381157994298571 0 -0.094625032386634819 0.1954291738421681 0 -0.085739640485281085 0.20133233404826359 0 -0.094625032386634819 0.1954291738421681 0 -0.085739640485281085 0.20133233404826359 0 -0.085591568165451049 0.18964457383416231 0 -0.078463393140294074 0.1817173413167695 0 -0.085591568165451049 0.18964457383416231 0 -0.075499929406126029 0.19337572244943441 0 -0.085739640485281085 0.20133233404826359 0 -0.085591568165451049 0.18964457383416231 0 -0.075499929406126029 0.19337572244943441 0 -0.064021650296635729 0.19655623175740661 0 -0.073134484337216907 0.20456063616916911 0 -0.055860710480552841 0.20777972883394119 0 -0.068234498590854245 0.18510914767529271 0 -0.064021650296635729 0.19655623175740661 0 -0.059303791777487361 0.18821752985612711 0 -0.068234498590854245 0.18510914767529271 0 -0.075499929406126029 0.19337572244943441 0 -0.064021650296635729 0.19655623175740661 0 -0.085739640485281085 0.20133233404826359 0 -0.075499929406126029 0.19337572244943441 0 -0.073134484337216907 0.20456063616916911 0 -0.075499929406126029 0.19337572244943441 0 -0.064021650296635729 0.19655623175740661 0 -0.073134484337216907 0.20456063616916911 0 -0.076290311513114425 0.21691381729245479 0 -0.065062542866617945 0.22398995871223609 0 -0.055860710480552841 0.20777972883394119 0 -0.076290311513114425 0.21691381729245479 0 -0.055860710480552841 0.20777972883394119 0 -0.073134484337216907 0.20456063616916911 0 -0.076290311513114425 0.21691381729245479 0 -0.082466247886090291 0.21009816353008731 0 -0.073134484337216907 0.20456063616916911 0 -0.076290311513114425 0.21691381729245479 0 -0.055860710480552841 0.20777972883394119 0 -0.076290311513114425 0.21691381729245479 0 -0.082466247886090291 0.21009816353008731 0 -0.08629066579313921 0.21759837556786121 0 -0.085739640485281085 0.20133233404826359 0 -0.073134484337216907 0.20456063616916911 0 -0.082466247886090291 0.21009816353008731 0 -0.085739640485281085 0.20133233404826359 0 -0.082466247886090291 0.21009816353008731 0 -0.092386596503907598 0.21190232114485291 0 -0.099020506856099338 0.20381157994298571 0 -0.085739640485281085 0.20133233404826359 0 -0.092386596503907598 0.21190232114485291 0 -0.082466247886090291 0.21009816353008731 0 -0.092386596503907598 0.21190232114485291 0 -0.08629066579313921 0.21759837556786121 0 -0.094123536378840578 0.2209214314689523 0 -0.092386596503907598 0.21190232114485291 0 -0.08629066579313921 0.21759837556786121 0 -0.1003135687991342 0.22763278844137899 0 -0.074289338669812299 0.2330863439687374 0 -0.092198279337924016 0.23177428618291351 0 -0.074289338669812299 0.2330863439687374 0 -0.080812344669774119 0.2352721851126382 0 -0.1003135687991342 0.22763278844137899 0 -0.092198279337924016 0.23177428618291351 0 -0.074289338669812299 0.2330863439687374 0 -0.1003135687991342 0.22763278844137899 0 -0.08681456020968592 0.22803612252249639 0 -0.074289338669812299 0.2330863439687374 0 -0.094123536378840578 0.2209214314689523 0 -0.08629066579313921 0.21759837556786121 0 -0.088900330685113146 0.22308439729944471 0 -0.088900330685113146 0.22308439729944471 0 -0.08681456020968592 0.22803612252249639 0 -0.083729073456580788 0.22266689858210961 0 -0.088900330685113146 0.22308439729944471 0 -0.093543817587319195 0.22619915835580379 0 -0.08681456020968592 0.22803612252249639 0 -0.08629066579313921 0.21759837556786121 0 -0.088900330685113146 0.22308439729944471 0 -0.083729073456580788 0.22266689858210961 0 -0.094123536378840578 0.2209214314689523 0 -0.088900330685113146 0.22308439729944471 0 -0.093543817587319195 0.22619915835580379 0 -0.1003135687991342 0.22763278844137899 0 -0.093543817587319195 0.22619915835580379 0 -0.08681456020968592 0.22803612252249639 0 -0.08681456020968592 0.22803612252249639 0 -0.078417534199255762 0.2254003771600705 0 -0.074289338669812299 0.2330863439687374 0 -0.076290311513114425 0.21691381729245479 0 -0.078417534199255762 0.2254003771600705 0 -0.083729073456580788 0.22266689858210961 0 -0.08681456020968592 0.22803612252249639 0 -0.078417534199255762 0.2254003771600705 0 -0.083729073456580788 0.22266689858210961 0 -0.076290311513114425 0.21691381729245479 0 -0.08629066579313921 0.21759837556786121 0 -0.083729073456580788 0.22266689858210961 0 -0.065062542866617945 0.22398995871223609 0 -0.075173534889344501 0.23931379218279469 0 -0.049883551681145853 0.22471389811062281 0 -0.076290311513114425 0.21691381729245479 0 -0.072786204765024454 0.22526221832656881 0 -0.065062542866617945 0.22398995871223609 0 -0.075173534889344501 0.23931379218279469 0 -0.049883551681145853 0.22471389811062281 0 -0.076290311513114425 0.21691381729245479 0 -0.078417534199255762 0.2254003771600705 0 -0.072786204765024454 0.22526221832656881 0 -0.072786204765024454 0.22526221832656881 0 -0.065062542866617945 0.22398995871223609 0 -0.074289338669812299 0.2330863439687374 0 -0.078417534199255762 0.2254003771600705 0 -0.072786204765024454 0.22526221832656881 0 -0.074289338669812299 0.2330863439687374 0 -0.065062542866617945 0.22398995871223609 0 -0.074289338669812299 0.2330863439687374 0 -0.075173534889344501 0.23931379218279469 0 -0.074289338669812299 0.2330863439687374 0 -0.075173534889344501 0.23931379218279469 0 -0.080812344669774119 0.2352721851126382 0 -0.075173534889344501 0.23931379218279469 0 -0.070010111111491954 0.2464415319862093 0 -0.059190843009695182 0.23779542023933559 0 -0.063825786058281639 0.25388910503181172 0 -0.070010111111491954 0.2464415319862093 0 -0.05838690939615615 0.24685761960527891 0 -0.070010111111491954 0.2464415319862093 0 -0.05838690939615615 0.24685761960527891 0 -0.059190843009695182 0.23779542023933559 0 -0.075173534889344501 0.23931379218279469 0 -0.070010111111491954 0.2464415319862093 0 -0.076004334722877626 0.24723302118292681 0 -0.082167006219431279 0.25112813484404639 0 -0.075173534889344501 0.23931379218279469 0 -0.076004334722877626 0.24723302118292681 0 -0.076666686671242767 0.25204862571865688 0 -0.070010111111491954 0.2464415319862093 0 -0.076004334722877626 0.24723302118292681 0 -0.1004635180975432 0.25391368625496658 0 -0.088114880810680918 0.25177782386922759 0 -0.075173534889344501 0.23931379218279469 0 -0.1004635180975432 0.25391368625496658 0 -0.075173534889344501 0.23931379218279469 0 -0.1004635180975432 0.25391368625496658 0 -0.075173534889344501 0.23931379218279469 0 -0.085239198390565554 0.2406405130337492 0 -0.088114880810680918 0.25177782386922759 0 -0.082167006219431279 0.25112813484404639 0 -0.075173534889344501 0.23931379218279469 0 -0.075173534889344501 0.23931379218279469 0 -0.081107408202467479 0.2376641081118821 0 -0.085239198390565554 0.2406405130337492 0 -0.075173534889344501 0.23931379218279469 0 -0.081107408202467479 0.2376641081118821 0 -0.080812344669774119 0.2352721851126382 0 -0.081107408202467479 0.2376641081118821 0 -0.085115947471049183 0.2363374891198293 0 -0.085239198390565554 0.2406405130337492 0 -0.081107408202467479 0.2376641081118821 0 -0.080812344669774119 0.2352721851126382 0 -0.085115947471049183 0.2363374891198293 0 -0.094325998903308533 0.2442355412820274 0 -0.085239198390565554 0.2406405130337492 0 -0.092040447864893127 0.23974005489579189 0 -0.085239198390565554 0.2406405130337492 0 -0.089877089035974633 0.23708165771097031 0 -0.092040447864893127 0.23974005489579189 0 -0.092198279337924016 0.23177428618291351 0 -0.080812344669774119 0.2352721851126382 0 -0.085115947471049183 0.2363374891198293 0 -0.092198279337924016 0.23177428618291351 0 -0.085115947471049183 0.2363374891198293 0 -0.089877089035974633 0.23708165771097031 0 -0.085115947471049183 0.2363374891198293 0 -0.085239198390565554 0.2406405130337492 0 -0.089877089035974633 0.23708165771097031 0 -0.094791572115441272 0.23691594532256741 0 -0.092198279337924016 0.23177428618291351 0 -0.089877089035974633 0.23708165771097031 0 -0.094791572115441272 0.23691594532256741 0 -0.089877089035974633 0.23708165771097031 0 -0.092040447864893127 0.23974005489579189 0 -0.1004635180975432 0.25391368625496658 0 -0.094325998903308533 0.2442355412820274 0 -0.085239198390565554 0.2406405130337492 0 -0.045951081437063501 0.2421735950950713 0 -0.031306814384083927 0.2301645169081806 0 -0.028393867116377699 0.2428768222591032 0 -0.038769726128567897 0.2581562343505211 0 -0.045951081437063501 0.2421735950950713 0 -0.028393867116377699 0.2428768222591032 0 -0.045951081437063501 0.2421735950950713 0 -0.059190843009695182 0.23779542023933559 0 -0.049883551681145853 0.22471389811062281 0 -0.045951081437063501 0.2421735950950713 0 -0.05838690939615615 0.24685761960527891 0 -0.059190843009695182 0.23779542023933559 0 -0.052956725364248503 0.25398844567396672 0 -0.045951081437063501 0.2421735950950713 0 -0.05838690939615615 0.24685761960527891 0 -0.075173534889344501 0.23931379218279469 0 -0.059190843009695182 0.23779542023933559 0 -0.049883551681145853 0.22471389811062281 0 -0.065062542866617945 0.22398995871223609 0 -0.049883551681145853 0.22471389811062281 0 -0.055860710480552841 0.20777972883394119 0 -0.045951081437063501 0.2421735950950713 0 -0.049883551681145853 0.22471389811062281 0 -0.031306814384083927 0.2301645169081806 0 -0.049883551681145853 0.22471389811062281 0 -0.031306814384083927 0.2301645169081806 0 -0.024593568472947209 0.21011400403845051 0 -0.04144223502065926 0.21031331783961049 0 -0.035431109447991202 0.19864564037542781 0 -0.024593568472947209 0.21011400403845051 0 -0.04144223502065926 0.21031331783961049 0 -0.055860710480552841 0.20777972883394119 0 -0.035431109447991202 0.19864564037542781 0 -0.049883551681145853 0.22471389811062281 0 -0.04144223502065926 0.21031331783961049 0 -0.024593568472947209 0.21011400403845051 0 -0.055860710480552841 0.20777972883394119 0 -0.035431109447991202 0.19864564037542781 0 -0.049883551681145853 0.22471389811062281 0 -0.024593568472947209 0.21011400403845051 0 -0.049883551681145853 0.22471389811062281 0 -0.04144223502065926 0.21031331783961049 0 -0.055860710480552841 0.20777972883394119 0 -0.055860710480552841 0.20777972883394119 0 -0.052037859279284587 0.19544934250010301 0 -0.035431109447991202 0.19864564037542781 0 -0.064021650296635729 0.19655623175740661 0 -0.055860710480552841 0.20777972883394119 0 -0.052037859279284587 0.19544934250010301 0 -0.064021650296635729 0.19655623175740661 0 -0.052037859279284587 0.19544934250010301 0 -0.059303791777487361 0.18821752985612711 0 -0.052037859279284587 0.19544934250010301 0 -0.059303791777487361 0.18821752985612711 0 -0.051275362501905203 0.18428629586622919 0 -0.052037859279284587 0.19544934250010301 0 -0.043292657385394069 0.19032649390963691 0 -0.051275362501905203 0.18428629586622919 0 -0.052037859279284587 0.19544934250010301 0 -0.043292657385394069 0.19032649390963691 0 -0.035431109447991202 0.19864564037542781 0 -0.043292657385394069 0.19032649390963691 0 -0.035431109447991202 0.19864564037542781 0 -0.043292657385394069 0.19032649390963691 0 -0.035431109447991202 0.19864564037542781 0 -0.032604741070697121 0.18833250517240299 0 -0.01896616761585216 0.19794180562467339 0 -0.0056325988397643058 0.19689021080509089 0 -0.025662995806677229 0.20619120775547881 0 -0.035431109447991202 0.19864564037542781 0 -0.032604741070697121 0.18833250517240299 0 -0.012531751640030311 0.18840732198988031 0 -0.035431109447991202 0.19864564037542781 0 -0.01896616761585216 0.19794180562467339 0 -0.025662995806677229 0.20619120775547881 0 -0.0056325988397643058 0.19689021080509089 0 -0.025662995806677229 0.20619120775547881 0 -0.035431109447991202 0.19864564037542781 0 -0.01896616761585216 0.19794180562467339 0 -0.012531751640030311 0.18840732198988031 0 -0.035431109447991202 0.19864564037542781 0 -0.012531751640030311 0.18840732198988031 0 -0.01896616761585216 0.19794180562467339 0 -0.012531751640030311 0.18840732198988031 0 -0.0056325988397643058 0.19689021080509089 0 -0.0050948726899160968 0.19885741716632241 0 -0.0056325988397643058 0.19689021080509089 0 -0.025662995806677229 0.20619120775547881 0 -0.012531751640030311 0.18840732198988031 0 -0.0056325988397643058 0.19689021080509089 0 0.0020887413519905858 0.18729136112933481 0 -0.0050948726899160968 0.19885741716632241 0 -0.024593568472947209 0.21011400403845051 0 0.0016356939700863671 0.21461609658767691 0 -0.0050948726899160968 0.19885741716632241 0 -0.024593568472947209 0.21011400403845051 0 -0.024593568472947209 0.21011400403845051 0 -0.0057084941087844204 0.23009832530746829 0 0.0016356939700863671 0.21461609658767691 0 -0.0050948726899160968 0.19885741716632241 0 -0.025662995806677229 0.20619120775547881 0 -0.024593568472947209 0.21011400403845051 0 -0.035431109447991202 0.19864564037542781 0 -0.024593568472947209 0.21011400403845051 0 -0.035431109447991202 0.19864564037542781 0 -0.025662995806677229 0.20619120775547881 0 -0.024593568472947209 0.21011400403845051 0 -0.031306814384083927 0.2301645169081806 0 -0.024593568472947209 0.21011400403845051 0 -0.0057084941087844204 0.23009832530746829 0 -0.024593568472947209 0.21011400403845051 0 -0.0057084941087844204 0.23009832530746829 0 -0.02023321952338877 0.25379143963427492 0 -0.004688707870413332 0.2558135020850828 0 -0.0057084941087844204 0.23009832530746829 0 -0.02023321952338877 0.25379143963427492 0 -0.0057084941087844204 0.23009832530746829 0 -0.028393867116377699 0.2428768222591032 0 -0.031306814384083927 0.2301645169081806 0 -0.0057084941087844204 0.23009832530746829 0 -0.028393867116377699 0.2428768222591032 0 -0.039770584775153273 0.155917073625786 0 -0.039287402506821098 0.13988236293519851 0 -0.053727106539996287 0.14796086795753149 0 -0.039770584775153273 0.155917073625786 0 -0.039287402506821098 0.13988236293519851 0 -0.025932470009469549 0.15165117743793349 0 -0.043296598986927719 0.1252311927607494 0 -0.039287402506821098 0.13988236293519851 0 -0.022339160959092969 0.1192184259262921 0 -0.043296598986927719 0.1252311927607494 0 -0.039287402506821098 0.13988236293519851 0 -0.054622120689069617 0.13438025008977261 0 -0.043296598986927719 0.1252311927607494 0 -0.054622120689069617 0.13438025008977261 0 -0.057241684391317597 0.11889775305528461 0 -0.068451934850009277 0.1311807054156269 0 -0.054622120689069617 0.13438025008977261 0 -0.057241684391317597 0.11889775305528461 0 -0.065727996859345772 0.1431286184142449 0 -0.054622120689069617 0.13438025008977261 0 -0.053727106539996287 0.14796086795753149 0 -0.063507891657163182 0.15297234448059571 0 -0.065727996859345772 0.1431286184142449 0 -0.053727106539996287 0.14796086795753149 0 -0.039287402506821098 0.13988236293519851 0 -0.054622120689069617 0.13438025008977261 0 -0.053727106539996287 0.14796086795753149 0 -0.039770584775153273 0.155917073625786 0 -0.053727106539996287 0.14796086795753149 0 -0.051521839252080349 0.1604928001044223 0 -0.063507891657163182 0.15297234448059571 0 -0.053727106539996287 0.14796086795753149 0 -0.051521839252080349 0.1604928001044223 0 -0.062677877755144787 0.16311566946103709 0 -0.063507891657163182 0.15297234448059571 0 -0.051521839252080349 0.1604928001044223 0 -0.062677877755144787 0.16311566946103709 0 -0.051521839252080349 0.1604928001044223 0 -0.051141573930750729 0.17285904026278459 0 -0.062677877755144787 0.16311566946103709 0 -0.061037622844945093 0.17744015881265851 0 -0.051141573930750729 0.17285904026278459 0 -0.059303791777487361 0.18821752985612711 0 -0.061037622844945093 0.17744015881265851 0 -0.051275362501905203 0.18428629586622919 0 -0.051141573930750729 0.17285904026278459 0 -0.051275362501905203 0.18428629586622919 0 -0.040838669793569392 0.18142520985606511 0 -0.061037622844945093 0.17744015881265851 0 -0.051141573930750729 0.17285904026278459 0 -0.051275362501905203 0.18428629586622919 0 -0.043292657385394069 0.19032649390963691 0 -0.051275362501905203 0.18428629586622919 0 -0.040838669793569392 0.18142520985606511 0 -0.051141573930750729 0.17285904026278459 0 -0.040838669793569392 0.18142520985606511 0 -0.03759013926705148 0.1702990849720441 0 -0.040838669793569392 0.18142520985606511 0 -0.03759013926705148 0.1702990849720441 0 -0.02850468963520152 0.18103021226780661 0 -0.032604741070697121 0.18833250517240299 0 -0.040838669793569392 0.18142520985606511 0 -0.02850468963520152 0.18103021226780661 0 -0.043292657385394069 0.19032649390963691 0 -0.032604741070697121 0.18833250517240299 0 -0.040838669793569392 0.18142520985606511 0 -0.039770584775153273 0.155917073625786 0 -0.051521839252080349 0.1604928001044223 0 -0.03759013926705148 0.1702990849720441 0 -0.051521839252080349 0.1604928001044223 0 -0.051141573930750729 0.17285904026278459 0 -0.03759013926705148 0.1702990849720441 0 -0.039770584775153273 0.155917073625786 0 -0.028770291761939432 0.1624957290852316 0 -0.025932470009469549 0.15165117743793349 0 -0.039770584775153273 0.155917073625786 0 -0.03759013926705148 0.1702990849720441 0 -0.028770291761939432 0.1624957290852316 0 -0.028770291761939432 0.1624957290852316 0 -0.01645666814909854 0.15708102535799831 0 -0.025932470009469549 0.15165117743793349 0 -0.028770291761939432 0.1624957290852316 0 -0.017944249376541471 0.168609669012352 0 -0.026432930994241301 0.17188991709417581 0 -0.03759013926705148 0.1702990849720441 0 -0.028770291761939432 0.1624957290852316 0 -0.026432930994241301 0.17188991709417581 0 -0.028770291761939432 0.1624957290852316 0 -0.017944249376541471 0.168609669012352 0 -0.01645666814909854 0.15708102535799831 0 -0.012531751640030311 0.18840732198988031 0 -0.02850468963520152 0.18103021226780661 0 -0.019355284930472581 0.17701489013344451 0 -0.032604741070697121 0.18833250517240299 0 -0.012531751640030311 0.18840732198988031 0 -0.02850468963520152 0.18103021226780661 0 -0.03759013926705148 0.1702990849720441 0 -0.02850468963520152 0.18103021226780661 0 -0.026432930994241301 0.17188991709417581 0 -0.02850468963520152 0.18103021226780661 0 -0.026432930994241301 0.17188991709417581 0 -0.019355284930472581 0.17701489013344451 0 -0.017944249376541471 0.168609669012352 0 -0.026432930994241301 0.17188991709417581 0 -0.019355284930472581 0.17701489013344451 0 -0.017944249376541471 0.168609669012352 0 -0.019355284930472581 0.17701489013344451 0 -0.01075094651280903 0.17515314997736611 0 -0.012531751640030311 0.18840732198988031 0 0.0020887413519905858 0.18729136112933481 0 0.01036760616793082 0.17816900360433299 0 -0.012531751640030311 0.18840732198988031 0 0.01036760616793082 0.17816900360433299 0 -0.012531751640030311 0.18840732198988031 0 -0.019355284930472581 0.17701489013344451 0 -0.01075094651280903 0.17515314997736611 0 -0.012531751640030311 0.18840732198988031 0 -0.01075094651280903 0.17515314997736611 0 0.002548834246367523 0.17361791072911431 0 -0.01049963862968885 0.1641759846809068 0 -0.0098951633563627225 0.14641816832770321 0 0.002548834246367523 0.17361791072911431 0 -0.0098951633563627225 0.14641816832770321 0 0.002548834246367523 0.17361791072911431 0 -0.00051736649886272024 0.1581143877834357 0 -0.0098951633563627225 0.14641816832770321 0 0.002548834246367523 0.17361791072911431 0 -0.017944249376541471 0.168609669012352 0 -0.01645666814909854 0.15708102535799831 0 -0.01049963862968885 0.1641759846809068 0 -0.017944249376541471 0.168609669012352 0 -0.01075094651280903 0.17515314997736611 0 -0.01049963862968885 0.1641759846809068 0 -0.01075094651280903 0.17515314997736611 0 -0.01049963862968885 0.1641759846809068 0 0.002548834246367523 0.17361791072911431 0 -0.01645666814909854 0.15708102535799831 0 -0.01049963862968885 0.1641759846809068 0 -0.0098951633563627225 0.14641816832770321 0 -0.00051736649886272024 0.1581143877834357 0 -0.0098951633563627225 0.14641816832770321 0 0.0045566300691653842 0.14159662700455791 0 -0.039287402506821098 0.13988236293519851 0 -0.025932470009469549 0.15165117743793349 0 -0.022339160959092969 0.1192184259262921 0 -0.0098951633563627225 0.14641816832770321 0 -0.025932470009469549 0.15165117743793349 0 -0.022339160959092969 0.1192184259262921 0 -0.01645666814909854 0.15708102535799831 0 -0.0098951633563627225 0.14641816832770321 0 -0.025932470009469549 0.15165117743793349 0 -0.0098951633563627225 0.14641816832770321 0 -0.022339160959092969 0.1192184259262921 0 -0.0098951633563627225 0.14641816832770321 0 -0.0051874254262917448 0.13252577252147241 0 -0.022339160959092969 0.1192184259262921 0 -0.0098951633563627225 0.14641816832770321 0 -0.0051874254262917448 0.13252577252147241 0 0.0045566300691653842 0.14159662700455791 0 -0.0051874254262917448 0.13252577252147241 0 -0.022339160959092969 0.1192184259262921 0 0.0069279925411233276 0.12286986882733621 0 -0.0037841361478036929 0.1004174717702209 0 -0.022339160959092969 0.1192184259262921 0 0.0069279925411233276 0.12286986882733621 0 -0.0037841361478036929 0.1004174717702209 0 -0.022339160959092969 0.1192184259262921 0 -0.01928606746513065 0.089826339923481657 0 -0.022339160959092969 0.1192184259262921 0 -0.01928606746513065 0.089826339923481657 0 -0.034783158561823221 0.092018683524881073 0 -0.022339160959092969 0.1192184259262921 0 -0.034783158561823221 0.092018683524881073 0 -0.0077350902277770056 0.069982330192860792 0 -0.01366648930583881 0.071728540615999994 0 -0.024136552897330441 0.055244275757902889 0 -0.0077350902277770056 0.069982330192860792 0 -0.004553599416321219 0.068097812172203259 0 -0.024136552897330441 0.055244275757902889 0 -0.004553599416321219 0.068097812172203259 0 -0.0034907294980709449 0.058868134135229032 0 0.0049573368763592167 0.06253138299556911 0 -0.01366648930583881 0.071728540615999994 0 7.9005042563778938e-06 0.073235277862053666 0 -0.0077350902277770056 0.069982330192860792 0 -0.004553599416321219 0.068097812172203259 0 7.9005042563778938e-06 0.073235277862053666 0 -0.01366648930583881 0.071728540615999994 0 -0.0074014381522608964 0.08273513668563269 0 7.9005042563778938e-06 0.073235277862053666 0 -0.0077350902277770056 0.069982330192860792 0 -0.01366648930583881 0.071728540615999994 0 7.9005042563778938e-06 0.073235277862053666 0 -0.0077350902277770056 0.069982330192860792 0 -0.01366648930583881 0.071728540615999994 0 -0.0037841361478036929 0.1004174717702209 0 -0.0074014381522608964 0.08273513668563269 0 -0.01928606746513065 0.089826339923481657 0 -0.0037841361478036929 0.1004174717702209 0 -0.0074014381522608964 0.08273513668563269 0 0.003602597882473428 0.087375721075588414 0 -0.01366648930583881 0.071728540615999994 0 -0.0074014381522608964 0.08273513668563269 0 -0.01928606746513065 0.089826339923481657 0 -0.0074014381522608964 0.08273513668563269 0 0.003602597882473428 0.087375721075588414 0 7.9005042563778938e-06 0.073235277862053666 0 -0.01366648930583881 0.071728540615999994 0 -0.01928606746513065 0.089826339923481657 0 -0.042700634985857487 0.080276225090787481 0 -0.01366648930583881 0.071728540615999994 0 -0.035884659958905718 0.069280391504632 0 -0.042700634985857487 0.080276225090787481 0 -0.01366648930583881 0.071728540615999994 0 -0.035884659958905718 0.069280391504632 0 -0.027596898153055958 0.05591020613006998 0 -0.01366648930583881 0.071728540615999994 0 -0.035884659958905718 0.069280391504632 0 -0.01366648930583881 0.071728540615999994 0 -0.042700634985857487 0.080276225090787481 0 -0.035884659958905718 0.069280391504632 0 -0.055339306484280537 0.067136746271780096 0 -0.035884659958905718 0.069280391504632 0 -0.042700634985857487 0.080276225090787481 0 -0.055339306484280537 0.067136746271780096 0 -0.035884659958905718 0.069280391504632 0 -0.027596898153055958 0.05591020613006998 0 -0.035884659958905718 0.069280391504632 0 -0.042700634985857487 0.080276225090787481 0 -0.01928606746513065 0.089826339923481657 0 -0.042700634985857487 0.080276225090787481 0 -0.034783158561823221 0.092018683524881073 0 -0.042700634985857487 0.080276225090787481 0 -0.034783158561823221 0.092018683524881073 0 -0.050238426504539732 0.092436525094638164 0 -0.042700634985857487 0.080276225090787481 0 -0.050238426504539732 0.092436525094638164 0 -0.042700634985857487 0.080276225090787481 0 -0.068718803463526268 0.08793600255453965 0 -0.042700634985857487 0.080276225090787481 0 -0.068718803463526268 0.08793600255453965 0 -0.063048194754677142 0.075142762922748074 0 -0.042700634985857487 0.080276225090787481 0 -0.050238426504539732 0.092436525094638164 0 -0.068718803463526268 0.08793600255453965 0 -0.055339306484280537 0.067136746271780096 0 -0.074793953009655453 0.064993101038928053 0 -0.051195425581355702 0.060451653584498818 0 -0.035884659958905718 0.069280391504632 0 -0.055339306484280537 0.067136746271780096 0 -0.051195425581355702 0.060451653584498818 0 -0.042700634985857487 0.080276225090787481 0 -0.055339306484280537 0.067136746271780096 0 -0.063048194754677142 0.075142762922748074 0 -0.043296598986927719 0.1252311927607494 0 -0.022339160959092969 0.1192184259262921 0 -0.042052190260315793 0.1091905431824976 0 -0.034783158561823221 0.092018683524881073 0 -0.050238426504539732 0.092436525094638164 0 -0.042052190260315793 0.1091905431824976 0 -0.022339160959092969 0.1192184259262921 0 -0.034783158561823221 0.092018683524881073 0 -0.042052190260315793 0.1091905431824976 0 -0.050238426504539732 0.092436525094638164 0 -0.055197532936232488 0.1037607647482361 0 -0.068718803463526268 0.08793600255453965 0 -0.050238426504539732 0.092436525094638164 0 -0.042052190260315793 0.1091905431824976 0 -0.055197532936232488 0.1037607647482361 0 -0.043296598986927719 0.1252311927607494 0 -0.042052190260315793 0.1091905431824976 0 -0.057241684391317597 0.11889775305528461 0 -0.055197532936232488 0.1037607647482361 0 -0.057241684391317597 0.11889775305528461 0 -0.067005210901473933 0.1077879133952777 0 -0.042052190260315793 0.1091905431824976 0 -0.055197532936232488 0.1037607647482361 0 -0.057241684391317597 0.11889775305528461 0 -0.068451934850009277 0.1311807054156269 0 -0.057241684391317597 0.11889775305528461 0 -0.072308681266802843 0.12006084568152101 0 -0.057241684391317597 0.11889775305528461 0 -0.072308681266802843 0.12006084568152101 0 -0.067005210901473933 0.1077879133952777 0 -0.072308681266802843 0.12006084568152101 0 -0.080716659731458085 0.1053147771520072 0 -0.067005210901473933 0.1077879133952777 0 -0.079119924600213776 0.12813268639280359 0 -0.072308681266802843 0.12006084568152101 0 -0.084402678968613865 0.12032923123529531 0 -0.072308681266802843 0.12006084568152101 0 -0.084402678968613865 0.12032923123529531 0 -0.080716659731458085 0.1053147771520072 0 -0.084402678968613865 0.12032923123529531 0 -0.091571459367253472 0.11244781688203311 0 -0.080716659731458085 0.1053147771520072 0 -0.09316345007512529 0.12787552256921189 0 -0.084402678968613865 0.12032923123529531 0 -0.091571459367253472 0.11244781688203311 0 -0.091571459367253472 0.11244781688203311 0 -0.080716659731458085 0.1053147771520072 0 -0.094736971941195819 0.095595780018289112 0 -0.080716659731458085 0.1053147771520072 0 -0.068718803463526268 0.08793600255453965 0 -0.094736971941195819 0.095595780018289112 0 -0.055197532936232488 0.1037607647482361 0 -0.067005210901473933 0.1077879133952777 0 -0.068718803463526268 0.08793600255453965 0 -0.080716659731458085 0.1053147771520072 0 -0.067005210901473933 0.1077879133952777 0 -0.068718803463526268 0.08793600255453965 0 -0.068718803463526268 0.08793600255453965 0 -0.073688275830064279 0.075371739657705286 0 -0.086063470669467013 0.080544237302010588 0 -0.068718803463526268 0.08793600255453965 0 -0.063048194754677142 0.075142762922748074 0 -0.073688275830064279 0.075371739657705286 0 -0.074793953009655453 0.064993101038928053 0 -0.051195425581355702 0.060451653584498818 0 -0.055339306484280537 0.067136746271780096 0 -0.074793953009655453 0.064993101038928053 0 -0.055339306484280537 0.067136746271780096 0 -0.063048194754677142 0.075142762922748074 0 -0.074793953009655453 0.064993101038928053 0 -0.063048194754677142 0.075142762922748074 0 -0.073688275830064279 0.075371739657705286 0 -0.074793953009655453 0.064993101038928053 0 -0.073688275830064279 0.075371739657705286 0 -0.074793953009655453 0.064993101038928053 0 -0.076964271490551406 0.064753960591982129 0 -0.074793953009655453 0.064993101038928053 0 -0.076964271490551406 0.064753960591982129 0 -0.076964271490551406 0.064753960591982129 0 -0.1019982944246185 0.061995541730360718 0 -0.076964271490551406 0.064753960591982129 0 -0.086063470669467013 0.080544237302010588 0 -0.1038056271467698 0.070576288127995129 0 -0.076964271490551406 0.064753960591982129 0 -0.086063470669467013 0.080544237302010588 0 -0.073688275830064279 0.075371739657705286 0 -0.076964271490551406 0.064753960591982129 0 -0.086063470669467013 0.080544237302010588 0 -0.076964271490551406 0.064753960591982129 0 -0.1038056271467698 0.070576288127995129 0 -0.068718803463526268 0.08793600255453965 0 -0.086063470669467013 0.080544237302010588 0 -0.094736971941195819 0.095595780018289112 0 -0.068718803463526268 0.08793600255453965 0 -0.094736971941195819 0.095595780018289112 0 -0.086063470669467013 0.080544237302010588 0 -0.094736971941195819 0.095595780018289112 0 -0.086063470669467013 0.080544237302010588 0 -0.1038056271467698 0.070576288127995129 0 -0.109405193362358 0.085914246699531571 0 -0.086063470669467013 0.080544237302010588 0 -0.109405193362358 0.085914246699531571 0 -0.094736971941195819 0.095595780018289112 0 -0.076964271490551406 0.064753960591982129 0 -0.1038056271467698 0.070576288127995129 0 -0.1019982944246185 0.061995541730360718 0 -0.13022128489580259 0.075659881670257001 0 -0.1038056271467698 0.070576288127995129 0 -0.109405193362358 0.085914246699531571 0 -0.13022128489580259 0.075659881670257001 0 -0.127032317358686 0.059237122868742942 0 -0.1038056271467698 0.070576288127995129 0 -0.13022128489580259 0.075659881670257001 0 -0.1038056271467698 0.070576288127995129 0 -0.127032317358686 0.059237122868742942 0 -0.1038056271467698 0.070576288127995129 0 -0.1019982944246185 0.061995541730360718 0 -0.12648490221554301 0.093182677969538608 0 -0.13022128489580259 0.075659881670257001 0 -0.109405193362358 0.085914246699531571 0 -0.12648490221554301 0.093182677969538608 0 -0.109405193362358 0.085914246699531571 0 -0.11413360457299419 0.1013061700341451 0 -0.13353023720479301 0.1070165600499997 0 -0.11413360457299419 0.1013061700341451 0 -0.11720615843901611 0.1137246367104372 0 -0.13353023720479301 0.1070165600499997 0 -0.11413360457299419 0.1013061700341451 0 -0.13353023720479301 0.1070165600499997 0 -0.12648490221554301 0.093182677969538608 0 -0.11413360457299419 0.1013061700341451 0 -0.1103311508786855 0.1267962204314145 0 -0.11720615843901611 0.1137246367104372 0 -0.1245516134801372 0.1235398944364224 0 -0.1103311508786855 0.1267962204314145 0 -0.11720615843901611 0.1137246367104372 0 -0.1048375361198733 0.1131237734353623 0 -0.11413360457299419 0.1013061700341451 0 -0.11720615843901611 0.1137246367104372 0 -0.1048375361198733 0.1131237734353623 0 -0.1103311508786855 0.1267962204314145 0 -0.09316345007512529 0.12787552256921189 0 -0.1048375361198733 0.1131237734353623 0 -0.09316345007512529 0.12787552256921189 0 -0.091571459367253472 0.11244781688203311 0 -0.1048375361198733 0.1131237734353623 0 -0.109405193362358 0.085914246699531571 0 -0.11413360457299419 0.1013061700341451 0 -0.094736971941195819 0.095595780018289112 0 -0.1048375361198733 0.1131237734353623 0 -0.094736971941195819 0.095595780018289112 0 -0.091571459367253472 0.11244781688203311 0 -0.1048375361198733 0.1131237734353623 0 -0.094736971941195819 0.095595780018289112 0 -0.11413360457299419 0.1013061700341451 0 -0.094736971941195819 0.095595780018289112 0 -0.11413360457299419 0.1013061700341451 0 -0.1048375361198733 0.1131237734353623 0 -0.094736971941195819 0.095595780018289112 0 -0.108671652447627 0.028532571541767131 0 -0.092976030080821809 0.035159906804242518 0 -0.08359917816415588 0.016215177317880108 0 -0.10870783169930651 -0.00026522707265157561 0 -0.08359917816415588 0.016215177317880108 0 -0.10870783169930651 -0.00026522707265157561 0 -0.108671652447627 0.028532571541767131 0 -0.08359917816415588 0.016215177317880108 0 -0.10870783169930651 -0.00026522707265157561 0 -0.12871323843160851 0.013123773824541321 0 -0.108671652447627 0.028532571541767131 0 -0.12934916427595389 0.040253564639695323 0 -0.12871323843160851 0.013123773824541321 0 -0.108671652447627 0.028532571541767131 0 -0.12934916427595389 0.040253564639695323 0 -0.108671652447627 0.028532571541767131 0 -0.11355912293490469 0.048071631469371191 0 -0.127032317358686 0.059237122868742942 0 -0.1019982944246185 0.061995541730360718 0 -0.127032317358686 0.059237122868742942 0 -0.12934916427595389 0.040253564639695323 0 -0.11355912293490469 0.048071631469371191 0 -0.127032317358686 0.059237122868742942 0 -0.11355912293490469 0.048071631469371191 0 -0.1019982944246185 0.061995541730360718 0 -0.1019982944246185 0.061995541730360718 0 -0.093757275411422522 0.053935704625200302 0 -0.1002284740791754 0.046209720676089777 0 -0.11355912293490469 0.048071631469371191 0 -0.1019982944246185 0.061995541730360718 0 -0.1002284740791754 0.046209720676089777 0 -0.093757275411422522 0.053935704625200302 0 -0.1002284740791754 0.046209720676089777 0 -0.0881845159510279 0.047770767421090071 0 -0.1019982944246185 0.061995541730360718 0 -0.093757275411422522 0.053935704625200302 0 -0.087051923962855077 0.057137859501293131 0 -0.108671652447627 0.028532571541767131 0 -0.1002284740791754 0.046209720676089777 0 -0.092976030080821809 0.035159906804242518 0 -0.108671652447627 0.028532571541767131 0 -0.11355912293490469 0.048071631469371191 0 -0.1002284740791754 0.046209720676089777 0 -0.1002284740791754 0.046209720676089777 0 -0.092976030080821809 0.035159906804242518 0 -0.0881845159510279 0.047770767421090071 0 -0.092976030080821809 0.035159906804242518 0 -0.078623377710925452 0.038861036132953088 0 -0.0881845159510279 0.047770767421090071 0 -0.078623377710925452 0.038861036132953088 0 -0.0881845159510279 0.047770767421090071 0 -0.079223476080629907 0.051975464793896781 0 -0.076964271490551406 0.064753960591982129 0 -0.1019982944246185 0.061995541730360718 0 -0.087051923962855077 0.057137859501293131 0 -0.093757275411422522 0.053935704625200302 0 -0.087051923962855077 0.057137859501293131 0 -0.0881845159510279 0.047770767421090071 0 -0.087051923962855077 0.057137859501293131 0 -0.0881845159510279 0.047770767421090071 0 -0.079223476080629907 0.051975464793896781 0 -0.076964271490551406 0.064753960591982129 0 -0.087051923962855077 0.057137859501293131 0 -0.079223476080629907 0.051975464793896781 0 -0.074793953009655453 0.064993101038928053 0 -0.076964271490551406 0.064753960591982129 0 -0.067727398059777733 0.048724771150197237 0 -0.074793953009655453 0.064993101038928053 0 -0.067727398059777733 0.048724771150197237 0 -0.051195425581355702 0.060451653584498818 0 -0.076964271490551406 0.064753960591982129 0 -0.067727398059777733 0.048724771150197237 0 -0.076964271490551406 0.064753960591982129 0 -0.079223476080629907 0.051975464793896781 0 -0.067727398059777733 0.048724771150197237 0 -0.078623377710925452 0.038861036132953088 0 -0.067727398059777733 0.048724771150197237 0 -0.058490524629005343 0.032695581708411602 0 -0.067727398059777733 0.048724771150197237 0 -0.058490524629005343 0.032695581708411602 0 -0.078623377710925452 0.038861036132953088 0 -0.079223476080629907 0.051975464793896781 0 -0.067727398059777733 0.048724771150197237 0 -0.078623377710925452 0.038861036132953088 0 -0.08359917816415588 0.016215177317880108 0 -0.058490524629005343 0.032695581708411602 0 -0.08359917816415588 0.016215177317880108 0 -0.058490524629005343 0.032695581708411602 0 -0.08359917816415588 0.016215177317880108 0 -0.063272448375526313 0.013560038746614021 0 -0.058490524629005343 0.032695581708411602 0 -0.092976030080821809 0.035159906804242518 0 -0.078623377710925452 0.038861036132953088 0 -0.08359917816415588 0.016215177317880108 0 -0.063004941211177848 -0.0061621375804896154 0 -0.08359917816415588 0.016215177317880108 0 -0.063272448375526313 0.013560038746614021 0 -0.063004941211177848 -0.0061621375804896154 0 -0.063272448375526313 0.013560038746614021 0 -0.044318579115875903 0.008102325008387725 0 -0.044318579115875903 0.008102325008387725 0 -0.058490524629005343 0.032695581708411602 0 -0.063272448375526313 0.013560038746614021 0 -0.044318579115875903 0.008102325008387725 0 -0.058490524629005343 0.032695581708411602 0 -0.031760293155850612 0.02740454718338256 0 -0.044318579115875903 0.008102325008387725 0 -0.02050889440475458 0.01191857247459167 0 -0.031760293155850612 0.02740454718338256 0 -0.044318579115875903 0.008102325008387725 0 -0.058490524629005343 0.032695581708411602 0 -0.067727398059777733 0.048724771150197237 0 -0.051195425581355702 0.060451653584498818 0 -0.042396644832638511 0.04325901741337379 0 -0.067727398059777733 0.048724771150197237 0 -0.058490524629005343 0.032695581708411602 0 -0.042396644832638511 0.04325901741337379 0 -0.058490524629005343 0.032695581708411602 0 -0.042396644832638511 0.04325901741337379 0 -0.031760293155850612 0.02740454718338256 0 -0.058490524629005343 0.032695581708411602 0 -0.042396644832638511 0.04325901741337379 0 -0.042396644832638511 0.04325901741337379 0 -0.026302765036271769 0.053822453118335993 0 -0.02852089250741599 0.039463577376362288 0 -0.031760293155850612 0.02740454718338256 0 -0.042396644832638511 0.04325901741337379 0 -0.02852089250741599 0.039463577376362288 0 -0.051195425581355702 0.060451653584498818 0 -0.027596898153055958 0.05591020613006998 0 -0.051195425581355702 0.060451653584498818 0 -0.042396644832638511 0.04325901741337379 0 -0.027596898153055958 0.05591020613006998 0 -0.042396644832638511 0.04325901741337379 0 -0.026302765036271769 0.053822453118335993 0 -0.035884659958905718 0.069280391504632 0 -0.051195425581355702 0.060451653584498818 0 -0.027596898153055958 0.05591020613006998 0 -0.042396644832638511 0.04325901741337379 0 -0.027596898153055958 0.05591020613006998 0 -0.026302765036271769 0.053822453118335993 0 -0.01366648930583881 0.071728540615999994 0 -0.027596898153055958 0.05591020613006998 0 -0.024136552897330441 0.055244275757902889 0 -0.01770318221929448 0.056299027778606722 0 -0.024136552897330441 0.055244275757902889 0 -0.01274638214222233 0.059674076602244421 0 -0.01770318221929448 0.056299027778606722 0 -0.016684051925141701 0.051110268799226227 0 -0.01274638214222233 0.059674076602244421 0 -0.027596898153055958 0.05591020613006998 0 -0.024136552897330441 0.055244275757902889 0 -0.027596898153055958 0.05591020613006998 0 -0.026302765036271769 0.053822453118335993 0 -0.027596898153055958 0.05591020613006998 0 -0.024136552897330441 0.055244275757902889 0 -0.026302765036271769 0.053822453118335993 0 -0.024136552897330441 0.055244275757902889 0 -0.026302765036271769 0.053822453118335993 0 -0.024136552897330441 0.055244275757902889 0 -0.026302765036271769 0.053822453118335993 0 -0.016684051925141701 0.051110268799226227 0 -0.01770318221929448 0.056299027778606722 0 -0.024136552897330441 0.055244275757902889 0 -0.016684051925141701 0.051110268799226227 0 -0.026302765036271769 0.053822453118335993 0 -0.01362386700490314 0.033368291790356927 0 -0.026302765036271769 0.053822453118335993 0 -0.016684051925141701 0.051110268799226227 0 -0.01362386700490314 0.033368291790356927 0 -0.026302765036271769 0.053822453118335993 0 -0.02852089250741599 0.039463577376362288 0 -0.01362386700490314 0.033368291790356927 0 -0.031760293155850612 0.02740454718338256 0 -0.02852089250741599 0.039463577376362288 0 -0.01362386700490314 0.033368291790356927 0 -0.016684051925141701 0.051110268799226227 0 -0.01362386700490314 0.033368291790356927 0 -0.0061415812785175156 0.048359336831964569 0 -0.01362386700490314 0.033368291790356927 0 -0.0061415812785175156 0.048359336831964569 0 0.0058221923607010501 0.034166004381424087 0 -0.004553599416321219 0.068097812172203259 0 -0.024136552897330441 0.055244275757902889 0 -0.004553599416321219 0.068097812172203259 0 -0.024136552897330441 0.055244275757902889 0 -0.01274638214222233 0.059674076602244421 0 -0.016684051925141701 0.051110268799226227 0 -0.0061415812785175156 0.048359336831964569 0 -0.01274638214222233 0.059674076602244421 0 -0.0061415812785175156 0.048359336831964569 0 -0.0034907294980709449 0.058868134135229032 0 0.0059378929256279512 0.052685294341231231 0 -0.0061415812785175156 0.048359336831964569 0 -0.0034907294980709449 0.058868134135229032 0 -0.01274638214222233 0.059674076602244421 0 -0.004553599416321219 0.068097812172203259 0 -0.0034907294980709449 0.058868134135229032 0 -0.01274638214222233 0.059674076602244421 0 -0.026021923604767402 -0.00073962999182732459 0 -0.044318579115875903 0.008102325008387725 0 -0.02050889440475458 0.01191857247459167 0 -0.026021923604767402 -0.00073962999182732459 0 -0.0091135872956926781 -0.0064884857586527227 0 -0.02050889440475458 0.01191857247459167 0 -0.031760293155850612 0.02740454718338256 0 -0.01362386700490314 0.033368291790356927 0 -0.02050889440475458 0.01191857247459167 0 -0.01362386700490314 0.033368291790356927 0 -0.00094496897352987219 0.012914130462380781 0 -0.01362386700490314 0.033368291790356927 0 -0.02050889440475458 0.01191857247459167 0 -0.00094496897352987219 0.012914130462380781 0 -0.01362386700490314 0.033368291790356927 0 -0.00094496897352987219 0.012914130462380781 0 0.0058221923607010501 0.034166004381424087 0 -0.0091135872956926781 -0.0064884857586527227 0 -0.02050889440475458 0.01191857247459167 0 -0.00094496897352987219 0.012914130462380781 0 -0.0091135872956926781 -0.0064884857586527227 0 -0.00094496897352987219 0.012914130462380781 0 0.0119194590113617 0.003513960174329206 0 -0.00094496897352987219 0.012914130462380781 0 0.0119194590113617 0.003513960174329206 0 0.014222881781660261 0.018659517100341059 0 -0.00094496897352987219 0.012914130462380781 0 0.014222881781660261 0.018659517100341059 0 0.0058221923607010501 0.034166004381424087 0 0.014222881781660261 0.018659517100341059 0 0.021365221191352431 0.029187084376260119 0 0.0058221923607010501 0.034166004381424087 0 0.014222881781660261 0.018659517100341059 0 0.021365221191352431 0.029187084376260119 0 0.032952505318415967 0.01351640610731109 0 0.021365221191352431 0.029187084376260119 0 0.038277057217145589 0.033213489113111332 0 0.032952505318415967 0.01351640610731109 0 0.0119194590113617 0.003513960174329206 0 0.032952505318415967 0.01351640610731109 0 0.0119194590113617 0.003513960174329206 0 0.032952505318415967 0.01351640610731109 0 0.026669856371053929 -0.001868688990480078 0 0.0119194590113617 0.003513960174329206 0 0.014222881781660261 0.018659517100341059 0 0.032952505318415967 0.01351640610731109 0 0.0059378929256279512 0.052685294341231231 0 0.023275335621816849 0.047043683653894122 0 0.01655740305819469 0.060876991205568637 0 0.0059378929256279512 0.052685294341231231 0 0.01655740305819469 0.060876991205568637 0 0.0049573368763592167 0.06253138299556911 0 -0.0034907294980709449 0.058868134135229032 0 0.0059378929256279512 0.052685294341231231 0 0.0049573368763592167 0.06253138299556911 0 0.0059378929256279512 0.052685294341231231 0 0.0058221923607010501 0.034166004381424087 0 0.023275335621816849 0.047043683653894122 0 -0.0061415812785175156 0.048359336831964569 0 0.0059378929256279512 0.052685294341231231 0 0.0058221923607010501 0.034166004381424087 0 0.021365221191352431 0.029187084376260119 0 0.0058221923607010501 0.034166004381424087 0 0.023275335621816849 0.047043683653894122 0 0.021365221191352431 0.029187084376260119 0 0.023275335621816849 0.047043683653894122 0 0.038277057217145589 0.033213489113111332 0 0.023275335621816849 0.047043683653894122 0 0.01655740305819469 0.060876991205568637 0 0.032115202526255243 0.058959992489591911 0 0.023275335621816849 0.047043683653894122 0 0.045192165922219647 0.048562335704216503 0 0.032115202526255243 0.058959992489591911 0 0.045192165922219647 0.048562335704216503 0 0.032115202526255243 0.058959992489591911 0 0.046768071862878603 0.06532307377109374 0 0.023275335621816849 0.047043683653894122 0 0.045192165922219647 0.048562335704216503 0 0.038277057217145589 0.033213489113111332 0 0.045192165922219647 0.048562335704216503 0 0.038277057217145589 0.033213489113111332 0 0.058668064439136858 0.038373004004787853 0 0.045192165922219647 0.048562335704216503 0 0.062340330583677162 0.057341392265620961 0 0.046768071862878603 0.06532307377109374 0 0.045192165922219647 0.048562335704216503 0 0.058668064439136858 0.038373004004787853 0 0.062340330583677162 0.057341392265620961 0 0.032952505318415967 0.01351640610731109 0 0.026669856371053929 -0.001868688990480078 0 0.045313929399375619 -0.0037494574130846488 0 0.032952505318415967 0.01351640610731109 0 0.052931196833718532 0.018836763268177709 0 0.045313929399375619 -0.0037494574130846488 0 0.038277057217145589 0.033213489113111332 0 0.032952505318415967 0.01351640610731109 0 0.052931196833718532 0.018836763268177709 0 0.038277057217145589 0.033213489113111332 0 0.058668064439136858 0.038373004004787853 0 0.052931196833718532 0.018836763268177709 0 0.058668064439136858 0.038373004004787853 0 0.052931196833718532 0.018836763268177709 0 0.074047436144949075 0.026895300041561439 0 0.052931196833718532 0.018836763268177709 0 0.067233990164689603 0.0045101081110712534 0 0.045313929399375619 -0.0037494574130846488 0 0.067233990164689603 0.0045101081110712534 0 0.084502021209579961 0.01375285249802719 0 0.074047436144949075 0.026895300041561439 0 0.067233990164689603 0.0045101081110712534 0 0.084502021209579961 0.01375285249802719 0 0.085144050071697161 -0.011962341956641099 0 0.084502021209579961 0.01375285249802719 0 0.097524786463171559 0.00344412669915293 0 0.085144050071697161 -0.011962341956641099 0 0.084502021209579961 0.01375285249802719 0 0.097524786463171559 0.00344412669915293 0 0.09901907718398209 0.016799322476938459 0 0.084502021209579961 0.01375285249802719 0 0.092096779063204806 0.027912384295668849 0 0.074047436144949075 0.026895300041561439 0 0.084502021209579961 0.01375285249802719 0 0.092096779063204806 0.027912384295668849 0 0.09901907718398209 0.016799322476938459 0 0.052931196833718532 0.018836763268177709 0 0.067233990164689603 0.0045101081110712534 0 0.074047436144949075 0.026895300041561439 0 0.074047436144949075 0.026895300041561439 0 0.073678530296075531 0.04521138431988718 0 0.086557258340763832 0.039504199398029488 0 0.058668064439136858 0.038373004004787853 0 0.074047436144949075 0.026895300041561439 0 0.073678530296075531 0.04521138431988718 0 0.058668064439136858 0.038373004004787853 0 0.062340330583677162 0.057341392265620961 0 0.073678530296075531 0.04521138431988718 0 0.062340330583677162 0.057341392265620961 0 0.075387763354300308 0.056946984773686093 0 0.072428878900193283 0.068071664054859773 0 0.062340330583677162 0.057341392265620961 0 0.073678530296075531 0.04521138431988718 0 0.075387763354300308 0.056946984773686093 0 0.073678530296075531 0.04521138431988718 0 0.075387763354300308 0.056946984773686093 0 0.084728928197513764 0.051332715069275961 0 0.075387763354300308 0.056946984773686093 0 0.084728928197513764 0.051332715069275961 0 0.083762148794041813 0.062777768158786579 0 0.084728928197513764 0.051332715069275961 0 0.095595117031298305 0.057081046054469869 0 0.094225068767283926 0.047228287864273341 0 0.084728928197513764 0.051332715069275961 0 0.095595117031298305 0.057081046054469869 0 0.083762148794041813 0.062777768158786579 0 0.092096779063204806 0.027912384295668849 0 0.074047436144949075 0.026895300041561439 0 0.086557258340763832 0.039504199398029488 0 0.073678530296075531 0.04521138431988718 0 0.084728928197513764 0.051332715069275961 0 0.086557258340763832 0.039504199398029488 0 0.084728928197513764 0.051332715069275961 0 0.086557258340763832 0.039504199398029488 0 0.094225068767283926 0.047228287864273341 0 0.092096779063204806 0.027912384295668849 0 0.086557258340763832 0.039504199398029488 0 0.10117503797971281 0.03798179783766769 0 0.10117503797971281 0.03798179783766769 0 0.094225068767283926 0.047228287864273341 0 0.10273289416278859 0.047974986067966068 0 0.086557258340763832 0.039504199398029488 0 0.10117503797971281 0.03798179783766769 0 0.094225068767283926 0.047228287864273341 0 0.10117503797971281 0.03798179783766769 0 0.10273289416278859 0.047974986067966068 0 0.1117871713350745 0.045772579991045233 0 0.10117503797971281 0.03798179783766769 0 0.11086284844466721 0.036691252737413957 0 0.1117871713350745 0.045772579991045233 0 0.10117503797971281 0.03798179783766769 0 0.11086284844466721 0.036691252737413957 0 0.11042858701637551 0.026448926171174749 0 0.095595117031298305 0.057081046054469869 0 0.094225068767283926 0.047228287864273341 0 0.10273289416278859 0.047974986067966068 0 0.10273289416278859 0.047974986067966068 0 0.1069122657272331 0.055997703233247959 0 0.1117871713350745 0.045772579991045233 0 0.095595117031298305 0.057081046054469869 0 0.10273289416278859 0.047974986067966068 0 0.1069122657272331 0.055997703233247959 0 0.095595117031298305 0.057081046054469869 0 0.1069122657272331 0.055997703233247959 0 0.1035787658552825 0.065305428758746703 0 0.1069122657272331 0.055997703233247959 0 0.1124490803251134 0.063109543917371544 0 0.1035787658552825 0.065305428758746703 0 0.1156116261380353 0.054558275287143958 0 0.12219669470671519 0.05963031946461108 0 0.1124490803251134 0.063109543917371544 0 0.1069122657272331 0.055997703233247959 0 0.1156116261380353 0.054558275287143958 0 0.1124490803251134 0.063109543917371544 0 0.1156116261380353 0.054558275287143958 0 0.1201371984308051 0.046993652425495913 0 0.1117871713350745 0.045772579991045233 0 0.1069122657272331 0.055997703233247959 0 0.1156116261380353 0.054558275287143958 0 0.1117871713350745 0.045772579991045233 0 0.1201371984308051 0.046993652425495913 0 0.12157777947060221 0.054237122817751712 0 0.1273364843073064 0.051731614006749173 0 0.1156116261380353 0.054558275287143958 0 0.1201371984308051 0.046993652425495913 0 0.12157777947060221 0.054237122817751712 0 0.12157777947060221 0.054237122817751712 0 0.12219669470671519 0.05963031946461108 0 0.1273364843073064 0.051731614006749173 0 0.1156116261380353 0.054558275287143958 0 0.12157777947060221 0.054237122817751712 0 0.12219669470671519 0.05963031946461108 0 0.11086284844466721 0.036691252737413957 0 0.1200605974475062 0.036561706949768208 0 0.11042858701637551 0.026448926171174749 0 0.11086284844466721 0.036691252737413957 0 0.1117871713350745 0.045772579991045233 0 0.1200605974475062 0.036561706949768208 0 0.1201371984308051 0.046993652425495913 0 0.1117871713350745 0.045772579991045233 0 0.1200605974475062 0.036561706949768208 0 0.1201371984308051 0.046993652425495913 0 0.1200605974475062 0.036561706949768208 0 0.13175175119405841 0.042416967530628499 0 0.1200605974475062 0.036561706949768208 0 0.11042858701637551 0.026448926171174749 0 0.12299584720260991 0.02173750441434109 0 0.11042858701637551 0.026448926171174749 0 0.12299584720260991 0.02173750441434109 0 0.11054321216757861 0.01243832272066857 0 0.12299584720260991 0.02173750441434109 0 0.1228416977593057 0.0082945083367616263 0 0.11054321216757861 0.01243832272066857 0 0.1228416977593057 0.0082945083367616263 0 0.1226802507548381 -0.0019164014345253279 0 0.1116929663085572 -0.0018049306385004059 0 0.1228416977593057 0.0082945083367616263 0 0.11054321216757861 0.01243832272066857 0 0.1116929663085572 -0.0018049306385004059 0 0.11054321216757861 0.01243832272066857 0 0.097524786463171559 0.00344412669915293 0 0.09901907718398209 0.016799322476938459 0 0.11054321216757861 0.01243832272066857 0 0.097524786463171559 0.00344412669915293 0 0.1116929663085572 -0.0018049306385004059 0 0.092096779063204806 0.027912384295668849 0 0.10117503797971281 0.03798179783766769 0 0.11042858701637551 0.026448926171174749 0 0.092096779063204806 0.027912384295668849 0 0.11042858701637551 0.026448926171174749 0 0.09901907718398209 0.016799322476938459 0 0.11042858701637551 0.026448926171174749 0 0.11054321216757861 0.01243832272066857 0 0.09901907718398209 0.016799322476938459 0 0.096902654736414684 0.099998662154933249 0 0.1134959130281112 0.1009397771455615 0 0.1101804826932541 0.084639952123018808 0 0.11437019827350101 0.11071142570072449 0 0.1134959130281112 0.1009397771455615 0 0.09164677499795669 0.111896535558532 0 0.096902654736414684 0.099998662154933249 0 0.1134959130281112 0.1009397771455615 0 0.09164677499795669 0.111896535558532 0 0.1134959130281112 0.1009397771455615 0 0.09164677499795669 0.111896535558532 0 0.096902654736414684 0.099998662154933249 0 0.1134959130281112 0.1009397771455615 0 0.09164677499795669 0.111896535558532 0 0.10877354066152051 0.13646340620887801 0 0.10948637917263659 0.12540430696501481 0 0.10816969866758221 0.1178097331221387 0 0.11437019827350101 0.11071142570072449 0 0.09164677499795669 0.111896535558532 0 0.09164677499795669 0.111896535558532 0 0.10877354066152051 0.13646340620887801 0 0.10816969866758221 0.1178097331221387 0 0.09164677499795669 0.111896535558532 0 0.10948637917263659 0.12540430696501481 0 0.10816969866758221 0.1178097331221387 0 0.11437019827350101 0.11071142570072449 0 0.1171378506713591 0.1197076203708128 0 0.10816969866758221 0.1178097331221387 0 0.1171378506713591 0.1197076203708128 0 0.10948637917263659 0.12540430696501481 0 0.1171378506713591 0.1197076203708128 0 0.10948637917263659 0.12540430696501481 0 0.11850254933348379 0.12820304585725181 0 0.1171378506713591 0.1197076203708128 0 0.11850254933348379 0.12820304585725181 0 0.1262289268777724 0.1207081556182063 0 0.1171378506713591 0.1197076203708128 0 0.1249617282073653 0.11138841526182761 0 0.1262289268777724 0.1207081556182063 0 0.11437019827350101 0.11071142570072449 0 0.1171378506713591 0.1197076203708128 0 0.1249617282073653 0.11138841526182761 0 0.1134959130281112 0.1009397771455615 0 0.1362271698310327 0.089540659758457902 0 0.11437019827350101 0.11071142570072449 0 0.1249617282073653 0.11138841526182761 0 0.1134959130281112 0.1009397771455615 0 0.1134959130281112 0.1009397771455615 0 0.121835820738507 0.08129736859239832 0 0.1101804826932541 0.084639952123018808 0 0.1134959130281112 0.1009397771455615 0 0.121835820738507 0.08129736859239832 0 0.1362271698310327 0.089540659758457902 0 0.121835820738507 0.08129736859239832 0 0.1101804826932541 0.084639952123018808 0 0.1234583106500939 0.069281242091104617 0 0.12219669470671519 0.05963031946461108 0 0.1234583106500939 0.069281242091104617 0 0.11541516741994121 0.069619474606782319 0 0.121835820738507 0.08129736859239832 0 0.1234583106500939 0.069281242091104617 0 0.12951034755995039 0.071854779490956214 0 0.1101804826932541 0.084639952123018808 0 0.1234583106500939 0.069281242091104617 0 0.11541516741994121 0.069619474606782319 0 0.1101804826932541 0.084639952123018808 0 0.11541516741994121 0.069619474606782319 0 0.1087912687245291 0.071436315437805584 0 0.1101804826932541 0.084639952123018808 0 0.1234583106500939 0.069281242091104617 0 0.11541516741994121 0.069619474606782319 0 0.1124490803251134 0.063109543917371544 0 0.1087912687245291 0.071436315437805584 0 0.12219669470671519 0.05963031946461108 0 0.11541516741994121 0.069619474606782319 0 0.1124490803251134 0.063109543917371544 0 0.1124490803251134 0.063109543917371544 0 0.1035787658552825 0.065305428758746703 0 0.1087912687245291 0.071436315437805584 0 0.1101804826932541 0.084639952123018808 0 0.1087912687245291 0.071436315437805584 0 0.101102653710728 0.074953788298850632 0 0.1035787658552825 0.065305428758746703 0 0.1087912687245291 0.071436315437805584 0 0.101102653710728 0.074953788298850632 0 0.101102653710728 0.074953788298850632 0 0.093190752831038726 0.078536439818450737 0 0.093378724681791592 0.068967207718791515 0 0.095595117031298305 0.057081046054469869 0 0.1035787658552825 0.065305428758746703 0 0.093378724681791592 0.068967207718791515 0 0.1035787658552825 0.065305428758746703 0 0.101102653710728 0.074953788298850632 0 0.093378724681791592 0.068967207718791515 0 0.096902654736414684 0.099998662154933249 0 0.1101804826932541 0.084639952123018808 0 0.096902654736414684 0.099998662154933249 0 0.1101804826932541 0.084639952123018808 0 0.098914162744354522 0.085055098787686356 0 0.1101804826932541 0.084639952123018808 0 0.101102653710728 0.074953788298850632 0 0.098914162744354522 0.085055098787686356 0 0.101102653710728 0.074953788298850632 0 0.098914162744354522 0.085055098787686356 0 0.093190752831038726 0.078536439818450737 0 0.098914162744354522 0.085055098787686356 0 0.093466354414902947 0.084727463680507625 0 0.093190752831038726 0.078536439818450737 0 0.098914162744354522 0.085055098787686356 0 0.092280102743838383 0.090372130301191914 0 0.093466354414902947 0.084727463680507625 0 0.096902654736414684 0.099998662154933249 0 0.098914162744354522 0.085055098787686356 0 0.092280102743838383 0.090372130301191914 0 0.082498083587680987 0.087677790604521022 0 0.071454067327959864 0.081955764084054458 0 0.083717655501087881 0.099250852399089456 0 0.092280102743838383 0.090372130301191914 0 0.08684959111869682 0.090221675747244934 0 0.08437456854737041 0.097551310722636647 0 0.092280102743838383 0.090372130301191914 0 0.08684959111869682 0.090221675747244934 0 0.088723208249804869 0.08464999101363152 0 0.08684959111869682 0.090221675747244934 0 0.088723208249804869 0.08464999101363152 0 0.082498083587680987 0.087677790604521022 0 0.092280102743838383 0.090372130301191914 0 0.093466354414902947 0.084727463680507625 0 0.088723208249804869 0.08464999101363152 0 0.093190752831038726 0.078536439818450737 0 0.088723208249804869 0.08464999101363152 0 0.083581120371061871 0.076179324179204144 0 0.093466354414902947 0.084727463680507625 0 0.093190752831038726 0.078536439818450737 0 0.088723208249804869 0.08464999101363152 0 0.088723208249804869 0.08464999101363152 0 0.082498083587680987 0.087677790604521022 0 0.083581120371061871 0.076179324179204144 0 0.082498083587680987 0.087677790604521022 0 0.083581120371061871 0.076179324179204144 0 0.071454067327959864 0.081955764084054458 0 0.08684959111869682 0.090221675747244934 0 0.082498083587680987 0.087677790604521022 0 0.08437456854737041 0.097551310722636647 0 0.095595117031298305 0.057081046054469869 0 0.093378724681791592 0.068967207718791515 0 0.083762148794041813 0.062777768158786579 0 0.093378724681791592 0.068967207718791515 0 0.083581120371061871 0.076179324179204144 0 0.083762148794041813 0.062777768158786579 0 0.093190752831038726 0.078536439818450737 0 0.093378724681791592 0.068967207718791515 0 0.083581120371061871 0.076179324179204144 0 0.083581120371061871 0.076179324179204144 0 0.083762148794041813 0.062777768158786579 0 0.072428878900193283 0.068071664054859773 0 0.062340330583677162 0.057341392265620961 0 0.072428878900193283 0.068071664054859773 0 0.058880160368799922 0.073982131021283218 0 0.075387763354300308 0.056946984773686093 0 0.083762148794041813 0.062777768158786579 0 0.072428878900193283 0.068071664054859773 0 0.083581120371061871 0.076179324179204144 0 0.072428878900193283 0.068071664054859773 0 0.071454067327959864 0.081955764084054458 0 0.072428878900193283 0.068071664054859773 0 0.071454067327959864 0.081955764084054458 0 0.058880160368799922 0.073982131021283218 0 0.071454067327959864 0.081955764084054458 0 0.083717655501087881 0.099250852399089456 0 0.058893875968888128 0.097842929335932499 0 0.071454067327959864 0.081955764084054458 0 0.058893875968888128 0.097842929335932499 0 0.058880160368799922 0.073982131021283218 0 0.069070877681715784 0.108252439040721 0 0.083717655501087881 0.099250852399089456 0 0.058893875968888128 0.097842929335932499 0 0.083717655501087881 0.099250852399089456 0 0.058893875968888128 0.097842929335932499 0 0.069070877681715784 0.108252439040721 0 0.083717655501087881 0.099250852399089456 0 0.075748149040650747 0.1198692713008699 0 0.083717655501087881 0.099250852399089456 0 0.088107514448147434 0.1068197710465961 0 0.075748149040650747 0.1198692713008699 0 0.082498083587680987 0.087677790604521022 0 0.08437456854737041 0.097551310722636647 0 0.083717655501087881 0.099250852399089456 0 0.08437456854737041 0.097551310722636647 0 0.083717655501087881 0.099250852399089456 0 0.096902654736414684 0.099998662154933249 0 0.089415748245086357 0.10865890584916831 0 0.09164677499795669 0.111896535558532 0 0.096902654736414684 0.099998662154933249 0 0.083717655501087881 0.099250852399089456 0 0.088107514448147434 0.1068197710465961 0 0.096902654736414684 0.099998662154933249 0 0.088107514448147434 0.1068197710465961 0 0.089415748245086357 0.10865890584916831 0 0.096902654736414684 0.099998662154933249 0 0.089415748245086357 0.10865890584916831 0 0.088107514448147434 0.1068197710465961 0 0.089415748245086357 0.10865890584916831 0 0.096902654736414684 0.099998662154933249 0 0.092280102743838383 0.090372130301191914 0 0.08437456854737041 0.097551310722636647 0 0.096902654736414684 0.099998662154933249 0 0.08437456854737041 0.097551310722636647 0 0.083717655501087881 0.099250852399089456 0 0.096902654736414684 0.099998662154933249 0 0.083717655501087881 0.099250852399089456 0 0.09164677499795669 0.111896535558532 0 0.075748149040650747 0.1198692713008699 0 0.089415748245086357 0.10865890584916831 0 0.09164677499795669 0.111896535558532 0 0.075748149040650747 0.1198692713008699 0 0.09164677499795669 0.111896535558532 0 0.075748149040650747 0.1198692713008699 0 0.088346205634002556 0.13094435060572299 0 0.083717655501087881 0.099250852399089456 0 0.075748149040650747 0.1198692713008699 0 0.089415748245086357 0.10865890584916831 0 0.09164677499795669 0.111896535558532 0 0.088107514448147434 0.1068197710465961 0 0.089415748245086357 0.10865890584916831 0 0.075748149040650747 0.1198692713008699 0 0.069070877681715784 0.108252439040721 0 0.075748149040650747 0.1198692713008699 0 0.05792383021623633 0.1160467031269924 0 0.075748149040650747 0.1198692713008699 0 0.05792383021623633 0.1160467031269924 0 0.050326310527479552 0.13261764346172511 0 0.05792383021623633 0.1160467031269924 0 0.044241812574155159 0.1087515148534651 0 0.050326310527479552 0.13261764346172511 0 0.069070877681715784 0.108252439040721 0 0.05792383021623633 0.1160467031269924 0 0.058893875968888128 0.097842929335932499 0 0.05792383021623633 0.1160467031269924 0 0.058893875968888128 0.097842929335932499 0 0.044241812574155159 0.1087515148534651 0 0.044241812574155159 0.1087515148534651 0 0.034612307545701083 0.093804885000797866 0 0.029370267936554111 0.1172331097944851 0 0.058893875968888128 0.097842929335932499 0 0.044241812574155159 0.1087515148534651 0 0.034612307545701083 0.093804885000797866 0 0.044241812574155159 0.1087515148534651 0 0.029370267936554111 0.1172331097944851 0 0.050326310527479552 0.13261764346172511 0 0.058880160368799922 0.073982131021283218 0 0.044826118572792367 0.081104060260441826 0 0.046768071862878603 0.06532307377109374 0 0.062340330583677162 0.057341392265620961 0 0.058880160368799922 0.073982131021283218 0 0.046768071862878603 0.06532307377109374 0 0.058893875968888128 0.097842929335932499 0 0.058880160368799922 0.073982131021283218 0 0.044826118572792367 0.081104060260441826 0 0.058893875968888128 0.097842929335932499 0 0.034612307545701083 0.093804885000797866 0 0.044826118572792367 0.081104060260441826 0 0.034612307545701083 0.093804885000797866 0 0.044826118572792367 0.081104060260441826 0 0.02878303616616645 0.072993878113186597 0 0.032115202526255243 0.058959992489591911 0 0.046768071862878603 0.06532307377109374 0 0.02878303616616645 0.072993878113186597 0 0.044826118572792367 0.081104060260441826 0 0.046768071862878603 0.06532307377109374 0 0.02878303616616645 0.072993878113186597 0 0.02878303616616645 0.072993878113186597 0 0.01502935406468995 0.080951348586500577 0 0.012154706149817821 0.069090282614605633 0 0.01655740305819469 0.060876991205568637 0 0.02878303616616645 0.072993878113186597 0 0.012154706149817821 0.069090282614605633 0 0.01655740305819469 0.060876991205568637 0 0.032115202526255243 0.058959992489591911 0 0.02878303616616645 0.072993878113186597 0 0.034612307545701083 0.093804885000797866 0 0.01502935406468995 0.080951348586500577 0 0.034612307545701083 0.093804885000797866 0 0.01502935406468995 0.080951348586500577 0 0.014606377518400651 0.1005608920124313 0 0.034612307545701083 0.093804885000797866 0 0.02878303616616645 0.072993878113186597 0 0.01502935406468995 0.080951348586500577 0 0.003602597882473428 0.087375721075588414 0 0.01502935406468995 0.080951348586500577 0 0.014606377518400651 0.1005608920124313 0 0.003602597882473428 0.087375721075588414 0 0.01502935406468995 0.080951348586500577 0 7.9005042563778938e-06 0.073235277862053666 0 -0.004553599416321219 0.068097812172203259 0 0.01502935406468995 0.080951348586500577 0 -0.004553599416321219 0.068097812172203259 0 0.01502935406468995 0.080951348586500577 0 7.9005042563778938e-06 0.073235277862053666 0 -0.004553599416321219 0.068097812172203259 0 0.01502935406468995 0.080951348586500577 0 0.012154706149817821 0.069090282614605633 0 -0.004553599416321219 0.068097812172203259 0 0.0049573368763592167 0.06253138299556911 0 0.012154706149817821 0.069090282614605633 0 0.01655740305819469 0.060876991205568637 0 0.0049573368763592167 0.06253138299556911 0 0.012154706149817821 0.069090282614605633 0 0.029370267936554111 0.1172331097944851 0 0.014606377518400651 0.1005608920124313 0 0.0069279925411233276 0.12286986882733621 0 0.034612307545701083 0.093804885000797866 0 0.029370267936554111 0.1172331097944851 0 0.014606377518400651 0.1005608920124313 0 -0.0037841361478036929 0.1004174717702209 0 0.003602597882473428 0.087375721075588414 0 0.014606377518400651 0.1005608920124313 0 -0.0037841361478036929 0.1004174717702209 0 0.014606377518400651 0.1005608920124313 0 0.0069279925411233276 0.12286986882733621 0 -0.0051874254262917448 0.13252577252147241 0 0.0069279925411233276 0.12286986882733621 0 0.0045566300691653842 0.14159662700455791 0 0.0069279925411233276 0.12286986882733621 0 0.024904472014308419 0.14536601562258039 0 0.0045566300691653842 0.14159662700455791 0 0.029370267936554111 0.1172331097944851 0 0.0069279925411233276 0.12286986882733621 0 0.024904472014308419 0.14536601562258039 0 0.024904472014308419 0.14536601562258039 0 0.027922247465832061 0.15707953390897031 0 0.039365405081572602 0.1503990170916383 0 0.024904472014308419 0.14536601562258039 0 0.017397573119789501 0.16095964519761749 0 0.027922247465832061 0.15707953390897031 0 -0.00051736649886272024 0.1581143877834357 0 0.024904472014308419 0.14536601562258039 0 -0.00051736649886272024 0.1581143877834357 0 0.024904472014308419 0.14536601562258039 0 0.017397573119789501 0.16095964519761749 0 -0.00051736649886272024 0.1581143877834357 0 0.024904472014308419 0.14536601562258039 0 0.0045566300691653842 0.14159662700455791 0 -0.00051736649886272024 0.1581143877834357 0 0.01059122274605781 0.16879296392499521 0 0.017397573119789501 0.16095964519761749 0 -0.00051736649886272024 0.1581143877834357 0 0.01059122274605781 0.16879296392499521 0 0.002548834246367523 0.17361791072911431 0 -0.012531751640030311 0.18840732198988031 0 0.002548834246367523 0.17361791072911431 0 0.01036760616793082 0.17816900360433299 0 0.0020887413519905858 0.18729136112933481 0 0.01036760616793082 0.17816900360433299 0 0.01011265630831999 0.18381662600052659 0 0.01059122274605781 0.16879296392499521 0 0.01036760616793082 0.17816900360433299 0 0.018536829681177092 0.17047564685680211 0 0.01059122274605781 0.16879296392499521 0 0.002548834246367523 0.17361791072911431 0 0.01036760616793082 0.17816900360433299 0 0.0020887413519905858 0.18729136112933481 0 0.01011265630831999 0.18381662600052659 0 0.014531431882524339 0.18752716180684409 0 0.01036760616793082 0.17816900360433299 0 0.01359045462024362 0.18220530897424461 0 0.01011265630831999 0.18381662600052659 0 0.01359045462024362 0.18220530897424461 0 0.01011265630831999 0.18381662600052659 0 0.014531431882524339 0.18752716180684409 0 0.01359045462024362 0.18220530897424461 0 0.014531431882524339 0.18752716180684409 0 0.01036760616793082 0.17816900360433299 0 0.01359045462024362 0.18220530897424461 0 0.033266963975891982 0.16793068521878571 0 0.01036760616793082 0.17816900360433299 0 0.018536829681177092 0.17047564685680211 0 0.033266963975891982 0.16793068521878571 0 0.03589918755528107 0.17760517021190811 0 0.014531431882524339 0.18752716180684409 0 0.03117309827880933 0.18880066227389761 0 0.037100065894575637 0.17449830120156101 0 0.014531431882524339 0.18752716180684409 0 0.01359045462024362 0.18220530897424461 0 0.033266963975891982 0.16793068521878571 0 0.037100065894575637 0.17449830120156101 0 0.01359045462024362 0.18220530897424461 0 0.037100065894575637 0.17449830120156101 0 0.014531431882524339 0.18752716180684409 0 0.03589918755528107 0.17760517021190811 0 0.014531431882524339 0.18752716180684409 0 0.01036760616793082 0.17816900360433299 0 0.033266963975891982 0.16793068521878571 0 0.037100065894575637 0.17449830120156101 0 0.03589918755528107 0.17760517021190811 0 0.014531431882524339 0.18752716180684409 0 0.017397573119789501 0.16095964519761749 0 0.027922247465832061 0.15707953390897031 0 0.02420195684856 0.16379785468198271 0 0.017397573119789501 0.16095964519761749 0 0.019921525834827751 0.16700993467909439 0 0.02420195684856 0.16379785468198271 0 0.01059122274605781 0.16879296392499521 0 0.017397573119789501 0.16095964519761749 0 0.019921525834827751 0.16700993467909439 0 0.01059122274605781 0.16879296392499521 0 0.018536829681177092 0.17047564685680211 0 0.019921525834827751 0.16700993467909439 0 0.018536829681177092 0.17047564685680211 0 0.019921525834827751 0.16700993467909439 0 0.033266963975891982 0.16793068521878571 0 0.019921525834827751 0.16700993467909439 0 0.02420195684856 0.16379785468198271 0 0.033266963975891982 0.16793068521878571 0 0.027922247465832061 0.15707953390897031 0 0.02420195684856 0.16379785468198271 0 0.033266963975891982 0.16793068521878571 0 0.033266963975891982 0.16793068521878571 0 0.056166321783853099 0.15769236683323831 0 0.033266963975891982 0.16793068521878571 0 0.045109964313692873 0.1555411335286255 0 0.039365405081572602 0.1503990170916383 0 0.033266963975891982 0.16793068521878571 0 0.056166321783853099 0.15769236683323831 0 0.045109964313692873 0.1555411335286255 0 0.027922247465832061 0.15707953390897031 0 0.033266963975891982 0.16793068521878571 0 0.039365405081572602 0.1503990170916383 0 0.033266963975891982 0.16793068521878571 0 0.037100065894575637 0.17449830120156101 0 0.056166321783853099 0.15769236683323831 0 0.037100065894575637 0.17449830120156101 0 0.03589918755528107 0.17760517021190811 0 0.057266943228037798 0.1676831786169721 0 0.03589918755528107 0.17760517021190811 0 0.057266943228037798 0.1676831786169721 0 0.03589918755528107 0.17760517021190811 0 0.044587903382378329 0.18528525536360491 0 0.055381657296761422 0.1725607221980783 0 0.03589918755528107 0.17760517021190811 0 0.044587903382378329 0.18528525536360491 0 0.03117309827880933 0.18880066227389761 0 0.03589918755528107 0.17760517021190811 0 0.055381657296761422 0.1725607221980783 0 0.057266943228037798 0.1676831786169721 0 0.044587903382378329 0.18528525536360491 0 0.055381657296761422 0.1725607221980783 0 0.054717239345197018 0.1815164352267146 0 0.044587903382378329 0.18528525536360491 0 0.054717239345197018 0.1815164352267146 0 0.055145563127899692 0.18864294736567361 0 0.055381657296761422 0.1725607221980783 0 0.0591639601548343 0.1766757480118962 0 0.057266943228037798 0.1676831786169721 0 0.055381657296761422 0.1725607221980783 0 0.0591639601548343 0.1766757480118962 0 0.054717239345197018 0.1815164352267146 0 0.0591639601548343 0.1766757480118962 0 0.057266943228037798 0.1676831786169721 0 0.066822349741455955 0.17422205877229019 0 0.05935570566738977 0.18375578499152759 0 0.055145563127899692 0.18864294736567361 0 0.064033518452651733 0.18817704612137751 0 0.0591639601548343 0.1766757480118962 0 0.054717239345197018 0.1815164352267146 0 0.05935570566738977 0.18375578499152759 0 0.0591639601548343 0.1766757480118962 0 0.05935570566738977 0.18375578499152759 0 0.063951493192102471 0.18059050085857151 0 0.05935570566738977 0.18375578499152759 0 0.064033518452651733 0.18817704612137751 0 0.063951493192102471 0.18059050085857151 0 0.054717239345197018 0.1815164352267146 0 0.05935570566738977 0.18375578499152759 0 0.055145563127899692 0.18864294736567361 0 0.037100065894575637 0.17449830120156101 0 0.056166321783853099 0.15769236683323831 0 0.05966869990662807 0.16146944059627991 0 0.037100065894575637 0.17449830120156101 0 0.05966869990662807 0.16146944059627991 0 0.037100065894575637 0.17449830120156101 0 0.057266943228037798 0.1676831786169721 0 0.05966869990662807 0.16146944059627991 0 0.057266943228037798 0.1676831786169721 0 0.05966869990662807 0.16146944059627991 0 0.055381657296761422 0.1725607221980783 0 0.057266943228037798 0.1676831786169721 0 0.051641166413453829 0.14614246497083969 0 0.050326310527479552 0.13261764346172511 0 0.039365405081572602 0.1503990170916383 0 0.056166321783853099 0.15769236683323831 0 0.05966869990662807 0.16146944059627991 0 0.067708424473640685 0.14066935594857541 0 0.056166321783853099 0.15769236683323831 0 0.051641166413453829 0.14614246497083969 0 0.067708424473640685 0.14066935594857541 0 0.056166321783853099 0.15769236683323831 0 0.051641166413453829 0.14614246497083969 0 0.045109964313692873 0.1555411335286255 0 0.051641166413453829 0.14614246497083969 0 0.050326310527479552 0.13261764346172511 0 0.067708424473640685 0.14066935594857541 0 0.024904472014308419 0.14536601562258039 0 0.050326310527479552 0.13261764346172511 0 0.029370267936554111 0.1172331097944851 0 0.024904472014308419 0.14536601562258039 0 0.050326310527479552 0.13261764346172511 0 0.024904472014308419 0.14536601562258039 0 0.050326310527479552 0.13261764346172511 0 0.039365405081572602 0.1503990170916383 0 0.051641166413453829 0.14614246497083969 0 0.045109964313692873 0.1555411335286255 0 0.039365405081572602 0.1503990170916383 0 0.023181768578885861 0.24601689761072679 0 0.02056269866470008 0.22859206794768161 0 0.023181768578885861 0.24601689761072679 0 0.02056269866470008 0.22859206794768161 0 0.013176580255378181 0.25008264657648638 0 0.02056269866470008 0.22859206794768161 0 0.013176580255378181 0.25008264657648638 0 0.03057631100938505 0.23879473188882919 0 0.023181768578885861 0.24601689761072679 0 0.02056269866470008 0.22859206794768161 0 0.03057631100938505 0.23879473188882919 0 0.023181768578885861 0.24601689761072679 0 0.03414632622249833 0.24860301180512709 0 -0.0057084941087844204 0.23009832530746829 0 0.013176580255378181 0.25008264657648638 0 -0.004688707870413332 0.2558135020850828 0 -0.0057084941087844204 0.23009832530746829 0 0.013176580255378181 0.25008264657648638 0 -0.0057084941087844204 0.23009832530746829 0 0.02056269866470008 0.22859206794768161 0 0.013176580255378181 0.25008264657648638 0 -0.0057084941087844204 0.23009832530746829 0 0.02056269866470008 0.22859206794768161 0 0.0016356939700863671 0.21461609658767691 0 0.02056269866470008 0.22859206794768161 0 0.026061555215848919 0.21259264815339829 0 0.032923721388376827 0.22170916529610341 0 0.02056269866470008 0.22859206794768161 0 0.026061555215848919 0.21259264815339829 0 0.03057631100938505 0.23879473188882919 0 0.02056269866470008 0.22859206794768161 0 0.037184858596067058 0.23138413049370779 0 0.02056269866470008 0.22859206794768161 0 0.032923721388376827 0.22170916529610341 0 0.037184858596067058 0.23138413049370779 0 0.02056269866470008 0.22859206794768161 0 0.026061555215848919 0.21259264815339829 0 0.017481648553017749 0.20809365624487319 0 0.02056269866470008 0.22859206794768161 0 0.017481648553017749 0.20809365624487319 0 0.026061555215848919 0.21259264815339829 0 0.02792352964941984 0.2044433397126246 0 0.035227475904369712 0.20794467017772039 0 0.026061555215848919 0.21259264815339829 0 0.02792352964941984 0.2044433397126246 0 0.017481648553017749 0.20809365624487319 0 0.02056269866470008 0.22859206794768161 0 0.017481648553017749 0.20809365624487319 0 0.0016356939700863671 0.21461609658767691 0 -0.0050948726899160968 0.19885741716632241 0 0.017481648553017749 0.20809365624487319 0 0.0016356939700863671 0.21461609658767691 0 -0.0050948726899160968 0.19885741716632241 0 0.014531431882524339 0.18752716180684409 0 -0.0050948726899160968 0.19885741716632241 0 0.017481648553017749 0.20809365624487319 0 0.014531431882524339 0.18752716180684409 0 -0.0056325988397643058 0.19689021080509089 0 0.0020887413519905858 0.18729136112933481 0 0.014531431882524339 0.18752716180684409 0 -0.0056325988397643058 0.19689021080509089 0 0.014531431882524339 0.18752716180684409 0 -0.0050948726899160968 0.19885741716632241 0 -0.0056325988397643058 0.19689021080509089 0 0.014531431882524339 0.18752716180684409 0 0.017481648553017749 0.20809365624487319 0 0.014531431882524339 0.18752716180684409 0 0.02404988829313999 0.19569734882064629 0 0.017481648553017749 0.20809365624487319 0 0.014531431882524339 0.18752716180684409 0 0.014531431882524339 0.18752716180684409 0 0.02404988829313999 0.19569734882064629 0 0.03117309827880933 0.18880066227389761 0 0.02792352964941984 0.2044433397126246 0 0.017481648553017749 0.20809365624487319 0 0.02404988829313999 0.19569734882064629 0 0.02792352964941984 0.2044433397126246 0 0.02404988829313999 0.19569734882064629 0 0.036797080280722837 0.19788837516648469 0 0.02404988829313999 0.19569734882064629 0 0.03117309827880933 0.18880066227389761 0 0.036797080280722837 0.19788837516648469 0 0.044587903382378329 0.18528525536360491 0 0.03117309827880933 0.18880066227389761 0 0.036797080280722837 0.19788837516648469 0 0.036797080280722837 0.19788837516648469 0 0.048796360762704737 0.19744354905985001 0 0.042369417174658031 0.20469986566898329 0 0.044587903382378329 0.18528525536360491 0 0.036797080280722837 0.19788837516648469 0 0.048796360762704737 0.19744354905985001 0 0.044587903382378329 0.18528525536360491 0 0.055145563127899692 0.18864294736567361 0 0.048796360762704737 0.19744354905985001 0 0.055145563127899692 0.18864294736567361 0 0.057337785510509769 0.1953713814077265 0 0.048796360762704737 0.19744354905985001 0 0.055145563127899692 0.18864294736567361 0 0.057337785510509769 0.1953713814077265 0 0.064033518452651733 0.18817704612137751 0 0.057337785510509769 0.1953713814077265 0 0.063684874342753911 0.1963670896644544 0 0.064033518452651733 0.18817704612137751 0 0.057337785510509769 0.1953713814077265 0 0.057463075358263588 0.20356953207319731 0 0.063684874342753911 0.1963670896644544 0 0.057463075358263588 0.20356953207319731 0 0.065820249714028542 0.20368257738252701 0 0.063684874342753911 0.1963670896644544 0 0.048796360762704737 0.19744354905985001 0 0.049556955705170477 0.20618546947825689 0 0.042369417174658031 0.20469986566898329 0 0.057337785510509769 0.1953713814077265 0 0.048796360762704737 0.19744354905985001 0 0.057463075358263588 0.20356953207319731 0 0.048796360762704737 0.19744354905985001 0 0.049556955705170477 0.20618546947825689 0 0.057463075358263588 0.20356953207319731 0 0.049556955705170477 0.20618546947825689 0 0.057463075358263588 0.20356953207319731 0 0.054882203792129977 0.21215689309790739 0 0.049556955705170477 0.20618546947825689 0 0.054882203792129977 0.21215689309790739 0 0.044194610122631907 0.2122986120299282 0 0.061776257470040417 0.21026353999161351 0 0.057463075358263588 0.20356953207319731 0 0.065820249714028542 0.20368257738252701 0 0.061776257470040417 0.21026353999161351 0 0.057463075358263588 0.20356953207319731 0 0.054882203792129977 0.21215689309790739 0 0.054882203792129977 0.21215689309790739 0 0.060761729236882542 0.2183123787269719 0 0.051238632128217568 0.21987377157202539 0 0.061776257470040417 0.21026353999161351 0 0.054882203792129977 0.21215689309790739 0 0.060761729236882542 0.2183123787269719 0 0.054882203792129977 0.21215689309790739 0 0.044194610122631907 0.2122986120299282 0 0.051238632128217568 0.21987377157202539 0 0.044194610122631907 0.2122986120299282 0 0.03589394403175681 0.21518396865618891 0 0.041062357527556673 0.22137474762379389 0 0.044194610122631907 0.2122986120299282 0 0.041062357527556673 0.22137474762379389 0 0.051238632128217568 0.21987377157202539 0 0.044194610122631907 0.2122986120299282 0 0.042369417174658031 0.20469986566898329 0 0.035227475904369712 0.20794467017772039 0 0.049556955705170477 0.20618546947825689 0 0.044194610122631907 0.2122986120299282 0 0.042369417174658031 0.20469986566898329 0 0.036797080280722837 0.19788837516648469 0 0.042369417174658031 0.20469986566898329 0 0.035227475904369712 0.20794467017772039 0 0.02792352964941984 0.2044433397126246 0 0.036797080280722837 0.19788837516648469 0 0.035227475904369712 0.20794467017772039 0 0.026061555215848919 0.21259264815339829 0 0.03589394403175681 0.21518396865618891 0 0.032923721388376827 0.22170916529610341 0 0.026061555215848919 0.21259264815339829 0 0.035227475904369712 0.20794467017772039 0 0.03589394403175681 0.21518396865618891 0 0.044194610122631907 0.2122986120299282 0 0.035227475904369712 0.20794467017772039 0 0.03589394403175681 0.21518396865618891 0 0.032923721388376827 0.22170916529610341 0 0.037184858596067058 0.23138413049370779 0 0.041062357527556673 0.22137474762379389 0 0.03589394403175681 0.21518396865618891 0 0.032923721388376827 0.22170916529610341 0 0.041062357527556673 0.22137474762379389 0 0.037184858596067058 0.23138413049370779 0 0.041062357527556673 0.22137474762379389 0 0.04786931439887343 0.22814202511410661 0 0.037184858596067058 0.23138413049370779 0 0.04786931439887343 0.22814202511410661 0 0.046964095464894308 0.23599249707691231 0 0.041062357527556673 0.22137474762379389 0 0.051238632128217568 0.21987377157202539 0 0.04786931439887343 0.22814202511410661 0 0.051238632128217568 0.21987377157202539 0 0.057910359547200231 0.22639998140875331 0 0.04786931439887343 0.22814202511410661 0 0.060761729236882542 0.2183123787269719 0 0.051238632128217568 0.21987377157202539 0 0.057910359547200231 0.22639998140875331 0 0.060761729236882542 0.2183123787269719 0 0.057910359547200231 0.22639998140875331 0 0.066828304189251342 0.22394346677903881 0 0.057910359547200231 0.22639998140875331 0 0.056024990598231517 0.23443966611390041 0 0.064338186174258002 0.23315504641971829 0 0.04786931439887343 0.22814202511410661 0 0.046964095464894308 0.23599249707691231 0 0.056024990598231517 0.23443966611390041 0 0.057910359547200231 0.22639998140875331 0 0.04786931439887343 0.22814202511410661 0 0.056024990598231517 0.23443966611390041 0 0.046964095464894308 0.23599249707691231 0 0.056024990598231517 0.23443966611390041 0 0.052226573295490762 0.2423636649148827 0 0.056024990598231517 0.23443966611390041 0 0.063972336569716293 0.243420699852781 0 0.064338186174258002 0.23315504641971829 0 0.056024990598231517 0.23443966611390041 0 0.052226573295490762 0.2423636649148827 0 0.063972336569716293 0.243420699852781 0 0.057266071322044892 0.2487458052560243 0 0.063972336569716293 0.243420699852781 0 0.063544856319773371 0.25406896456140438 0 0.057266071322044892 0.2487458052560243 0 0.052226573295490762 0.2423636649148827 0 0.063972336569716293 0.243420699852781 0 0.052226573295490762 0.2423636649148827 0 0.042337009920640052 0.24954965189858661 0 0.050186543669688437 0.25248304460155779 0 0.057266071322044892 0.2487458052560243 0 0.052226573295490762 0.2423636649148827 0 0.050186543669688437 0.25248304460155779 0 0.052226573295490762 0.2423636649148827 0 0.042337009920640052 0.24954965189858661 0 0.040624450585339839 0.24097856341886481 0 0.037184858596067058 0.23138413049370779 0 0.046964095464894308 0.23599249707691231 0 0.040624450585339839 0.24097856341886481 0 0.046964095464894308 0.23599249707691231 0 0.052226573295490762 0.2423636649148827 0 0.040624450585339839 0.24097856341886481 0 0.03057631100938505 0.23879473188882919 0 0.037184858596067058 0.23138413049370779 0 0.040624450585339839 0.24097856341886481 0 0.03057631100938505 0.23879473188882919 0 0.040624450585339839 0.24097856341886481 0 0.03414632622249833 0.24860301180512709 0 0.042337009920640052 0.24954965189858661 0 0.040624450585339839 0.24097856341886481 0 0.03414632622249833 0.24860301180512709 0 0.092803330709362503 0.240126449467266 0 0.082537205839584571 0.24200956300513621 0 0.086440945610867612 0.25059492796667582 0 0.092803330709362503 0.240126449467266 0 0.086440945610867612 0.25059492796667582 0 0.096311035480508303 0.2518508295387068 0 0.092803330709362503 0.240126449467266 0 0.082537205839584571 0.24200956300513621 0 0.083237322958871804 0.23276962129461651 0 0.092803330709362503 0.240126449467266 0 0.083237322958871804 0.23276962129461651 0 0.092302570538665862 0.23023564315767769 0 0.082537205839584571 0.24200956300513621 0 0.077088515759937026 0.23711525450925339 0 0.083237322958871804 0.23276962129461651 0 0.082537205839584571 0.24200956300513621 0 0.078313800111639437 0.24935717424229911 0 0.074485249187740105 0.24420911330632861 0 0.082537205839584571 0.24200956300513621 0 0.078313800111639437 0.24935717424229911 0 0.086440945610867612 0.25059492796667582 0 0.078313800111639437 0.24935717424229911 0 0.074485249187740105 0.24420911330632861 0 0.0710986218483107 0.25191811171017792 0 0.063972336569716293 0.243420699852781 0 0.063544856319773371 0.25406896456140438 0 0.0710986218483107 0.25191811171017792 0 0.074485249187740105 0.24420911330632861 0 0.063972336569716293 0.243420699852781 0 0.0710986218483107 0.25191811171017792 0 0.063972336569716293 0.243420699852781 0 0.070755199813420253 0.23760232932286041 0 0.064338186174258002 0.23315504641971829 0 0.074485249187740105 0.24420911330632861 0 0.063972336569716293 0.243420699852781 0 0.070755199813420253 0.23760232932286041 0 0.070755199813420253 0.23760232932286041 0 0.077088515759937026 0.23711525450925339 0 0.073750687790023917 0.23040781855487719 0 0.082537205839584571 0.24200956300513621 0 0.074485249187740105 0.24420911330632861 0 0.077088515759937026 0.23711525450925339 0 0.074485249187740105 0.24420911330632861 0 0.070755199813420253 0.23760232932286041 0 0.077088515759937026 0.23711525450925339 0 0.077088515759937026 0.23711525450925339 0 0.073750687790023917 0.23040781855487719 0 0.083237322958871804 0.23276962129461651 0 0.057910359547200231 0.22639998140875331 0 0.064338186174258002 0.23315504641971829 0 0.066828304189251342 0.22394346677903881 0 0.070755199813420253 0.23760232932286041 0 0.073750687790023917 0.23040781855487719 0 0.064338186174258002 0.23315504641971829 0 0.073750687790023917 0.23040781855487719 0 0.064338186174258002 0.23315504641971829 0 0.066828304189251342 0.22394346677903881 0 0.066828304189251342 0.22394346677903881 0 0.07444404234373421 0.22081517549601609 0 0.068802418705440238 0.21328991912367601 0 0.073750687790023917 0.23040781855487719 0 0.066828304189251342 0.22394346677903881 0 0.07444404234373421 0.22081517549601609 0 0.073750687790023917 0.23040781855487719 0 0.07444404234373421 0.22081517549601609 0 0.083422030005108214 0.22323210393717099 0 0.07444404234373421 0.22081517549601609 0 0.083422030005108214 0.22323210393717099 0 0.077904228203597659 0.21320050097080981 0 0.073750687790023917 0.23040781855487719 0 0.083422030005108214 0.22323210393717099 0 0.083237322958871804 0.23276962129461651 0 0.083422030005108214 0.22323210393717099 0 0.083237322958871804 0.23276962129461651 0 0.092302570538665862 0.23023564315767769 0 0.083422030005108214 0.22323210393717099 0 0.086175513364259215 0.21428612916083739 0 0.095966574759215842 0.22054780456110301 0 0.083422030005108214 0.22323210393717099 0 0.092302570538665862 0.23023564315767769 0 0.095966574759215842 0.22054780456110301 0 0.086175513364259215 0.21428612916083739 0 0.091772146813032571 0.2083699438513883 0 0.095966574759215842 0.22054780456110301 0 0.091772146813032571 0.2083699438513883 0 0.082642455840749932 0.20466092003505421 0 0.089256857685982849 0.20077093656214501 0 0.086175513364259215 0.21428612916083739 0 0.091772146813032571 0.2083699438513883 0 0.082642455840749932 0.20466092003505421 0 0.086175513364259215 0.21428612916083739 0 0.082642455840749932 0.20466092003505421 0 0.077904228203597659 0.21320050097080981 0 0.083422030005108214 0.22323210393717099 0 0.086175513364259215 0.21428612916083739 0 0.077904228203597659 0.21320050097080981 0 0.07444404234373421 0.22081517549601609 0 0.077904228203597659 0.21320050097080981 0 0.068802418705440238 0.21328991912367601 0 0.060761729236882542 0.2183123787269719 0 0.066828304189251342 0.22394346677903881 0 0.068802418705440238 0.21328991912367601 0 0.061776257470040417 0.21026353999161351 0 0.060761729236882542 0.2183123787269719 0 0.068802418705440238 0.21328991912367601 0 0.068802418705440238 0.21328991912367601 0 0.065820249714028542 0.20368257738252701 0 0.073360143501936745 0.20375359020208669 0 0.061776257470040417 0.21026353999161351 0 0.068802418705440238 0.21328991912367601 0 0.065820249714028542 0.20368257738252701 0 0.082642455840749932 0.20466092003505421 0 0.077904228203597659 0.21320050097080981 0 0.073360143501936745 0.20375359020208669 0 0.077904228203597659 0.21320050097080981 0 0.068802418705440238 0.21328991912367601 0 0.073360143501936745 0.20375359020208669 0 0.073360143501936745 0.20375359020208669 0 0.070187924225417586 0.19460324577354299 0 0.076982000732248451 0.19529716302841221 0 0.082642455840749932 0.20466092003505421 0 0.073360143501936745 0.20375359020208669 0 0.076982000732248451 0.19529716302841221 0 0.065820249714028542 0.20368257738252701 0 0.063684874342753911 0.1963670896644544 0 0.070187924225417586 0.19460324577354299 0 0.065820249714028542 0.20368257738252701 0 0.073360143501936745 0.20375359020208669 0 0.070187924225417586 0.19460324577354299 0 0.063684874342753911 0.1963670896644544 0 0.064033518452651733 0.18817704612137751 0 0.070187924225417586 0.19460324577354299 0 0.064033518452651733 0.18817704612137751 0 0.070187924225417586 0.19460324577354299 0 0.071763176316200536 0.1877213540250853 0 0.070187924225417586 0.19460324577354299 0 0.071763176316200536 0.1877213540250853 0 0.076982000732248451 0.19529716302841221 0 0.071763176316200536 0.1877213540250853 0 0.076982000732248451 0.19529716302841221 0 0.078093006283645919 0.18893910712182749 0 0.076982000732248451 0.19529716302841221 0 0.078093006283645919 0.18893910712182749 0 0.084340863194265217 0.18977664189308949 0 0.076982000732248451 0.19529716302841221 0 0.084340863194265217 0.18977664189308949 0 0.084575149920751047 0.19687832799208679 0 0.082642455840749932 0.20466092003505421 0 0.076982000732248451 0.19529716302841221 0 0.084575149920751047 0.19687832799208679 0 0.082642455840749932 0.20466092003505421 0 0.084575149920751047 0.19687832799208679 0 0.089256857685982849 0.20077093656214501 0 0.089256857685982849 0.20077093656214501 0 0.090968886554490841 0.19388816234260181 0 0.098094911792283745 0.19830860519510379 0 0.091772146813032571 0.2083699438513883 0 0.089256857685982849 0.20077093656214501 0 0.098094911792283745 0.19830860519510379 0 0.084575149920751047 0.19687832799208679 0 0.089256857685982849 0.20077093656214501 0 0.090968886554490841 0.19388816234260181 0 0.084340863194265217 0.18977664189308949 0 0.090968886554490841 0.19388816234260181 0 0.090506104564758688 0.18262059873330311 0 0.090968886554490841 0.19388816234260181 0 0.097062891439115687 0.18902006224742901 0 0.090506104564758688 0.18262059873330311 0 0.084340863194265217 0.18977664189308949 0 0.084575149920751047 0.19687832799208679 0 0.090968886554490841 0.19388816234260181 0 0.090968886554490841 0.19388816234260181 0 0.097062891439115687 0.18902006224742901 0 0.098094911792283745 0.19830860519510379 0 0.097062891439115687 0.18902006224742901 0 0.098094911792283745 0.19830860519510379 0 0.10467563668908079 0.188990448950908 0 0.098094911792283745 0.19830860519510379 0 0.1049527354209132 0.20279561733748949 0 0.1070791107190666 0.1962196263720476 0 0.1049527354209132 0.20279561733748949 0 0.1070791107190666 0.1962196263720476 0 0.1123745008382212 0.19999919490518861 0 0.1070791107190666 0.1962196263720476 0 0.10467563668908079 0.188990448950908 0 0.1127047694348409 0.1916709272769308 0 0.098094911792283745 0.19830860519510379 0 0.1070791107190666 0.1962196263720476 0 0.10467563668908079 0.188990448950908 0 0.10467563668908079 0.188990448950908 0 0.1127047694348409 0.1916709272769308 0 0.11107306916241361 0.18388202415503849 0 0.1209984724842765 0.19542664675733901 0 0.1200465015128263 0.1859546686636781 0 0.1304339396700489 0.18925704224811399 0 0.1127047694348409 0.1916709272769308 0 0.1209984724842765 0.19542664675733901 0 0.1200465015128263 0.1859546686636781 0 0.1209984724842765 0.19542664675733901 0 0.1123745008382212 0.19999919490518861 0 0.11887232261771399 0.2045896828037351 0 0.1209984724842765 0.19542664675733901 0 0.11887232261771399 0.2045896828037351 0 0.12882009102191169 0.20125815281230969 0 0.1127047694348409 0.1916709272769308 0 0.1209984724842765 0.19542664675733901 0 0.1123745008382212 0.19999919490518861 0 0.1070791107190666 0.1962196263720476 0 0.1127047694348409 0.1916709272769308 0 0.1123745008382212 0.19999919490518861 0 0.1123745008382212 0.19999919490518861 0 0.1099869843440546 0.20808358528507129 0 0.11887232261771399 0.2045896828037351 0 0.1099869843440546 0.20808358528507129 0 0.11887232261771399 0.2045896828037351 0 0.11663473616560061 0.21433830137100759 0 0.11887232261771399 0.2045896828037351 0 0.12441915085221961 0.2084322156914942 0 0.11663473616560061 0.21433830137100759 0 0.11887232261771399 0.2045896828037351 0 0.12441915085221961 0.2084322156914942 0 0.12882009102191169 0.20125815281230969 0 0.12441915085221961 0.2084322156914942 0 0.1225562810981516 0.21717335542984861 0 0.11663473616560061 0.21433830137100759 0 0.11663473616560061 0.21433830137100759 0 0.1066590952605167 0.2160929019666597 0 0.1115612582440802 0.2241686965471606 0 0.1099869843440546 0.20808358528507129 0 0.11663473616560061 0.21433830137100759 0 0.1066590952605167 0.2160929019666597 0 0.1099869843440546 0.20808358528507129 0 0.1066590952605167 0.2160929019666597 0 0.10010367123567281 0.20923305361657171 0 0.1049527354209132 0.20279561733748949 0 0.1099869843440546 0.20808358528507129 0 0.10010367123567281 0.20923305361657171 0 0.1049527354209132 0.20279561733748949 0 0.1123745008382212 0.19999919490518861 0 0.1099869843440546 0.20808358528507129 0 0.091772146813032571 0.2083699438513883 0 0.098094911792283745 0.19830860519510379 0 0.10010367123567281 0.20923305361657171 0 0.098094911792283745 0.19830860519510379 0 0.1049527354209132 0.20279561733748949 0 0.10010367123567281 0.20923305361657171 0 0.091772146813032571 0.2083699438513883 0 0.10010367123567281 0.20923305361657171 0 0.095966574759215842 0.22054780456110301 0 0.1066590952605167 0.2160929019666597 0 0.10010367123567281 0.20923305361657171 0 0.095966574759215842 0.22054780456110301 0 0.095966574759215842 0.22054780456110301 0 0.1024094288100182 0.23109480731982171 0 0.10406664904493421 0.22320742803020591 0 0.092803330709362503 0.240126449467266 0 0.092302570538665862 0.23023564315767769 0 0.1024094288100182 0.23109480731982171 0 0.092302570538665862 0.23023564315767769 0 0.095966574759215842 0.22054780456110301 0 0.1024094288100182 0.23109480731982171 0 0.1024094288100182 0.23109480731982171 0 0.1115612582440802 0.2241686965471606 0 0.1129587922966032 0.2337101828428737 0 0.1066590952605167 0.2160929019666597 0 0.10406664904493421 0.22320742803020591 0 0.1115612582440802 0.2241686965471606 0 0.1024094288100182 0.23109480731982171 0 0.10406664904493421 0.22320742803020591 0 0.1115612582440802 0.2241686965471606 0 0.1066590952605167 0.2160929019666597 0 0.095966574759215842 0.22054780456110301 0 0.10406664904493421 0.22320742803020591 0 0.11663473616560061 0.21433830137100759 0 0.1115612582440802 0.2241686965471606 0 0.1194816406589929 0.22545403295524141 0 0.1194816406589929 0.22545403295524141 0 0.12173795991278449 0.24438483842122541 0 0.1296895967157933 0.22046887170165119 0 0.1225562810981516 0.21717335542984861 0 0.1194816406589929 0.22545403295524141 0 0.1296895967157933 0.22046887170165119 0 0.1225562810981516 0.21717335542984861 0 0.11663473616560061 0.21433830137100759 0 0.1194816406589929 0.22545403295524141 0 0.1115612582440802 0.2241686965471606 0 0.1194816406589929 0.22545403295524141 0 0.1129587922966032 0.2337101828428737 0 0.1129587922966032 0.2337101828428737 0 0.12173795991278449 0.24438483842122541 0 0.1055845189268857 0.2424028812725525 0 0.12173795991278449 0.24438483842122541 0 0.1055845189268857 0.2424028812725525 0 0.1066275710365521 0.25394453207898432 0 0.1194816406589929 0.22545403295524141 0 0.1129587922966032 0.2337101828428737 0 0.12173795991278449 0.24438483842122541 0 0.1055845189268857 0.2424028812725525 0 0.1066275710365521 0.25394453207898432 0 0.096311035480508303 0.2518508295387068 0 0.1024094288100182 0.23109480731982171 0 0.1129587922966032 0.2337101828428737 0 0.1055845189268857 0.2424028812725525 0 0.092803330709362503 0.240126449467266 0 0.1024094288100182 0.23109480731982171 0 0.1055845189268857 0.2424028812725525 0 0.092803330709362503 0.240126449467266 0 0.1055845189268857 0.2424028812725525 0 0.096311035480508303 0.2518508295387068 0 0.08156122964992088 0.1488308946315523 0 0.091199982010073968 0.13824497087216961 0 0.1034537593932147 0.1361923486668265 0 0.08156122964992088 0.1488308946315523 0 0.1034537593932147 0.1361923486668265 0 0.08156122964992088 0.1488308946315523 0 0.092665773875130308 0.15082284596375031 0 0.098437611804477701 0.14558004258224649 0 0.08156122964992088 0.1488308946315523 0 0.086105629001739681 0.13838331845271509 0 0.079981908487075037 0.1363699507440021 0 0.08156122964992088 0.1488308946315523 0 0.087151223146325368 0.1548007572359989 0 0.076288528630979818 0.15885061737934139 0 0.08156122964992088 0.1488308946315523 0 0.092665773875130308 0.15082284596375031 0 0.087151223146325368 0.1548007572359989 0 0.092665773875130308 0.15082284596375031 0 0.087151223146325368 0.1548007572359989 0 0.095505785706623297 0.15611660198540961 0 0.08156122964992088 0.1488308946315523 0 0.091199982010073968 0.13824497087216961 0 0.086105629001739681 0.13838331845271509 0 0.075748149040650747 0.1198692713008699 0 0.088346205634002556 0.13094435060572299 0 0.079981908487075037 0.1363699507440021 0 0.091199982010073968 0.13824497087216961 0 0.086105629001739681 0.13838331845271509 0 0.088346205634002556 0.13094435060572299 0 0.086105629001739681 0.13838331845271509 0 0.088346205634002556 0.13094435060572299 0 0.079981908487075037 0.1363699507440021 0 0.075748149040650747 0.1198692713008699 0 0.050326310527479552 0.13261764346172511 0 0.075748149040650747 0.1198692713008699 0 0.067708424473640685 0.14066935594857541 0 0.075748149040650747 0.1198692713008699 0 0.050326310527479552 0.13261764346172511 0 0.067708424473640685 0.14066935594857541 0 0.075748149040650747 0.1198692713008699 0 0.079981908487075037 0.1363699507440021 0 0.067708424473640685 0.14066935594857541 0 0.05966869990662807 0.16146944059627991 0 0.08156122964992088 0.1488308946315523 0 0.05966869990662807 0.16146944059627991 0 0.08156122964992088 0.1488308946315523 0 0.067708424473640685 0.14066935594857541 0 0.05966869990662807 0.16146944059627991 0 0.067708424473640685 0.14066935594857541 0 0.08156122964992088 0.1488308946315523 0 0.079981908487075037 0.1363699507440021 0 0.067708424473640685 0.14066935594857541 0 0.057266943228037798 0.1676831786169721 0 0.076288528630979818 0.15885061737934139 0 0.057266943228037798 0.1676831786169721 0 0.074050534132635876 0.1674551738590899 0 0.076288528630979818 0.15885061737934139 0 0.05966869990662807 0.16146944059627991 0 0.08156122964992088 0.1488308946315523 0 0.076288528630979818 0.15885061737934139 0 0.057266943228037798 0.1676831786169721 0 0.074050534132635876 0.1674551738590899 0 0.066822349741455955 0.17422205877229019 0 0.057266943228037798 0.1676831786169721 0 0.05966869990662807 0.16146944059627991 0 0.076288528630979818 0.15885061737934139 0 0.074050534132635876 0.1674551738590899 0 0.076288528630979818 0.15885061737934139 0 0.083174631266796237 0.16130630815616331 0 0.071763176316200536 0.1877213540250853 0 0.06769262503863703 0.1841621758919374 0 0.071022312193593395 0.18015980256271549 0 0.064033518452651733 0.18817704612137751 0 0.071763176316200536 0.1877213540250853 0 0.06769262503863703 0.1841621758919374 0 0.064033518452651733 0.18817704612137751 0 0.06769262503863703 0.1841621758919374 0 0.063951493192102471 0.18059050085857151 0 0.06769262503863703 0.1841621758919374 0 0.063951493192102471 0.18059050085857151 0 0.071022312193593395 0.18015980256271549 0 0.063951493192102471 0.18059050085857151 0 0.066822349741455955 0.17422205877229019 0 0.071022312193593395 0.18015980256271549 0 0.0591639601548343 0.1766757480118962 0 0.063951493192102471 0.18059050085857151 0 0.066822349741455955 0.17422205877229019 0 0.074050534132635876 0.1674551738590899 0 0.066822349741455955 0.17422205877229019 0 0.076230240760593343 0.1740915941692735 0 0.066822349741455955 0.17422205877229019 0 0.076230240760593343 0.1740915941692735 0 0.071022312193593395 0.18015980256271549 0 0.076230240760593343 0.1740915941692735 0 0.071022312193593395 0.18015980256271549 0 0.079285984891869471 0.182961269540723 0 0.071763176316200536 0.1877213540250853 0 0.071022312193593395 0.18015980256271549 0 0.079285984891869471 0.182961269540723 0 0.071763176316200536 0.1877213540250853 0 0.078093006283645919 0.18893910712182749 0 0.079285984891869471 0.182961269540723 0 0.084340863194265217 0.18977664189308949 0 0.079285984891869471 0.182961269540723 0 0.090506104564758688 0.18262059873330311 0 0.079285984891869471 0.182961269540723 0 0.083783782941020873 0.17657959646604959 0 0.090506104564758688 0.18262059873330311 0 0.078093006283645919 0.18893910712182749 0 0.084340863194265217 0.18977664189308949 0 0.079285984891869471 0.182961269540723 0 0.076230240760593343 0.1740915941692735 0 0.083783782941020873 0.17657959646604959 0 0.084290921019045673 0.16890300993220561 0 0.076230240760593343 0.1740915941692735 0 0.079285984891869471 0.182961269540723 0 0.083783782941020873 0.17657959646604959 0 0.083783782941020873 0.17657959646604959 0 0.089882622334356718 0.17482567276101621 0 0.084290921019045673 0.16890300993220561 0 0.089882622334356718 0.17482567276101621 0 0.093305935121645159 0.16856825315160021 0 0.09589794710438676 0.1748611879882048 0 0.089882622334356718 0.17482567276101621 0 0.090506104564758688 0.18262059873330311 0 0.09589794710438676 0.1748611879882048 0 0.083783782941020873 0.17657959646604959 0 0.089882622334356718 0.17482567276101621 0 0.090506104564758688 0.18262059873330311 0 0.087151223146325368 0.1548007572359989 0 0.076288528630979818 0.15885061737934139 0 0.083174631266796237 0.16130630815616331 0 0.074050534132635876 0.1674551738590899 0 0.083174631266796237 0.16130630815616331 0 0.084290921019045673 0.16890300993220561 0 0.074050534132635876 0.1674551738590899 0 0.076230240760593343 0.1740915941692735 0 0.084290921019045673 0.16890300993220561 0 0.089882622334356718 0.17482567276101621 0 0.084290921019045673 0.16890300993220561 0 0.093305935121645159 0.16856825315160021 0 0.084290921019045673 0.16890300993220561 0 0.093305935121645159 0.16856825315160021 0 0.090829932569330904 0.16114986714338911 0 0.087151223146325368 0.1548007572359989 0 0.090829932569330904 0.16114986714338911 0 0.095505785706623297 0.15611660198540961 0 0.083174631266796237 0.16130630815616331 0 0.084290921019045673 0.16890300993220561 0 0.090829932569330904 0.16114986714338911 0 0.087151223146325368 0.1548007572359989 0 0.083174631266796237 0.16130630815616331 0 0.090829932569330904 0.16114986714338911 0 0.093305935121645159 0.16856825315160021 0 0.090829932569330904 0.16114986714338911 0 0.098716158317143435 0.16199815162773479 0 0.090829932569330904 0.16114986714338911 0 0.098716158317143435 0.16199815162773479 0 0.095505785706623297 0.15611660198540961 0 0.098716158317143435 0.16199815162773479 0 0.1048295236469249 0.15720162458234521 0 0.095505785706623297 0.15611660198540961 0 0.093305935121645159 0.16856825315160021 0 0.1011008791794186 0.16920219852942861 0 0.09589794710438676 0.1748611879882048 0 0.093305935121645159 0.16856825315160021 0 0.098716158317143435 0.16199815162773479 0 0.1011008791794186 0.16920219852942861 0 0.098716158317143435 0.16199815162773479 0 0.1011008791794186 0.16920219852942861 0 0.10860164978499461 0.16357570516436681 0 0.1011008791794186 0.16920219852942861 0 0.1074047780870285 0.17075004006478131 0 0.10860164978499461 0.16357570516436681 0 0.098716158317143435 0.16199815162773479 0 0.10860164978499461 0.16357570516436681 0 0.1048295236469249 0.15720162458234521 0 0.10860164978499461 0.16357570516436681 0 0.1048295236469249 0.15720162458234521 0 0.1101664552568752 0.1571978620773791 0 0.097062891439115687 0.18902006224742901 0 0.090506104564758688 0.18262059873330311 0 0.1022344806608928 0.17951933929521949 0 0.097062891439115687 0.18902006224742901 0 0.10467563668908079 0.188990448950908 0 0.1022344806608928 0.17951933929521949 0 0.1011008791794186 0.16920219852942861 0 0.09589794710438676 0.1748611879882048 0 0.1022344806608928 0.17951933929521949 0 0.090506104564758688 0.18262059873330311 0 0.09589794710438676 0.1748611879882048 0 0.1022344806608928 0.17951933929521949 0 0.1011008791794186 0.16920219852942861 0 0.1074047780870285 0.17075004006478131 0 0.1022344806608928 0.17951933929521949 0 0.1074047780870285 0.17075004006478131 0 0.1022344806608928 0.17951933929521949 0 0.1106122435143095 0.17604081586898029 0 0.10467563668908079 0.188990448950908 0 0.1022344806608928 0.17951933929521949 0 0.11107306916241361 0.18388202415503849 0 0.1022344806608928 0.17951933929521949 0 0.11107306916241361 0.18388202415503849 0 0.1106122435143095 0.17604081586898029 0 0.11107306916241361 0.18388202415503849 0 0.1172989797618752 0.1773834516006533 0 0.1200465015128263 0.1859546686636781 0 0.1127047694348409 0.1916709272769308 0 0.11107306916241361 0.18388202415503849 0 0.1200465015128263 0.1859546686636781 0 0.1106122435143095 0.17604081586898029 0 0.1172989797618752 0.1773834516006533 0 0.1151244270759969 0.16909112614155331 0 0.11107306916241361 0.18388202415503849 0 0.1106122435143095 0.17604081586898029 0 0.1172989797618752 0.1773834516006533 0 0.1074047780870285 0.17075004006478131 0 0.1106122435143095 0.17604081586898029 0 0.1151244270759969 0.16909112614155331 0 0.1172989797618752 0.1773834516006533 0 0.1219168794454691 0.17008048671063949 0 0.12678006445439491 0.17814394531296321 0 0.1172989797618752 0.1773834516006533 0 0.1151244270759969 0.16909112614155331 0 0.1219168794454691 0.17008048671063949 0 0.1172989797618752 0.1773834516006533 0 0.1200465015128263 0.1859546686636781 0 0.12678006445439491 0.17814394531296321 0 0.1219168794454691 0.17008048671063949 0 0.12590030632508459 0.16103027685922369 0 0.12678006445439491 0.17814394531296321 0 0.1170455542242303 0.1614170238664665 0 0.1101664552568752 0.1571978620773791 0 0.1123346747543946 0.15103148065588709 0 0.10860164978499461 0.16357570516436681 0 0.1170455542242303 0.1614170238664665 0 0.1101664552568752 0.1571978620773791 0 0.10860164978499461 0.16357570516436681 0 0.1170455542242303 0.1614170238664665 0 0.1151244270759969 0.16909112614155331 0 0.1074047780870285 0.17075004006478131 0 0.10860164978499461 0.16357570516436681 0 0.1151244270759969 0.16909112614155331 0 0.1199967917676952 0.16540472839447071 0 0.1219168794454691 0.17008048671063949 0 0.12590030632508459 0.16103027685922369 0 0.1170455542242303 0.1614170238664665 0 0.1151244270759969 0.16909112614155331 0 0.1199967917676952 0.16540472839447071 0 0.1151244270759969 0.16909112614155331 0 0.1199967917676952 0.16540472839447071 0 0.1219168794454691 0.17008048671063949 0 0.1170455542242303 0.1614170238664665 0 0.1123346747543946 0.15103148065588709 0 0.12590030632508459 0.16103027685922369 0 0.1170455542242303 0.1614170238664665 0 0.1199967917676952 0.16540472839447071 0 0.12590030632508459 0.16103027685922369 0 0.1123346747543946 0.15103148065588709 0 0.10877354066152051 0.13646340620887801 0 0.12590030632508459 0.16103027685922369 0 0.10877354066152051 0.13646340620887801 0 0.12590030632508459 0.16103027685922369 0 0.12201729382463 0.14626519602840651 0 0.10877354066152051 0.13646340620887801 0 0.12590030632508459 0.16103027685922369 0 0.12201729382463 0.14626519602840651 0 0.11732759094216599 0.13811876402132439 0 0.1230111206555317 0.14043914865332829 0 0.1101664552568752 0.1571978620773791 0 0.1123346747543946 0.15103148065588709 0 0.10802087387383159 0.15276347611783 0 0.1048295236469249 0.15720162458234521 0 0.1101664552568752 0.1571978620773791 0 0.10802087387383159 0.15276347611783 0 0.08156122964992088 0.1488308946315523 0 0.098437611804477701 0.14558004258224649 0 0.1034537593932147 0.1361923486668265 0 0.1048295236469249 0.15720162458234521 0 0.10802087387383159 0.15276347611783 0 0.100687835953543 0.15171100717486541 0 0.10802087387383159 0.15276347611783 0 0.1060811518058225 0.14778692650959349 0 0.100687835953543 0.15171100717486541 0 0.1123346747543946 0.15103148065588709 0 0.10802087387383159 0.15276347611783 0 0.1060811518058225 0.14778692650959349 0 0.1123346747543946 0.15103148065588709 0 0.1060811518058225 0.14778692650959349 0 0.1058584227184529 0.14300289201544791 0 0.1058584227184529 0.14300289201544791 0 0.098437611804477701 0.14558004258224649 0 0.1034537593932147 0.1361923486668265 0 0.1123346747543946 0.15103148065588709 0 0.1058584227184529 0.14300289201544791 0 0.10877354066152051 0.13646340620887801 0 0.1060811518058225 0.14778692650959349 0 0.1058584227184529 0.14300289201544791 0 0.098437611804477701 0.14558004258224649 0 0.1060811518058225 0.14778692650959349 0 0.098437611804477701 0.14558004258224649 0 0.100687835953543 0.15171100717486541 0 0.092665773875130308 0.15082284596375031 0 0.098437611804477701 0.14558004258224649 0 0.100687835953543 0.15171100717486541 0 0.1048295236469249 0.15720162458234521 0 0.095505785706623297 0.15611660198540961 0 0.100687835953543 0.15171100717486541 0 0.092665773875130308 0.15082284596375031 0 0.095505785706623297 0.15611660198540961 0 0.100687835953543 0.15171100717486541 0 0.09164677499795669 0.111896535558532 0 0.1034537593932147 0.1361923486668265 0 0.10877354066152051 0.13646340620887801 0 0.09164677499795669 0.111896535558532 0 0.088346205634002556 0.13094435060572299 0 0.1034537593932147 0.1361923486668265 0 0.091199982010073968 0.13824497087216961 0 0.088346205634002556 0.13094435060572299 0 0.1034537593932147 0.1361923486668265 0 0.1058584227184529 0.14300289201544791 0 0.1034537593932147 0.1361923486668265 0 0.10877354066152051 0.13646340620887801 0 0.10877354066152051 0.13646340620887801 0 0.10948637917263659 0.12540430696501481 0 0.11437034061424289 0.13268956969824519 0 0.10948637917263659 0.12540430696501481 0 0.11437034061424289 0.13268956969824519 0 0.11850254933348379 0.12820304585725181 0 0.10877354066152051 0.13646340620887801 0 0.11437034061424289 0.13268956969824519 0 0.11732759094216599 0.13811876402132439 0 0.12201729382463 0.14626519602840651 0 0.10877354066152051 0.13646340620887801 0 0.11732759094216599 0.13811876402132439 0 0.11732759094216599 0.13811876402132439 0 0.121254994153627 0.13444819856944509 0 0.1230111206555317 0.14043914865332829 0 0.11437034061424289 0.13268956969824519 0 0.11732759094216599 0.13811876402132439 0 0.121254994153627 0.13444819856944509 0 0.121254994153627 0.13444819856944509 0 0.1230111206555317 0.14043914865332829 0 0.1269252266859619 0.137649192971117 0 0.11850254933348379 0.12820304585725181 0 0.12739313669037591 0.1295894702154041 0 0.1262289268777724 0.1207081556182063 0 0.121254994153627 0.13444819856944509 0 0.11850254933348379 0.12820304585725181 0 0.12739313669037591 0.1295894702154041 0 0.11437034061424289 0.13268956969824519 0 0.121254994153627 0.13444819856944509 0 0.11850254933348379 0.12820304585725181 0 0.12739313669037591 0.1295894702154041 0 0.13559372318309179 0.12948380804096599 0 0.13431919878086571 0.1220128830501261 0 0.12739313669037591 0.1295894702154041 0 0.1352895647376415 0.13561719611188769 0 0.13559372318309179 0.12948380804096599 0 0.1269252266859619 0.137649192971117 0 0.1352895647376415 0.13561719611188769 0 0.1302458702637303 0.14457340866044441 0 0.12739313669037591 0.1295894702154041 0 0.1269252266859619 0.137649192971117 0 0.1352895647376415 0.13561719611188769 0 0.121254994153627 0.13444819856944509 0 0.12739313669037591 0.1295894702154041 0 0.1269252266859619 0.137649192971117 0 0.1352895647376415 0.13561719611188769 0 0.13559372318309179 0.12948380804096599 0 0.14335571151211879 0.13127793558453321 0 0.1539383236386164 0.12740193319586379 0 0.14690644870312039 0.14213525404854679 0 0.16568162940814241 0.12950464042691251 0 0.13559372318309179 0.12948380804096599 0 0.14335571151211879 0.13127793558453321 0 0.1450504972981238 0.1217514865254016 0 0.14335571151211879 0.13127793558453321 0 0.1539383236386164 0.12740193319586379 0 0.1450504972981238 0.1217514865254016 0 0.1352895647376415 0.13561719611188769 0 0.14335571151211879 0.13127793558453321 0 0.14690644870312039 0.14213525404854679 0 0.14335571151211879 0.13127793558453321 0 0.1539383236386164 0.12740193319586379 0 0.14690644870312039 0.14213525404854679 0 0.14690644870312039 0.14213525404854679 0 0.14571590106218801 0.15372138988291639 0 0.16135191341275801 0.14333838679126751 0 0.14690644870312039 0.14213525404854679 0 0.1302458702637303 0.14457340866044441 0 0.12813126799809851 0.15476586767018119 0 0.14690644870312039 0.14213525404854679 0 0.14571590106218801 0.15372138988291639 0 0.12813126799809851 0.15476586767018119 0 0.14690644870312039 0.14213525404854679 0 0.12813126799809851 0.15476586767018119 0 0.1352895647376415 0.13561719611188769 0 0.14690644870312039 0.14213525404854679 0 0.1302458702637303 0.14457340866044441 0 0.12201729382463 0.14626519602840651 0 0.1230111206555317 0.14043914865332829 0 0.1302458702637303 0.14457340866044441 0 0.1230111206555317 0.14043914865332829 0 0.1269252266859619 0.137649192971117 0 0.1302458702637303 0.14457340866044441 0 0.12201729382463 0.14626519602840651 0 0.1302458702637303 0.14457340866044441 0 0.12813126799809851 0.15476586767018119 0 0.12201729382463 0.14626519602840651 0 0.12813126799809851 0.15476586767018119 0 0.12590030632508459 0.16103027685922369 0 0.12590030632508459 0.16103027685922369 0 0.13965435455670591 0.16568029334669371 0 0.1430270719886485 0.18559714750956921 0 0.14571590106218801 0.15372138988291639 0 0.12813126799809851 0.15476586767018119 0 0.13965435455670591 0.16568029334669371 0 0.12813126799809851 0.15476586767018119 0 0.12590030632508459 0.16103027685922369 0 0.13965435455670591 0.16568029334669371 0 0.12590030632508459 0.16103027685922369 0 0.12678006445439491 0.17814394531296321 0 0.13153534560954419 0.1785071029824675 0 0.12590030632508459 0.16103027685922369 0 0.13153534560954419 0.1785071029824675 0 0.1430270719886485 0.18559714750956921 0 0.12590030632508459 0.16103027685922369 0 0.1430270719886485 0.18559714750956921 0 0.12678006445439491 0.17814394531296321 0 0.13153534560954419 0.1785071029824675 0 0.1304339396700489 0.18925704224811399 0 0.1200465015128263 0.1859546686636781 0 0.12678006445439491 0.17814394531296321 0 0.1304339396700489 0.18925704224811399 0 0.13153534560954419 0.1785071029824675 0 0.1430270719886485 0.18559714750956921 0 0.1304339396700489 0.18925704224811399 0 0.13965435455670591 0.16568029334669371 0 0.1430270719886485 0.18559714750956921 0 0.14993493075571529 0.1727797301226919 0 0.1430270719886485 0.18559714750956921 0 0.14993493075571529 0.1727797301226919 0 0.1560915234726552 0.1855661757105512 0 0.14571590106218801 0.15372138988291639 0 0.14690067064423509 0.1636232373519256 0 0.1647987414321985 0.1574181011235396 0 0.14993493075571529 0.1727797301226919 0 0.14690067064423509 0.1636232373519256 0 0.1647987414321985 0.1574181011235396 0 0.14571590106218801 0.15372138988291639 0 0.13965435455670591 0.16568029334669371 0 0.14690067064423509 0.1636232373519256 0 0.13965435455670591 0.16568029334669371 0 0.14993493075571529 0.1727797301226919 0 0.14690067064423509 0.1636232373519256 0 0.1560915234726552 0.1855661757105512 0 0.1647987414321985 0.1574181011235396 0 0.17019472091080631 0.17211677050353419 0 0.1560915234726552 0.1855661757105512 0 0.1647987414321985 0.1574181011235396 0 0.14993493075571529 0.1727797301226919 0 0.1560915234726552 0.1855661757105512 0 0.1647987414321985 0.1574181011235396 0 0.17019472091080631 0.17211677050353419 0 0.16804419889815711 0.18351188626195461 0 0.17691171265533931 0.18330288015710289 0 0.16804419889815711 0.18351188626195461 0 0.17691171265533931 0.18330288015710289 0 0.1689788385538275 0.19306171867663011 0 0.1560915234726552 0.1855661757105512 0 0.16804419889815711 0.18351188626195461 0 0.1689788385538275 0.19306171867663011 0 0.1560915234726552 0.1855661757105512 0 0.17019472091080631 0.17211677050353419 0 0.16804419889815711 0.18351188626195461 0 0.17019472091080631 0.17211677050353419 0 0.17691171265533931 0.18330288015710289 0 0.18574240390036251 0.17085124036757379 0 0.17691171265533931 0.18330288015710289 0 0.18574240390036251 0.17085124036757379 0 0.19227202705611049 0.1860574637212212 0 0.1647987414321985 0.1574181011235396 0 0.17019472091080631 0.17211677050353419 0 0.18166684719313919 0.15888397012180369 0 0.17019472091080631 0.17211677050353419 0 0.18574240390036251 0.17085124036757379 0 0.18166684719313919 0.15888397012180369 0 0.18166684719313919 0.15888397012180369 0 0.17999343026381601 0.14421979062348381 0 0.19213703868468399 0.14691446001460159 0 0.1647987414321985 0.1574181011235396 0 0.18166684719313919 0.15888397012180369 0 0.17999343026381601 0.14421979062348381 0 0.1647987414321985 0.1574181011235396 0 0.17999343026381601 0.14421979062348381 0 0.17350595939174179 0.12927002653652811 0 0.17999343026381601 0.14421979062348381 0 0.18830013750987351 0.13277603552464859 0 0.19213703868468399 0.14691446001460159 0 0.17350595939174179 0.12927002653652811 0 0.16568162940814241 0.12950464042691251 0 0.1844568101131642 0.11687402680527791 0 0.17350595939174179 0.12927002653652811 0 0.18830013750987351 0.13277603552464859 0 0.1844568101131642 0.11687402680527791 0 0.17999343026381601 0.14421979062348381 0 0.17350595939174179 0.12927002653652811 0 0.18830013750987351 0.13277603552464859 0 0.17350595939174179 0.12927002653652811 0 0.16568162940814241 0.12950464042691251 0 0.16135191341275801 0.14333838679126751 0 0.14690644870312039 0.14213525404854679 0 0.16568162940814241 0.12950464042691251 0 0.14690644870312039 0.14213525404854679 0 0.16568162940814241 0.12950464042691251 0 0.16135191341275801 0.14333838679126751 0 0.1539383236386164 0.12740193319586379 0 0.16568162940814241 0.12950464042691251 0 0.1620681681850592 0.122159867119615 0 0.1647987414321985 0.1574181011235396 0 0.17350595939174179 0.12927002653652811 0 0.14571590106218801 0.15372138988291639 0 0.1647987414321985 0.1574181011235396 0 0.16135191341275801 0.14333838679126751 0 0.1647987414321985 0.1574181011235396 0 0.17350595939174179 0.12927002653652811 0 0.16135191341275801 0.14333838679126751 0 0.1527293109647406 0.2496888402585469 0 0.1509992044617475 0.24031921604616491 0 0.1585735765385029 0.2438264976433136 0 0.1509992044617475 0.24031921604616491 0 0.15012286874481989 0.23083232091871181 0 0.1573483015433603 0.2340887654365624 0 0.1509992044617475 0.24031921604616491 0 0.1573483015433603 0.2340887654365624 0 0.1585735765385029 0.2438264976433136 0 0.1509992044617475 0.24031921604616491 0 0.13867708755356789 0.24186232488457371 0 0.15012286874481989 0.23083232091871181 0 0.1527293109647406 0.2496888402585469 0 0.1509992044617475 0.24031921604616491 0 0.13867708755356789 0.24186232488457371 0 0.12173795991278449 0.24438483842122541 0 0.13867708755356789 0.24186232488457371 0 0.13732611472270259 0.22546187105492221 0 0.12173795991278449 0.24438483842122541 0 0.13867708755356789 0.24186232488457371 0 0.1332696696938378 0.25934304053290802 0 0.12173795991278449 0.24438483842122541 0 0.1296895967157933 0.22046887170165119 0 0.12173795991278449 0.24438483842122541 0 0.13732611472270259 0.22546187105492221 0 0.1296895967157933 0.22046887170165119 0 0.13867708755356789 0.24186232488457371 0 0.13732611472270259 0.22546187105492221 0 0.15012286874481989 0.23083232091871181 0 0.15620544465231201 0.2241770479286955 0 0.14738430551311191 0.21371425029756261 0 0.13867708755356789 0.24186232488457371 0 0.14738430551311191 0.21371425029756261 0 0.13867708755356789 0.24186232488457371 0 0.15012286874481989 0.23083232091871181 0 0.14738430551311191 0.21371425029756261 0 0.13867708755356789 0.24186232488457371 0 0.13732611472270259 0.22546187105492221 0 0.14738430551311191 0.21371425029756261 0 0.15012286874481989 0.23083232091871181 0 0.15620544465231201 0.2241770479286955 0 0.1573483015433603 0.2340887654365624 0 0.1420367786464839 0.20343812716091461 0 0.14738430551311191 0.21371425029756261 0 0.14578196863772411 0.19624521113402449 0 0.15620544465231201 0.2241770479286955 0 0.14738430551311191 0.21371425029756261 0 0.1609317994891496 0.2147554031537609 0 0.1420367786464839 0.20343812716091461 0 0.14738430551311191 0.21371425029756261 0 0.13597514189183821 0.20906141722527061 0 0.1296895967157933 0.22046887170165119 0 0.1376412335188022 0.19655290498207689 0 0.12882009102191169 0.20125815281230969 0 0.1296895967157933 0.22046887170165119 0 0.13597514189183821 0.20906141722527061 0 0.1376412335188022 0.19655290498207689 0 0.1296895967157933 0.22046887170165119 0 0.1376412335188022 0.19655290498207689 0 0.13732611472270259 0.22546187105492221 0 0.1296895967157933 0.22046887170165119 0 0.13597514189183821 0.20906141722527061 0 0.12441915085221961 0.2084322156914942 0 0.1296895967157933 0.22046887170165119 0 0.12882009102191169 0.20125815281230969 0 0.13732611472270259 0.22546187105492221 0 0.13597514189183821 0.20906141722527061 0 0.13732611472270259 0.22546187105492221 0 0.14738430551311191 0.21371425029756261 0 0.13597514189183821 0.20906141722527061 0 0.12441915085221961 0.2084322156914942 0 0.1225562810981516 0.21717335542984861 0 0.1296895967157933 0.22046887170165119 0 0.1420367786464839 0.20343812716091461 0 0.13597514189183821 0.20906141722527061 0 0.1376412335188022 0.19655290498207689 0 0.1209984724842765 0.19542664675733901 0 0.12882009102191169 0.20125815281230969 0 0.1304339396700489 0.18925704224811399 0 0.1376412335188022 0.19655290498207689 0 0.12882009102191169 0.20125815281230969 0 0.1304339396700489 0.18925704224811399 0 0.1430270719886485 0.18559714750956921 0 0.1376412335188022 0.19655290498207689 0 0.1304339396700489 0.18925704224811399 0 0.1560915234726552 0.1855661757105512 0 0.14738430551311191 0.21371425029756261 0 0.16100437494411179 0.2029641503355181 0 0.1430270719886485 0.18559714750956921 0 0.1560915234726552 0.1855661757105512 0 0.14578196863772411 0.19624521113402449 0 0.1560915234726552 0.1855661757105512 0 0.14738430551311191 0.21371425029756261 0 0.1430270719886485 0.18559714750956921 0 0.1376412335188022 0.19655290498207689 0 0.14578196863772411 0.19624521113402449 0 0.1560915234726552 0.1855661757105512 0 0.14738430551311191 0.21371425029756261 0 0.14578196863772411 0.19624521113402449 0 0.1420367786464839 0.20343812716091461 0 0.1376412335188022 0.19655290498207689 0 0.14578196863772411 0.19624521113402449 0 0.1560915234726552 0.1855661757105512 0 0.16100437494411179 0.2029641503355181 0 0.1689788385538275 0.19306171867663011 0 0.16100437494411179 0.2029641503355181 0 0.1689788385538275 0.19306171867663011 0 0.17198349242514699 0.20719099627146639 0 0.17691171265533931 0.18330288015710289 0 0.1689788385538275 0.19306171867663011 0 0.18270085012646739 0.1969872045730312 0 0.17691171265533931 0.18330288015710289 0 0.18270085012646739 0.1969872045730312 0 0.19227202705611049 0.1860574637212212 0 0.1689788385538275 0.19306171867663011 0 0.18270085012646739 0.1969872045730312 0 0.17198349242514699 0.20719099627146639 0 0.18270085012646739 0.1969872045730312 0 0.17198349242514699 0.20719099627146639 0 0.18662210895416981 0.2088101383455655 0 0.18662210895416981 0.2088101383455655 0 0.17850355414762711 0.21835680931732429 0 0.18941959446246029 0.21995909916838949 0 0.17198349242514699 0.20719099627146639 0 0.18662210895416981 0.2088101383455655 0 0.17850355414762711 0.21835680931732429 0 0.17198349242514699 0.20719099627146639 0 0.17850355414762711 0.21835680931732429 0 0.16977847926732401 0.21662509437257879 0 0.17198349242514699 0.20719099627146639 0 0.16977847926732401 0.21662509437257879 0 0.1609317994891496 0.2147554031537609 0 0.16100437494411179 0.2029641503355181 0 0.17198349242514699 0.20719099627146639 0 0.1609317994891496 0.2147554031537609 0 0.14738430551311191 0.21371425029756261 0 0.16100437494411179 0.2029641503355181 0 0.1609317994891496 0.2147554031537609 0 0.15620544465231201 0.2241770479286955 0 0.1609317994891496 0.2147554031537609 0 0.16769507100737219 0.22619716874776361 0 0.1573483015433603 0.2340887654365624 0 0.16769507100737219 0.22619716874776361 0 0.16668628632199459 0.2372418792911074 0 0.15620544465231201 0.2241770479286955 0 0.1573483015433603 0.2340887654365624 0 0.16769507100737219 0.22619716874776361 0 0.16769507100737219 0.22619716874776361 0 0.17809424135199381 0.23417115484815429 0 0.16668628632199459 0.2372418792911074 0 0.16977847926732401 0.21662509437257879 0 0.1609317994891496 0.2147554031537609 0 0.16769507100737219 0.22619716874776361 0 0.17850355414762711 0.21835680931732429 0 0.16977847926732401 0.21662509437257879 0 0.16769507100737219 0.22619716874776361 0 0.17809424135199381 0.23417115484815429 0 0.19633888835653929 0.2346428930968506 0 0.18761808970463181 0.2295532946527154 0 0.17850355414762711 0.21835680931732429 0 0.16769507100737219 0.22619716874776361 0 0.17984199102903051 0.22649142958997201 0 0.17984199102903051 0.22649142958997201 0 0.18761808970463181 0.2295532946527154 0 0.18941959446246029 0.21995909916838949 0 0.17850355414762711 0.21835680931732429 0 0.17984199102903051 0.22649142958997201 0 0.18941959446246029 0.21995909916838949 0 0.17984199102903051 0.22649142958997201 0 0.17809424135199381 0.23417115484815429 0 0.18761808970463181 0.2295532946527154 0 0.16769507100737219 0.22619716874776361 0 0.17984199102903051 0.22649142958997201 0 0.17809424135199381 0.23417115484815429 0 0.17809424135199381 0.23417115484815429 0 0.17562439366976659 0.2480003082359496 0 0.16668628632199459 0.2372418792911074 0 0.17809424135199381 0.23417115484815429 0 0.17562439366976659 0.2480003082359496 0 0.19633888835653929 0.2346428930968506 0 0.17562439366976659 0.2480003082359496 0 0.19571728637305991 0.25124460125098053 0 0.17562439366976659 0.2480003082359496 0 0.19633888835653929 0.2346428930968506 0 0.17562439366976659 0.2480003082359496 0 0.16640384974087649 0.24651151582039041 0 0.16668628632199459 0.2372418792911074 0 0.17562439366976659 0.2480003082359496 0 0.16640384974087649 0.24651151582039041 0 0.1573483015433603 0.2340887654365624 0 0.16668628632199459 0.2372418792911074 0 0.1585735765385029 0.2438264976433136 0 0.16640384974087649 0.24651151582039041 0 0.16668628632199459 0.2372418792911074 0 0.1585735765385029 0.2438264976433136 0 0.16640384974087649 0.24651151582039041 0 0.1585735765385029 0.2438264976433136 0 0.1624975560905107 0.25646494238034878 0 0.1527293109647406 0.2496888402585469 0 0.1585735765385029 0.2438264976433136 0 0.1624975560905107 0.25646494238034878 0 0.21612098006809299 0.24618804018894669 0 0.19633888835653929 0.2346428930968506 0 0.21612098006809299 0.24618804018894669 0 0.19633888835653929 0.2346428930968506 0 0.19571728637305991 0.25124460125098053 0 0.17562439366976659 0.2480003082359496 0 0.19633888835653929 0.2346428930968506 0 0.19571728637305991 0.25124460125098053 0 0.19633888835653929 0.2346428930968506 0 0.18941959446246029 0.21995909916838949 0 0.20053748389944701 0.2174326400608326 0 0.19633888835653929 0.2346428930968506 0 0.18761808970463181 0.2295532946527154 0 0.18941959446246029 0.21995909916838949 0 0.19633888835653929 0.2346428930968506 0 0.18761808970463181 0.2295532946527154 0 0.19633888835653929 0.2346428930968506 0 0.22115079695264869 0.21864332523275379 0 0.19633888835653929 0.2346428930968506 0 0.20053748389944701 0.2174326400608326 0 0.22115079695264869 0.21864332523275379 0 0.21612098006809299 0.24618804018894669 0 0.19633888835653929 0.2346428930968506 0 0.22115079695264869 0.21864332523275379 0 0.20053748389944701 0.2174326400608326 0 0.20056233108496399 0.2013184337466839 0 0.22115079695264869 0.21864332523275379 0 0.20056233108496399 0.2013184337466839 0 0.2170229743268981 0.19579915689424049 0 0.22115079695264869 0.21864332523275379 0 0.18662210895416981 0.2088101383455655 0 0.20053748389944701 0.2174326400608326 0 0.20056233108496399 0.2013184337466839 0 0.18662210895416981 0.2088101383455655 0 0.18941959446246029 0.21995909916838949 0 0.20053748389944701 0.2174326400608326 0 0.18270085012646739 0.1969872045730312 0 0.18662210895416981 0.2088101383455655 0 0.20056233108496399 0.2013184337466839 0 0.18270085012646739 0.1969872045730312 0 0.20056233108496399 0.2013184337466839 0 0.19227202705611049 0.1860574637212212 0 0.20056233108496399 0.2013184337466839 0 0.2058776026311312 0.18816152451207599 0 0.19227202705611049 0.1860574637212212 0 0.20056233108496399 0.2013184337466839 0 0.2170229743268981 0.19579915689424049 0 0.2058776026311312 0.18816152451207599 0 0.2170229743268981 0.19579915689424049 0 0.2318253108220128 0.19368571740867821 0 0.221642521737273 0.1779989069111238 0 0.2170229743268981 0.19579915689424049 0 0.2318253108220128 0.19368571740867821 0 0.22115079695264869 0.21864332523275379 0 0.2318253108220128 0.19368571740867821 0 0.2459627055487574 0.2026437573686555 0 0.23942614539043369 0.178415579126427 0 0.2459627055487574 0.2026437573686555 0 0.23942614539043369 0.178415579126427 0 0.25052941350297298 0.18971531408661929 0 0.2459627055487574 0.2026437573686555 0 0.23942614539043369 0.178415579126427 0 0.2459627055487574 0.2026437573686555 0 0.25002767978558532 0.2000225228547507 0 0.25052941350297298 0.18971531408661929 0 0.2459627055487574 0.2026437573686555 0 0.25002767978558532 0.2000225228547507 0 0.2459627055487574 0.2026437573686555 0 0.25023138274302892 0.21846588237266501 0 0.2459627055487574 0.2026437573686555 0 0.25023138274302892 0.21846588237266501 0 0.25002767978558532 0.2000225228547507 0 0.2459627055487574 0.2026437573686555 0 0.22115079695264869 0.21864332523275379 0 0.25023138274302892 0.21846588237266501 0 0.2318253108220128 0.19368571740867821 0 0.2459627055487574 0.2026437573686555 0 0.22115079695264869 0.21864332523275379 0 0.2459627055487574 0.2026437573686555 0 0.22115079695264869 0.21864332523275379 0 0.22115079695264869 0.21864332523275379 0 0.23517285379689551 0.2297390026617559 0 0.22982550330875201 0.24206279021263399 0 0.22115079695264869 0.21864332523275379 0 0.23517285379689551 0.2297390026617559 0 0.25023138274302892 0.21846588237266501 0 0.24620720171794441 0.231027062253818 0 0.23517285379689551 0.2297390026617559 0 0.25023138274302892 0.21846588237266501 0 0.24620720171794441 0.231027062253818 0 0.23517285379689551 0.2297390026617559 0 0.2408950366641027 0.23657512510204251 0 0.23517285379689551 0.2297390026617559 0 0.2408950366641027 0.23657512510204251 0 0.22982550330875201 0.24206279021263399 0 0.2408950366641027 0.23657512510204251 0 0.24236029680872229 0.24493962465880259 0 0.22982550330875201 0.24206279021263399 0 0.2408950366641027 0.23657512510204251 0 0.2457950644747621 0.24012132536776809 0 0.24236029680872229 0.24493962465880259 0 0.2408950366641027 0.23657512510204251 0 0.2457950644747621 0.24012132536776809 0 0.25023667544839739 0.23606729375595131 0 0.24620720171794441 0.231027062253818 0 0.2408950366641027 0.23657512510204251 0 0.25023667544839739 0.23606729375595131 0 0.2457950644747621 0.24012132536776809 0 0.2496882489778261 0.24290325795427631 0 0.25023667544839739 0.23606729375595131 0 0.2468507990765075 0.24988320060761271 0 0.2496882489778261 0.24290325795427631 0 0.24236029680872229 0.24493962465880259 0 0.2457950644747621 0.24012132536776809 0 0.2496882489778261 0.24290325795427631 0 0.24236029680872229 0.24493962465880259 0 0.2468507990765075 0.24988320060761271 0 0.24236029680872229 0.24493962465880259 0 0.23963233792909289 0.25070674833000889 0 0.24236029680872229 0.24493962465880259 0 0.22982550330875201 0.24206279021263399 0 0.23963233792909289 0.25070674833000889 0 0.21612098006809299 0.24618804018894669 0 0.22115079695264869 0.21864332523275379 0 0.22982550330875201 0.24206279021263399 0 0.21612098006809299 0.24618804018894669 0 0.22982550330875201 0.24206279021263399 0 0.23590307177964609 0.25773318728104377 0 0.20600984826678001 0.1519197756597235 0 0.20275647323417051 0.13812593107394749 0 0.21943442235629981 0.14494672928665289 0 0.20600984826678001 0.1519197756597235 0 0.21485451122060861 0.16279383285459351 0 0.21943442235629981 0.14494672928665289 0 0.21504754301213341 0.1292245567520463 0 0.20275647323417051 0.13812593107394749 0 0.21943442235629981 0.14494672928665289 0 0.21504754301213341 0.1292245567520463 0 0.19975217656264879 0.123049291778662 0 0.21504754301213341 0.1292245567520463 0 0.20275647323417051 0.13812593107394749 0 0.19975217656264879 0.123049291778662 0 0.20275647323417051 0.13812593107394749 0 0.18830013750987351 0.13277603552464859 0 0.19975217656264879 0.123049291778662 0 0.20275647323417051 0.13812593107394749 0 0.18830013750987351 0.13277603552464859 0 0.19213703868468399 0.14691446001460159 0 0.20600984826678001 0.1519197756597235 0 0.20275647323417051 0.13812593107394749 0 0.19213703868468399 0.14691446001460159 0 0.20600984826678001 0.1519197756597235 0 0.19213703868468399 0.14691446001460159 0 0.19713474796696839 0.16178345809808939 0 0.18166684719313919 0.15888397012180369 0 0.19213703868468399 0.14691446001460159 0 0.19713474796696839 0.16178345809808939 0 0.18574240390036251 0.17085124036757379 0 0.18166684719313919 0.15888397012180369 0 0.19713474796696839 0.16178345809808939 0 0.18574240390036251 0.17085124036757379 0 0.19713474796696839 0.16178345809808939 0 0.2028764995668163 0.17469450888763521 0 0.18574240390036251 0.17085124036757379 0 0.19227202705611049 0.1860574637212212 0 0.2028764995668163 0.17469450888763521 0 0.2058776026311312 0.18816152451207599 0 0.19227202705611049 0.1860574637212212 0 0.2028764995668163 0.17469450888763521 0 0.2058776026311312 0.18816152451207599 0 0.2028764995668163 0.17469450888763521 0 0.221642521737273 0.1779989069111238 0 0.2170229743268981 0.19579915689424049 0 0.2058776026311312 0.18816152451207599 0 0.221642521737273 0.1779989069111238 0 0.2028764995668163 0.17469450888763521 0 0.21485451122060861 0.16279383285459351 0 0.221642521737273 0.1779989069111238 0 0.19713474796696839 0.16178345809808939 0 0.2028764995668163 0.17469450888763521 0 0.21485451122060861 0.16279383285459351 0 0.20600984826678001 0.1519197756597235 0 0.19713474796696839 0.16178345809808939 0 0.21485451122060861 0.16279383285459351 0 0.21485451122060861 0.16279383285459351 0 0.221642521737273 0.1779989069111238 0 0.23288958523210729 0.1541874008841993 0 0.221642521737273 0.1779989069111238 0 0.23942614539043369 0.178415579126427 0 0.23288958523210729 0.1541874008841993 0 0.2318253108220128 0.19368571740867821 0 0.221642521737273 0.1779989069111238 0 0.23942614539043369 0.178415579126427 0 0.23942614539043369 0.178415579126427 0 0.25653760632375439 0.17092289481248321 0 0.25052941350297298 0.18971531408661929 0 0.23942614539043369 0.178415579126427 0 0.24574744319262781 0.15923880285475339 0 0.25653760632375439 0.17092289481248321 0 0.23942614539043369 0.178415579126427 0 0.23288958523210729 0.1541874008841993 0 0.23942614539043369 0.178415579126427 0 0.24574744319262781 0.15923880285475339 0 0.23288958523210729 0.1541874008841993 0 0.24574744319262781 0.15923880285475339 0 0.2400832438497518 0.1462679391758013 0 0.25238228218117409 0.1452739733541856 0 0.2400832438497518 0.1462679391758013 0 0.22871731695546579 0.14584632310032969 0 0.23441355408495521 0.13846158994784161 0 0.24574744319262781 0.15923880285475339 0 0.2400832438497518 0.1462679391758013 0 0.23288958523210729 0.1541874008841993 0 0.21485451122060861 0.16279383285459351 0 0.23288958523210729 0.1541874008841993 0 0.21943442235629981 0.14494672928665289 0 0.2400832438497518 0.1462679391758013 0 0.23288958523210729 0.1541874008841993 0 0.22871731695546579 0.14584632310032969 0 0.23288958523210729 0.1541874008841993 0 0.22871731695546579 0.14584632310032969 0 0.21943442235629981 0.14494672928665289 0 0.22871731695546579 0.14584632310032969 0 0.21943442235629981 0.14494672928665289 0 0.23441355408495521 0.13846158994784161 0 0.21504754301213341 0.1292245567520463 0 0.23019904094570109 0.13534173706233679 0 0.23441355408495521 0.13846158994784161 0 0.21504754301213341 0.1292245567520463 0 0.23441355408495521 0.13846158994784161 0 0.21504754301213341 0.1292245567520463 0 0.21943442235629981 0.14494672928665289 0 0.23441355408495521 0.13846158994784161 0 0.21504754301213341 0.1292245567520463 0 0.22541837548521521 0.1252383942444007 0 0.23019904094570109 0.13534173706233679 0 0.21504754301213341 0.1292245567520463 0 0.23019904094570109 0.13534173706233679 0 0.22541837548521521 0.1252383942444007 0 0.23019904094570109 0.13534173706233679 0 0.23863371327979849 0.12993594989620011 0 0.2400832438497518 0.1462679391758013 0 0.23863371327979849 0.12993594989620011 0 0.25238228218117409 0.1452739733541856 0 0.2400832438497518 0.1462679391758013 0 0.23863371327979849 0.12993594989620011 0 0.23441355408495521 0.13846158994784161 0 0.23863371327979849 0.12993594989620011 0 0.24822695803859379 0.119625051895888 0 0.25238228218117409 0.1452739733541856 0 0.23019904094570109 0.13534173706233679 0 0.23863371327979849 0.12993594989620011 0 0.23441355408495521 0.13846158994784161 0 0.23863371327979849 0.12993594989620011 0 0.24822695803859379 0.119625051895888 0 0.2299189007069449 0.1143137749900391 0 0.24822695803859379 0.119625051895888 0 0.24407163389601341 0.093976130437590316 0 0.2299189007069449 0.1143137749900391 0 0.24822695803859379 0.119625051895888 0 0.24407163389601341 0.093976130437590316 0 0.22685861675358859 0.096386267466676057 0 0.2299189007069449 0.1143137749900391 0 0.21369069288793721 0.1049308309557879 0 0.24407163389601341 0.093976130437590316 0 0.22685861675358859 0.096386267466676057 0 0.2299189007069449 0.1143137749900391 0 0.2299189007069449 0.1143137749900391 0 0.214467236009136 0.11753970966816921 0 0.21369069288793721 0.1049308309557879 0 0.22541837548521521 0.1252383942444007 0 0.23863371327979849 0.12993594989620011 0 0.2299189007069449 0.1143137749900391 0 0.22541837548521521 0.1252383942444007 0 0.2299189007069449 0.1143137749900391 0 0.214467236009136 0.11753970966816921 0 0.21504754301213341 0.1292245567520463 0 0.22541837548521521 0.1252383942444007 0 0.214467236009136 0.11753970966816921 0 0.21504754301213341 0.1292245567520463 0 0.214467236009136 0.11753970966816921 0 0.19975217656264879 0.123049291778662 0 0.214467236009136 0.11753970966816921 0 0.20200139795669431 0.109136869223787 0 0.19975217656264879 0.123049291778662 0 0.214467236009136 0.11753970966816921 0 0.21369069288793721 0.1049308309557879 0 0.20200139795669431 0.109136869223787 0 0.22685861675358859 0.096386267466676057 0 0.21369069288793721 0.1049308309557879 0 0.2144209729214851 0.087920711893879025 0 0.21369069288793721 0.1049308309557879 0 0.19979681846631361 0.095040628295827795 0 0.2144209729214851 0.087920711893879025 0 0.21369069288793721 0.1049308309557879 0 0.20200139795669431 0.109136869223787 0 0.19979681846631361 0.095040628295827795 0 0.20200139795669431 0.109136869223787 0 0.19979681846631361 0.095040628295827795 0 0.1913665906850025 0.10378253945516321 0 0.1899211683291844 0.096492144816818254 0 0.1913665906850025 0.10378253945516321 0 0.18217430609913179 0.1030709901634366 0 0.19979681846631361 0.095040628295827795 0 0.1899211683291844 0.096492144816818254 0 0.1913665906850025 0.10378253945516321 0 0.1913665906850025 0.10378253945516321 0 0.192150686110829 0.1116981312170523 0 0.18457696955713429 0.1082716910329506 0 0.20200139795669431 0.109136869223787 0 0.1913665906850025 0.10378253945516321 0 0.192150686110829 0.1116981312170523 0 0.192150686110829 0.1116981312170523 0 0.18640546899964899 0.1155631069338639 0 0.18457696955713429 0.1082716910329506 0 0.18830013750987351 0.13277603552464859 0 0.19975217656264879 0.123049291778662 0 0.1844568101131642 0.11687402680527791 0 0.192150686110829 0.1116981312170523 0 0.19975217656264879 0.123049291778662 0 0.18640546899964899 0.1155631069338639 0 0.192150686110829 0.1116981312170523 0 0.18640546899964899 0.1155631069338639 0 0.19975217656264879 0.123049291778662 0 0.18640546899964899 0.1155631069338639 0 0.1844568101131642 0.11687402680527791 0 0.19975217656264879 0.123049291778662 0 0.1844568101131642 0.11687402680527791 0 0.19975217656264879 0.123049291778662 0 0.18640546899964899 0.1155631069338639 0 0.20200139795669431 0.109136869223787 0 0.192150686110829 0.1116981312170523 0 0.19975217656264879 0.123049291778662 0 0.20289053434421589 0.0605044563650117 0 0.18634695806628979 0.084074421352845444 0 0.20399489199488849 0.07947830971790959 0 0.20289053434421589 0.0605044563650117 0 0.18634695806628979 0.084074421352845444 0 0.20289053434421589 0.0605044563650117 0 0.18634695806628979 0.084074421352845444 0 0.181689683436876 0.066742424984251481 0 0.19979681846631361 0.095040628295827795 0 0.20399489199488849 0.07947830971790959 0 0.18634695806628979 0.084074421352845444 0 0.19979681846631361 0.095040628295827795 0 0.1899211683291844 0.096492144816818254 0 0.18634695806628979 0.084074421352845444 0 0.20399489199488849 0.07947830971790959 0 0.2144209729214851 0.087920711893879025 0 0.21745603984425771 0.070969846063346234 0 0.19979681846631361 0.095040628295827795 0 0.20399489199488849 0.07947830971790959 0 0.2144209729214851 0.087920711893879025 0 0.20399489199488849 0.07947830971790959 0 0.21745603984425771 0.070969846063346234 0 0.20289053434421589 0.0605044563650117 0 0.21745603984425771 0.070969846063346234 0 0.2334408150729603 0.063748605476065312 0 0.22134073987334901 0.054557162499826423 0 0.21745603984425771 0.070969846063346234 0 0.2334408150729603 0.063748605476065312 0 0.2311850730204961 0.081545784345609135 0 0.2144209729214851 0.087920711893879025 0 0.21745603984425771 0.070969846063346234 0 0.2311850730204961 0.081545784345609135 0 0.22685861675358859 0.096386267466676057 0 0.2144209729214851 0.087920711893879025 0 0.2311850730204961 0.081545784345609135 0 0.24407163389601341 0.093976130437590316 0 0.22685861675358859 0.096386267466676057 0 0.2311850730204961 0.081545784345609135 0 0.24407163389601341 0.093976130437590316 0 0.2311850730204961 0.081545784345609135 0 0.24783375955663281 0.07805906859882511 0 0.2334408150729603 0.063748605476065312 0 0.2311850730204961 0.081545784345609135 0 0.24783375955663281 0.07805906859882511 0 0.2334408150729603 0.063748605476065312 0 0.24783375955663281 0.07805906859882511 0 0.2496150297495873 0.059439042563006972 0 0.2334408150729603 0.063748605476065312 0 0.2496150297495873 0.059439042563006972 0 0.24056739647699929 0.042988530474928142 0 0.24056739647699929 0.042988530474928142 0 0.2194341106221421 0.036934491377177942 0 0.22134073987334901 0.054557162499826423 0 0.2334408150729603 0.063748605476065312 0 0.24056739647699929 0.042988530474928142 0 0.22134073987334901 0.054557162499826423 0 0.23597768690006829 0.01336452638934422 0 0.25252126317799439 -0.010205438598489529 0 0.2307709394487055 -0.0025905816995888641 0 0.23597768690006829 0.01336452638934422 0 0.26105612840742859 0.019766071588512159 0 0.25252126317799439 -0.010205438598489529 0 0.23597768690006829 0.01336452638934422 0 0.25252126317799439 -0.010205438598489529 0 0.24056739647699929 0.042988530474928142 0 0.23597768690006829 0.01336452638934422 0 0.26105612840742859 0.019766071588512159 0 0.2194341106221421 0.036934491377177942 0 0.23597768690006829 0.01336452638934422 0 0.24056739647699929 0.042988530474928142 0 0.2194341106221421 0.036934491377177942 0 0.23597768690006829 0.01336452638934422 0 0.2194341106221421 0.036934491377177942 0 0.23597768690006829 0.01336452638934422 0 0.21051614081975961 0.022669637188172869 0 0.23597768690006829 0.01336452638934422 0 0.21626581299006789 0.0074153659625795874 0 0.2307709394487055 -0.0025905816995888641 0 0.23597768690006829 0.01336452638934422 0 0.21626581299006789 0.0074153659625795874 0 0.21051614081975961 0.022669637188172869 0 0.21626581299006789 0.0074153659625795874 0 0.21051614081975961 0.022669637188172869 0 0.19908994105964001 0.014115553016472099 0 0.20423515365630601 0.00091409910843910202 0 0.21626581299006789 0.0074153659625795874 0 0.19908994105964001 0.014115553016472099 0 0.20423515365630601 0.00091409910843910202 0 0.21626581299006789 0.0074153659625795874 0 0.2173473683237315 -0.0071058875394326981 0 0.1908728383528023 0.028131738845634281 0 0.19908994105964001 0.014115553016472099 0 0.1829079366766678 0.01744171759495089 0 0.21051614081975961 0.022669637188172869 0 0.1908728383528023 0.028131738845634281 0 0.19908994105964001 0.014115553016472099 0 0.21051614081975961 0.022669637188172869 0 0.1908728383528023 0.028131738845634281 0 0.20145645499383691 0.036056147537829118 0 0.19908994105964001 0.014115553016472099 0 0.18909223906183151 0.002610795077842325 0 0.1829079366766678 0.01744171759495089 0 0.20423515365630601 0.00091409910843910202 0 0.19908994105964001 0.014115553016472099 0 0.18909223906183151 0.002610795077842325 0 0.2194341106221421 0.036934491377177942 0 0.20289053434421589 0.0605044563650117 0 0.2194341106221421 0.036934491377177942 0 0.22134073987334901 0.054557162499826423 0 0.20289053434421589 0.0605044563650117 0 0.2194341106221421 0.036934491377177942 0 0.20442094023979759 0.055343307597148277 0 0.20289053434421589 0.0605044563650117 0 0.21745603984425771 0.070969846063346234 0 0.22134073987334901 0.054557162499826423 0 0.20289053434421589 0.0605044563650117 0 0.2194341106221421 0.036934491377177942 0 0.20442094023979759 0.055343307597148277 0 0.19859867181082941 0.046269777865921312 0 0.2194341106221421 0.036934491377177942 0 0.19859867181082941 0.046269777865921312 0 0.20145645499383691 0.036056147537829118 0 0.2194341106221421 0.036934491377177942 0 0.21051614081975961 0.022669637188172869 0 0.20145645499383691 0.036056147537829118 0 0.19859867181082941 0.046269777865921312 0 0.20145645499383691 0.036056147537829118 0 0.18926926685271719 0.041353436962331021 0 0.1908728383528023 0.028131738845634281 0 0.20145645499383691 0.036056147537829118 0 0.18926926685271719 0.041353436962331021 0 0.19859867181082941 0.046269777865921312 0 0.18926926685271719 0.041353436962331021 0 0.18832470145407351 0.051609441243167867 0 0.20442094023979759 0.055343307597148277 0 0.19859867181082941 0.046269777865921312 0 0.18832470145407351 0.051609441243167867 0 0.20442094023979759 0.055343307597148277 0 0.18832470145407351 0.051609441243167867 0 0.181689683436876 0.066742424984251481 0 0.20442094023979759 0.055343307597148277 0 0.181689683436876 0.066742424984251481 0 0.20442094023979759 0.055343307597148277 0 0.20289053434421589 0.0605044563650117 0 0.181689683436876 0.066742424984251481 0 0.18832470145407351 0.051609441243167867 0 0.17455930535341041 0.056246499627953167 0 0.181689683436876 0.066742424984251481 0 0.17455930535341041 0.056246499627953167 0 0.181689683436876 0.066742424984251481 0 0.16492483064348479 0.063117555788485047 0 0.18832470145407351 0.051609441243167867 0 0.17455930535341041 0.056246499627953167 0 0.17657681785398871 0.047078586863031388 0 0.18926926685271719 0.041353436962331021 0 0.17657681785398871 0.047078586863031388 0 0.18020655538243149 0.036854128755256843 0 0.18926926685271719 0.041353436962331021 0 0.18832470145407351 0.051609441243167867 0 0.17657681785398871 0.047078586863031388 0 0.1908728383528023 0.028131738845634281 0 0.18926926685271719 0.041353436962331021 0 0.18020655538243149 0.036854128755256843 0 0.18020655538243149 0.036854128755256843 0 0.16569451655613249 0.037100700553365201 0 0.1731304259277654 0.026751725211580341 0 0.17657681785398871 0.047078586863031388 0 0.18020655538243149 0.036854128755256843 0 0.16569451655613249 0.037100700553365201 0 0.16569451655613249 0.037100700553365201 0 0.1731304259277654 0.026751725211580341 0 0.1514403917896385 0.031749644358252588 0 0.17657681785398871 0.047078586863031388 0 0.16569451655613249 0.037100700553365201 0 0.16404294625975041 0.05223629406066236 0 0.16569451655613249 0.037100700553365201 0 0.15979742497924779 0.044115124949501441 0 0.1514403917896385 0.031749644358252588 0 0.16569451655613249 0.037100700553365201 0 0.15979742497924779 0.044115124949501441 0 0.16404294625975041 0.05223629406066236 0 0.15979742497924779 0.044115124949501441 0 0.16404294625975041 0.05223629406066236 0 0.15206587937475499 0.048960467071345909 0 0.16404294625975041 0.05223629406066236 0 0.1508986972956767 0.061324627497868239 0 0.16492483064348479 0.063117555788485047 0 0.17455930535341041 0.056246499627953167 0 0.16404294625975041 0.05223629406066236 0 0.16492483064348479 0.063117555788485047 0 0.17455930535341041 0.056246499627953167 0 0.17657681785398871 0.047078586863031388 0 0.16404294625975041 0.05223629406066236 0 0.18909223906183151 0.002610795077842325 0 0.1829079366766678 0.01744171759495089 0 0.16614464497234349 0.0095767566573148177 0 0.1829079366766678 0.01744171759495089 0 0.1731304259277654 0.026751725211580341 0 0.16614464497234349 0.0095767566573148177 0 0.1908728383528023 0.028131738845634281 0 0.18020655538243149 0.036854128755256843 0 0.1731304259277654 0.026751725211580341 0 0.1908728383528023 0.028131738845634281 0 0.1829079366766678 0.01744171759495089 0 0.1731304259277654 0.026751725211580341 0 0.16614464497234349 0.0095767566573148177 0 0.151473661872736 0.01174376481424102 0 0.1514403917896385 0.031749644358252588 0 0.1731304259277654 0.026751725211580341 0 0.16614464497234349 0.0095767566573148177 0 0.1514403917896385 0.031749644358252588 0 0.16614464497234349 0.0095767566573148177 0 0.1514403917896385 0.031749644358252588 0 0.16614464497234349 0.0095767566573148177 0 0.151473661872736 0.01174376481424102 0 0.15580959766538949 -0.00062738618753850292 0 0.1445140487957588 0.0031503328159685892 0 0.151473661872736 0.01174376481424102 0 0.15580959766538949 -0.00062738618753850292 0 0.1445140487957588 0.0031503328159685892 0 0.151473661872736 0.01174376481424102 0 0.13712663954614021 0.015389693747583109 0 0.151473661872736 0.01174376481424102 0 0.13712663954614021 0.015389693747583109 0 0.1514403917896385 0.031749644358252588 0 0.132665441999992 0.030820393218553319 0 0.13712663954614021 0.015389693747583109 0 0.1514403917896385 0.031749644358252588 0 0.1200605974475062 0.036561706949768208 0 0.12299584720260991 0.02173750441434109 0 0.132665441999992 0.030820393218553319 0 0.12299584720260991 0.02173750441434109 0 0.132665441999992 0.030820393218553319 0 0.13712663954614021 0.015389693747583109 0 0.1228416977593057 0.0082945083367616263 0 0.13712663954614021 0.015389693747583109 0 0.13257781506382421 0.00033959186381871809 0 0.12299584720260991 0.02173750441434109 0 0.1228416977593057 0.0082945083367616263 0 0.13712663954614021 0.015389693747583109 0 0.1228416977593057 0.0082945083367616263 0 0.13257781506382421 0.00033959186381871809 0 0.1226802507548381 -0.0019164014345253279 0 0.1445140487957588 0.0031503328159685892 0 0.13712663954614021 0.015389693747583109 0 0.13257781506382421 0.00033959186381871809 0 0.1415269193761324 0.04838094702737878 0 0.14443622660218969 0.055423243187807343 0 0.15206587937475499 0.048960467071345909 0 0.1415269193761324 0.04838094702737878 0 0.14443622660218969 0.055423243187807343 0 0.13673613860693359 0.053922532059190377 0 0.14443622660218969 0.055423243187807343 0 0.1508986972956767 0.061324627497868239 0 0.1404481584656623 0.063461799590043971 0 0.14443622660218969 0.055423243187807343 0 0.1508986972956767 0.061324627497868239 0 0.15206587937475499 0.048960467071345909 0 0.16404294625975041 0.05223629406066236 0 0.1508986972956767 0.061324627497868239 0 0.15206587937475499 0.048960467071345909 0 0.15979742497924779 0.044115124949501441 0 0.15206587937475499 0.048960467071345909 0 0.1514403917896385 0.031749644358252588 0 0.1415269193761324 0.04838094702737878 0 0.15206587937475499 0.048960467071345909 0 0.1514403917896385 0.031749644358252588 0 0.1415269193761324 0.04838094702737878 0 0.1514403917896385 0.031749644358252588 0 0.13673613860693359 0.053922532059190377 0 0.1514403917896385 0.031749644358252588 0 0.13673613860693359 0.053922532059190377 0 0.1514403917896385 0.031749644358252588 0 0.13175175119405841 0.042416967530628499 0 0.13673613860693359 0.053922532059190377 0 0.132665441999992 0.030820393218553319 0 0.1514403917896385 0.031749644358252588 0 0.13175175119405841 0.042416967530628499 0 0.1200605974475062 0.036561706949768208 0 0.132665441999992 0.030820393218553319 0 0.13175175119405841 0.042416967530628499 0 0.1201371984308051 0.046993652425495913 0 0.13175175119405841 0.042416967530628499 0 0.1273364843073064 0.051731614006749173 0 0.13175175119405841 0.042416967530628499 0 0.1273364843073064 0.051731614006749173 0 0.13673613860693359 0.053922532059190377 0 0.1415269193761324 0.04838094702737878 0 0.13673613860693359 0.053922532059190377 0 0.14443622660218969 0.055423243187807343 0 0.13673613860693359 0.053922532059190377 0 0.1404481584656623 0.063461799590043971 0 0.13673613860693359 0.053922532059190377 0 0.12920057336619811 0.065285587344612372 0 0.1404481584656623 0.063461799590043971 0 0.13673613860693359 0.053922532059190377 0 0.12920057336619811 0.065285587344612372 0 0.12219669470671519 0.05963031946461108 0 0.1234583106500939 0.069281242091104617 0 0.13673613860693359 0.053922532059190377 0 0.12219669470671519 0.05963031946461108 0 0.1273364843073064 0.051731614006749173 0 0.13673613860693359 0.053922532059190377 0 0.1234583106500939 0.069281242091104617 0 0.13673613860693359 0.053922532059190377 0 0.1234583106500939 0.069281242091104617 0 0.13673613860693359 0.053922532059190377 0 0.12920057336619811 0.065285587344612372 0 0.1234583106500939 0.069281242091104617 0 0.12920057336619811 0.065285587344612372 0 0.12951034755995039 0.071854779490956214 0 0.12920057336619811 0.065285587344612372 0 0.12951034755995039 0.071854779490956214 0 0.13529765624666279 0.070373563735429509 0 0.121835820738507 0.08129736859239832 0 0.12951034755995039 0.071854779490956214 0 0.13374759662131441 0.077394938789198661 0 0.13374759662131441 0.077394938789198661 0 0.13529765624666279 0.070373563735429509 0 0.14358160522018909 0.073870713462336396 0 0.12951034755995039 0.071854779490956214 0 0.13374759662131441 0.077394938789198661 0 0.13529765624666279 0.070373563735429509 0 0.13529765624666279 0.070373563735429509 0 0.1404481584656623 0.063461799590043971 0 0.14358160522018909 0.073870713462336396 0 0.12920057336619811 0.065285587344612372 0 0.13529765624666279 0.070373563735429509 0 0.1404481584656623 0.063461799590043971 0 0.1508986972956767 0.061324627497868239 0 0.14358160522018909 0.073870713462336396 0 0.1589584266339544 0.078141542371354678 0 0.1508986972956767 0.061324627497868239 0 0.1404481584656623 0.063461799590043971 0 0.14358160522018909 0.073870713462336396 0 0.14358160522018909 0.073870713462336396 0 0.1362271698310327 0.089540659758457902 0 0.1589584266339544 0.078141542371354678 0 0.1362271698310327 0.089540659758457902 0 0.15028838930452981 0.096745642029814283 0 0.1589584266339544 0.078141542371354678 0 0.1362271698310327 0.089540659758457902 0 0.1589584266339544 0.078141542371354678 0 0.13374759662131441 0.077394938789198661 0 0.14358160522018909 0.073870713462336396 0 0.1362271698310327 0.089540659758457902 0 0.121835820738507 0.08129736859239832 0 0.13374759662131441 0.077394938789198661 0 0.1362271698310327 0.089540659758457902 0 0.1134959130281112 0.1009397771455615 0 0.14111548920064931 0.1025062685912938 0 0.1134959130281112 0.1009397771455615 0 0.1362271698310327 0.089540659758457902 0 0.14111548920064931 0.1025062685912938 0 0.1249617282073653 0.11138841526182761 0 0.13731614032355091 0.11337300869905741 0 0.14111548920064931 0.1025062685912938 0 0.1249617282073653 0.11138841526182761 0 0.1134959130281112 0.1009397771455615 0 0.14111548920064931 0.1025062685912938 0 0.12739313669037591 0.1295894702154041 0 0.1262289268777724 0.1207081556182063 0 0.13431919878086571 0.1220128830501261 0 0.1262289268777724 0.1207081556182063 0 0.13731614032355091 0.11337300869905741 0 0.13431919878086571 0.1220128830501261 0 0.1249617282073653 0.11138841526182761 0 0.1262289268777724 0.1207081556182063 0 0.13731614032355091 0.11337300869905741 0 0.13731614032355091 0.11337300869905741 0 0.13431919878086571 0.1220128830501261 0 0.1450504972981238 0.1217514865254016 0 0.13559372318309179 0.12948380804096599 0 0.13431919878086571 0.1220128830501261 0 0.1450504972981238 0.1217514865254016 0 0.13731614032355091 0.11337300869905741 0 0.1504761008335313 0.11304873025321591 0 0.1471450916442277 0.1062544793088944 0 0.13731614032355091 0.11337300869905741 0 0.1450504972981238 0.1217514865254016 0 0.1504761008335313 0.11304873025321591 0 0.1504761008335313 0.11304873025321591 0 0.1565293385588773 0.1055987469710907 0 0.15695233915606949 0.1132513204203162 0 0.1504761008335313 0.11304873025321591 0 0.15621861840234591 0.11880022504019409 0 0.15695233915606949 0.1132513204203162 0 0.1450504972981238 0.1217514865254016 0 0.1504761008335313 0.11304873025321591 0 0.15621861840234591 0.11880022504019409 0 0.1539383236386164 0.12740193319586379 0 0.1450504972981238 0.1217514865254016 0 0.15621861840234591 0.11880022504019409 0 0.1362271698310327 0.089540659758457902 0 0.14111548920064931 0.1025062685912938 0 0.15028838930452981 0.096745642029814283 0 0.1471450916442277 0.1062544793088944 0 0.14111548920064931 0.1025062685912938 0 0.15028838930452981 0.096745642029814283 0 0.13731614032355091 0.11337300869905741 0 0.1471450916442277 0.1062544793088944 0 0.14111548920064931 0.1025062685912938 0 0.1471450916442277 0.1062544793088944 0 0.15028838930452981 0.096745642029814283 0 0.1565293385588773 0.1055987469710907 0 0.1504761008335313 0.11304873025321591 0 0.1471450916442277 0.1062544793088944 0 0.1565293385588773 0.1055987469710907 0 0.15028838930452981 0.096745642029814283 0 0.16006954259622211 0.099968226039514982 0 0.1565293385588773 0.1055987469710907 0 0.15028838930452981 0.096745642029814283 0 0.16006954259622211 0.099968226039514982 0 0.1615765523557893 0.093027610798463584 0 0.16006954259622211 0.099968226039514982 0 0.16613153210949369 0.099712358395003808 0 0.1615765523557893 0.093027610798463584 0 0.1565293385588773 0.1055987469710907 0 0.1681438985101634 0.1102879438913036 0 0.1565293385588773 0.1055987469710907 0 0.16491308809742061 0.1053118561675562 0 0.1681438985101634 0.1102879438913036 0 0.16006954259622211 0.099968226039514982 0 0.1565293385588773 0.1055987469710907 0 0.16491308809742061 0.1053118561675562 0 0.16006954259622211 0.099968226039514982 0 0.16491308809742061 0.1053118561675562 0 0.16613153210949369 0.099712358395003808 0 0.16491308809742061 0.1053118561675562 0 0.16980338178836391 0.1076443863406793 0 0.16613153210949369 0.099712358395003808 0 0.16491308809742061 0.1053118561675562 0 0.16980338178836391 0.1076443863406793 0 0.16491308809742061 0.1053118561675562 0 0.16980338178836391 0.1076443863406793 0 0.1681438985101634 0.1102879438913036 0 0.16980338178836391 0.1076443863406793 0 0.1681438985101634 0.1102879438913036 0 0.16613153210949369 0.099712358395003808 0 0.17384068943217271 0.092887254710981693 0 0.1615765523557893 0.093027610798463584 0 0.16980338178836391 0.1076443863406793 0 0.16613153210949369 0.099712358395003808 0 0.17384068943217271 0.092887254710981693 0 0.15621861840234591 0.11880022504019409 0 0.1620681681850592 0.122159867119615 0 0.1645852988295235 0.1155575794167643 0 0.1539383236386164 0.12740193319586379 0 0.15621861840234591 0.11880022504019409 0 0.1620681681850592 0.122159867119615 0 0.15621861840234591 0.11880022504019409 0 0.15695233915606949 0.1132513204203162 0 0.1645852988295235 0.1155575794167643 0 0.1565293385588773 0.1055987469710907 0 0.1645852988295235 0.1155575794167643 0 0.1681438985101634 0.1102879438913036 0 0.1565293385588773 0.1055987469710907 0 0.15695233915606949 0.1132513204203162 0 0.1645852988295235 0.1155575794167643 0 0.16568162940814241 0.12950464042691251 0 0.1620681681850592 0.122159867119615 0 0.169948094823579 0.12068383091331519 0 0.1620681681850592 0.122159867119615 0 0.1645852988295235 0.1155575794167643 0 0.169948094823579 0.12068383091331519 0 0.16980338178836391 0.1076443863406793 0 0.1681438985101634 0.1102879438913036 0 0.1844568101131642 0.11687402680527791 0 0.16568162940814241 0.12950464042691251 0 0.169948094823579 0.12068383091331519 0 0.1844568101131642 0.11687402680527791 0 0.1645852988295235 0.1155575794167643 0 0.169948094823579 0.12068383091331519 0 0.1844568101131642 0.11687402680527791 0 0.16980338178836391 0.1076443863406793 0 0.18640546899964899 0.1155631069338639 0 0.1844568101131642 0.11687402680527791 0 0.16980338178836391 0.1076443863406793 0 0.18640546899964899 0.1155631069338639 0 0.16980338178836391 0.1076443863406793 0 0.18640546899964899 0.1155631069338639 0 0.18457696955713429 0.1082716910329506 0 0.1681438985101634 0.1102879438913036 0 0.1844568101131642 0.11687402680527791 0 0.16568162940814241 0.12950464042691251 0 0.1844568101131642 0.11687402680527791 0 0.1645852988295235 0.1155575794167643 0 0.1681438985101634 0.1102879438913036 0 0.1844568101131642 0.11687402680527791 0 0.18640546899964899 0.1155631069338639 0 0.1844568101131642 0.11687402680527791 0 0.1899211683291844 0.096492144816818254 0 0.18217430609913179 0.1030709901634366 0 0.18634695806628979 0.084074421352845444 0 0.16980338178836391 0.1076443863406793 0 0.18634695806628979 0.084074421352845444 0 0.16980338178836391 0.1076443863406793 0 0.18217430609913179 0.1030709901634366 0 0.18634695806628979 0.084074421352845444 0 0.16980338178836391 0.1076443863406793 0 0.17384068943217271 0.092887254710981693 0 0.18634695806628979 0.084074421352845444 0 0.16980338178836391 0.1076443863406793 0 0.18217430609913179 0.1030709901634366 0 0.18457696955713429 0.1082716910329506 0 0.1913665906850025 0.10378253945516321 0 0.18217430609913179 0.1030709901634366 0 0.18457696955713429 0.1082716910329506 0 0.17384068943217271 0.092887254710981693 0 0.18634695806628979 0.084074421352845444 0 0.1589584266339544 0.078141542371354678 0 0.18634695806628979 0.084074421352845444 0 0.181689683436876 0.066742424984251481 0 0.1589584266339544 0.078141542371354678 0 0.181689683436876 0.066742424984251481 0 0.1589584266339544 0.078141542371354678 0 0.181689683436876 0.066742424984251481 0 0.16492483064348479 0.063117555788485047 0 0.1589584266339544 0.078141542371354678 0 0.1508986972956767 0.061324627497868239 0 0.16492483064348479 0.063117555788485047 0 0.1589584266339544 0.078141542371354678 0 0.15028838930452981 0.096745642029814283 0 0.1589584266339544 0.078141542371354678 0 0.1615765523557893 0.093027610798463584 0 0.17384068943217271 0.092887254710981693 0 0.1589584266339544 0.078141542371354678 0 0.1615765523557893 0.093027610798463584 0 0.095830984036428646 0.47718422123064708 0 0.10742498713812031 0.48682407640207748 0 0.1183039608549063 0.47413811303567072 0 0.095830984036428646 0.47718422123064708 0 0.097158831741291043 0.4999999999999985 0 0.10742498713812031 0.48682407640207748 0 0.097158831741291043 0.4999999999999985 0 0.10742498713812031 0.48682407640207748 0 0.123253179751682 0.5 0 0.10742498713812031 0.48682407640207748 0 0.123253179751682 0.5 0 0.1183039608549063 0.47413811303567072 0 0.1183039608549063 0.47413811303567072 0 0.1227989211907968 0.44853505645094688 0 0.1037994730927486 0.45216194867968318 0 0.1227989211907968 0.44853505645094688 0 0.1037994730927486 0.45216194867968318 0 0.1073235098453387 0.43511897886154582 0 0.1037994730927486 0.45216194867968318 0 0.090346806207219937 0.42976802175858231 0 0.1073235098453387 0.43511897886154582 0 0.095830984036428646 0.47718422123064708 0 0.1183039608549063 0.47413811303567072 0 0.1037994730927486 0.45216194867968318 0 0.095830984036428646 0.47718422123064708 0 0.1037994730927486 0.45216194867968318 0 0.08833102033395003 0.46104748318249339 0 0.08833102033395003 0.46104748318249339 0 0.079357591749391415 0.44504915370834841 0 0.071934059373113077 0.4660839807873064 0 0.1037994730927486 0.45216194867968318 0 0.079357591749391415 0.44504915370834841 0 0.1037994730927486 0.45216194867968318 0 0.08833102033395003 0.46104748318249339 0 0.079357591749391415 0.44504915370834841 0 0.1037994730927486 0.45216194867968318 0 0.079357591749391415 0.44504915370834841 0 0.090346806207219937 0.42976802175858231 0 0.079357591749391415 0.44504915370834841 0 0.062724309503795234 0.45352551762211268 0 0.054915710406034268 0.43793635873701359 0 0.079357591749391415 0.44504915370834841 0 0.054915710406034268 0.43793635873701359 0 0.079357591749391415 0.44504915370834841 0 0.062724309503795234 0.45352551762211268 0 0.071934059373113077 0.4660839807873064 0 0.071934059373113077 0.4660839807873064 0 0.06728584734836901 0.47948935614687699 0 0.052325219097049798 0.46847437635505551 0 0.071934059373113077 0.4660839807873064 0 0.06728584734836901 0.47948935614687699 0 0.081714543262264641 0.48080418043962042 0 0.095830984036428646 0.47718422123064708 0 0.08833102033395003 0.46104748318249339 0 0.081714543262264641 0.48080418043962042 0 0.08833102033395003 0.46104748318249339 0 0.071934059373113077 0.4660839807873064 0 0.081714543262264641 0.48080418043962042 0 0.097158831741291043 0.4999999999999985 0 0.081714543262264641 0.48080418043962042 0 0.076247637871231427 0.49359859946360107 0 0.097158831741291043 0.4999999999999985 0 0.076247637871231427 0.49359859946360107 0 0.097158831741291043 0.4999999999999985 0 0.069382236116342144 0.5 0 0.076247637871231427 0.49359859946360107 0 0.095830984036428646 0.47718422123064708 0 0.097158831741291043 0.4999999999999985 0 0.081714543262264641 0.48080418043962042 0 0.076247637871231427 0.49359859946360107 0 0.055336444001171409 0.48719719892720498 0 0.06728584734836901 0.47948935614687699 0 0.076247637871231427 0.49359859946360107 0 0.055336444001171409 0.48719719892720498 0 0.069382236116342144 0.5 0 0.076247637871231427 0.49359859946360107 0 0.055336444001171409 0.48719719892720498 0 0.06728584734836901 0.47948935614687699 0 0.081714543262264641 0.48080418043962042 0 0.076247637871231427 0.49359859946360107 0 0.069382236116342144 0.5 0 0.055336444001171409 0.48719719892720498 0 0.041605640491393203 0.5 0 0.06728584734836901 0.47948935614687699 0 0.055336444001171409 0.48719719892720498 0 0.052325219097049798 0.46847437635505551 0 0.055336444001171409 0.48719719892720498 0 0.034425250131111328 0.48079579839080899 0 0.052325219097049798 0.46847437635505551 0 0.034425250131111328 0.48079579839080899 0 0.027982289730903179 0.45850784828177038 0 0.052325219097049798 0.46847437635505551 0 0.055336444001171409 0.48719719892720498 0 0.034425250131111328 0.48079579839080899 0 0.055336444001171409 0.48719719892720498 0 0.034425250131111328 0.48079579839080899 0 0.041605640491393203 0.5 0 0.034425250131111328 0.48079579839080899 0 0.0098370932449210607 0.47853771561760389 0 0.01382904486644426 0.5 0 0.034425250131111328 0.48079579839080899 0 0.041605640491393203 0.5 0 0.01382904486644426 0.5 0 0.034425250131111328 0.48079579839080899 0 0.0098370932449210607 0.47853771561760389 0 0.027982289730903179 0.45850784828177038 0 -0.01072829015554656 0.47276361289802232 0 0.0098370932449210607 0.47853771561760389 0 0.0074618156551188993 0.4591590341350224 0 -0.013947550758504731 0.5 0 0.0098370932449210607 0.47853771561760389 0 0.01382904486644426 0.5 0 -0.0069543589259730403 0.44297919860842278 0 0.01299910464840922 0.44303608271704759 0 0.0074618156551188993 0.4591590341350224 0 0.0098370932449210607 0.47853771561760389 0 0.0074618156551188993 0.4591590341350224 0 0.027982289730903179 0.45850784828177038 0 0.01299910464840922 0.44303608271704759 0 0.0074618156551188993 0.4591590341350224 0 0.027982289730903179 0.45850784828177038 0 0.01299910464840922 0.44303608271704759 0 0.027982289730903179 0.45850784828177038 0 0.030473829062677111 0.43082356376567887 0 0.043528520020128428 0.4503206542886059 0 0.054915710406034268 0.43793635873701359 0 0.030473829062677111 0.43082356376567887 0 0.027982289730903179 0.45850784828177038 0 0.043528520020128428 0.4503206542886059 0 0.030473829062677111 0.43082356376567887 0 0.027982289730903179 0.45850784828177038 0 0.043528520020128428 0.4503206542886059 0 0.052325219097049798 0.46847437635505551 0 0.062724309503795234 0.45352551762211268 0 0.071934059373113077 0.4660839807873064 0 0.052325219097049798 0.46847437635505551 0 0.062724309503795234 0.45352551762211268 0 0.043528520020128428 0.4503206542886059 0 0.052325219097049798 0.46847437635505551 0 0.062724309503795234 0.45352551762211268 0 0.043528520020128428 0.4503206542886059 0 0.054915710406034268 0.43793635873701359 0 0.054915710406034268 0.43793635873701359 0 0.046404195017176512 0.42163316720200988 0 0.067579421369946338 0.4207700196992511 0 0.046404195017176512 0.42163316720200988 0 0.048283654852292419 0.40298295196145678 0 0.067579421369946338 0.4207700196992511 0 0.048283654852292419 0.40298295196145678 0 0.069006349440075346 0.39831547935389738 0 0.067579421369946338 0.4207700196992511 0 0.046404195017176512 0.42163316720200988 0 0.028643764212885819 0.40930836555909628 0 0.048283654852292419 0.40298295196145678 0 0.046404195017176512 0.42163316720200988 0 0.030473829062677111 0.43082356376567887 0 0.028643764212885819 0.40930836555909628 0 0.054915710406034268 0.43793635873701359 0 0.046404195017176512 0.42163316720200988 0 0.030473829062677111 0.43082356376567887 0 0.054915710406034268 0.43793635873701359 0 0.030473829062677111 0.43082356376567887 0 0.01299910464840922 0.44303608271704759 0 0.030473829062677111 0.43082356376567887 0 0.0060319477193199467 0.42371076879434411 0 0.030473829062677111 0.43082356376567887 0 0.0060319477193199467 0.42371076879434411 0 0.030473829062677111 0.43082356376567887 0 0.028643764212885819 0.40930836555909628 0 0.0060319477193199467 0.42371076879434411 0 0.028643764212885819 0.40930836555909628 0 0.0060319477193199467 0.42371076879434411 0 0.01171694418722268 0.39631764660348101 0 -0.010079249672031819 0.39893449676820197 0 0.0060319477193199467 0.42371076879434411 0 0.01171694418722268 0.39631764660348101 0 -0.0069543589259730403 0.44297919860842278 0 0.01299910464840922 0.44303608271704759 0 0.0060319477193199467 0.42371076879434411 0 -0.010079249672031819 0.39893449676820197 0 0.01171694418722268 0.39631764660348101 0 0.0055573678519514856 0.37321293642611858 0 0.01171694418722268 0.39631764660348101 0 0.029473138053264569 0.38434252458556989 0 0.0055573678519514856 0.37321293642611858 0 0.028643764212885819 0.40930836555909628 0 0.01171694418722268 0.39631764660348101 0 0.029473138053264569 0.38434252458556989 0 0.029473138053264569 0.38434252458556989 0 0.0055573678519514856 0.37321293642611858 0 0.029473138053264569 0.38434252458556989 0 0.053680701174092259 0.38473700799461219 0 0.042582521654286387 0.3719278293459356 0 0.029473138053264569 0.38434252458556989 0 0.048283654852292419 0.40298295196145678 0 0.053680701174092259 0.38473700799461219 0 0.028643764212885819 0.40930836555909628 0 0.029473138053264569 0.38434252458556989 0 0.048283654852292419 0.40298295196145678 0 0.048283654852292419 0.40298295196145678 0 0.053680701174092259 0.38473700799461219 0 0.069006349440075346 0.39831547935389738 0 0.053680701174092259 0.38473700799461219 0 0.072520931498505969 0.38002822536395242 0 0.058874721788970748 0.36615288810215307 0 0.053680701174092259 0.38473700799461219 0 0.072520931498505969 0.38002822536395242 0 0.069006349440075346 0.39831547935389738 0 0.072520931498505969 0.38002822536395242 0 0.083242485077032441 0.39179019351927608 0 0.069006349440075346 0.39831547935389738 0 0.072520931498505969 0.38002822536395242 0 0.092205608853154708 0.3792666150086545 0 0.088610183261412248 0.36778263877546652 0 0.072520931498505969 0.38002822536395242 0 0.092205608853154708 0.3792666150086545 0 0.083242485077032441 0.39179019351927608 0 0.072520931498505969 0.38002822536395242 0 0.092205608853154708 0.3792666150086545 0 0.092205608853154708 0.3792666150086545 0 0.083242485077032441 0.39179019351927608 0 0.096492477076024541 0.3977744445347618 0 0.083242485077032441 0.39179019351927608 0 0.069006349440075346 0.39831547935389738 0 0.084460277462985164 0.40999865957830689 0 0.083242485077032441 0.39179019351927608 0 0.084460277462985164 0.40999865957830689 0 0.096492477076024541 0.3977744445347618 0 0.069006349440075346 0.39831547935389738 0 0.067579421369946338 0.4207700196992511 0 0.084460277462985164 0.40999865957830689 0 0.079357591749391415 0.44504915370834841 0 0.054915710406034268 0.43793635873701359 0 0.067579421369946338 0.4207700196992511 0 0.079357591749391415 0.44504915370834841 0 0.067579421369946338 0.4207700196992511 0 0.090346806207219937 0.42976802175858231 0 0.090346806207219937 0.42976802175858231 0 0.084460277462985164 0.40999865957830689 0 0.1039006446292586 0.41630646930533499 0 0.067579421369946338 0.4207700196992511 0 0.090346806207219937 0.42976802175858231 0 0.084460277462985164 0.40999865957830689 0 0.084460277462985164 0.40999865957830689 0 0.1039006446292586 0.41630646930533499 0 0.096492477076024541 0.3977744445347618 0 0.090346806207219937 0.42976802175858231 0 0.1039006446292586 0.41630646930533499 0 0.1073235098453387 0.43511897886154582 0 0.1227989211907968 0.44853505645094688 0 0.1073235098453387 0.43511897886154582 0 0.1201868399237437 0.4277138478848197 0 0.1039006446292586 0.41630646930533499 0 0.1073235098453387 0.43511897886154582 0 0.1201868399237437 0.4277138478848197 0 0.1039006446292586 0.41630646930533499 0 0.11708713818214971 0.41435251180041921 0 0.1152830197920266 0.40057310445797761 0 0.1039006446292586 0.41630646930533499 0 0.1201868399237437 0.4277138478848197 0 0.11708713818214971 0.41435251180041921 0 0.1201868399237437 0.4277138478848197 0 0.11708713818214971 0.41435251180041921 0 0.12897804838356969 0.41281662555354481 0 0.11708713818214971 0.41435251180041921 0 0.1152830197920266 0.40057310445797761 0 0.12897804838356969 0.41281662555354481 0 0.1152830197920266 0.40057310445797761 0 0.12798662465619129 0.39482108051241571 0 0.12897804838356969 0.41281662555354481 0 0.1152830197920266 0.40057310445797761 0 0.1118902862078035 0.37850500465335662 0 0.12798662465619129 0.39482108051241571 0 0.1152830197920266 0.40057310445797761 0 0.1118902862078035 0.37850500465335662 0 0.092205608853154708 0.3792666150086545 0 0.1118902862078035 0.37850500465335662 0 0.1004745867969575 0.36904665844545709 0 0.092205608853154708 0.3792666150086545 0 0.1118902862078035 0.37850500465335662 0 0.092205608853154708 0.3792666150086545 0 0.1118902862078035 0.37850500465335662 0 0.096492477076024541 0.3977744445347618 0 0.1039006446292586 0.41630646930533499 0 0.1152830197920266 0.40057310445797761 0 0.096492477076024541 0.3977744445347618 0 0.1152830197920266 0.40057310445797761 0 0.1118902862078035 0.37850500465335662 0 0.096492477076024541 0.3977744445347618 0 0.1088097424847025 0.35846754970846512 0 0.1057291987616001 0.33843009476357372 0 0.095433116290109338 0.35787020314157281 0 0.1057291987616001 0.33843009476357372 0 0.094216953866977621 0.3423737163397807 0 0.095433116290109338 0.35787020314157281 0 0.1057291987616001 0.33843009476357372 0 0.1088097424847025 0.35846754970846512 0 0.095433116290109338 0.35787020314157281 0 0.1057291987616001 0.33843009476357372 0 0.1118902862078035 0.37850500465335662 0 0.1088097424847025 0.35846754970846512 0 0.1004745867969575 0.36904665844545709 0 0.095433116290109338 0.35787020314157281 0 0.1004745867969575 0.36904665844545709 0 0.088610183261412248 0.36778263877546652 0 0.092205608853154708 0.3792666150086545 0 0.1004745867969575 0.36904665844545709 0 0.088610183261412248 0.36778263877546652 0 0.1088097424847025 0.35846754970846512 0 0.095433116290109338 0.35787020314157281 0 0.1004745867969575 0.36904665844545709 0 0.1118902862078035 0.37850500465335662 0 0.1088097424847025 0.35846754970846512 0 0.12504342468660801 0.365096132935816 0 0.1118902862078035 0.37850500465335662 0 0.1088097424847025 0.35846754970846512 0 0.1088097424847025 0.35846754970846512 0 0.1199024945286857 0.35492938894419218 0 0.12504342468660801 0.365096132935816 0 0.1088097424847025 0.35846754970846512 0 0.11661040284116531 0.34575795275965648 0 0.1057291987616001 0.33843009476357372 0 0.1199024945286857 0.35492938894419218 0 0.12869865027132979 0.34900306273210979 0 0.12504342468660801 0.365096132935816 0 0.1088097424847025 0.35846754970846512 0 0.1199024945286857 0.35492938894419218 0 0.11661040284116531 0.34575795275965648 0 0.1199024945286857 0.35492938894419218 0 0.11661040284116531 0.34575795275965648 0 0.12869865027132979 0.34900306273210979 0 0.11661040284116531 0.34575795275965648 0 0.12240894308319281 0.33745063657379182 0 0.12869865027132979 0.34900306273210979 0 0.11661040284116531 0.34575795275965648 0 0.12240894308319281 0.33745063657379182 0 0.1145569167417687 0.33597653503566027 0 0.12240894308319281 0.33745063657379182 0 0.1177205734820547 0.33007568806388071 0 0.1145569167417687 0.33597653503566027 0 0.12240894308319281 0.33745063657379182 0 0.1245715791867013 0.32898786126024959 0 0.1177205734820547 0.33007568806388071 0 0.1145569167417687 0.33597653503566027 0 0.1122065671835137 0.32620012822290811 0 0.1057291987616001 0.33843009476357372 0 0.1177205734820547 0.33007568806388071 0 0.1145569167417687 0.33597653503566027 0 0.1122065671835137 0.32620012822290811 0 0.1177205734820547 0.33007568806388071 0 0.1122065671835137 0.32620012822290811 0 0.11661040284116531 0.34575795275965648 0 0.1145569167417687 0.33597653503566027 0 0.1057291987616001 0.33843009476357372 0 0.1122065671835137 0.32620012822290811 0 0.10247520046843631 0.31726440128514433 0 0.1218465126223218 0.30799887695988082 0 0.1122065671835137 0.32620012822290811 0 0.1218465126223218 0.30799887695988082 0 0.1212539019304235 0.32289102312992268 0 0.1122065671835137 0.32620012822290811 0 0.1218465126223218 0.30799887695988082 0 0.1212539019304235 0.32289102312992268 0 0.1218465126223218 0.30799887695988082 0 0.12992427717752619 0.32119256114269462 0 0.1245715791867013 0.32898786126024959 0 0.1177205734820547 0.33007568806388071 0 0.1212539019304235 0.32289102312992268 0 0.1177205734820547 0.33007568806388071 0 0.1212539019304235 0.32289102312992268 0 0.1122065671835137 0.32620012822290811 0 0.1122065671835137 0.32620012822290811 0 0.1028364701345832 0.31961428666547609 0 0.1057291987616001 0.33843009476357372 0 0.10247520046843631 0.31726440128514433 0 0.1028364701345832 0.31961428666547609 0 0.1122065671835137 0.32620012822290811 0 0.1028364701345832 0.31961428666547609 0 0.1122065671835137 0.32620012822290811 0 0.10247520046843631 0.31726440128514433 0 0.1028364701345832 0.31961428666547609 0 0.097883049503757258 0.31613273857994811 0 0.093351140493877188 0.32976326368333791 0 0.1028364701345832 0.31961428666547609 0 0.097883049503757258 0.31613273857994811 0 0.093351140493877188 0.32976326368333791 0 0.10247520046843631 0.31726440128514433 0 0.1028364701345832 0.31961428666547609 0 0.097883049503757258 0.31613273857994811 0 0.1028364701345832 0.31961428666547609 0 0.097883049503757258 0.31613273857994811 0 0.1028364701345832 0.31961428666547609 0 0.1057291987616001 0.33843009476357372 0 0.1028364701345832 0.31961428666547609 0 0.1057291987616001 0.33843009476357372 0 0.093351140493877188 0.32976326368333791 0 0.1122065671835137 0.32620012822290811 0 0.1057291987616001 0.33843009476357372 0 0.1057291987616001 0.33843009476357372 0 0.094216953866977621 0.3423737163397807 0 0.093351140493877188 0.32976326368333791 0 0.094216953866977621 0.3423737163397807 0 0.093351140493877188 0.32976326368333791 0 0.082354359922324899 0.34343130377063907 0 0.093351140493877188 0.32976326368333791 0 0.082241045689506298 0.33008176800569278 0 0.082354359922324899 0.34343130377063907 0 0.082241045689506298 0.33008176800569278 0 0.082354359922324899 0.34343130377063907 0 0.069898709488232305 0.32842629652107669 0 0.097883049503757258 0.31613273857994811 0 0.082432386389010792 0.31963080921285009 0 0.080145740245014002 0.30366594044293771 0 0.097883049503757258 0.31613273857994811 0 0.093351140493877188 0.32976326368333791 0 0.082432386389010792 0.31963080921285009 0 0.093351140493877188 0.32976326368333791 0 0.082241045689506298 0.33008176800569278 0 0.082432386389010792 0.31963080921285009 0 0.082241045689506298 0.33008176800569278 0 0.082432386389010792 0.31963080921285009 0 0.069898709488232305 0.32842629652107669 0 0.082432386389010792 0.31963080921285009 0 0.069898709488232305 0.32842629652107669 0 0.067064680581924732 0.31104966627383812 0 0.069898709488232305 0.32842629652107669 0 0.052862917676290609 0.31594287170865909 0 0.067064680581924732 0.31104966627383812 0 0.069898709488232305 0.32842629652107669 0 0.064318049374343794 0.34669920209906341 0 0.056076575486551837 0.33306034682842672 0 0.082354359922324899 0.34343130377063907 0 0.069898709488232305 0.32842629652107669 0 0.064318049374343794 0.34669920209906341 0 0.064318049374343794 0.34669920209906341 0 0.07678324696764896 0.36029636682101729 0 0.058874721788970748 0.36615288810215307 0 0.082354359922324899 0.34343130377063907 0 0.064318049374343794 0.34669920209906341 0 0.07678324696764896 0.36029636682101729 0 0.095433116290109338 0.35787020314157281 0 0.082354359922324899 0.34343130377063907 0 0.07678324696764896 0.36029636682101729 0 0.095433116290109338 0.35787020314157281 0 0.094216953866977621 0.3423737163397807 0 0.082354359922324899 0.34343130377063907 0 0.095433116290109338 0.35787020314157281 0 0.088610183261412248 0.36778263877546652 0 0.07678324696764896 0.36029636682101729 0 0.072520931498505969 0.38002822536395242 0 0.088610183261412248 0.36778263877546652 0 0.07678324696764896 0.36029636682101729 0 0.072520931498505969 0.38002822536395242 0 0.07678324696764896 0.36029636682101729 0 0.058874721788970748 0.36615288810215307 0 0.058874721788970748 0.36615288810215307 0 0.048699355617093459 0.35229677491626488 0 0.042582521654286387 0.3719278293459356 0 0.053680701174092259 0.38473700799461219 0 0.058874721788970748 0.36615288810215307 0 0.042582521654286387 0.3719278293459356 0 0.064318049374343794 0.34669920209906341 0 0.058874721788970748 0.36615288810215307 0 0.048699355617093459 0.35229677491626488 0 0.064318049374343794 0.34669920209906341 0 0.048699355617093459 0.35229677491626488 0 0.056076575486551837 0.33306034682842672 0 0.048699355617093459 0.35229677491626488 0 0.031139955521187378 0.35906741702448508 0 0.039834607166295513 0.33595499494700531 0 0.048699355617093459 0.35229677491626488 0 0.042582521654286387 0.3719278293459356 0 0.031139955521187378 0.35906741702448508 0 0.029473138053264569 0.38434252458556989 0 0.042582521654286387 0.3719278293459356 0 0.031139955521187378 0.35906741702448508 0 0.029473138053264569 0.38434252458556989 0 0.031139955521187378 0.35906741702448508 0 0.0055573678519514856 0.37321293642611858 0 0.031139955521187378 0.35906741702448508 0 0.01502077366774526 0.33588050434482142 0 0.031139955521187378 0.35906741702448508 0 0.0081512274939709948 0.35400479806035851 0 0.01502077366774526 0.33588050434482142 0 -0.0071078859541612973 0.3420532230972958 0 0.0081512274939709948 0.35400479806035851 0 0.01502077366774526 0.33588050434482142 0 0.031139955521187378 0.35906741702448508 0 0.0081512274939709948 0.35400479806035851 0 0.0055573678519514856 0.37321293642611858 0 -0.0010984081856968699 0.31269359166515759 0 0.01502077366774526 0.33588050434482142 0 -0.0010984081856968699 0.31269359166515759 0 -0.0094166299445115342 0.32628581684788749 0 0.01502077366774526 0.33588050434482142 0 -0.0010984081856968699 0.31269359166515759 0 0.01502077366774526 0.33588050434482142 0 0.017338828621849801 0.31179278582944492 0 0.031139955521187378 0.35906741702448508 0 0.01502077366774526 0.33588050434482142 0 0.039834607166295513 0.33595499494700531 0 0.01502077366774526 0.33588050434482142 0 0.033722452524079113 0.31881516597009241 0 0.039834607166295513 0.33595499494700531 0 0.01502077366774526 0.33588050434482142 0 0.033722452524079113 0.31881516597009241 0 0.017338828621849801 0.31179278582944492 0 0.033722452524079113 0.31881516597009241 0 0.039834607166295513 0.33595499494700531 0 0.052862917676290609 0.31594287170865909 0 0.033722452524079113 0.31881516597009241 0 0.052862917676290609 0.31594287170865909 0 0.043703225085686928 0.30647980914238132 0 0.039834607166295513 0.33595499494700531 0 0.056076575486551837 0.33306034682842672 0 0.052862917676290609 0.31594287170865909 0 0.048699355617093459 0.35229677491626488 0 0.039834607166295513 0.33595499494700531 0 0.056076575486551837 0.33306034682842672 0 0.069898709488232305 0.32842629652107669 0 0.056076575486551837 0.33306034682842672 0 0.052862917676290609 0.31594287170865909 0 0.052862917676290609 0.31594287170865909 0 0.055064904063383643 0.30306992777489161 0 0.067064680581924732 0.31104966627383812 0 0.055064904063383643 0.30306992777489161 0 0.062408430986270788 0.29119914230592697 0 0.067064680581924732 0.31104966627383812 0 0.055064904063383643 0.30306992777489161 0 0.050455318577600952 0.28953127509492471 0 0.043703225085686928 0.30647980914238132 0 0.052862917676290609 0.31594287170865909 0 0.055064904063383643 0.30306992777489161 0 0.043703225085686928 0.30647980914238132 0 0.062408430986270788 0.29119914230592697 0 0.044671121727527602 0.27873234416891651 0 0.052912550594839132 0.27932821248070089 0 0.062408430986270788 0.29119914230592697 0 0.044671121727527602 0.27873234416891651 0 0.062408430986270788 0.29119914230592697 0 0.050455318577600952 0.28953127509492471 0 0.044671121727527602 0.27873234416891651 0 0.062408430986270788 0.29119914230592697 0 0.052912550594839132 0.27932821248070089 0 0.060036909449648047 0.28061562551263453 0 0.055064904063383643 0.30306992777489161 0 0.062408430986270788 0.29119914230592697 0 0.050455318577600952 0.28953127509492471 0 0.050455318577600952 0.28953127509492471 0 0.034295032894287147 0.2861012656705284 0 0.03812807853533591 0.27648650118434831 0 0.050455318577600952 0.28953127509492471 0 0.034295032894287147 0.2861012656705284 0 0.032026785023188259 0.29953480828944468 0 0.050455318577600952 0.28953127509492471 0 0.03812807853533591 0.27648650118434831 0 0.044671121727527602 0.27873234416891651 0 0.050455318577600952 0.28953127509492471 0 0.03812807853533591 0.27648650118434831 0 0.033722452524079113 0.31881516597009241 0 0.043703225085686928 0.30647980914238132 0 0.032026785023188259 0.29953480828944468 0 0.050455318577600952 0.28953127509492471 0 0.043703225085686928 0.30647980914238132 0 0.032026785023188259 0.29953480828944468 0 0.032026785023188259 0.29953480828944468 0 0.017338828621849801 0.31179278582944492 0 0.0070225400799332413 0.292039858877708 0 0.033722452524079113 0.31881516597009241 0 0.032026785023188259 0.29953480828944468 0 0.017338828621849801 0.31179278582944492 0 0.032026785023188259 0.29953480828944468 0 0.01890192334847483 0.28783886232794392 0 0.0070225400799332413 0.292039858877708 0 0.032026785023188259 0.29953480828944468 0 0.025323838467700061 0.28489811524130609 0 0.01890192334847483 0.28783886232794392 0 0.032026785023188259 0.29953480828944468 0 0.0070225400799332413 0.292039858877708 0 0.034295032894287147 0.2861012656705284 0 0.032026785023188259 0.29953480828944468 0 0.025323838467700061 0.28489811524130609 0 0.034295032894287147 0.2861012656705284 0 0.025323838467700061 0.28489811524130609 0 0.02858942039155608 0.27676936176154582 0 0.025323838467700061 0.28489811524130609 0 0.01890192334847483 0.28783886232794392 0 0.018706557039192481 0.28131402139785222 0 0.025323838467700061 0.28489811524130609 0 0.018706557039192481 0.28131402139785222 0 0.022993814204224569 0.27794731846689502 0 0.01890192334847483 0.28783886232794392 0 0.018706557039192481 0.28131402139785222 0 0.011429896132360109 0.28140750783340829 0 0.01890192334847483 0.28783886232794392 0 0.011429896132360109 0.28140750783340829 0 0.0070225400799332413 0.292039858877708 0 0.011429896132360109 0.28140750783340829 0 0.0010085689623396241 0.28548657445276199 0 0.0070225400799332413 0.292039858877708 0 -0.0010984081856968699 0.31269359166515759 0 0.017338828621849801 0.31179278582944492 0 0.0070225400799332413 0.292039858877708 0 0.013176580255378181 0.25008264657648638 0 0.0070925746088588556 0.2677846105146241 0 0.018221788604129579 0.2666452805299469 0 -0.004688707870413332 0.2558135020850828 0 0.013176580255378181 0.25008264657648638 0 0.0070925746088588556 0.2677846105146241 0 0.013176580255378181 0.25008264657648638 0 0.0070925746088588556 0.2677846105146241 0 0.0010085689623396241 0.28548657445276199 0 0.0070925746088588556 0.2677846105146241 0 -0.0026730804511828099 0.27560396698430911 0 0.0010085689623396241 0.28548657445276199 0 0.0070925746088588556 0.2677846105146241 0 0.011429896132360109 0.28140750783340829 0 0.0010085689623396241 0.28548657445276199 0 0.0070925746088588556 0.2677846105146241 0 0.011429896132360109 0.28140750783340829 0 0.0070925746088588556 0.2677846105146241 0 0.017752621833946311 0.2746187737740709 0 0.0070925746088588556 0.2677846105146241 0 0.018221788604129579 0.2666452805299469 0 0.017752621833946311 0.2746187737740709 0 0.018221788604129579 0.2666452805299469 0 0.022886555121368581 0.27269726927061749 0 0.026407705872411751 0.26747925244857229 0 0.018221788604129579 0.2666452805299469 0 0.022886555121368581 0.27269726927061749 0 0.017752621833946311 0.2746187737740709 0 0.018706557039192481 0.28131402139785222 0 0.011429896132360109 0.28140750783340829 0 0.017752621833946311 0.2746187737740709 0 0.022886555121368581 0.27269726927061749 0 0.017752621833946311 0.2746187737740709 0 0.022993814204224569 0.27794731846689502 0 0.018706557039192481 0.28131402139785222 0 0.017752621833946311 0.2746187737740709 0 0.022993814204224569 0.27794731846689502 0 0.02858942039155608 0.27676936176154582 0 0.026407705872411751 0.26747925244857229 0 0.03812807853533591 0.27648650118434831 0 0.025323838467700061 0.28489811524130609 0 0.022993814204224569 0.27794731846689502 0 0.02858942039155608 0.27676936176154582 0 0.022886555121368581 0.27269726927061749 0 0.022993814204224569 0.27794731846689502 0 0.02858942039155608 0.27676936176154582 0 0.018221788604129579 0.2666452805299469 0 0.026407705872411751 0.26747925244857229 0 0.025800838493070719 0.26344172727377207 0 0.022886555121368581 0.27269726927061749 0 0.02858942039155608 0.27676936176154582 0 0.026407705872411751 0.26747925244857229 0 0.026407705872411751 0.26747925244857229 0 0.025800838493070719 0.26344172727377207 0 0.03812807853533591 0.27648650118434831 0 0.023181768578885861 0.24601689761072679 0 0.025800838493070719 0.26344172727377207 0 0.013176580255378181 0.25008264657648638 0 0.018221788604129579 0.2666452805299469 0 0.025800838493070719 0.26344172727377207 0 0.023181768578885861 0.24601689761072679 0 0.025800838493070719 0.26344172727377207 0 0.03145939418529041 0.25601163310414049 0 0.023181768578885861 0.24601689761072679 0 0.013176580255378181 0.25008264657648638 0 0.025800838493070719 0.26344172727377207 0 0.026407705872411751 0.26747925244857229 0 0.025800838493070719 0.26344172727377207 0 0.013176580255378181 0.25008264657648638 0 0.025800838493070719 0.26344172727377207 0 0.023181768578885861 0.24601689761072679 0 0.03414632622249833 0.24860301180512709 0 0.03145939418529041 0.25601163310414049 0 0.03414632622249833 0.24860301180512709 0 0.037477286312428422 0.25638724013938052 0 0.03145939418529041 0.25601163310414049 0 0.042337009920640052 0.24954965189858661 0 0.03414632622249833 0.24860301180512709 0 0.037477286312428422 0.25638724013938052 0 0.037477286312428422 0.25638724013938052 0 0.03145939418529041 0.25601163310414049 0 0.036690751319568497 0.26560928869169631 0 0.025800838493070719 0.26344172727377207 0 0.03145939418529041 0.25601163310414049 0 0.036690751319568497 0.26560928869169631 0 0.036690751319568497 0.26560928869169631 0 0.044322902304470557 0.25827229035276472 0 0.04553148377310684 0.26557158507250922 0 0.037477286312428422 0.25638724013938052 0 0.036690751319568497 0.26560928869169631 0 0.044322902304470557 0.25827229035276472 0 0.042337009920640052 0.24954965189858661 0 0.044322902304470557 0.25827229035276472 0 0.050186543669688437 0.25248304460155779 0 0.042337009920640052 0.24954965189858661 0 0.037477286312428422 0.25638724013938052 0 0.044322902304470557 0.25827229035276472 0 0.034295032894287147 0.2861012656705284 0 0.02858942039155608 0.27676936176154582 0 0.03812807853533591 0.27648650118434831 0 0.025800838493070719 0.26344172727377207 0 0.036690751319568497 0.26560928869169631 0 0.03812807853533591 0.27648650118434831 0 0.025800838493070719 0.26344172727377207 0 0.03812807853533591 0.27648650118434831 0 0.036690751319568497 0.26560928869169631 0 0.04553148377310684 0.26557158507250922 0 0.042785871148026212 0.271760106966977 0 0.036690751319568497 0.26560928869169631 0 0.03812807853533591 0.27648650118434831 0 0.042785871148026212 0.271760106966977 0 0.04553148377310684 0.26557158507250922 0 0.042785871148026212 0.271760106966977 0 0.048907920384592157 0.27240081571741459 0 0.03812807853533591 0.27648650118434831 0 0.042785871148026212 0.271760106966977 0 0.044671121727527602 0.27873234416891651 0 0.042785871148026212 0.271760106966977 0 0.044671121727527602 0.27873234416891651 0 0.048907920384592157 0.27240081571741459 0 0.044671121727527602 0.27873234416891651 0 0.052912550594839132 0.27932821248070089 0 0.048907920384592157 0.27240081571741459 0 0.052912550594839132 0.27932821248070089 0 0.048907920384592157 0.27240081571741459 0 0.058413745672994427 0.27190370991148732 0 0.048907920384592157 0.27240081571741459 0 0.051818658198064103 0.26738027802742392 0 0.058413745672994427 0.27190370991148732 0 0.04553148377310684 0.26557158507250922 0 0.048907920384592157 0.27240081571741459 0 0.051818658198064103 0.26738027802742392 0 0.051818658198064103 0.26738027802742392 0 0.058413745672994427 0.27190370991148732 0 0.054693231996337577 0.26057919857532291 0 0.058413745672994427 0.27190370991148732 0 0.060036909449648047 0.28061562551263453 0 0.066412910544487891 0.28003143735242297 0 0.052912550594839132 0.27932821248070089 0 0.058413745672994427 0.27190370991148732 0 0.060036909449648047 0.28061562551263453 0 0.044322902304470557 0.25827229035276472 0 0.050186543669688437 0.25248304460155779 0 0.054693231996337577 0.26057919857532291 0 0.057266071322044892 0.2487458052560243 0 0.050186543669688437 0.25248304460155779 0 0.054693231996337577 0.26057919857532291 0 0.044322902304470557 0.25827229035276472 0 0.04553148377310684 0.26557158507250922 0 0.054693231996337577 0.26057919857532291 0 0.04553148377310684 0.26557158507250922 0 0.051818658198064103 0.26738027802742392 0 0.054693231996337577 0.26057919857532291 0 0.054693231996337577 0.26057919857532291 0 0.063544856319773371 0.25406896456140438 0 0.064672753750909778 0.26150948988626249 0 0.058413745672994427 0.27190370991148732 0 0.054693231996337577 0.26057919857532291 0 0.064672753750909778 0.26150948988626249 0 0.057266071322044892 0.2487458052560243 0 0.054693231996337577 0.26057919857532291 0 0.063544856319773371 0.25406896456140438 0 0.063544856319773371 0.25406896456140438 0 0.064672753750909778 0.26150948988626249 0 0.0710986218483107 0.25191811171017792 0 0.064672753750909778 0.26150948988626249 0 0.07700697807169421 0.25805415522317737 0 0.069534746433502354 0.26909516760652608 0 0.064672753750909778 0.26150948988626249 0 0.07700697807169421 0.25805415522317737 0 0.0710986218483107 0.25191811171017792 0 0.078313800111639437 0.24935717424229911 0 0.07700697807169421 0.25805415522317737 0 0.0710986218483107 0.25191811171017792 0 0.078313800111639437 0.24935717424229911 0 0.07700697807169421 0.25805415522317737 0 0.086440945610867612 0.25059492796667582 0 0.07700697807169421 0.25805415522317737 0 0.091319254922059098 0.2614512926487681 0 0.086440945610867612 0.25059492796667582 0 0.07700697807169421 0.25805415522317737 0 0.091319254922059098 0.2614512926487681 0 0.081965874427467084 0.26989754554148321 0 0.091319254922059098 0.2614512926487681 0 0.086440945610867612 0.25059492796667582 0 0.096311035480508303 0.2518508295387068 0 0.081965874427467084 0.26989754554148321 0 0.085684340002543102 0.28351883216314427 0 0.098449523215913076 0.27451411313000779 0 0.091319254922059098 0.2614512926487681 0 0.081965874427467084 0.26989754554148321 0 0.098449523215913076 0.27451411313000779 0 0.081965874427467084 0.26989754554148321 0 0.075476680698051718 0.27785387478935458 0 0.085684340002543102 0.28351883216314427 0 0.075476680698051718 0.27785387478935458 0 0.069534746433502354 0.26909516760652608 0 0.066412910544487891 0.28003143735242297 0 0.07700697807169421 0.25805415522317737 0 0.081965874427467084 0.26989754554148321 0 0.069534746433502354 0.26909516760652608 0 0.081965874427467084 0.26989754554148321 0 0.075476680698051718 0.27785387478935458 0 0.069534746433502354 0.26909516760652608 0 0.058413745672994427 0.27190370991148732 0 0.064672753750909778 0.26150948988626249 0 0.069534746433502354 0.26909516760652608 0 0.058413745672994427 0.27190370991148732 0 0.069534746433502354 0.26909516760652608 0 0.066412910544487891 0.28003143735242297 0 0.062408430986270788 0.29119914230592697 0 0.066412910544487891 0.28003143735242297 0 0.07378553208225816 0.28672639128319671 0 0.062408430986270788 0.29119914230592697 0 0.060036909449648047 0.28061562551263453 0 0.066412910544487891 0.28003143735242297 0 0.062408430986270788 0.29119914230592697 0 0.07378553208225816 0.28672639128319671 0 0.080145740245014002 0.30366594044293771 0 0.075476680698051718 0.27785387478935458 0 0.066412910544487891 0.28003143735242297 0 0.07378553208225816 0.28672639128319671 0 0.062408430986270788 0.29119914230592697 0 0.067064680581924732 0.31104966627383812 0 0.080145740245014002 0.30366594044293771 0 0.082432386389010792 0.31963080921285009 0 0.067064680581924732 0.31104966627383812 0 0.080145740245014002 0.30366594044293771 0 0.062408430986270788 0.29119914230592697 0 0.080145740245014002 0.30366594044293771 0 0.097883049503757258 0.31613273857994811 0 0.092386954014520295 0.29888357076160099 0 0.080145740245014002 0.30366594044293771 0 0.097883049503757258 0.31613273857994811 0 0.080145740245014002 0.30366594044293771 0 0.092386954014520295 0.29888357076160099 0 0.080145740245014002 0.30366594044293771 0 0.085684340002543102 0.28351883216314427 0 0.07378553208225816 0.28672639128319671 0 0.080145740245014002 0.30366594044293771 0 0.085684340002543102 0.28351883216314427 0 0.075476680698051718 0.27785387478935458 0 0.07378553208225816 0.28672639128319671 0 0.085684340002543102 0.28351883216314427 0 0.092386954014520295 0.29888357076160099 0 0.085684340002543102 0.28351883216314427 0 0.1058346863067668 0.29221677186037398 0 0.085684340002543102 0.28351883216314427 0 0.1058346863067668 0.29221677186037398 0 0.098449523215913076 0.27451411313000779 0 0.10247520046843631 0.31726440128514433 0 0.097883049503757258 0.31613273857994811 0 0.1058346863067668 0.29221677186037398 0 0.097883049503757258 0.31613273857994811 0 0.092386954014520295 0.29888357076160099 0 0.1058346863067668 0.29221677186037398 0 0.097883049503757258 0.31613273857994811 0 0.1058346863067668 0.29221677186037398 0 0.10247520046843631 0.31726440128514433 0 0.1058346863067668 0.29221677186037398 0 0.1218465126223218 0.30799887695988082 0 0.1058346863067668 0.29221677186037398 0 0.1218465126223218 0.30799887695988082 0 0.11921932367919801 0.28677207465031529 0 0.1218465126223218 0.30799887695988082 0 0.11921932367919801 0.28677207465031529 0 0.1314864580611301 0.28979762569685352 0 0.1058346863067668 0.29221677186037398 0 0.11921932367919801 0.28677207465031529 0 0.1137863231097757 0.26830080514079968 0 0.11921932367919801 0.28677207465031529 0 0.1137863231097757 0.26830080514079968 0 0.12786225183410679 0.27682375618124211 0 0.1058346863067668 0.29221677186037398 0 0.1137863231097757 0.26830080514079968 0 0.1137863231097757 0.26830080514079968 0 0.1241640511376262 0.2622131100690438 0 0.12786225183410679 0.27682375618124211 0 0.12173795991278449 0.24438483842122541 0 0.1137863231097757 0.26830080514079968 0 0.1241640511376262 0.2622131100690438 0 0.12173795991278449 0.24438483842122541 0 0.1137863231097757 0.26830080514079968 0 0.1066275710365521 0.25394453207898432 0 0.12173795991278449 0.24438483842122541 0 0.1137863231097757 0.26830080514079968 0 0.1137863231097757 0.26830080514079968 0 0.1019357200233145 0.26373585615807033 0 0.1066275710365521 0.25394453207898432 0 0.1019357200233145 0.26373585615807033 0 0.1066275710365521 0.25394453207898432 0 0.096311035480508303 0.2518508295387068 0 0.091319254922059098 0.2614512926487681 0 0.1019357200233145 0.26373585615807033 0 0.096311035480508303 0.2518508295387068 0 0.091319254922059098 0.2614512926487681 0 0.1019357200233145 0.26373585615807033 0 0.098449523215913076 0.27451411313000779 0 0.1058346863067668 0.29221677186037398 0 0.1137863231097757 0.26830080514079968 0 0.098449523215913076 0.27451411313000779 0 0.1137863231097757 0.26830080514079968 0 0.1019357200233145 0.26373585615807033 0 0.098449523215913076 0.27451411313000779 0 0.14112640349993641 0.27159637443382523 0 0.15032940748595641 0.27702294483909212 0 0.1493707185112543 0.26492957652474752 0 0.15032940748595641 0.27702294483909212 0 0.15662290995667591 0.28342102913358869 0 0.16138952249343011 0.2691573953702045 0 0.15032940748595641 0.27702294483909212 0 0.1493707185112543 0.26492957652474752 0 0.16138952249343011 0.2691573953702045 0 0.1527293109647406 0.2496888402585469 0 0.13867708755356789 0.24186232488457371 0 0.14112640349993641 0.27159637443382523 0 0.1527293109647406 0.2496888402585469 0 0.14112640349993641 0.27159637443382523 0 0.1493707185112543 0.26492957652474752 0 0.1527293109647406 0.2496888402585469 0 0.14112640349993641 0.27159637443382523 0 0.1493707185112543 0.26492957652474752 0 0.1624975560905107 0.25646494238034878 0 0.1527293109647406 0.2496888402585469 0 0.1493707185112543 0.26492957652474752 0 0.1624975560905107 0.25646494238034878 0 0.13867708755356789 0.24186232488457371 0 0.14112640349993641 0.27159637443382523 0 0.13867708755356789 0.24186232488457371 0 0.1332696696938378 0.25934304053290802 0 0.13867708755356789 0.24186232488457371 0 0.14112640349993641 0.27159637443382523 0 0.1332696696938378 0.25934304053290802 0 0.12173795991278449 0.24438483842122541 0 0.1241640511376262 0.2622131100690438 0 0.1332696696938378 0.25934304053290802 0 0.14112640349993641 0.27159637443382523 0 0.1314864580611301 0.28979762569685352 0 0.14112640349993641 0.27159637443382523 0 0.1332696696938378 0.25934304053290802 0 0.12786225183410679 0.27682375618124211 0 0.14112640349993641 0.27159637443382523 0 0.12786225183410679 0.27682375618124211 0 0.1314864580611301 0.28979762569685352 0 0.1241640511376262 0.2622131100690438 0 0.1332696696938378 0.25934304053290802 0 0.12786225183410679 0.27682375618124211 0 0.1332696696938378 0.25934304053290802 0 0.12786225183410679 0.27682375618124211 0 0.11921932367919801 0.28677207465031529 0 0.12786225183410679 0.27682375618124211 0 0.1314864580611301 0.28979762569685352 0 0.14112640349993641 0.27159637443382523 0 0.1314864580611301 0.28979762569685352 0 0.14313748296848511 0.29601034873309479 0 0.1314864580611301 0.28979762569685352 0 0.13341083062668491 0.30090724970476113 0 0.14313748296848511 0.29601034873309479 0 0.1218465126223218 0.30799887695988082 0 0.1314864580611301 0.28979762569685352 0 0.13341083062668491 0.30090724970476113 0 0.1218465126223218 0.30799887695988082 0 0.1314864580611301 0.28979762569685352 0 0.1218465126223218 0.30799887695988082 0 0.13341083062668491 0.30090724970476113 0 0.13717286885480251 0.30982214742921549 0 0.13341083062668491 0.30090724970476113 0 0.13717286885480251 0.30982214742921549 0 0.14313748296848511 0.29601034873309479 0 0.13717286885480251 0.30982214742921549 0 0.14313748296848511 0.29601034873309479 0 0.15121342543511981 0.31299737799442329 0 0.14313748296848511 0.29601034873309479 0 0.16052551909253271 0.2987321722498954 0 0.15121342543511981 0.31299737799442329 0 0.14112640349993641 0.27159637443382523 0 0.15032940748595641 0.27702294483909212 0 0.14313748296848511 0.29601034873309479 0 0.15032940748595641 0.27702294483909212 0 0.14313748296848511 0.29601034873309479 0 0.15662290995667591 0.28342102913358869 0 0.14313748296848511 0.29601034873309479 0 0.15662290995667591 0.28342102913358869 0 0.16052551909253271 0.2987321722498954 0 0.14112640349993641 0.27159637443382523 0 0.14313748296848511 0.29601034873309479 0 0.1694445786729101 0.28262854812902449 0 0.16052551909253271 0.2987321722498954 0 0.1745312640425572 0.2990291532653519 0 0.15662290995667591 0.28342102913358869 0 0.1694445786729101 0.28262854812902449 0 0.16052551909253271 0.2987321722498954 0 0.16052551909253271 0.2987321722498954 0 0.167911258792834 0.32094756787764772 0 0.15121342543511981 0.31299737799442329 0 0.16052551909253271 0.2987321722498954 0 0.1745312640425572 0.2990291532653519 0 0.167911258792834 0.32094756787764772 0 0.1866611076125482 0.30616640717958021 0 0.1745312640425572 0.2990291532653519 0 0.18811385604196099 0.2866710708906115 0 0.1866611076125482 0.30616640717958021 0 0.1745312640425572 0.2990291532653519 0 0.167911258792834 0.32094756787764772 0 0.1694445786729101 0.28262854812902449 0 0.1745312640425572 0.2990291532653519 0 0.18811385604196099 0.2866710708906115 0 0.1694445786729101 0.28262854812902449 0 0.1809249518278552 0.2698947658710521 0 0.18811385604196099 0.2866710708906115 0 0.1809249518278552 0.2698947658710521 0 0.16138952249343011 0.2691573953702045 0 0.17523074209092451 0.2589524026217071 0 0.1694445786729101 0.28262854812902449 0 0.1809249518278552 0.2698947658710521 0 0.16138952249343011 0.2691573953702045 0 0.15662290995667591 0.28342102913358869 0 0.1694445786729101 0.28262854812902449 0 0.16138952249343011 0.2691573953702045 0 0.1493707185112543 0.26492957652474752 0 0.16138952249343011 0.2691573953702045 0 0.1624975560905107 0.25646494238034878 0 0.16138952249343011 0.2691573953702045 0 0.1624975560905107 0.25646494238034878 0 0.17523074209092451 0.2589524026217071 0 0.17562439366976659 0.2480003082359496 0 0.1624975560905107 0.25646494238034878 0 0.17523074209092451 0.2589524026217071 0 0.17562439366976659 0.2480003082359496 0 0.16640384974087649 0.24651151582039041 0 0.1624975560905107 0.25646494238034878 0 0.17562439366976659 0.2480003082359496 0 0.1624975560905107 0.25646494238034878 0 0.1809249518278552 0.2698947658710521 0 0.17523074209092451 0.2589524026217071 0 0.19571728637305991 0.25124460125098053 0 0.17562439366976659 0.2480003082359496 0 0.17523074209092451 0.2589524026217071 0 0.19571728637305991 0.25124460125098053 0 0.1809249518278552 0.2698947658710521 0 0.19571728637305991 0.25124460125098053 0 0.20496477828594339 0.27058384444940908 0 0.1809249518278552 0.2698947658710521 0 0.20496477828594339 0.27058384444940908 0 0.18811385604196099 0.2866710708906115 0 0.20496477828594339 0.27058384444940908 0 0.22474989769312231 0.26424658737305867 0 0.22416080525197629 0.27660408578344542 0 0.20496477828594339 0.27058384444940908 0 0.22416080525197629 0.27660408578344542 0 0.20541095643226229 0.29138524648151282 0 0.19571728637305991 0.25124460125098053 0 0.20496477828594339 0.27058384444940908 0 0.215810179076353 0.25448889426601218 0 0.21612098006809299 0.24618804018894669 0 0.19571728637305991 0.25124460125098053 0 0.215810179076353 0.25448889426601218 0 0.19571728637305991 0.25124460125098053 0 0.215810179076353 0.25448889426601218 0 0.20496477828594339 0.27058384444940908 0 0.215810179076353 0.25448889426601218 0 0.22474989769312231 0.26424658737305867 0 0.215810179076353 0.25448889426601218 0 0.22474989769312231 0.26424658737305867 0 0.23590307177964609 0.25773318728104377 0 0.21612098006809299 0.24618804018894669 0 0.215810179076353 0.25448889426601218 0 0.23590307177964609 0.25773318728104377 0 0.215810179076353 0.25448889426601218 0 0.23590307177964609 0.25773318728104377 0 0.21612098006809299 0.24618804018894669 0 0.23590307177964609 0.25773318728104377 0 0.22416080525197629 0.27660408578344542 0 0.24291065407169329 0.26182292508538169 0 0.22474989769312231 0.26424658737305867 0 0.22416080525197629 0.27660408578344542 0 0.24291065407169329 0.26182292508538169 0 0.22416080525197629 0.27660408578344542 0 0.24291065407169329 0.26182292508538169 0 0.23848540496370871 0.29193398086764089 0 0.24291065407169329 0.26182292508538169 0 0.23848540496370871 0.29193398086764089 0 0.25219810148588018 0.26724322886672169 0 0.23848540496370871 0.29193398086764089 0 0.25219810148588018 0.26724322886672169 0 0.24291065407169329 0.26182292508538169 0 0.24322201867183671 0.25891493888995137 0 0.25859327421991551 0.2494597678777338 0 0.22982550330875201 0.24206279021263399 0 0.23963233792909289 0.25070674833000889 0 0.23590307177964609 0.25773318728104377 0 0.22474989769312231 0.26424658737305867 0 0.24291065407169329 0.26182292508538169 0 0.23590307177964609 0.25773318728104377 0 0.24291065407169329 0.26182292508538169 0 0.25219810148588018 0.26724322886672169 0 0.2468507990765075 0.24988320060761271 0 0.24322201867183671 0.25891493888995137 0 0.23963233792909289 0.25070674833000889 0 0.2468507990765075 0.24988320060761271 0 0.24322201867183671 0.25891493888995137 0 0.25859327421991551 0.2494597678777338 0 0.24322201867183671 0.25891493888995137 0 0.23963233792909289 0.25070674833000889 0 0.23590307177964609 0.25773318728104377 0 0.24291065407169329 0.26182292508538169 0 0.24322201867183671 0.25891493888995137 0 0.23590307177964609 0.25773318728104377 0 0.24291065407169329 0.26182292508538169 0 0.23590307177964609 0.25773318728104377 0 0.24322201867183671 0.25891493888995137 0 0.23590307177964609 0.25773318728104377 0 0.2422144148352007 0.30840559904210912 0 0.23848540496370871 0.29193398086764089 0 0.25193110116939837 0.29058190837511277 0 0.2422144148352007 0.30840559904210912 0 0.25193110116939837 0.29058190837511277 0 0.2422144148352007 0.30840559904210912 0 0.23848540496370871 0.29193398086764089 0 0.22477270844153641 0.3166247328685598 0 0.23848540496370871 0.29193398086764089 0 0.25193110116939837 0.29058190837511277 0 0.25219810148588018 0.26724322886672169 0 0.22416080525197629 0.27660408578344542 0 0.23848540496370871 0.29193398086764089 0 0.2187663614304789 0.30118617957591032 0 0.23848540496370871 0.29193398086764089 0 0.22477270844153641 0.3166247328685598 0 0.23848540496370871 0.29193398086764089 0 0.2187663614304789 0.30118617957591032 0 0.22477270844153641 0.3166247328685598 0 0.2187663614304789 0.30118617957591032 0 0.21016989843184039 0.31420578525232662 0 0.22477270844153641 0.3166247328685598 0 0.2187663614304789 0.30118617957591032 0 0.20517648533375751 0.30685357373254768 0 0.21016989843184039 0.31420578525232662 0 0.2187663614304789 0.30118617957591032 0 0.20517648533375751 0.30685357373254768 0 0.20541095643226229 0.29138524648151282 0 0.22416080525197629 0.27660408578344542 0 0.2187663614304789 0.30118617957591032 0 0.20541095643226229 0.29138524648151282 0 0.22416080525197629 0.27660408578344542 0 0.20541095643226229 0.29138524648151282 0 0.1866611076125482 0.30616640717958021 0 0.20541095643226229 0.29138524648151282 0 0.18811385604196099 0.2866710708906115 0 0.20496477828594339 0.27058384444940908 0 0.20541095643226229 0.29138524648151282 0 0.18811385604196099 0.2866710708906115 0 0.1866611076125482 0.30616640717958021 0 0.20517648533375751 0.30685357373254768 0 0.20056342193417889 0.31880603315339312 0 0.1866611076125482 0.30616640717958021 0 0.20517648533375751 0.30685357373254768 0 0.20541095643226229 0.29138524648151282 0 0.1866611076125482 0.30616640717958021 0 0.20541095643226229 0.29138524648151282 0 0.18967605122714459 0.3278076747396898 0 0.20056342193417889 0.31880603315339312 0 0.1841619387390277 0.32078110174812441 0 0.1866611076125482 0.30616640717958021 0 0.20056342193417889 0.31880603315339312 0 0.1841619387390277 0.32078110174812441 0 0.18967605122714459 0.3278076747396898 0 0.1982464843305391 0.32680377276430661 0 0.20056342193417889 0.31880603315339312 0 0.20157051501924991 0.32755840693122179 0 0.1982464843305391 0.32680377276430661 0 0.20056342193417889 0.31880603315339312 0 0.1982464843305391 0.32680377276430661 0 0.19477073396900879 0.34824088224487332 0 0.1982464843305391 0.32680377276430661 0 0.20584939766919561 0.33476991759121921 0 0.19477073396900879 0.34824088224487332 0 0.1982464843305391 0.32680377276430661 0 0.19477073396900879 0.34824088224487332 0 0.18682583138087261 0.33595239017878648 0 0.19477073396900879 0.34824088224487332 0 0.18472431638269049 0.34602364940889502 0 0.18682583138087261 0.33595239017878648 0 0.18967605122714459 0.3278076747396898 0 0.1982464843305391 0.32680377276430661 0 0.18682583138087261 0.33595239017878648 0 0.20157051501924991 0.32755840693122179 0 0.1982464843305391 0.32680377276430661 0 0.20584939766919561 0.33476991759121921 0 0.20584939766919561 0.33476991759121921 0 0.20837523226191529 0.34418648905298022 0 0.19477073396900879 0.34824088224487332 0 0.20584939766919561 0.33476991759121921 0 0.2147938459652014 0.33723190179714102 0 0.20837523226191529 0.34418648905298022 0 0.20157051501924991 0.32755840693122179 0 0.20584939766919561 0.33476991759121921 0 0.21212506670332529 0.32700536608452963 0 0.20584939766919561 0.33476991759121921 0 0.21290193660637249 0.33247954799961921 0 0.21212506670332529 0.32700536608452963 0 0.20584939766919561 0.33476991759121921 0 0.21290193660637249 0.33247954799961921 0 0.2147938459652014 0.33723190179714102 0 0.21290193660637249 0.33247954799961921 0 0.21212506670332529 0.32700536608452963 0 0.2188394360877679 0.33091100652558719 0 0.21290193660637249 0.33247954799961921 0 0.2147938459652014 0.33723190179714102 0 0.2188394360877679 0.33091100652558719 0 0.2147938459652014 0.33723190179714102 0 0.2188394360877679 0.33091100652558719 0 0.22245554606621931 0.33752431827393331 0 0.2147938459652014 0.33723190179714102 0 0.2181201994044667 0.34578535459482762 0 0.20837523226191529 0.34418648905298022 0 0.2147938459652014 0.33723190179714102 0 0.22245554606621931 0.33752431827393331 0 0.2181201994044667 0.34578535459482762 0 0.20157051501924991 0.32755840693122179 0 0.21212506670332529 0.32700536608452963 0 0.22477270844153641 0.3166247328685598 0 0.20157051501924991 0.32755840693122179 0 0.22477270844153641 0.3166247328685598 0 0.20157051501924991 0.32755840693122179 0 0.21016989843184039 0.31420578525232662 0 0.22477270844153641 0.3166247328685598 0 0.20517648533375751 0.30685357373254768 0 0.20056342193417889 0.31880603315339312 0 0.21016989843184039 0.31420578525232662 0 0.20157051501924991 0.32755840693122179 0 0.20056342193417889 0.31880603315339312 0 0.21016989843184039 0.31420578525232662 0 0.21212506670332529 0.32700536608452963 0 0.22160392655975411 0.32233036541585369 0 0.2188394360877679 0.33091100652558719 0 0.2422144148352007 0.30840559904210912 0 0.22477270844153641 0.3166247328685598 0 0.2422144148352007 0.30840559904210912 0 0.22477270844153641 0.3166247328685598 0 0.23518944646063891 0.32129176814822968 0 0.22477270844153641 0.3166247328685598 0 0.22160392655975411 0.32233036541585369 0 0.22477270844153641 0.3166247328685598 0 0.2288923638621746 0.32829484518165791 0 0.23518944646063891 0.32129176814822968 0 0.22477270844153641 0.3166247328685598 0 0.22160392655975411 0.32233036541585369 0 0.2288923638621746 0.32829484518165791 0 0.21212506670332529 0.32700536608452963 0 0.22477270844153641 0.3166247328685598 0 0.22160392655975411 0.32233036541585369 0 0.22160392655975411 0.32233036541585369 0 0.2188394360877679 0.33091100652558719 0 0.2288923638621746 0.32829484518165791 0 0.22245554606621931 0.33752431827393331 0 0.2288923638621746 0.32829484518165791 0 0.23011490962405901 0.34402637906079192 0 0.2188394360877679 0.33091100652558719 0 0.22245554606621931 0.33752431827393331 0 0.2288923638621746 0.32829484518165791 0 0.2288923638621746 0.32829484518165791 0 0.23963072734300389 0.33303770323320647 0 0.23011490962405901 0.34402637906079192 0 0.22245554606621931 0.33752431827393331 0 0.23011490962405901 0.34402637906079192 0 0.2181201994044667 0.34578535459482762 0 0.23963072734300389 0.33303770323320647 0 0.24245458021815861 0.34807196438065968 0 0.23011490962405901 0.34402637906079192 0 0.23963072734300389 0.33303770323320647 0 0.24245458021815861 0.34807196438065968 0 0.25334434943086531 0.33817461409465849 0 0.23963072734300389 0.33303770323320647 0 0.24990084266874429 0.32367317630407949 0 0.25334434943086531 0.33817461409465849 0 0.2422144148352007 0.30840559904210912 0 0.24990084266874429 0.32367317630407949 0 0.23518944646063891 0.32129176814822968 0 0.2422144148352007 0.30840559904210912 0 0.23518944646063891 0.32129176814822968 0 0.23963072734300389 0.33303770323320647 0 0.24990084266874429 0.32367317630407949 0 0.23518944646063891 0.32129176814822968 0 0.2288923638621746 0.32829484518165791 0 0.23963072734300389 0.33303770323320647 0 0.23518944646063891 0.32129176814822968 0 0.23793511617045451 0.36040731550714661 0 0.24286449722361661 0.3792236641459521 0 0.25715691338117619 0.37069804294421133 0 0.23793511617045451 0.36040731550714661 0 0.22535506731443339 0.37093622217456179 0 0.24286449722361661 0.3792236641459521 0 0.23793511617045451 0.36040731550714661 0 0.24245458021815861 0.34807196438065968 0 0.23011490962405901 0.34402637906079192 0 0.23793511617045451 0.36040731550714661 0 0.24245458021815861 0.34807196438065968 0 0.2549174677925593 0.35400984449820649 0 0.23793511617045451 0.36040731550714661 0 0.23011490962405901 0.34402637906079192 0 0.22197868721832259 0.35700814885627852 0 0.23011490962405901 0.34402637906079192 0 0.22197868721832259 0.35700814885627852 0 0.2181201994044667 0.34578535459482762 0 0.22197868721832259 0.35700814885627852 0 0.22535506731443339 0.37093622217456179 0 0.2150069444071688 0.36786998886645272 0 0.23793511617045451 0.36040731550714661 0 0.22197868721832259 0.35700814885627852 0 0.22535506731443339 0.37093622217456179 0 0.21024448759736961 0.35404883842301049 0 0.20197117833580791 0.36543791164110528 0 0.20171329825865611 0.37712230697898791 0 0.21024448759736961 0.35404883842301049 0 0.20171329825865611 0.37712230697898791 0 0.22535506731443339 0.37093622217456179 0 0.2150069444071688 0.36786998886645272 0 0.21574318164706219 0.38023442789942491 0 0.2150069444071688 0.36786998886645272 0 0.21024448759736961 0.35404883842301049 0 0.20171329825865611 0.37712230697898791 0 0.22197868721832259 0.35700814885627852 0 0.2150069444071688 0.36786998886645272 0 0.21024448759736961 0.35404883842301049 0 0.2181201994044667 0.34578535459482762 0 0.21024448759736961 0.35404883842301049 0 0.20837523226191529 0.34418648905298022 0 0.22197868721832259 0.35700814885627852 0 0.2181201994044667 0.34578535459482762 0 0.21024448759736961 0.35404883842301049 0 0.21024448759736961 0.35404883842301049 0 0.20837523226191529 0.34418648905298022 0 0.19477073396900879 0.34824088224487332 0 0.19477073396900879 0.34824088224487332 0 0.19129498360747929 0.36967799172544019 0 0.1858376228523532 0.35776712435732527 0 0.21024448759736961 0.35404883842301049 0 0.19477073396900879 0.34824088224487332 0 0.20197117833580791 0.36543791164110528 0 0.19477073396900879 0.34824088224487332 0 0.19129498360747929 0.36967799172544019 0 0.19477073396900879 0.34824088224487332 0 0.1858376228523532 0.35776712435732527 0 0.18472431638269049 0.34602364940889502 0 0.19477073396900879 0.34824088224487332 0 0.20197117833580791 0.36543791164110528 0 0.19129498360747929 0.36967799172544019 0 0.20197117833580791 0.36543791164110528 0 0.19129498360747929 0.36967799172544019 0 0.20171329825865611 0.37712230697898791 0 0.20197117833580791 0.36543791164110528 0 0.19129498360747929 0.36967799172544019 0 0.19129498360747929 0.36967799172544019 0 0.18384121662204281 0.36516003675558267 0 0.1783566627331731 0.36964062784805879 0 0.19129498360747929 0.36967799172544019 0 0.17019219729038371 0.37805902132109959 0 0.19129498360747929 0.36967799172544019 0 0.1783566627331731 0.36964062784805879 0 0.17019219729038371 0.37805902132109959 0 0.19129498360747929 0.36967799172544019 0 0.18384121662204281 0.36516003675558267 0 0.1858376228523532 0.35776712435732527 0 0.18384121662204281 0.36516003675558267 0 0.17733060828177069 0.36245777388194811 0 0.1858376228523532 0.35776712435732527 0 0.18384121662204281 0.36516003675558267 0 0.17733060828177069 0.36245777388194811 0 0.1783566627331731 0.36964062784805879 0 0.17733060828177069 0.36245777388194811 0 0.17279346204931309 0.36822454174690489 0 0.16934558173200179 0.36452692642970769 0 0.17733060828177069 0.36245777388194811 0 0.1783566627331731 0.36964062784805879 0 0.17279346204931309 0.36822454174690489 0 0.1783566627331731 0.36964062784805879 0 0.17152065632840671 0.37268680435399482 0 0.17019219729038371 0.37805902132109959 0 0.1783566627331731 0.36964062784805879 0 0.17279346204931309 0.36822454174690489 0 0.17152065632840671 0.37268680435399482 0 0.17152065632840671 0.37268680435399482 0 0.16755074648487209 0.37049483339088263 0 0.1673906913261072 0.37635766525328518 0 0.16755074648487209 0.37049483339088263 0 0.16341926190937339 0.37147111112354952 0 0.1673906913261072 0.37635766525328518 0 0.16755074648487209 0.37049483339088263 0 0.16123191987329261 0.36595742631445338 0 0.16341926190937339 0.37147111112354952 0 0.17279346204931309 0.36822454174690489 0 0.17152065632840671 0.37268680435399482 0 0.16755074648487209 0.37049483339088263 0 0.17279346204931309 0.36822454174690489 0 0.16755074648487209 0.37049483339088263 0 0.16934558173200179 0.36452692642970769 0 0.16755074648487209 0.37049483339088263 0 0.16934558173200179 0.36452692642970769 0 0.16123191987329261 0.36595742631445338 0 0.16934558173200179 0.36452692642970769 0 0.16123191987329261 0.36595742631445338 0 0.1678211719707603 0.35550005681434937 0 0.17733060828177069 0.36245777388194811 0 0.16934558173200179 0.36452692642970769 0 0.1678211719707603 0.35550005681434937 0 0.1575036899532217 0.37307451953557658 0 0.16341926190937339 0.37147111112354952 0 0.1673906913261072 0.37635766525328518 0 0.16123191987329261 0.36595742631445338 0 0.1575036899532217 0.37307451953557658 0 0.15046439008654719 0.36672923255218742 0 0.16123191987329261 0.36595742631445338 0 0.1575036899532217 0.37307451953557658 0 0.16341926190937339 0.37147111112354952 0 0.1678211719707603 0.35550005681434937 0 0.16230901559942701 0.34269329287386358 0 0.15353210121447 0.35610691980359183 0 0.16123191987329261 0.36595742631445338 0 0.1678211719707603 0.35550005681434937 0 0.15353210121447 0.35610691980359183 0 0.1678211719707603 0.35550005681434937 0 0.175464006862701 0.34367303192330789 0 0.16230901559942701 0.34269329287386358 0 0.1782659357637992 0.35356101662104628 0 0.18472431638269049 0.34602364940889502 0 0.175464006862701 0.34367303192330789 0 0.1678211719707603 0.35550005681434937 0 0.1782659357637992 0.35356101662104628 0 0.175464006862701 0.34367303192330789 0 0.17733060828177069 0.36245777388194811 0 0.1678211719707603 0.35550005681434937 0 0.1782659357637992 0.35356101662104628 0 0.1782659357637992 0.35356101662104628 0 0.1858376228523532 0.35776712435732527 0 0.18472431638269049 0.34602364940889502 0 0.17733060828177069 0.36245777388194811 0 0.1782659357637992 0.35356101662104628 0 0.1858376228523532 0.35776712435732527 0 0.18472431638269049 0.34602364940889502 0 0.18682583138087261 0.33595239017878648 0 0.175464006862701 0.34367303192330789 0 0.18967605122714459 0.3278076747396898 0 0.18682583138087261 0.33595239017878648 0 0.1759978541284328 0.33017782579031069 0 0.18682583138087261 0.33595239017878648 0 0.1759978541284328 0.33017782579031069 0 0.175464006862701 0.34367303192330789 0 0.1759978541284328 0.33017782579031069 0 0.1841619387390277 0.32078110174812441 0 0.167911258792834 0.32094756787764772 0 0.1866611076125482 0.30616640717958021 0 0.1841619387390277 0.32078110174812441 0 0.167911258792834 0.32094756787764772 0 0.1866611076125482 0.30616640717958021 0 0.167911258792834 0.32094756787764772 0 0.18967605122714459 0.3278076747396898 0 0.1759978541284328 0.33017782579031069 0 0.1841619387390277 0.32078110174812441 0 0.1759978541284328 0.33017782579031069 0 0.167911258792834 0.32094756787764772 0 0.157238231504645 0.32898565287947318 0 0.167911258792834 0.32094756787764772 0 0.157238231504645 0.32898565287947318 0 0.15121342543511981 0.31299737799442329 0 0.1759978541284328 0.33017782579031069 0 0.157238231504645 0.32898565287947318 0 0.16230901559942701 0.34269329287386358 0 0.1759978541284328 0.33017782579031069 0 0.175464006862701 0.34367303192330789 0 0.16230901559942701 0.34269329287386358 0 0.157238231504645 0.32898565287947318 0 0.16230901559942701 0.34269329287386358 0 0.14439403071059179 0.34233776393057708 0 0.157238231504645 0.32898565287947318 0 0.14439403071059179 0.34233776393057708 0 0.14160380436146469 0.32476008881001711 0 0.157238231504645 0.32898565287947318 0 0.15121342543511981 0.31299737799442329 0 0.14160380436146469 0.32476008881001711 0 0.13717286885480251 0.30982214742921549 0 0.15121342543511981 0.31299737799442329 0 0.14160380436146469 0.32476008881001711 0 0.13717286885480251 0.30982214742921549 0 0.14160380436146469 0.32476008881001711 0 0.12992427717752619 0.32119256114269462 0 0.14160380436146469 0.32476008881001711 0 0.12992427717752619 0.32119256114269462 0 0.1319789807793384 0.33390044420364912 0 0.1245715791867013 0.32898786126024959 0 0.1212539019304235 0.32289102312992268 0 0.12992427717752619 0.32119256114269462 0 0.1245715791867013 0.32898786126024959 0 0.12992427717752619 0.32119256114269462 0 0.1319789807793384 0.33390044420364912 0 0.1218465126223218 0.30799887695988082 0 0.13717286885480251 0.30982214742921549 0 0.12992427717752619 0.32119256114269462 0 0.14439403071059179 0.34233776393057708 0 0.1319789807793384 0.33390044420364912 0 0.12869865027132979 0.34900306273210979 0 0.14439403071059179 0.34233776393057708 0 0.14160380436146469 0.32476008881001711 0 0.1319789807793384 0.33390044420364912 0 0.12240894308319281 0.33745063657379182 0 0.1245715791867013 0.32898786126024959 0 0.1319789807793384 0.33390044420364912 0 0.12240894308319281 0.33745063657379182 0 0.1319789807793384 0.33390044420364912 0 0.12869865027132979 0.34900306273210979 0 0.14439403071059179 0.34233776393057708 0 0.12869865027132979 0.34900306273210979 0 0.14000564733825521 0.36071645206049552 0 0.12869865027132979 0.34900306273210979 0 0.12504342468660801 0.365096132935816 0 0.14000564733825521 0.36071645206049552 0 0.1118902862078035 0.37850500465335662 0 0.12504342468660801 0.365096132935816 0 0.13964048876695531 0.37743133495332087 0 0.12504342468660801 0.365096132935816 0 0.14000564733825521 0.36071645206049552 0 0.13964048876695531 0.37743133495332087 0 0.14000564733825521 0.36071645206049552 0 0.15046439008654719 0.36672923255218742 0 0.15353210121447 0.35610691980359183 0 0.1575036899532217 0.37307451953557658 0 0.15046439008654719 0.36672923255218742 0 0.13964048876695531 0.37743133495332087 0 0.14000564733825521 0.36071645206049552 0 0.15046439008654719 0.36672923255218742 0 0.13964048876695531 0.37743133495332087 0 0.16123191987329261 0.36595742631445338 0 0.15046439008654719 0.36672923255218742 0 0.15353210121447 0.35610691980359183 0 0.16230901559942701 0.34269329287386358 0 0.14439403071059179 0.34233776393057708 0 0.15353210121447 0.35610691980359183 0 0.14439403071059179 0.34233776393057708 0 0.14000564733825521 0.36071645206049552 0 0.15353210121447 0.35610691980359183 0 0.14503710540002521 0.40322254790348078 0 0.14908941097328751 0.38644005091675759 0 0.12798662465619129 0.39482108051241571 0 0.14503710540002521 0.40322254790348078 0 0.14908941097328751 0.38644005091675759 0 0.15627271181560121 0.39722741407083489 0 0.14503710540002521 0.40322254790348078 0 0.15793916583737061 0.40719056404598403 0 0.15627271181560121 0.39722741407083489 0 0.1575036899532217 0.37307451953557658 0 0.13964048876695531 0.37743133495332087 0 0.1673906913261072 0.37635766525328518 0 0.14908941097328751 0.38644005091675759 0 0.13964048876695531 0.37743133495332087 0 0.1673906913261072 0.37635766525328518 0 0.13964048876695531 0.37743133495332087 0 0.1673906913261072 0.37635766525328518 0 0.1118902862078035 0.37850500465335662 0 0.13964048876695531 0.37743133495332087 0 0.12798662465619129 0.39482108051241571 0 0.1118902862078035 0.37850500465335662 0 0.13964048876695531 0.37743133495332087 0 0.14908941097328751 0.38644005091675759 0 0.13964048876695531 0.37743133495332087 0 0.12798662465619129 0.39482108051241571 0 0.14908941097328751 0.38644005091675759 0 0.12798662465619129 0.39482108051241571 0 0.14503710540002521 0.40322254790348078 0 0.12798662465619129 0.39482108051241571 0 0.12897804838356969 0.41281662555354481 0 0.1201868399237437 0.4277138478848197 0 0.12897804838356969 0.41281662555354481 0 0.13724734189001661 0.43508617232299002 0 0.12897804838356969 0.41281662555354481 0 0.13724734189001661 0.43508617232299002 0 0.15201797165318981 0.42124295758987279 0 0.1227989211907968 0.44853505645094688 0 0.1201868399237437 0.4277138478848197 0 0.13724734189001661 0.43508617232299002 0 0.13724734189001661 0.43508617232299002 0 0.15201797165318981 0.42124295758987279 0 0.1568227773259066 0.44150953447992208 0 0.14503710540002521 0.40322254790348078 0 0.15201797165318981 0.42124295758987279 0 0.15793916583737061 0.40719056404598403 0 0.14503710540002521 0.40322254790348078 0 0.12897804838356969 0.41281662555354481 0 0.15201797165318981 0.42124295758987279 0 0.15201797165318981 0.42124295758987279 0 0.15793916583737061 0.40719056404598403 0 0.1700237463087361 0.4143992261458489 0 0.15201797165318981 0.42124295758987279 0 0.1700237463087361 0.4143992261458489 0 0.16792702902231549 0.42935273499070142 0 0.15793916583737061 0.40719056404598403 0 0.1700237463087361 0.4143992261458489 0 0.1663442940093007 0.39986067451988272 0 0.15201797165318981 0.42124295758987279 0 0.16792702902231549 0.42935273499070142 0 0.1568227773259066 0.44150953447992208 0 0.16792702902231549 0.42935273499070142 0 0.18465091958122931 0.42326924409094269 0 0.17611973024251579 0.44634271264692021 0 0.1700237463087361 0.4143992261458489 0 0.16792702902231549 0.42935273499070142 0 0.18465091958122931 0.42326924409094269 0 0.18465091958122931 0.42326924409094269 0 0.1923494498589858 0.43922959655829158 0 0.17611973024251579 0.44634271264692021 0 0.18465091958122931 0.42326924409094269 0 0.17611973024251579 0.44634271264692021 0 0.1700237463087361 0.4143992261458489 0 0.18480561370121071 0.40970196314763208 0 0.17525720470561551 0.40170469763678252 0 0.1700237463087361 0.4143992261458489 0 0.18465091958122931 0.42326924409094269 0 0.18480561370121071 0.40970196314763208 0 0.18480561370121071 0.40970196314763208 0 0.18027353907121529 0.39595710332944201 0 0.17525720470561551 0.40170469763678252 0 0.18480561370121071 0.40970196314763208 0 0.18805029865434461 0.38968997743653611 0 0.18480561370121071 0.40970196314763208 0 0.18027353907121529 0.39595710332944201 0 0.18805029865434461 0.38968997743653611 0 0.18027353907121529 0.39595710332944201 0 0.17983176548752761 0.38786691021480652 0 0.18805029865434461 0.38968997743653611 0 0.18027353907121529 0.39595710332944201 0 0.17342281280737809 0.39082196821145271 0 0.17983176548752761 0.38786691021480652 0 0.18027353907121529 0.39595710332944201 0 0.17342281280737809 0.39082196821145271 0 0.17525720470561551 0.40170469763678252 0 0.1700237463087361 0.4143992261458489 0 0.17525720470561551 0.40170469763678252 0 0.1663442940093007 0.39986067451988272 0 0.17342281280737809 0.39082196821145271 0 0.1663442940093007 0.39986067451988272 0 0.16385598882325009 0.38774020276910082 0 0.17342281280737809 0.39082196821145271 0 0.17525720470561551 0.40170469763678252 0 0.1663442940093007 0.39986067451988272 0 0.1663442940093007 0.39986067451988272 0 0.15627271181560121 0.39722741407083489 0 0.16385598882325009 0.38774020276910082 0 0.15793916583737061 0.40719056404598403 0 0.1663442940093007 0.39986067451988272 0 0.15627271181560121 0.39722741407083489 0 0.14908941097328751 0.38644005091675759 0 0.16385598882325009 0.38774020276910082 0 0.17019219729038371 0.37805902132109959 0 0.14908941097328751 0.38644005091675759 0 0.1673906913261072 0.37635766525328518 0 0.17019219729038371 0.37805902132109959 0 0.14908941097328751 0.38644005091675759 0 0.17019219729038371 0.37805902132109959 0 0.14908941097328751 0.38644005091675759 0 0.15627271181560121 0.39722741407083489 0 0.16385598882325009 0.38774020276910082 0 0.17342281280737809 0.39082196821145271 0 0.16385598882325009 0.38774020276910082 0 0.17057677088138459 0.38517563384246473 0 0.16385598882325009 0.38774020276910082 0 0.17057677088138459 0.38517563384246473 0 0.17019219729038371 0.37805902132109959 0 0.17057677088138459 0.38517563384246473 0 0.17019219729038371 0.37805902132109959 0 0.17483608460452671 0.38408134306820579 0 0.17152065632840671 0.37268680435399482 0 0.1673906913261072 0.37635766525328518 0 0.17019219729038371 0.37805902132109959 0 0.19129498360747929 0.36967799172544019 0 0.18116007466993631 0.3810016061987419 0 0.18805029865434461 0.38968997743653611 0 0.17019219729038371 0.37805902132109959 0 0.17483608460452671 0.38408134306820579 0 0.18116007466993631 0.3810016061987419 0 0.19129498360747929 0.36967799172544019 0 0.17019219729038371 0.37805902132109959 0 0.18116007466993631 0.3810016061987419 0 0.17342281280737809 0.39082196821145271 0 0.17057677088138459 0.38517563384246473 0 0.17483608460452671 0.38408134306820579 0 0.17483608460452671 0.38408134306820579 0 0.17983176548752761 0.38786691021480652 0 0.18116007466993631 0.3810016061987419 0 0.17342281280737809 0.39082196821145271 0 0.17483608460452671 0.38408134306820579 0 0.17983176548752761 0.38786691021480652 0 0.17983176548752761 0.38786691021480652 0 0.18116007466993631 0.3810016061987419 0 0.18805029865434461 0.38968997743653611 0 0.20171329825865611 0.37712230697898791 0 0.1931821089199427 0.40019577553496533 0 0.20171329825865611 0.37712230697898791 0 0.1931821089199427 0.40019577553496533 0 0.207878605354786 0.39097053174460189 0 0.18805029865434461 0.38968997743653611 0 0.20171329825865611 0.37712230697898791 0 0.1931821089199427 0.40019577553496533 0 0.19129498360747929 0.36967799172544019 0 0.18805029865434461 0.38968997743653611 0 0.20171329825865611 0.37712230697898791 0 0.19129498360747929 0.36967799172544019 0 0.18805029865434461 0.38968997743653611 0 0.18480561370121071 0.40970196314763208 0 0.18805029865434461 0.38968997743653611 0 0.1931821089199427 0.40019577553496533 0 0.1931821089199427 0.40019577553496533 0 0.207878605354786 0.39097053174460189 0 0.21275151661337269 0.40734919128703889 0 0.207878605354786 0.39097053174460189 0 0.21865848769323989 0.39217535800033831 0 0.21275151661337269 0.40734919128703889 0 0.20171329825865611 0.37712230697898791 0 0.207878605354786 0.39097053174460189 0 0.21574318164706219 0.38023442789942491 0 0.2150069444071688 0.36786998886645272 0 0.20171329825865611 0.37712230697898791 0 0.21574318164706219 0.38023442789942491 0 0.207878605354786 0.39097053174460189 0 0.21865848769323989 0.39217535800033831 0 0.21574318164706219 0.38023442789942491 0 0.22535506731443339 0.37093622217456179 0 0.21574318164706219 0.38023442789942491 0 0.22884878476643969 0.38421291573455651 0 0.22535506731443339 0.37093622217456179 0 0.22884878476643969 0.38421291573455651 0 0.24286449722361661 0.3792236641459521 0 0.21865848769323989 0.39217535800033831 0 0.21574318164706219 0.38023442789942491 0 0.22884878476643969 0.38421291573455651 0 0.21865848769323989 0.39217535800033831 0 0.22884878476643969 0.38421291573455651 0 0.23547276040395321 0.39903697276908462 0 0.21865848769323989 0.39217535800033831 0 0.23547276040395321 0.39903697276908462 0 0.21275151661337269 0.40734919128703889 0 0.23547276040395321 0.39903697276908462 0 0.25440614107901682 0.40739542965516917 0 0.25693803295924073 0.38968393527188272 0 0.22884878476643969 0.38421291573455651 0 0.23547276040395321 0.39903697276908462 0 0.24286449722361661 0.3792236641459521 0 0.23547276040395321 0.39903697276908462 0 0.24286449722361661 0.3792236641459521 0 0.25693803295924073 0.38968393527188272 0 0.2338780058947581 0.42325242518660899 0 0.23262892383638439 0.44524543054661858 0 0.25500449517614349 0.43915565908617921 0 0.2338780058947581 0.42325242518660899 0 0.25500449517614349 0.43915565908617921 0 0.23547276040395321 0.39903697276908462 0 0.2338780058947581 0.42325242518660899 0 0.25440614107901682 0.40739542965516917 0 0.2338780058947581 0.42325242518660899 0 0.21275151661337269 0.40734919128703889 0 0.23547276040395321 0.39903697276908462 0 0.2338780058947581 0.42325242518660899 0 0.21275151661337269 0.40734919128703889 0 0.2338780058947581 0.42325242518660899 0 0.20926811852706789 0.43396092786314672 0 0.23262892383638439 0.44524543054661858 0 0.2338780058947581 0.42325242518660899 0 0.20926811852706789 0.43396092786314672 0 0.21275151661337269 0.40734919128703889 0 0.20926811852706789 0.43396092786314672 0 0.21275151661337269 0.40734919128703889 0 0.1986551133143527 0.41677720817025221 0 0.18465091958122931 0.42326924409094269 0 0.18480561370121071 0.40970196314763208 0 0.1931821089199427 0.40019577553496533 0 0.18465091958122931 0.42326924409094269 0 0.1931821089199427 0.40019577553496533 0 0.18465091958122931 0.42326924409094269 0 0.1931821089199427 0.40019577553496533 0 0.1986551133143527 0.41677720817025221 0 0.1931821089199427 0.40019577553496533 0 0.21275151661337269 0.40734919128703889 0 0.1986551133143527 0.41677720817025221 0 0.18465091958122931 0.42326924409094269 0 0.1986551133143527 0.41677720817025221 0 0.1923494498589858 0.43922959655829158 0 0.20926811852706789 0.43396092786314672 0 0.1986551133143527 0.41677720817025221 0 0.1923494498589858 0.43922959655829158 0 0.20926811852706789 0.43396092786314672 0 0.1923494498589858 0.43922959655829158 0 0.19686114342410879 0.45475711585495032 0 0.1923494498589858 0.43922959655829158 0 0.19686114342410879 0.45475711585495032 0 0.17611973024251579 0.44634271264692021 0 0.19686114342410879 0.45475711585495032 0 0.21640004175712399 0.46195609653170627 0 0.18807350597338399 0.47249696348910142 0 0.20926811852706789 0.43396092786314672 0 0.19686114342410879 0.45475711585495032 0 0.21640004175712399 0.46195609653170627 0 0.20926811852706789 0.43396092786314672 0 0.21640004175712399 0.46195609653170627 0 0.23262892383638439 0.44524543054661858 0 0.21640004175712399 0.46195609653170627 0 0.23262892383638439 0.44524543054661858 0 0.24590487777104431 0.4635515563732871 0 0.23262892383638439 0.44524543054661858 0 0.24590487777104431 0.4635515563732871 0 0.25500449517614349 0.43915565908617921 0 0.23531261160026559 0.48194425525061713 0 0.22763057179324611 0.5 0 0.25372491980363721 0.5 0 0.24590487777104431 0.4635515563732871 0 0.23531261160026559 0.48194425525061713 0 0.26218229685143229 0.47965144449391939 0 0.21640004175712399 0.46195609653170627 0 0.24590487777104431 0.4635515563732871 0 0.23531261160026559 0.48194425525061713 0 0.21640004175712399 0.46195609653170627 0 0.23531261160026559 0.48194425525061713 0 0.21396795810164759 0.48283731026029658 0 0.23531261160026559 0.48194425525061713 0 0.22763057179324611 0.5 0 0.21396795810164759 0.48283731026029658 0 0.22763057179324611 0.5 0 0.21396795810164759 0.48283731026029658 0 0.2015362237828551 0.5 0 0.21640004175712399 0.46195609653170627 0 0.21396795810164759 0.48283731026029658 0 0.18807350597338399 0.47249696348910142 0 0.21396795810164759 0.48283731026029658 0 0.18807350597338399 0.47249696348910142 0 0.2015362237828551 0.5 0 0.18807350597338399 0.47249696348910142 0 0.2015362237828551 0.5 0 0.17544187577246409 0.5 0 0.17544187577246409 0.5 0 0.15958895389018549 0.47814263108556732 0 0.14934752776207311 0.5 0 0.18807350597338399 0.47249696348910142 0 0.15958895389018549 0.47814263108556732 0 0.16465689205897699 0.45943817073606902 0 0.18807350597338399 0.47249696348910142 0 0.17544187577246409 0.5 0 0.15958895389018549 0.47814263108556732 0 0.18807350597338399 0.47249696348910142 0 0.17611973024251579 0.44634271264692021 0 0.16465689205897699 0.45943817073606902 0 0.19686114342410879 0.45475711585495032 0 0.18807350597338399 0.47249696348910142 0 0.17611973024251579 0.44634271264692021 0 0.17611973024251579 0.44634271264692021 0 0.1568227773259066 0.44150953447992208 0 0.16465689205897699 0.45943817073606902 0 0.16792702902231549 0.42935273499070142 0 0.17611973024251579 0.44634271264692021 0 0.1568227773259066 0.44150953447992208 0 0.1568227773259066 0.44150953447992208 0 0.16465689205897699 0.45943817073606902 0 0.14267949286289319 0.45869901197883389 0 0.15958895389018549 0.47814263108556732 0 0.16465689205897699 0.45943817073606902 0 0.14267949286289319 0.45869901197883389 0 0.13724734189001661 0.43508617232299002 0 0.1568227773259066 0.44150953447992208 0 0.14267949286289319 0.45869901197883389 0 0.1227989211907968 0.44853505645094688 0 0.13724734189001661 0.43508617232299002 0 0.14267949286289319 0.45869901197883389 0 0.1183039608549063 0.47413811303567072 0 0.1227989211907968 0.44853505645094688 0 0.14267949286289319 0.45869901197883389 0 0.1183039608549063 0.47413811303567072 0 0.14267949286289319 0.45869901197883389 0 0.1392823528358996 0.48075325321815432 0 0.123253179751682 0.5 0 0.1392823528358996 0.48075325321815432 0 0.14934752776207311 0.5 0 0.123253179751682 0.5 0 0.1183039608549063 0.47413811303567072 0 0.1392823528358996 0.48075325321815432 0 0.15958895389018549 0.47814263108556732 0 0.1392823528358996 0.48075325321815432 0 0.14934752776207311 0.5 0 0.15958895389018549 0.47814263108556732 0 0.14267949286289319 0.45869901197883389 0 0.1392823528358996 0.48075325321815432 0 0.3466119474657392 0.47435710074620291 0 0.36955953445411149 0.48141991283557128 0 0.36103979365723499 0.46185601712742402 0 0.3466119474657392 0.47435710074620291 0 0.35844428657063693 0.5 0 0.36955953445411149 0.48141991283557128 0 0.3466119474657392 0.47435710074620291 0 0.35844428657063693 0.5 0 0.3404149305030717 0.48837622892907051 0 0.35844428657063693 0.5 0 0.36955953445411149 0.48141991283557128 0 0.38646498490708159 0.5 0 0.36955953445411149 0.48141991283557128 0 0.36103979365723499 0.46185601712742402 0 0.38093761547121879 0.46480004200353908 0 0.36103979365723499 0.46185601712742402 0 0.37339696152701402 0.44208754989350779 0 0.38093761547121879 0.46480004200353908 0 0.36103979365723499 0.46185601712742402 0 0.37339696152701402 0.44208754989350779 0 0.35043907611261932 0.44637647142601278 0 0.3466119474657392 0.47435710074620291 0 0.36103979365723499 0.46185601712742402 0 0.34219953427806621 0.45986992318946912 0 0.36103979365723499 0.46185601712742402 0 0.35043907611261932 0.44637647142601278 0 0.34219953427806621 0.45986992318946912 0 0.3466119474657392 0.47435710074620291 0 0.34219953427806621 0.45986992318946912 0 0.3320771544104173 0.46769378541840978 0 0.34219953427806621 0.45986992318946912 0 0.33027573701613161 0.45769844503064178 0 0.33836703605783908 0.45177307476996248 0 0.34219953427806621 0.45986992318946912 0 0.33027573701613161 0.45769844503064178 0 0.3320771544104173 0.46769378541840978 0 0.35043907611261932 0.44637647142601278 0 0.33836703605783908 0.45177307476996248 0 0.33055379682453939 0.44314745943372658 0 0.35043907611261932 0.44637647142601278 0 0.33055379682453939 0.44314745943372658 0 0.33612880091492559 0.43414283426999267 0 0.35043907611261932 0.44637647142601278 0 0.34219953427806621 0.45986992318946912 0 0.33836703605783908 0.45177307476996248 0 0.33027573701613161 0.45769844503064178 0 0.33836703605783908 0.45177307476996248 0 0.33055379682453939 0.44314745943372658 0 0.33055379682453939 0.44314745943372658 0 0.31735895654795981 0.4560952228466616 0 0.33612880091492559 0.43414283426999267 0 0.32206360743829088 0.4411172788871775 0 0.31735895654795981 0.4560952228466616 0 0.33612880091492559 0.43414283426999267 0 0.31735895654795981 0.4560952228466616 0 0.33612880091492559 0.43414283426999267 0 0.33055379682453939 0.44314745943372658 0 0.3211701611822757 0.46209830628915161 0 0.32206360743829088 0.4411172788871775 0 0.31437221141459187 0.44813164881602929 0 0.31735895654795981 0.4560952228466616 0 0.31437221141459187 0.44813164881602929 0 0.31735895654795981 0.4560952228466616 0 0.30911044941567051 0.45218166007787741 0 0.32206360743829088 0.4411172788871775 0 0.30895583225644641 0.443132433452401 0 0.30767655093949842 0.42905330117373841 0 0.32206360743829088 0.4411172788871775 0 0.31437221141459187 0.44813164881602929 0 0.30895583225644641 0.443132433452401 0 0.33055379682453939 0.44314745943372658 0 0.3211701611822757 0.46209830628915161 0 0.31735895654795981 0.4560952228466616 0 0.33027573701613161 0.45769844503064178 0 0.33055379682453939 0.44314745943372658 0 0.3211701611822757 0.46209830628915161 0 0.33027573701613161 0.45769844503064178 0 0.3320771544104173 0.46769378541840978 0 0.3211701611822757 0.46209830628915161 0 0.3320771544104173 0.46769378541840978 0 0.3211701611822757 0.46209830628915161 0 0.32388165568391092 0.47279691694440262 0 0.32388165568391092 0.47279691694440262 0 0.33049278160293871 0.48034642292547208 0 0.31178652554001202 0.48104915314457658 0 0.3211701611822757 0.46209830628915161 0 0.31178652554001202 0.48104915314457658 0 0.3211701611822757 0.46209830628915161 0 0.32388165568391092 0.47279691694440262 0 0.31178652554001202 0.48104915314457658 0 0.3466119474657392 0.47435710074620291 0 0.3320771544104173 0.46769378541840978 0 0.33049278160293871 0.48034642292547208 0 0.3320771544104173 0.46769378541840978 0 0.32388165568391092 0.47279691694440262 0 0.33049278160293871 0.48034642292547208 0 0.3466119474657392 0.47435710074620291 0 0.33049278160293871 0.48034642292547208 0 0.3404149305030717 0.48837622892907051 0 0.35844428657063693 0.5 0 0.33042358823419232 0.5 0 0.3404149305030717 0.48837622892907051 0 0.33049278160293871 0.48034642292547208 0 0.33042358823419232 0.5 0 0.3404149305030717 0.48837622892907051 0 0.33042358823419232 0.5 0 0.30240288989774761 0.50000000000000133 0 0.31178652554001202 0.48104915314457658 0 0.33049278160293871 0.48034642292547208 0 0.33042358823419232 0.5 0 0.31178652554001202 0.48104915314457658 0 0.30240288989774761 0.50000000000000133 0 0.31178652554001202 0.48104915314457658 0 0.29858911218099388 0.47804761142333041 0 0.30240288989774761 0.50000000000000133 0 0.31178652554001202 0.48104915314457658 0 0.29725747373891409 0.47096212688531919 0 0.29858911218099388 0.47804761142333041 0 0.30394549120614872 0.46162163170145309 0 0.3211701611822757 0.46209830628915161 0 0.31178652554001202 0.48104915314457658 0 0.29858911218099388 0.47804761142333041 0 0.29725747373891409 0.47096212688531919 0 0.29858911218099388 0.47804761142333041 0 0.28220111966208949 0.47735396235386302 0 0.29858911218099388 0.47804761142333041 0 0.27981926781402833 0.49999999999999939 0 0.29858911218099388 0.47804761142333041 0 0.28220111966208949 0.47735396235386302 0 0.27981926781402833 0.49999999999999939 0 0.30240288989774761 0.50000000000000133 0 0.29858911218099388 0.47804761142333041 0 0.27981926781402833 0.49999999999999939 0 0.28220111966208949 0.47735396235386302 0 0.27981926781402833 0.49999999999999939 0 0.26218229685143229 0.47965144449391939 0 0.28220111966208949 0.47735396235386302 0 0.26218229685143229 0.47965144449391939 0 0.27613098445752893 0.4550588929857492 0 0.23531261160026559 0.48194425525061713 0 0.26218229685143229 0.47965144449391939 0 0.25372491980363721 0.5 0 0.27981926781402833 0.49999999999999939 0 0.26218229685143229 0.47965144449391939 0 0.25372491980363721 0.5 0 0.25500449517614349 0.43915565908617921 0 0.27613098445752893 0.4550588929857492 0 0.26734494259474612 0.42343895336183768 0 0.24590487777104431 0.4635515563732871 0 0.25500449517614349 0.43915565908617921 0 0.27613098445752893 0.4550588929857492 0 0.25500449517614349 0.43915565908617921 0 0.27613098445752893 0.4550588929857492 0 0.24590487777104431 0.4635515563732871 0 0.26218229685143229 0.47965144449391939 0 0.27613098445752893 0.4550588929857492 0 0.30070663495474709 0.43766865088546281 0 0.29689887691674288 0.44945424935861261 0 0.28929527970630098 0.42903461955709921 0 0.27613098445752893 0.4550588929857492 0 0.29689887691674288 0.44945424935861261 0 0.28929527970630098 0.42903461955709921 0 0.29725747373891409 0.47096212688531919 0 0.27613098445752893 0.4550588929857492 0 0.29725747373891409 0.47096212688531919 0 0.28220111966208949 0.47735396235386302 0 0.27613098445752893 0.4550588929857492 0 0.29725747373891409 0.47096212688531919 0 0.27613098445752893 0.4550588929857492 0 0.29689887691674288 0.44945424935861261 0 0.3211701611822757 0.46209830628915161 0 0.31735895654795981 0.4560952228466616 0 0.29858911218099388 0.47804761142333041 0 0.31735895654795981 0.4560952228466616 0 0.29858911218099388 0.47804761142333041 0 0.31735895654795981 0.4560952228466616 0 0.29858911218099388 0.47804761142333041 0 0.30394549120614872 0.46162163170145309 0 0.29725747373891409 0.47096212688531919 0 0.30394549120614872 0.46162163170145309 0 0.29689887691674288 0.44945424935861261 0 0.30394549120614872 0.46162163170145309 0 0.29689887691674288 0.44945424935861261 0 0.30911044941567051 0.45218166007787741 0 0.31735895654795981 0.4560952228466616 0 0.30394549120614872 0.46162163170145309 0 0.30911044941567051 0.45218166007787741 0 0.30070663495474709 0.43766865088546281 0 0.29689887691674288 0.44945424935861261 0 0.30895583225644641 0.443132433452401 0 0.29689887691674288 0.44945424935861261 0 0.30911044941567051 0.45218166007787741 0 0.30895583225644641 0.443132433452401 0 0.31437221141459187 0.44813164881602929 0 0.30911044941567051 0.45218166007787741 0 0.30895583225644641 0.443132433452401 0 0.30767655093949842 0.42905330117373841 0 0.29814378320479767 0.40762111018928587 0 0.28929527970630098 0.42903461955709921 0 0.30070663495474709 0.43766865088546281 0 0.30895583225644641 0.443132433452401 0 0.30767655093949842 0.42905330117373841 0 0.30070663495474709 0.43766865088546281 0 0.30767655093949842 0.42905330117373841 0 0.28929527970630098 0.42903461955709921 0 0.29814378320479767 0.40762111018928587 0 0.31526661054477739 0.40145988752310757 0 0.31374305470740332 0.41450678878344038 0 0.30767655093949842 0.42905330117373841 0 0.29814378320479767 0.40762111018928587 0 0.31374305470740332 0.41450678878344038 0 0.29814378320479767 0.40762111018928587 0 0.28929527970630098 0.42903461955709921 0 0.27630240611508422 0.4036576396530418 0 0.27613098445752893 0.4550588929857492 0 0.28929527970630098 0.42903461955709921 0 0.26734494259474612 0.42343895336183768 0 0.2338780058947581 0.42325242518660899 0 0.25500449517614349 0.43915565908617921 0 0.26734494259474612 0.42343895336183768 0 0.2338780058947581 0.42325242518660899 0 0.26734494259474612 0.42343895336183768 0 0.25440614107901682 0.40739542965516917 0 0.28929527970630098 0.42903461955709921 0 0.26734494259474612 0.42343895336183768 0 0.27630240611508422 0.4036576396530418 0 0.26734494259474612 0.42343895336183768 0 0.25440614107901682 0.40739542965516917 0 0.27630240611508422 0.4036576396530418 0 0.24286449722361661 0.3792236641459521 0 0.25693803295924073 0.38968393527188272 0 0.25715691338117619 0.37069804294421133 0 0.25693803295924073 0.38968393527188272 0 0.27619309981883439 0.38025090324414529 0 0.25715691338117619 0.37069804294421133 0 0.25440614107901682 0.40739542965516917 0 0.25693803295924073 0.38968393527188272 0 0.27630240611508422 0.4036576396530418 0 0.25693803295924073 0.38968393527188272 0 0.27630240611508422 0.4036576396530418 0 0.27619309981883439 0.38025090324414529 0 0.27619309981883439 0.38025090324414529 0 0.29192220956415899 0.38910549810377382 0 0.2965213462350561 0.3680850790348496 0 0.27630240611508422 0.4036576396530418 0 0.27619309981883439 0.38025090324414529 0 0.29192220956415899 0.38910549810377382 0 0.29814378320479767 0.40762111018928587 0 0.27630240611508422 0.4036576396530418 0 0.29192220956415899 0.38910549810377382 0 0.29814378320479767 0.40762111018928587 0 0.30970548856526181 0.38630165248160708 0 0.29814378320479767 0.40762111018928587 0 0.30970548856526181 0.38630165248160708 0 0.31526661054477739 0.40145988752310757 0 0.29814378320479767 0.40762111018928587 0 0.29192220956415899 0.38910549810377382 0 0.30970548856526181 0.38630165248160708 0 0.29192220956415899 0.38910549810377382 0 0.30970548856526181 0.38630165248160708 0 0.2965213462350561 0.3680850790348496 0 0.30970548856526181 0.38630165248160708 0 0.32126719392572578 0.36498219477392851 0 0.30970548856526181 0.38630165248160708 0 0.32842244605259518 0.38959005820445142 0 0.32126719392572578 0.36498219477392851 0 0.32842244605259518 0.38959005820445142 0 0.34202193887440901 0.37621313862622541 0 0.32126719392572578 0.36498219477392851 0 0.32842244605259518 0.38959005820445142 0 0.34202193887440901 0.37621313862622541 0 0.34125596736992908 0.40165592289314189 0 0.32842244605259518 0.38959005820445142 0 0.34125596736992908 0.40165592289314189 0 0.32631828019382891 0.40927982795675311 0 0.30970548856526181 0.38630165248160708 0 0.32842244605259518 0.38959005820445142 0 0.31526661054477739 0.40145988752310757 0 0.32842244605259518 0.38959005820445142 0 0.31526661054477739 0.40145988752310757 0 0.32631828019382891 0.40927982795675311 0 0.31374305470740332 0.41450678878344038 0 0.32631828019382891 0.40927982795675311 0 0.32372483283707199 0.42545233459364812 0 0.31526661054477739 0.40145988752310757 0 0.31374305470740332 0.41450678878344038 0 0.32631828019382891 0.40927982795675311 0 0.32206360743829088 0.4411172788871775 0 0.32372483283707199 0.42545233459364812 0 0.33612880091492559 0.43414283426999267 0 0.30767655093949842 0.42905330117373841 0 0.31374305470740332 0.41450678878344038 0 0.32372483283707199 0.42545233459364812 0 0.32206360743829088 0.4411172788871775 0 0.30767655093949842 0.42905330117373841 0 0.32372483283707199 0.42545233459364812 0 0.32372483283707199 0.42545233459364812 0 0.33612880091492559 0.43414283426999267 0 0.33677291868720582 0.41846632002953349 0 0.33612880091492559 0.43414283426999267 0 0.33677291868720582 0.41846632002953349 0 0.35481309884138512 0.42092088798930027 0 0.32631828019382891 0.40927982795675311 0 0.32372483283707199 0.42545233459364812 0 0.33677291868720582 0.41846632002953349 0 0.34125596736992908 0.40165592289314189 0 0.32631828019382891 0.40927982795675311 0 0.33677291868720582 0.41846632002953349 0 0.35481309884138512 0.42092088798930027 0 0.35918712157015109 0.39546530455258783 0 0.34125596736992908 0.40165592289314189 0 0.33677291868720582 0.41846632002953349 0 0.35481309884138512 0.42092088798930027 0 0.35043907611261932 0.44637647142601278 0 0.35481309884138512 0.42092088798930027 0 0.35043907611261932 0.44637647142601278 0 0.33612880091492559 0.43414283426999267 0 0.35481309884138512 0.42092088798930027 0 0.37339696152701402 0.44208754989350779 0 0.35481309884138512 0.42092088798930027 0 0.37548462739454758 0.414948727731144 0 0.37339696152701402 0.44208754989350779 0 0.35043907611261932 0.44637647142601278 0 0.35481309884138512 0.42092088798930027 0 0.35481309884138512 0.42092088798930027 0 0.35918712157015109 0.39546530455258783 0 0.37548462739454758 0.414948727731144 0 0.35918712157015109 0.39546530455258783 0 0.37587030772319491 0.38911498699501551 0 0.37548462739454758 0.414948727731144 0 0.35918712157015109 0.39546530455258783 0 0.36356114429891689 0.37000972111587521 0 0.37587030772319491 0.38911498699501551 0 0.35918712157015109 0.39546530455258783 0 0.36356114429891689 0.37000972111587521 0 0.36356114429891689 0.37000972111587521 0 0.37925862339361788 0.36859874143749149 0 0.37587030772319491 0.38911498699501551 0 0.34202193887440901 0.37621313862622541 0 0.35918712157015109 0.39546530455258783 0 0.36356114429891689 0.37000972111587521 0 0.34202193887440901 0.37621313862622541 0 0.34125596736992908 0.40165592289314189 0 0.35918712157015109 0.39546530455258783 0 0.34125596736992908 0.40165592289314189 0 0.35481309884138512 0.42092088798930027 0 0.35918712157015109 0.39546530455258783 0 0.34979617018310449 0.35544600566648621 0 0.36793516702768292 0.34455413767916249 0 0.3508687583786923 0.33898019500123672 0 0.34979617018310449 0.35544600566648621 0 0.3508687583786923 0.33898019500123672 0 0.33282889928618981 0.34366273706624972 0 0.34202193887440901 0.37621313862622541 0 0.34979617018310449 0.35544600566648621 0 0.36356114429891689 0.37000972111587521 0 0.36356114429891689 0.37000972111587521 0 0.36553683500632311 0.35851175625237192 0 0.36356114429891689 0.37000972111587521 0 0.36553683500632311 0.35851175625237192 0 0.37925862339361788 0.36859874143749149 0 0.34979617018310449 0.35544600566648621 0 0.36356114429891689 0.37000972111587521 0 0.36553683500632311 0.35851175625237192 0 0.36553683500632311 0.35851175625237192 0 0.37716757539731799 0.35699376570784741 0 0.37925862339361788 0.36859874143749149 0 0.36553683500632311 0.35851175625237192 0 0.37478911394279663 0.33397524985268912 0 0.34979617018310449 0.35544600566648621 0 0.36553683500632311 0.35851175625237192 0 0.36793516702768292 0.34455413767916249 0 0.36553683500632311 0.35851175625237192 0 0.37893109631740751 0.34874911958917693 0 0.37716757539731799 0.35699376570784741 0 0.36553683500632311 0.35851175625237192 0 0.37478911394279663 0.33397524985268912 0 0.37893109631740751 0.34874911958917693 0 0.36553683500632311 0.35851175625237192 0 0.36793516702768292 0.34455413767916249 0 0.37478911394279663 0.33397524985268912 0 0.36553683500632311 0.35851175625237192 0 0.36793516702768292 0.34455413767916249 0 0.36793516702768292 0.34455413767916249 0 0.37478911394279663 0.33397524985268912 0 0.37230918975644889 0.31909855424244982 0 0.36793516702768292 0.34455413767916249 0 0.35939295074983041 0.32889481523571418 0 0.37230918975644889 0.31909855424244982 0 0.36793516702768292 0.34455413767916249 0 0.37230918975644889 0.31909855424244982 0 0.36793516702768292 0.34455413767916249 0 0.35939295074983041 0.32889481523571418 0 0.3508687583786923 0.33898019500123672 0 0.35939295074983041 0.32889481523571418 0 0.37230918975644889 0.31909855424244982 0 0.35789909005818821 0.31067869813905752 0 0.35939295074983041 0.32889481523571418 0 0.34439060464665378 0.32234327935857099 0 0.35789909005818821 0.31067869813905752 0 0.35939295074983041 0.32889481523571418 0 0.34439060464665378 0.32234327935857099 0 0.3508687583786923 0.33898019500123672 0 0.34439060464665378 0.32234327935857099 0 0.33282889928618981 0.34366273706624972 0 0.34439060464665378 0.32234327935857099 0 0.33282889928618981 0.34366273706624972 0 0.32307621582225232 0.3252270821592303 0 0.34439060464665378 0.32234327935857099 0 0.3508687583786923 0.33898019500123672 0 0.33282889928618981 0.34366273706624972 0 0.34439060464665378 0.32234327935857099 0 0.32307621582225232 0.3252270821592303 0 0.33243843618521179 0.30564985912806653 0 0.32307621582225232 0.3252270821592303 0 0.31238203812722942 0.30798890485322261 0 0.33243843618521179 0.30564985912806653 0 0.33282889928618981 0.34366273706624972 0 0.32307621582225232 0.3252270821592303 0 0.311001807136428 0.34653894044201228 0 0.33282889928618981 0.34366273706624972 0 0.32126719392572578 0.36498219477392851 0 0.311001807136428 0.34653894044201228 0 0.33282889928618981 0.34366273706624972 0 0.32126719392572578 0.36498219477392851 0 0.33282889928618981 0.34366273706624972 0 0.33634933699338071 0.36064731331902211 0 0.32126719392572578 0.36498219477392851 0 0.34979617018310449 0.35544600566648621 0 0.33282889928618981 0.34366273706624972 0 0.33634933699338071 0.36064731331902211 0 0.34202193887440901 0.37621313862622541 0 0.34979617018310449 0.35544600566648621 0 0.33634933699338071 0.36064731331902211 0 0.34202193887440901 0.37621313862622541 0 0.33634933699338071 0.36064731331902211 0 0.32126719392572578 0.36498219477392851 0 0.30970548856526181 0.38630165248160708 0 0.32126719392572578 0.36498219477392851 0 0.2965213462350561 0.3680850790348496 0 0.32126719392572578 0.36498219477392851 0 0.311001807136428 0.34653894044201228 0 0.2965213462350561 0.3680850790348496 0 0.311001807136428 0.34653894044201228 0 0.29075077899048618 0.34885473146080298 0 0.2965213462350561 0.3680850790348496 0 0.29075077899048618 0.34885473146080298 0 0.2965213462350561 0.3680850790348496 0 0.27441310809995068 0.36151219532306311 0 0.27619309981883439 0.38025090324414529 0 0.2965213462350561 0.3680850790348496 0 0.27441310809995068 0.36151219532306311 0 0.27619309981883439 0.38025090324414529 0 0.27441310809995068 0.36151219532306311 0 0.25715691338117619 0.37069804294421133 0 0.27441310809995068 0.36151219532306311 0 0.26911792135377738 0.34488189757901522 0 0.2549174677925593 0.35400984449820649 0 0.29075077899048618 0.34885473146080298 0 0.27441310809995068 0.36151219532306311 0 0.26911792135377738 0.34488189757901522 0 0.24245458021815861 0.34807196438065968 0 0.2549174677925593 0.35400984449820649 0 0.25334434943086531 0.33817461409465849 0 0.26911792135377738 0.34488189757901522 0 0.2549174677925593 0.35400984449820649 0 0.25334434943086531 0.33817461409465849 0 0.23793511617045451 0.36040731550714661 0 0.2549174677925593 0.35400984449820649 0 0.25715691338117619 0.37069804294421133 0 0.27441310809995068 0.36151219532306311 0 0.2549174677925593 0.35400984449820649 0 0.25715691338117619 0.37069804294421133 0 0.2422144148352007 0.30840559904210912 0 0.24990084266874429 0.32367317630407949 0 0.26053922699804788 0.31505883873888191 0 0.24990084266874429 0.32367317630407949 0 0.26053922699804788 0.31505883873888191 0 0.26570137339406352 0.32956758335975322 0 0.24990084266874429 0.32367317630407949 0 0.25334434943086531 0.33817461409465849 0 0.26570137339406352 0.32956758335975322 0 0.26911792135377738 0.34488189757901522 0 0.25334434943086531 0.33817461409465849 0 0.26570137339406352 0.32956758335975322 0 0.29075077899048618 0.34885473146080298 0 0.26911792135377738 0.34488189757901522 0 0.28130691332509211 0.33361627537131661 0 0.26911792135377738 0.34488189757901522 0 0.26570137339406352 0.32956758335975322 0 0.28130691332509211 0.33361627537131661 0 0.26570137339406352 0.32956758335975322 0 0.28039226191687838 0.31573796064612852 0 0.28130691332509211 0.33361627537131661 0 0.26053922699804788 0.31505883873888191 0 0.26570137339406352 0.32956758335975322 0 0.28039226191687838 0.31573796064612852 0 0.28039226191687838 0.31573796064612852 0 0.28130691332509211 0.33361627537131661 0 0.3015664085588578 0.32842181815701271 0 0.28039226191687838 0.31573796064612852 0 0.3015664085588578 0.32842181815701271 0 0.29733240111912529 0.30770415112582578 0 0.29075077899048618 0.34885473146080298 0 0.28130691332509211 0.33361627537131661 0 0.3015664085588578 0.32842181815701271 0 0.29075077899048618 0.34885473146080298 0 0.3015664085588578 0.32842181815701271 0 0.32307621582225232 0.3252270821592303 0 0.311001807136428 0.34653894044201228 0 0.3015664085588578 0.32842181815701271 0 0.311001807136428 0.34653894044201228 0 0.29075077899048618 0.34885473146080298 0 0.3015664085588578 0.32842181815701271 0 0.32307621582225232 0.3252270821592303 0 0.3015664085588578 0.32842181815701271 0 0.31238203812722942 0.30798890485322261 0 0.3015664085588578 0.32842181815701271 0 0.31238203812722942 0.30798890485322261 0 0.3015664085588578 0.32842181815701271 0 0.31238203812722942 0.30798890485322261 0 0.29733240111912529 0.30770415112582578 0 0.31238203812722942 0.30798890485322261 0 0.29733240111912529 0.30770415112582578 0 0.3074106909938244 0.29400742131152952 0 0.29733240111912529 0.30770415112582578 0 0.3074106909938244 0.29400742131152952 0 0.29645817164033827 0.29307411812204381 0 0.3074106909938244 0.29400742131152952 0 0.30042658553445101 0.2853728736848567 0 0.3083006019872418 0.28075650968009491 0 0.3074106909938244 0.29400742131152952 0 0.30042658553445101 0.2853728736848567 0 0.29645817164033827 0.29307411812204381 0 0.30042658553445101 0.2853728736848567 0 0.29176889071183948 0.28505382028050508 0 0.29730519254043231 0.27345333268771471 0 0.29176889071183948 0.28505382028050508 0 0.29645817164033827 0.29307411812204381 0 0.28676006951550609 0.2874141496425715 0 0.30042658553445101 0.2853728736848567 0 0.29176889071183948 0.28505382028050508 0 0.29645817164033827 0.29307411812204381 0 0.29176889071183948 0.28505382028050508 0 0.28676006951550609 0.2874141496425715 0 0.29645817164033827 0.29307411812204381 0 0.28676006951550609 0.2874141496425715 0 0.29645817164033827 0.29307411812204381 0 0.28676006951550609 0.2874141496425715 0 0.2850860292734399 0.3003680507757821 0 0.29176889071183948 0.28505382028050508 0 0.28676006951550609 0.2874141496425715 0 0.28710972280600061 0.27774439211481522 0 0.28039226191687838 0.31573796064612852 0 0.29733240111912529 0.30770415112582578 0 0.2850860292734399 0.3003680507757821 0 0.29733240111912529 0.30770415112582578 0 0.29645817164033827 0.29307411812204381 0 0.2850860292734399 0.3003680507757821 0 0.28039226191687838 0.31573796064612852 0 0.2850860292734399 0.3003680507757821 0 0.26448724217535258 0.29790987434233868 0 0.26053922699804788 0.31505883873888191 0 0.28039226191687838 0.31573796064612852 0 0.26448724217535258 0.29790987434233868 0 0.28676006951550609 0.2874141496425715 0 0.26541451967718699 0.28663077599929021 0 0.26448724217535258 0.29790987434233868 0 0.28676006951550609 0.2874141496425715 0 0.26448724217535258 0.29790987434233868 0 0.28676006951550609 0.2874141496425715 0 0.26541451967718699 0.28663077599929021 0 0.26164778750359552 0.27275821770811598 0 0.28676006951550609 0.2874141496425715 0 0.2850860292734399 0.3003680507757821 0 0.26448724217535258 0.29790987434233868 0 0.25193110116939837 0.29058190837511277 0 0.26164778750359552 0.27275821770811598 0 0.26541451967718699 0.28663077599929021 0 0.25193110116939837 0.29058190837511277 0 0.26448724217535258 0.29790987434233868 0 0.26541451967718699 0.28663077599929021 0 0.25193110116939837 0.29058190837511277 0 0.26164778750359552 0.27275821770811598 0 0.2422144148352007 0.30840559904210912 0 0.26053922699804788 0.31505883873888191 0 0.26448724217535258 0.29790987434233868 0 0.2422144148352007 0.30840559904210912 0 0.26448724217535258 0.29790987434233868 0 0.2422144148352007 0.30840559904210912 0 0.25193110116939837 0.29058190837511277 0 0.26448724217535258 0.29790987434233868 0 0.24291065407169329 0.26182292508538169 0 0.25973151778068893 0.25367874042682947 0 0.25859327421991551 0.2494597678777338 0 0.24291065407169329 0.26182292508538169 0 0.25859327421991551 0.2494597678777338 0 0.24291065407169329 0.26182292508538169 0 0.25973151778068893 0.25367874042682947 0 0.25219810148588018 0.26724322886672169 0 0.25973151778068893 0.25367874042682947 0 0.26380929483464222 0.26879328185262669 0 0.2657844840571153 0.25392006059086852 0 0.25973151778068893 0.25367874042682947 0 0.25219810148588018 0.26724322886672169 0 0.26380929483464222 0.26879328185262669 0 0.25973151778068893 0.25367874042682947 0 0.26380929483464222 0.26879328185262669 0 0.25973151778068893 0.25367874042682947 0 0.2657844840571153 0.25392006059086852 0 0.26266022157239621 0.24840538672223431 0 0.25973151778068893 0.25367874042682947 0 0.26266022157239621 0.24840538672223431 0 0.25973151778068893 0.25367874042682947 0 0.25859327421991551 0.2494597678777338 0 0.25973151778068893 0.25367874042682947 0 0.26266022157239621 0.24840538672223431 0 0.25859327421991551 0.2494597678777338 0 0.25973151778068893 0.25367874042682947 0 0.25219810148588018 0.26724322886672169 0 0.25219810148588018 0.26724322886672169 0 0.26164778750359552 0.27275821770811598 0 0.25193110116939837 0.29058190837511277 0 0.25219810148588018 0.26724322886672169 0 0.26164778750359552 0.27275821770811598 0 0.25219810148588018 0.26724322886672169 0 0.26164778750359552 0.27275821770811598 0 0.26380929483464222 0.26879328185262669 0 0.26516680915633978 0.27382499549953282 0 0.26164778750359552 0.27275821770811598 0 0.26380929483464222 0.26879328185262669 0 0.26516680915633978 0.27382499549953282 0 0.26380929483464222 0.26879328185262669 0 0.26164778750359552 0.27275821770811598 0 0.26380929483464222 0.26879328185262669 0 0.26516680915633978 0.27382499549953282 0 0.26975115179103748 0.26875776194029899 0 0.2778987838412928 0.27404881191656472 0 0.28676006951550609 0.2874141496425715 0 0.26516680915633978 0.27382499549953282 0 0.2778987838412928 0.27404881191656472 0 0.28676006951550609 0.2874141496425715 0 0.26516680915633978 0.27382499549953282 0 0.26164778750359552 0.27275821770811598 0 0.28676006951550609 0.2874141496425715 0 0.26164778750359552 0.27275821770811598 0 0.26516680915633978 0.27382499549953282 0 0.26380929483464222 0.26879328185262669 0 0.26975115179103748 0.26875776194029899 0 0.2778987838412928 0.27404881191656472 0 0.27497684629303282 0.26706580293302978 0 0.28475881927146862 0.26804927532936912 0 0.26975115179103748 0.26875776194029899 0 0.2778987838412928 0.27404881191656472 0 0.27497684629303282 0.26706580293302978 0 0.26380929483464222 0.26879328185262669 0 0.27233146060088798 0.25316074610884981 0 0.26380929483464222 0.26879328185262669 0 0.27233146060088798 0.25316074610884981 0 0.2657844840571153 0.25392006059086852 0 0.27497684629303282 0.26706580293302978 0 0.28258890277642112 0.25851618897480427 0 0.28475881927146862 0.26804927532936912 0 0.27497684629303282 0.26706580293302978 0 0.27233146060088798 0.25316074610884981 0 0.28258890277642112 0.25851618897480427 0 0.26380929483464222 0.26879328185262669 0 0.26975115179103748 0.26875776194029899 0 0.27233146060088798 0.25316074610884981 0 0.26975115179103748 0.26875776194029899 0 0.27497684629303282 0.26706580293302978 0 0.27233146060088798 0.25316074610884981 0 0.27233146060088798 0.25316074610884981 0 0.2657844840571153 0.25392006059086852 0 0.27038992549696139 0.2455621478438022 0 0.27233146060088798 0.25316074610884981 0 0.28258890277642112 0.25851618897480427 0 0.28504550834992343 0.24884756898793101 0 0.29630545597748881 0.25461063337801759 0 0.28475881927146862 0.26804927532936912 0 0.29730519254043231 0.27345333268771471 0 0.28258890277642112 0.25851618897480427 0 0.29630545597748881 0.25461063337801759 0 0.28504550834992343 0.24884756898793101 0 0.28258890277642112 0.25851618897480427 0 0.29630545597748881 0.25461063337801759 0 0.28475881927146862 0.26804927532936912 0 0.28676006951550609 0.2874141496425715 0 0.2778987838412928 0.27404881191656472 0 0.28710972280600061 0.27774439211481522 0 0.2778987838412928 0.27404881191656472 0 0.28710972280600061 0.27774439211481522 0 0.28475881927146862 0.26804927532936912 0 0.28710972280600061 0.27774439211481522 0 0.28475881927146862 0.26804927532936912 0 0.29730519254043231 0.27345333268771471 0 0.29176889071183948 0.28505382028050508 0 0.28710972280600061 0.27774439211481522 0 0.29730519254043231 0.27345333268771471 0 0.29730519254043231 0.27345333268771471 0 0.3083006019872418 0.28075650968009491 0 0.31497460046591008 0.26310967504609412 0 0.30042658553445101 0.2853728736848567 0 0.29730519254043231 0.27345333268771471 0 0.3083006019872418 0.28075650968009491 0 0.29630545597748881 0.25461063337801759 0 0.31497460046591008 0.26310967504609412 0 0.31816215134194809 0.23474533714592391 0 0.29630545597748881 0.25461063337801759 0 0.29730519254043231 0.27345333268771471 0 0.31497460046591008 0.26310967504609412 0 0.31497460046591008 0.26310967504609412 0 0.33387916702828763 0.25056691403351689 0 0.33401329726397239 0.26712307824564219 0 0.33387916702828763 0.25056691403351689 0 0.33401329726397239 0.26712307824564219 0 0.35081428384065189 0.25367106851290039 0 0.33401329726397239 0.26712307824564219 0 0.32319766769560088 0.2875559915494324 0 0.31497460046591008 0.26310967504609412 0 0.33401329726397239 0.26712307824564219 0 0.32319766769560088 0.2875559915494324 0 0.3083006019872418 0.28075650968009491 0 0.31497460046591008 0.26310967504609412 0 0.32319766769560088 0.2875559915494324 0 0.31238203812722942 0.30798890485322261 0 0.3074106909938244 0.29400742131152952 0 0.32319766769560088 0.2875559915494324 0 0.3074106909938244 0.29400742131152952 0 0.3083006019872418 0.28075650968009491 0 0.32319766769560088 0.2875559915494324 0 0.31238203812722942 0.30798890485322261 0 0.32319766769560088 0.2875559915494324 0 0.31238203812722942 0.30798890485322261 0 0.32319766769560088 0.2875559915494324 0 0.33243843618521179 0.30564985912806653 0 0.33243843618521179 0.30564985912806653 0 0.3442437998168647 0.28925548386291938 0 0.3466340444292596 0.30347262018282262 0 0.34439060464665378 0.32234327935857099 0 0.33243843618521179 0.30564985912806653 0 0.3466340444292596 0.30347262018282262 0 0.33401329726397239 0.26712307824564219 0 0.32319766769560088 0.2875559915494324 0 0.3442437998168647 0.28925548386291938 0 0.32319766769560088 0.2875559915494324 0 0.33243843618521179 0.30564985912806653 0 0.3442437998168647 0.28925548386291938 0 0.3442437998168647 0.28925548386291938 0 0.36056062267741001 0.29399026144527568 0 0.35535556145395991 0.27727391644989052 0 0.3442437998168647 0.28925548386291938 0 0.3466340444292596 0.30347262018282262 0 0.36056062267741001 0.29399026144527568 0 0.3442437998168647 0.28925548386291938 0 0.35535556145395991 0.27727391644989052 0 0.34439060464665378 0.32234327935857099 0 0.3466340444292596 0.30347262018282262 0 0.35789909005818821 0.31067869813905752 0 0.3466340444292596 0.30347262018282262 0 0.35789909005818821 0.31067869813905752 0 0.36056062267741001 0.29399026144527568 0 0.37230918975644889 0.31909855424244982 0 0.37668321248521469 0.29364297080573709 0 0.37230918975644889 0.31909855424244982 0 0.35789909005818821 0.31067869813905752 0 0.37668321248521469 0.29364297080573709 0 0.35789909005818821 0.31067869813905752 0 0.36056062267741001 0.29399026144527568 0 0.37668321248521469 0.29364297080573709 0 0.36056062267741001 0.29399026144527568 0 0.37119209836691469 0.28027824216422448 0 0.37668321248521469 0.29364297080573709 0 0.36056062267741001 0.29399026144527568 0 0.36646732309105429 0.26529234903686078 0 0.35535556145395991 0.27727391644989052 0 0.36056062267741001 0.29399026144527568 0 0.37119209836691469 0.28027824216422448 0 0.36646732309105429 0.26529234903686078 0 0.36056062267741001 0.29399026144527568 0 0.36646732309105429 0.26529234903686078 0 0.36646732309105429 0.26529234903686078 0 0.35535556145395991 0.27727391644989052 0 0.37119209836691469 0.28027824216422448 0 0.36646732309105429 0.26529234903686078 0 0.38105723521398072 0.26818738736902442 0 0.36646732309105429 0.26529234903686078 0 0.36978443397455302 0.24917604874782129 0 0.38200224297838992 0.24854138767131839 0 0.36646732309105429 0.26529234903686078 0 0.36978443397455302 0.24917604874782129 0 0.36646732309105429 0.26529234903686078 0 0.38200224297838992 0.24854138767131839 0 0.36646732309105429 0.26529234903686078 0 0.35081428384065189 0.25367106851290039 0 0.36978443397455302 0.24917604874782129 0 0.36646732309105429 0.26529234903686078 0 0.35437774250290688 0.26522374902959012 0 0.35081428384065189 0.25367106851290039 0 0.33401329726397239 0.26712307824564219 0 0.35437774250290688 0.26522374902959012 0 0.35081428384065189 0.25367106851290039 0 0.33401329726397239 0.26712307824564219 0 0.35437774250290688 0.26522374902959012 0 0.35535556145395991 0.27727391644989052 0 0.33401329726397239 0.26712307824564219 0 0.3442437998168647 0.28925548386291938 0 0.35535556145395991 0.27727391644989052 0 0.36646732309105429 0.26529234903686078 0 0.35437774250290688 0.26522374902959012 0 0.35535556145395991 0.27727391644989052 0 0.40095602858256041 0.26009253496263057 0 0.38105723521398072 0.26818738736902442 0 0.39223372370263931 0.28472010659265018 0 0.40133468974489123 0.27336059709845878 0 0.40095602858256041 0.26009253496263057 0 0.39223372370263931 0.28472010659265018 0 0.40095602858256041 0.26009253496263057 0 0.39223372370263931 0.28472010659265018 0 0.40133468974489123 0.27336059709845878 0 0.40095602858256041 0.26009253496263057 0 0.40133468974489123 0.27336059709845878 0 0.40095602858256041 0.26009253496263057 0 0.41165520165146557 0.26302518258458651 0 0.40095602858256041 0.26009253496263057 0 0.40626169246956778 0.24511190550505879 0 0.40095602858256041 0.26009253496263057 0 0.40951848413196817 0.25471329605294057 0 0.40626169246956778 0.24511190550505879 0 0.40095602858256041 0.26009253496263057 0 0.38105723521398072 0.26818738736902442 0 0.38200224297838992 0.24854138767131839 0 0.36646732309105429 0.26529234903686078 0 0.38105723521398072 0.26818738736902442 0 0.38200224297838992 0.24854138767131839 0 0.37119209836691469 0.28027824216422448 0 0.38105723521398072 0.26818738736902442 0 0.37668321248521469 0.29364297080573709 0 0.38105723521398072 0.26818738736902442 0 0.37668321248521469 0.29364297080573709 0 0.37668321248521469 0.29364297080573709 0 0.38351141882271789 0.30934767822266968 0 0.39223372370263931 0.28472010659265018 0 0.38105723521398072 0.26818738736902442 0 0.37668321248521469 0.29364297080573709 0 0.39223372370263931 0.28472010659265018 0 0.38351141882271789 0.30934767822266968 0 0.39223372370263931 0.28472010659265018 0 0.37230918975644889 0.31909855424244982 0 0.37668321248521469 0.29364297080573709 0 0.38351141882271789 0.30934767822266968 0 0.38351141882271789 0.30934767822266968 0 0.39839033493454717 0.29982776702775649 0 0.39223372370263931 0.28472010659265018 0 0.38351141882271789 0.30934767822266968 0 0.39839033493454717 0.29982776702775649 0 0.3985540211375877 0.31441500376178411 0 0.39839033493454717 0.29982776702775649 0 0.41031844969237619 0.30294270843212878 0 0.3985540211375877 0.31441500376178411 0 0.39839033493454717 0.29982776702775649 0 0.39223372370263931 0.28472010659265018 0 0.40733406131741501 0.28771333812954969 0 0.39839033493454717 0.29982776702775649 0 0.40733406131741501 0.28771333812954969 0 0.41031844969237619 0.30294270843212878 0 0.40133468974489123 0.27336059709845878 0 0.39223372370263931 0.28472010659265018 0 0.40733406131741501 0.28771333812954969 0 0.40733406131741501 0.28771333812954969 0 0.42038176556206341 0.28862110531423418 0 0.41031844969237619 0.30294270843212878 0 0.40733406131741501 0.28771333812954969 0 0.42038176556206341 0.28862110531423418 0 0.41871161316811539 0.27425979753788438 0 0.41031844969237619 0.30294270843212878 0 0.41516939882387932 0.31772479140802418 0 0.3985540211375877 0.31441500376178411 0 0.42038176556206341 0.28862110531423418 0 0.41031844969237619 0.30294270843212878 0 0.43155476657532738 0.30314497200079399 0 0.41031844969237619 0.30294270843212878 0 0.43155476657532738 0.30314497200079399 0 0.41516939882387932 0.31772479140802418 0 0.43155476657532738 0.30314497200079399 0 0.43398993705708527 0.27504471047081441 0 0.43155476657532738 0.30314497200079399 0 0.43398993705708527 0.27504471047081441 0 0.44258492883738559 0.29947073746928748 0 0.42038176556206341 0.28862110531423418 0 0.43155476657532738 0.30314497200079399 0 0.43398993705708527 0.27504471047081441 0 0.43398993705708527 0.27504471047081441 0 0.43076168811460669 0.26587037990221463 0 0.43398993705708527 0.27504471047081441 0 0.43076168811460669 0.26587037990221463 0 0.41871161316811539 0.27425979753788438 0 0.43076168811460669 0.26587037990221463 0 0.41871161316811539 0.27425979753788438 0 0.42138634997800428 0.26273140556742702 0 0.42038176556206341 0.28862110531423418 0 0.43398993705708527 0.27504471047081441 0 0.41871161316811539 0.27425979753788438 0 0.40133468974489123 0.27336059709845878 0 0.41871161316811539 0.27425979753788438 0 0.41165520165146557 0.26302518258458651 0 0.40133468974489123 0.27336059709845878 0 0.40733406131741501 0.28771333812954969 0 0.41871161316811539 0.27425979753788438 0 0.41871161316811539 0.27425979753788438 0 0.41165520165146557 0.26302518258458651 0 0.42138634997800428 0.26273140556742702 0 0.40951848413196817 0.25471329605294057 0 0.41758883224828108 0.25248379089286138 0 0.40626169246956778 0.24511190550505879 0 0.40951848413196817 0.25471329605294057 0 0.41165520165146557 0.26302518258458651 0 0.41758883224828108 0.25248379089286138 0 0.40095602858256041 0.26009253496263057 0 0.40951848413196817 0.25471329605294057 0 0.41165520165146557 0.26302518258458651 0 0.41165520165146557 0.26302518258458651 0 0.42138634997800428 0.26273140556742702 0 0.41758883224828108 0.25248379089286138 0 0.42138634997800428 0.26273140556742702 0 0.41758883224828108 0.25248379089286138 0 0.42650703831058251 0.25608120995774442 0 0.43398993705708527 0.27504471047081441 0 0.43575639483054618 0.25466095262392802 0 0.43398993705708527 0.27504471047081441 0 0.43076168811460669 0.26587037990221463 0 0.43575639483054618 0.25466095262392802 0 0.41758883224828108 0.25248379089286138 0 0.42650703831058251 0.25608120995774442 0 0.42704192638147398 0.24465952080229089 0 0.43076168811460669 0.26587037990221463 0 0.42138634997800428 0.26273140556742702 0 0.42650703831058251 0.25608120995774442 0 0.43076168811460669 0.26587037990221463 0 0.42650703831058251 0.25608120995774442 0 0.43575639483054618 0.25466095262392802 0 0.42650703831058251 0.25608120995774442 0 0.43575639483054618 0.25466095262392802 0 0.42704192638147398 0.24465952080229089 0 0.43575639483054618 0.25466095262392802 0 0.45200872137413051 0.26493014997908088 0 0.45960743701738099 0.2422192360151087 0 0.43398993705708527 0.27504471047081441 0 0.43575639483054618 0.25466095262392802 0 0.45200872137413051 0.26493014997908088 0 0.43398993705708527 0.27504471047081441 0 0.45200872137413051 0.26493014997908088 0 0.4501227603642397 0.2825049645308027 0 0.45200872137413051 0.26493014997908088 0 0.4654882409698976 0.27748513470453218 0 0.46845839290030739 0.26084319525920202 0 0.45200872137413051 0.26493014997908088 0 0.4654882409698976 0.27748513470453218 0 0.4501227603642397 0.2825049645308027 0 0.45200872137413051 0.26493014997908088 0 0.46845839290030739 0.26084319525920202 0 0.45960743701738099 0.2422192360151087 0 0.46845839290030739 0.26084319525920202 0 0.48169202143075018 0.25016127725317611 0 0.45960743701738099 0.2422192360151087 0 0.46845839290030739 0.26084319525920202 0 0.48169202143075018 0.25016127725317611 0 0.48279361116438207 0.26956305818821208 0 0.4654882409698976 0.27748513470453218 0 0.46845839290030739 0.26084319525920202 0 0.48279361116438207 0.26956305818821208 0 0.4654882409698976 0.27748513470453218 0 0.48279361116438207 0.26956305818821208 0 0.48022713709877812 0.29006008509322978 0 0.48279361116438207 0.26956305818821208 0 0.5 0.25659808598344241 0 0.5 0.28310506344613728 0 0.48279361116438207 0.26956305818821208 0 0.5 0.28310506344613728 0 0.48022713709877812 0.29006008509322978 0 0.48169202143075018 0.25016127725317611 0 0.48279361116438207 0.26956305818821208 0 0.5 0.25659808598344241 0 0.5 0.30961204090883221 0 0.5 0.28310506344613728 0 0.48022713709877812 0.29006008509322978 0 0.48022713709877812 0.29006008509322978 0 0.47124775439331901 0.30973456026169971 0 0.46014179038021708 0.29719204108788549 0 0.5 0.30961204090883221 0 0.48022713709877812 0.29006008509322978 0 0.47124775439331901 0.30973456026169971 0 0.47124775439331901 0.30973456026169971 0 0.46014179038021708 0.29719204108788549 0 0.45117992061768342 0.3238967644677615 0 0.4654882409698976 0.27748513470453218 0 0.48022713709877812 0.29006008509322978 0 0.46014179038021708 0.29719204108788549 0 0.4654882409698976 0.27748513470453218 0 0.46014179038021708 0.29719204108788549 0 0.4501227603642397 0.2825049645308027 0 0.43398993705708527 0.27504471047081441 0 0.4501227603642397 0.2825049645308027 0 0.44258492883738559 0.29947073746928748 0 0.43398993705708527 0.27504471047081441 0 0.44258492883738559 0.29947073746928748 0 0.46014179038021708 0.29719204108788549 0 0.4501227603642397 0.2825049645308027 0 0.44258492883738559 0.29947073746928748 0 0.44258492883738559 0.29947073746928748 0 0.45117992061768342 0.3238967644677615 0 0.43155476657532738 0.30314497200079399 0 0.44258492883738559 0.29947073746928748 0 0.45117992061768342 0.3238967644677615 0 0.46014179038021708 0.29719204108788549 0 0.44258492883738559 0.29947073746928748 0 0.45117992061768342 0.3238967644677615 0 0.45117992061768342 0.3238967644677615 0 0.44562635997178879 0.34235987465953238 0 0.42911959609357209 0.33124523353077379 0 0.45117992061768342 0.3238967644677615 0 0.44562635997178879 0.34235987465953238 0 0.45977491239798107 0.34832279146623552 0 0.44562635997178879 0.34235987465953238 0 0.43915379632505869 0.35212487481416771 0 0.42911959609357209 0.33124523353077379 0 0.45117992061768342 0.3238967644677615 0 0.46500303716043451 0.34344666444024952 0 0.46990980993251302 0.32824751106345218 0 0.45117992061768342 0.3238967644677615 0 0.45977491239798107 0.34832279146623552 0 0.45117992061768342 0.3238967644677615 0 0.46500303716043451 0.34344666444024952 0 0.45977491239798107 0.34832279146623552 0 0.47124775439331901 0.30973456026169971 0 0.45117992061768342 0.3238967644677615 0 0.46990980993251302 0.32824751106345218 0 0.47124775439331901 0.30973456026169971 0 0.48317469321308099 0.32480018711073289 0 0.46990980993251302 0.32824751106345218 0 0.46500303716043451 0.34344666444024952 0 0.46990980993251302 0.32824751106345218 0 0.47894364427804731 0.33935937903681751 0 0.46500303716043451 0.34344666444024952 0 0.47894364427804731 0.33935937903681751 0 0.47352587050890349 0.34677223246749023 0 0.48317469321308099 0.32480018711073289 0 0.46990980993251302 0.32824751106345218 0 0.47894364427804731 0.33935937903681751 0 0.48317469321308099 0.32480018711073289 0 0.47894364427804731 0.33935937903681751 0 0.5 0.33611901837152719 0 0.47894364427804731 0.33935937903681751 0 0.5 0.33611901837152719 0 0.48364668370984248 0.35355415092329828 0 0.5 0.30961204090883221 0 0.48317469321308099 0.32480018711073289 0 0.5 0.33611901837152719 0 0.5 0.30961204090883221 0 0.47124775439331901 0.30973456026169971 0 0.48317469321308099 0.32480018711073289 0 0.5 0.36262599583422223 0 0.48599479227607512 0.37081718972089828 0 0.48364668370984248 0.35355415092329828 0 0.5 0.36262599583422223 0 0.48599479227607512 0.37081718972089828 0 0.5 0.38913297329691687 0 0.5 0.33611901837152719 0 0.5 0.36262599583422223 0 0.48364668370984248 0.35355415092329828 0 0.48364668370984248 0.35355415092329828 0 0.47371855490818998 0.35572249547994389 0 0.47714444517002902 0.36444919492046601 0 0.46500303716043451 0.34344666444024952 0 0.47371855490818998 0.35572249547994389 0 0.46927273799174052 0.37039023464821569 0 0.48364668370984248 0.35355415092329828 0 0.47352587050890349 0.34677223246749023 0 0.47371855490818998 0.35572249547994389 0 0.47894364427804731 0.33935937903681751 0 0.48364668370984248 0.35355415092329828 0 0.47352587050890349 0.34677223246749023 0 0.46500303716043451 0.34344666444024952 0 0.47352587050890349 0.34677223246749023 0 0.47371855490818998 0.35572249547994389 0 0.48599479227607512 0.37081718972089828 0 0.48364668370984248 0.35355415092329828 0 0.47714444517002902 0.36444919492046601 0 0.47371855490818998 0.35572249547994389 0 0.47714444517002902 0.36444919492046601 0 0.46927273799174052 0.37039023464821569 0 0.48599479227607512 0.37081718972089828 0 0.47714444517002902 0.36444919492046601 0 0.47794165048787229 0.37177728807825572 0 0.48599479227607512 0.37081718972089828 0 0.47794165048787229 0.37177728807825572 0 0.47935462651364469 0.3814525330234429 0 0.47794165048787229 0.37177728807825572 0 0.46927273799174052 0.37039023464821569 0 0.47935462651364469 0.3814525330234429 0 0.47714444517002902 0.36444919492046601 0 0.47794165048787229 0.37177728807825572 0 0.46927273799174052 0.37039023464821569 0 0.46836990417827878 0.37274881846470947 0 0.45670467783032132 0.36432882569518282 0 0.45977491239798107 0.34832279146623552 0 0.46927273799174052 0.37039023464821569 0 0.46836990417827878 0.37274881846470947 0 0.45977491239798107 0.34832279146623552 0 0.46836990417827878 0.37274881846470947 0 0.45977491239798107 0.34832279146623552 0 0.46836990417827878 0.37274881846470947 0 0.45670467783032132 0.36432882569518282 0 0.45718768323462561 0.37902559427407939 0 0.45670467783032132 0.36432882569518282 0 0.44588662529794992 0.36506935608028712 0 0.45718768323462561 0.37902559427407939 0 0.45670467783032132 0.36432882569518282 0 0.45977491239798107 0.34832279146623552 0 0.44902241647056512 0.35452689172378449 0 0.46500303716043451 0.34344666444024952 0 0.46927273799174052 0.37039023464821569 0 0.46500303716043451 0.34344666444024952 0 0.46927273799174052 0.37039023464821569 0 0.45977491239798107 0.34832279146623552 0 0.44562635997178879 0.34235987465953238 0 0.45977491239798107 0.34832279146623552 0 0.44902241647056512 0.35452689172378449 0 0.44902241647056512 0.35452689172378449 0 0.43915379632505869 0.35212487481416771 0 0.44588662529794992 0.36506935608028712 0 0.44562635997178879 0.34235987465953238 0 0.44902241647056512 0.35452689172378449 0 0.43915379632505869 0.35212487481416771 0 0.44588662529794992 0.36506935608028712 0 0.42668442561181669 0.35934549506075369 0 0.44127825171053742 0.38130173858328159 0 0.45670467783032132 0.36432882569518282 0 0.44902241647056512 0.35452689172378449 0 0.44588662529794992 0.36506935608028712 0 0.42668442561181669 0.35934549506075369 0 0.4242492551300614 0.38744575659073349 0 0.4128756744519414 0.37301845582751852 0 0.42668442561181669 0.35934549506075369 0 0.4242492551300614 0.38744575659073349 0 0.4128756744519414 0.37301845582751852 0 0.42668442561181669 0.35934549506075369 0 0.40622665818265491 0.35091491321567703 0 0.42668442561181669 0.35934549506075369 0 0.42911959609357209 0.33124523353077379 0 0.40622665818265491 0.35091491321567703 0 0.42668442561181669 0.35934549506075369 0 0.42911959609357209 0.33124523353077379 0 0.43915379632505869 0.35212487481416771 0 0.44588662529794992 0.36506935608028712 0 0.42668442561181669 0.35934549506075369 0 0.43915379632505869 0.35212487481416771 0 0.42668442561181669 0.35934549506075369 0 0.42911959609357209 0.33124523353077379 0 0.43155476657532738 0.30314497200079399 0 0.42911959609357209 0.33124523353077379 0 0.41516939882387932 0.31772479140802418 0 0.43155476657532738 0.30314497200079399 0 0.45117992061768342 0.3238967644677615 0 0.42911959609357209 0.33124523353077379 0 0.43155476657532738 0.30314497200079399 0 0.42911959609357209 0.33124523353077379 0 0.42911959609357209 0.33124523353077379 0 0.41516939882387932 0.31772479140802418 0 0.40180741204216808 0.32968590652510982 0 0.42911959609357209 0.33124523353077379 0 0.40180741204216808 0.32968590652510982 0 0.40622665818265491 0.35091491321567703 0 0.40180741204216808 0.32968590652510982 0 0.38895856631171388 0.33948072941177942 0 0.40622665818265491 0.35091491321567703 0 0.40180741204216808 0.32968590652510982 0 0.38901959671332792 0.32507383042975252 0 0.38895856631171388 0.33948072941177942 0 0.41516939882387932 0.31772479140802418 0 0.40180741204216808 0.32968590652510982 0 0.3985540211375877 0.31441500376178411 0 0.40180741204216808 0.32968590652510982 0 0.3985540211375877 0.31441500376178411 0 0.38901959671332792 0.32507383042975252 0 0.37478911394279663 0.33397524985268912 0 0.37230918975644889 0.31909855424244982 0 0.38351141882271789 0.30934767822266968 0 0.38351141882271789 0.30934767822266968 0 0.3985540211375877 0.31441500376178411 0 0.38901959671332792 0.32507383042975252 0 0.37478911394279663 0.33397524985268912 0 0.38351141882271789 0.30934767822266968 0 0.38901959671332792 0.32507383042975252 0 0.37478911394279663 0.33397524985268912 0 0.38351141882271789 0.30934767822266968 0 0.37478911394279663 0.33397524985268912 0 0.38901959671332792 0.32507383042975252 0 0.38895856631171388 0.33948072941177942 0 0.37478911394279663 0.33397524985268912 0 0.38895856631171388 0.33948072941177942 0 0.37893109631740751 0.34874911958917693 0 0.38895856631171388 0.33948072941177942 0 0.37893109631740751 0.34874911958917693 0 0.38767341687233359 0.35469303149086001 0 0.37893109631740751 0.34874911958917693 0 0.38767341687233359 0.35469303149086001 0 0.37716757539731799 0.35699376570784741 0 0.37925862339361788 0.36859874143749149 0 0.39695377543394411 0.36956077751246841 0 0.38937014166980233 0.38435862250067221 0 0.38767341687233359 0.35469303149086001 0 0.37925862339361788 0.36859874143749149 0 0.39695377543394411 0.36956077751246841 0 0.38767341687233359 0.35469303149086001 0 0.37716757539731799 0.35699376570784741 0 0.37925862339361788 0.36859874143749149 0 0.4128756744519414 0.37301845582751852 0 0.39695377543394411 0.36956077751246841 0 0.40622665818265491 0.35091491321567703 0 0.38895856631171388 0.33948072941177942 0 0.38767341687233359 0.35469303149086001 0 0.40622665818265491 0.35091491321567703 0 0.38767341687233359 0.35469303149086001 0 0.39695377543394411 0.36956077751246841 0 0.40622665818265491 0.35091491321567703 0 0.40525125297645448 0.39260960938320888 0 0.38908213771150829 0.40012286449615497 0 0.40162151034860327 0.41672357042143993 0 0.40525125297645448 0.39260960938320888 0 0.38937014166980233 0.38435862250067221 0 0.38908213771150829 0.40012286449615497 0 0.4128756744519414 0.37301845582751852 0 0.39695377543394411 0.36956077751246841 0 0.40525125297645448 0.39260960938320888 0 0.39695377543394411 0.36956077751246841 0 0.40525125297645448 0.39260960938320888 0 0.38937014166980233 0.38435862250067221 0 0.37925862339361788 0.36859874143749149 0 0.37587030772319491 0.38911498699501551 0 0.38937014166980233 0.38435862250067221 0 0.37587030772319491 0.38911498699501551 0 0.38937014166980233 0.38435862250067221 0 0.38908213771150829 0.40012286449615497 0 0.37587030772319491 0.38911498699501551 0 0.38908213771150829 0.40012286449615497 0 0.37548462739454758 0.414948727731144 0 0.38908213771150829 0.40012286449615497 0 0.37548462739454758 0.414948727731144 0 0.40162151034860327 0.41672357042143993 0 0.37548462739454758 0.414948727731144 0 0.39310416815870369 0.43438031850593928 0 0.40162151034860327 0.41672357042143993 0 0.37339696152701402 0.44208754989350779 0 0.37548462739454758 0.414948727731144 0 0.39310416815870369 0.43438031850593928 0 0.39310416815870369 0.43438031850593928 0 0.40162151034860327 0.41672357042143993 0 0.41937891416655071 0.44364627965069331 0 0.40525125297645448 0.39260960938320888 0 0.40162151034860327 0.41672357042143993 0 0.42181408464830611 0.41554601812071351 0 0.42181408464830611 0.41554601812071351 0 0.41937891416655071 0.44364627965069331 0 0.40162151034860327 0.41672357042143993 0 0.42181408464830611 0.41554601812071351 0 0.41937891416655071 0.44364627965069331 0 0.42181408464830611 0.41554601812071351 0 0.43228962428391271 0.43336961223655768 0 0.41937891416655071 0.44364627965069331 0 0.42181408464830611 0.41554601812071351 0 0.43228962428391271 0.43336961223655768 0 0.43989986988472868 0.42020776133277898 0 0.42181408464830611 0.41554601812071351 0 0.43983197663552032 0.40222718308698652 0 0.43989986988472868 0.42020776133277898 0 0.42181408464830611 0.41554601812071351 0 0.4242492551300614 0.38744575659073349 0 0.42181408464830611 0.41554601812071351 0 0.4242492551300614 0.38744575659073349 0 0.43983197663552032 0.40222718308698652 0 0.40525125297645448 0.39260960938320888 0 0.42181408464830611 0.41554601812071351 0 0.4242492551300614 0.38744575659073349 0 0.4128756744519414 0.37301845582751852 0 0.40525125297645448 0.39260960938320888 0 0.4242492551300614 0.38744575659073349 0 0.4242492551300614 0.38744575659073349 0 0.44127825171053742 0.38130173858328159 0 0.43983197663552032 0.40222718308698652 0 0.42668442561181669 0.35934549506075369 0 0.4242492551300614 0.38744575659073349 0 0.44127825171053742 0.38130173858328159 0 0.44127825171053742 0.38130173858328159 0 0.45382954435325029 0.39469704640684949 0 0.45718768323462561 0.37902559427407939 0 0.44588662529794992 0.36506935608028712 0 0.44127825171053742 0.38130173858328159 0 0.45718768323462561 0.37902559427407939 0 0.44127825171053742 0.38130173858328159 0 0.43983197663552032 0.40222718308698652 0 0.45382954435325029 0.39469704640684949 0 0.43983197663552032 0.40222718308698652 0 0.45382954435325029 0.39469704640684949 0 0.45787207265232699 0.41498665634972448 0 0.45382954435325029 0.39469704640684949 0 0.47354243882304659 0.39733380485618203 0 0.45787207265232699 0.41498665634972448 0 0.46836990417827878 0.37274881846470947 0 0.45718768323462561 0.37902559427407939 0 0.47354243882304659 0.39733380485618203 0 0.45382954435325029 0.39469704640684949 0 0.45718768323462561 0.37902559427407939 0 0.47354243882304659 0.39733380485618203 0 0.46927273799174052 0.37039023464821569 0 0.46836990417827878 0.37274881846470947 0 0.47354243882304659 0.39733380485618203 0 0.46927273799174052 0.37039023464821569 0 0.47935462651364469 0.3814525330234429 0 0.47354243882304659 0.39733380485618203 0 0.47935462651364469 0.3814525330234429 0 0.47354243882304659 0.39733380485618203 0 0.5 0.38913297329691687 0 0.46927273799174052 0.37039023464821569 0 0.47354243882304659 0.39733380485618203 0 0.5 0.38913297329691687 0 0.48634116258800519 0.40795122737008749 0 0.5 0.41563995075961169 0 0.47354243882304659 0.39733380485618203 0 0.5 0.38913297329691687 0 0.48634116258800519 0.40795122737008749 0 0.48599479227607512 0.37081718972089828 0 0.47935462651364469 0.3814525330234429 0 0.5 0.38913297329691687 0 0.5 0.41563995075961169 0 0.47781213965435282 0.42427737506414842 0 0.50000000000000056 0.4421469282223065 0 0.48634116258800519 0.40795122737008749 0 0.5 0.41563995075961169 0 0.47781213965435282 0.42427737506414842 0 0.47354243882304659 0.39733380485618203 0 0.47781213965435282 0.42427737506414842 0 0.47354243882304659 0.39733380485618203 0 0.48634116258800519 0.40795122737008749 0 0.47781213965435282 0.42427737506414842 0 0.47354243882304659 0.39733380485618203 0 0.47781213965435282 0.42427737506414842 0 0.45787207265232699 0.41498665634972448 0 0.47781213965435282 0.42427737506414842 0 0.45787207265232699 0.41498665634972448 0 0.46452860583511602 0.44253334840878178 0 0.45787207265232699 0.41498665634972448 0 0.44769159120357771 0.43490933686991251 0 0.46452860583511602 0.44253334840878178 0 0.43983197663552032 0.40222718308698652 0 0.45787207265232699 0.41498665634972448 0 0.43989986988472868 0.42020776133277898 0 0.45787207265232699 0.41498665634972448 0 0.43989986988472868 0.42020776133277898 0 0.44769159120357771 0.43490933686991251 0 0.45787207265232699 0.41498665634972448 0 0.44769159120357771 0.43490933686991251 0 0.43228962428391271 0.43336961223655768 0 0.43989986988472868 0.42020776133277898 0 0.44769159120357771 0.43490933686991251 0 0.43228962428391271 0.43336961223655768 0 0.44769159120357771 0.43490933686991251 0 0.43358036138793771 0.45128262809819941 0 0.44769159120357771 0.43490933686991251 0 0.43751110975482921 0.45483201739010071 0 0.44769159120357771 0.43490933686991251 0 0.44764194101960569 0.45266146624851339 0 0.43751110975482921 0.45483201739010071 0 0.44769159120357771 0.43490933686991251 0 0.44764194101960569 0.45266146624851339 0 0.45295869756269391 0.44568095750174419 0 0.44769159120357771 0.43490933686991251 0 0.43751110975482921 0.45483201739010071 0 0.43358036138793771 0.45128262809819941 0 0.44764194101960569 0.45266146624851339 0 0.45295869756269391 0.44568095750174419 0 0.45525143995909501 0.45745013558426489 0 0.43751110975482921 0.45483201739010071 0 0.451721006704218 0.46766327784319739 0 0.43897703571728519 0.47443709210556612 0 0.43751110975482921 0.45483201739010071 0 0.451721006704218 0.46766327784319739 0 0.44764194101960569 0.45266146624851339 0 0.43751110975482921 0.45483201739010071 0 0.451721006704218 0.46766327784319739 0 0.44764194101960569 0.45266146624851339 0 0.451721006704218 0.46766327784319739 0 0.45525143995909501 0.45745013558426489 0 0.451721006704218 0.46766327784319739 0 0.46002472427640217 0.45951249436006503 0 0.46992557745745428 0.46861014097555048 0 0.45525143995909501 0.45745013558426489 0 0.46002472427640217 0.45951249436006503 0 0.46452860583511602 0.44253334840878178 0 0.451721006704218 0.46766327784319739 0 0.45525143995909501 0.45745013558426489 0 0.46002472427640217 0.45951249436006503 0 0.451721006704218 0.46766327784319739 0 0.45525143995909501 0.45745013558426489 0 0.46002472427640217 0.45951249436006503 0 0.46452860583511602 0.44253334840878178 0 0.48001236213820142 0.45082971129118588 0 0.44769159120357771 0.43490933686991251 0 0.45295869756269391 0.44568095750174419 0 0.46452860583511602 0.44253334840878178 0 0.45295869756269391 0.44568095750174419 0 0.45525143995909501 0.45745013558426489 0 0.46452860583511602 0.44253334840878178 0 0.47781213965435282 0.42427737506414842 0 0.46452860583511602 0.44253334840878178 0 0.48001236213820142 0.45082971129118588 0 0.48001236213820142 0.45082971129118588 0 0.50000000000000056 0.4421469282223065 0 0.48451609929887479 0.47423640323510702 0 0.48001236213820142 0.45082971129118588 0 0.46992557745745428 0.46861014097555048 0 0.48451609929887479 0.47423640323510702 0 0.46002472427640217 0.45951249436006503 0 0.48001236213820142 0.45082971129118588 0 0.46992557745745428 0.46861014097555048 0 0.46002472427640217 0.45951249436006503 0 0.48001236213820142 0.45082971129118588 0 0.47781213965435282 0.42427737506414842 0 0.48001236213820142 0.45082971129118588 0 0.50000000000000056 0.4421469282223065 0 0.48001236213820142 0.45082971129118588 0 0.50000000000000056 0.4421469282223065 0 0.50000000000000056 0.4421469282223065 0 0.5 0.5 0 0.48451609929887479 0.47423640323510702 0 0.4875321018969897 0.49999999999999989 0 0.5 0.5 0 0.48451609929887479 0.47423640323510702 0 0.46992557745745428 0.46861014097555048 0 0.48451609929887479 0.47423640323510702 0 0.46962655430060352 0.48383163892159908 0 0.4875321018969897 0.49999999999999989 0 0.48451609929887479 0.47423640323510702 0 0.46962655430060352 0.48383163892159908 0 0.4875321018969897 0.49999999999999989 0 0.46962655430060352 0.48383163892159908 0 0.4875321018969897 0.49999999999999989 0 0.46962655430060352 0.48383163892159908 0 0.46403754768727518 0.5 0 0.46962655430060352 0.48383163892159908 0 0.45697672181683208 0.48836402766267673 0 0.46403754768727518 0.5 0 0.45697672181683208 0.48836402766267673 0 0.46403754768727518 0.5 0 0.44054299347756082 0.50000000000000111 0 0.451721006704218 0.46766327784319739 0 0.46962655430060352 0.48383163892159908 0 0.451721006704218 0.46766327784319739 0 0.46992557745745428 0.46861014097555048 0 0.46962655430060352 0.48383163892159908 0 0.451721006704218 0.46766327784319739 0 0.46962655430060352 0.48383163892159908 0 0.45697672181683208 0.48836402766267673 0 0.451721006704218 0.46766327784319739 0 0.44613200009088971 0.48383163892159942 0 0.451721006704218 0.46766327784319739 0 0.45697672181683208 0.48836402766267673 0 0.44613200009088971 0.48383163892159942 0 0.451721006704218 0.46766327784319739 0 0.44613200009088971 0.48383163892159942 0 0.43897703571728519 0.47443709210556612 0 0.44613200009088971 0.48383163892159942 0 0.43897703571728519 0.47443709210556612 0 0.43343788919668641 0.48815533870202182 0 0.44613200009088971 0.48383163892159942 0 0.44054299347756082 0.50000000000000111 0 0.45697672181683208 0.48836402766267673 0 0.44613200009088971 0.48383163892159942 0 0.44054299347756082 0.50000000000000111 0 0.44613200009088971 0.48383163892159942 0 0.44054299347756082 0.50000000000000111 0 0.43343788919668641 0.48815533870202182 0 0.44054299347756082 0.50000000000000111 0 0.43343788919668641 0.48815533870202182 0 0.4144856832435263 0.49992340135533131 0 0.43343788919668641 0.48815533870202182 0 0.4144856832435263 0.49992340135533131 0 0.42600984147893223 0.47733941005037611 0 0.4144856832435263 0.49992340135533131 0 0.41694374368479542 0.47174654118067322 0 0.4144856832435263 0.49992340135533131 0 0.42600984147893223 0.47733941005037611 0 0.4144856832435263 0.49992340135533131 0 0.41694374368479542 0.47174654118067322 0 0.42600984147893223 0.47733941005037611 0 0.4144856832435263 0.49992340135533131 0 0.41694374368479542 0.47174654118067322 0 0.3959950231433868 0.47995452058669202 0 0.41694374368479542 0.47174654118067322 0 0.42600984147893223 0.47733941005037611 0 0.42668479409460908 0.45976937527400852 0 0.43751110975482921 0.45483201739010071 0 0.43897703571728519 0.47443709210556612 0 0.42600984147893223 0.47733941005037611 0 0.43897703571728519 0.47443709210556612 0 0.43343788919668641 0.48815533870202182 0 0.42600984147893223 0.47733941005037611 0 0.43751110975482921 0.45483201739010071 0 0.42600984147893223 0.47733941005037611 0 0.42668479409460908 0.45976937527400852 0 0.43751110975482921 0.45483201739010071 0 0.42600984147893223 0.47733941005037611 0 0.43751110975482921 0.45483201739010071 0 0.42668479409460908 0.45976937527400852 0 0.43358036138793771 0.45128262809819941 0 0.43228962428391271 0.43336961223655768 0 0.43358036138793771 0.45128262809819941 0 0.41937891416655071 0.44364627965069331 0 0.42668479409460908 0.45976937527400852 0 0.43358036138793771 0.45128262809819941 0 0.41937891416655071 0.44364627965069331 0 0.43751110975482921 0.45483201739010071 0 0.43358036138793771 0.45128262809819941 0 0.41694374368479542 0.47174654118067322 0 0.41937891416655071 0.44364627965069331 0 0.41694374368479542 0.47174654118067322 0 0.42668479409460908 0.45976937527400852 0 0.41937891416655071 0.44364627965069331 0 0.41694374368479542 0.47174654118067322 0 0.41937891416655071 0.44364627965069331 0 0.39715785039802048 0.45461565881677912 0 0.39715785039802048 0.45461565881677912 0 0.38093761547121879 0.46480004200353908 0 0.3959950231433868 0.47995452058669202 0 0.39310416815870369 0.43438031850593928 0 0.41937891416655071 0.44364627965069331 0 0.39715785039802048 0.45461565881677912 0 0.37339696152701402 0.44208754989350779 0 0.39310416815870369 0.43438031850593928 0 0.39715785039802048 0.45461565881677912 0 0.37339696152701402 0.44208754989350779 0 0.39715785039802048 0.45461565881677912 0 0.38093761547121879 0.46480004200353908 0 0.36955953445411149 0.48141991283557128 0 0.38093761547121879 0.46480004200353908 0 0.3959950231433868 0.47995452058669202 0 0.36955953445411149 0.48141991283557128 0 0.38646498490708159 0.5 0 0.3959950231433868 0.47995452058669202 0 0.4144856832435263 0.49992340135533131 0 0.38646498490708159 0.5 0 0.3959950231433868 0.47995452058669202 0 0.41694374368479542 0.47174654118067322 0 0.39715785039802048 0.45461565881677912 0 0.3959950231433868 0.47995452058669202 0 0.33451025935481138 0.089927750398108811 0 0.32097446003697849 0.07275118410308079 0 0.34545134118824061 0.065553253440852985 0 0.32097446003697849 0.07275118410308079 0 0.34545134118824061 0.065553253440852985 0 0.32111967364270588 0.056522259603768568 0 0.32097446003697849 0.07275118410308079 0 0.32111967364270588 0.056522259603768568 0 0.30895726259080558 0.060346681030832877 0 0.33451025935481138 0.089927750398108811 0 0.32097446003697849 0.07275118410308079 0 0.31287031497804912 0.091409336480511499 0 0.33451025935481138 0.089927750398108811 0 0.31287031497804912 0.091409336480511499 0 0.32033265659001903 0.1145348523438889 0 0.32033265659001903 0.1145348523438889 0 0.34497069081721837 0.10777856049118539 0 0.33553761455523651 0.13051028660321051 0 0.33451025935481138 0.089927750398108811 0 0.32033265659001903 0.1145348523438889 0 0.34497069081721837 0.10777856049118539 0 0.34497069081721837 0.10777856049118539 0 0.36438584739314012 0.1033910275151057 0 0.36133807530241219 0.085624966239992245 0 0.33451025935481138 0.089927750398108811 0 0.34497069081721837 0.10777856049118539 0 0.36133807530241219 0.085624966239992245 0 0.34497069081721837 0.10777856049118539 0 0.35371969170769119 0.12268247984680609 0 0.33553761455523651 0.13051028660321051 0 0.34497069081721837 0.10777856049118539 0 0.35371969170769119 0.12268247984680609 0 0.36438584739314012 0.1033910275151057 0 0.35371969170769119 0.12268247984680609 0 0.3703593611956521 0.1163842787056756 0 0.36869000497274218 0.13164616764447171 0 0.35371969170769119 0.12268247984680609 0 0.3703593611956521 0.1163842787056756 0 0.36438584739314012 0.1033910275151057 0 0.3703593611956521 0.1163842787056756 0 0.36438584739314012 0.1033910275151057 0 0.37937345398328498 0.099814108042449556 0 0.36438584739314012 0.1033910275151057 0 0.37527466291227979 0.089468568578773486 0 0.37937345398328498 0.099814108042449556 0 0.36133807530241219 0.085624966239992245 0 0.3782063942564946 0.078040830287928825 0 0.37527466291227979 0.089468568578773486 0 0.36438584739314012 0.1033910275151057 0 0.36133807530241219 0.085624966239992245 0 0.37527466291227979 0.089468568578773486 0 0.33451025935481138 0.089927750398108811 0 0.36133807530241219 0.085624966239992245 0 0.34545134118824061 0.065553253440852985 0 0.36133807530241219 0.085624966239992245 0 0.34545134118824061 0.065553253440852985 0 0.36133807530241219 0.085624966239992245 0 0.34545134118824061 0.065553253440852985 0 0.36495428360339338 0.061608261334142378 0 0.36133807530241219 0.085624966239992245 0 0.36495428360339338 0.061608261334142378 0 0.3782063942564946 0.078040830287928825 0 0.36495428360339338 0.061608261334142378 0 0.36443865548398918 0.038034977247014878 0 0.34989534466123728 0.04839900934312933 0 0.36495428360339338 0.061608261334142378 0 0.36443865548398918 0.038034977247014878 0 0.3788404532251749 0.051892278838948383 0 0.36443865548398918 0.038034977247014878 0 0.378519456349168 0.038666960034838917 0 0.3788404532251749 0.051892278838948383 0 0.36443865548398918 0.038034977247014878 0 0.38005006779316719 0.023272481257376888 0 0.378519456349168 0.038666960034838917 0 0.36443865548398918 0.038034977247014878 0 0.34690329779510259 0.032947027921113869 0 0.34989534466123728 0.04839900934312933 0 0.34545134118824061 0.065553253440852985 0 0.36495428360339338 0.061608261334142378 0 0.34989534466123728 0.04839900934312933 0 0.36424198851613532 0.020412515200514729 0 0.38158067923716771 0.0078780024799149622 0 0.36740822099193271 0.00739377240977011 0 0.36424198851613532 0.020412515200514729 0 0.38158067923716771 0.0078780024799149622 0 0.36740822099193271 0.00739377240977011 0 0.36424198851613532 0.020412515200514729 0 0.34735741688555649 0.014651714991830741 0 0.36740822099193271 0.00739377240977011 0 0.38158067923716771 0.0078780024799149622 0 0.37293823436178491 -0.0075236892011508686 0 0.36443865548398918 0.038034977247014878 0 0.36424198851613532 0.020412515200514729 0 0.38005006779316719 0.023272481257376888 0 0.34690329779510259 0.032947027921113869 0 0.36424198851613532 0.020412515200514729 0 0.34690329779510259 0.032947027921113869 0 0.36424198851613532 0.020412515200514729 0 0.34735741688555649 0.014651714991830741 0 0.36443865548398918 0.038034977247014878 0 0.34690329779510259 0.032947027921113869 0 0.36424198851613532 0.020412515200514729 0 0.34735741688555649 0.014651714991830741 0 0.33709463695305059 0.0011195889012099709 0 0.35856686411262972 -0.0033105511437120862 0 0.36740822099193271 0.00739377240977011 0 0.34735741688555649 0.014651714991830741 0 0.35856686411262972 -0.0033105511437120862 0 0.34735741688555649 0.014651714991830741 0 0.33709463695305059 0.0011195889012099709 0 0.32386403129311381 0.01348272082553861 0 0.34735741688555649 0.014651714991830741 0 0.33255323313670693 0.030174808804065961 0 0.32386403129311381 0.01348272082553861 0 0.34690329779510259 0.032947027921113869 0 0.34735741688555649 0.014651714991830741 0 0.33255323313670693 0.030174808804065961 0 0.31771962525312752 0.030516282740853998 0 0.32386403129311381 0.01348272082553861 0 0.30587464343218601 0.01555102483999429 0 0.33255323313670693 0.030174808804065961 0 0.31771962525312752 0.030516282740853998 0 0.32386403129311381 0.01348272082553861 0 0.33709463695305059 0.0011195889012099709 0 0.32386403129311381 0.01348272082553861 0 0.31109301432555653 -0.01004807443475985 0 0.32386403129311381 0.01348272082553861 0 0.30587464343218601 0.01555102483999429 0 0.31109301432555653 -0.01004807443475985 0 0.34545134118824061 0.065553253440852985 0 0.34989534466123728 0.04839900934312933 0 0.32956460707406993 0.045481540641713072 0 0.34545134118824061 0.065553253440852985 0 0.32956460707406993 0.045481540641713072 0 0.32111967364270588 0.056522259603768568 0 0.34545134118824061 0.065553253440852985 0 0.32956460707406993 0.045481540641713072 0 0.34690329779510259 0.032947027921113869 0 0.33255323313670693 0.030174808804065961 0 0.32956460707406993 0.045481540641713072 0 0.34690329779510259 0.032947027921113869 0 0.32956460707406993 0.045481540641713072 0 0.34690329779510259 0.032947027921113869 0 0.34989534466123728 0.04839900934312933 0 0.32956460707406993 0.045481540641713072 0 0.31771962525312752 0.030516282740853998 0 0.32956460707406993 0.045481540641713072 0 0.31899180167356012 0.042082500884694993 0 0.32956460707406993 0.045481540641713072 0 0.31899180167356012 0.042082500884694993 0 0.32019571876317759 0.047379054248788979 0 0.33255323313670693 0.030174808804065961 0 0.31771962525312752 0.030516282740853998 0 0.32956460707406993 0.045481540641713072 0 0.31771962525312752 0.030516282740853998 0 0.32956460707406993 0.045481540641713072 0 0.31771962525312752 0.030516282740853998 0 0.31899180167356012 0.042082500884694993 0 0.30622856624809303 0.035835915652935202 0 0.31899180167356012 0.042082500884694993 0 0.32019571876317759 0.047379054248788979 0 0.31100776955889259 0.047562046604384109 0 0.32019571876317759 0.047379054248788979 0 0.32111967364270588 0.056522259603768568 0 0.31100776955889259 0.047562046604384109 0 0.32956460707406993 0.045481540641713072 0 0.32019571876317759 0.047379054248788979 0 0.32111967364270588 0.056522259603768568 0 0.32111967364270588 0.056522259603768568 0 0.30895726259080558 0.060346681030832877 0 0.31100776955889259 0.047562046604384109 0 0.30895726259080558 0.060346681030832877 0 0.30347198883464738 0.052905850268142762 0 0.29620194706938208 0.058720322718057723 0 0.30347198883464738 0.052905850268142762 0 0.31100776955889259 0.047562046604384109 0 0.29778002990468799 0.045268050354615938 0 0.30347198883464738 0.052905850268142762 0 0.29778002990468799 0.045268050354615938 0 0.29620194706938208 0.058720322718057723 0 0.30895726259080558 0.060346681030832877 0 0.30347198883464738 0.052905850268142762 0 0.31100776955889259 0.047562046604384109 0 0.31100776955889259 0.047562046604384109 0 0.30622856624809303 0.035835915652935202 0 0.29778002990468799 0.045268050354615938 0 0.31899180167356012 0.042082500884694993 0 0.31100776955889259 0.047562046604384109 0 0.30622856624809303 0.035835915652935202 0 0.30622856624809303 0.035835915652935202 0 0.29778002990468799 0.045268050354615938 0 0.29168651110404681 0.031306385019485738 0 0.29778002990468799 0.045268050354615938 0 0.29168651110404681 0.031306385019485738 0 0.28164685776036752 0.050230043984215517 0 0.29168651110404681 0.031306385019485738 0 0.28164685776036752 0.050230043984215517 0 0.27600839267686272 0.032097344441581903 0 0.29778002990468799 0.045268050354615938 0 0.28164685776036752 0.050230043984215517 0 0.29620194706938208 0.058720322718057723 0 0.28164685776036752 0.050230043984215517 0 0.29620194706938208 0.058720322718057723 0 0.28438991277957071 0.07163751732552609 0 0.30587464343218601 0.01555102483999429 0 0.29617594942465092 0.0003534749931451462 0 0.31109301432555653 -0.01004807443475985 0 0.31771962525312752 0.030516282740853998 0 0.30622856624809303 0.035835915652935202 0 0.30587464343218601 0.01555102483999429 0 0.30622856624809303 0.035835915652935202 0 0.29168651110404681 0.031306385019485738 0 0.30587464343218601 0.01555102483999429 0 0.31771962525312752 0.030516282740853998 0 0.30587464343218601 0.01555102483999429 0 0.29168651110404681 0.031306385019485738 0 0.28328078794786549 0.013395608908452939 0 0.27600839267686272 0.032097344441581903 0 0.29168651110404681 0.031306385019485738 0 0.30587464343218601 0.01555102483999429 0 0.28328078794786549 0.013395608908452939 0 0.28328078794786549 0.013395608908452939 0 0.29617594942465092 0.0003534749931451462 0 0.28345562765708909 -0.0063169598563043682 0 0.30587464343218601 0.01555102483999429 0 0.28328078794786549 0.013395608908452939 0 0.29617594942465092 0.0003534749931451462 0 0.28328078794786549 0.013395608908452939 0 0.27039382550822311 0.00042496408912158962 0 0.26105612840742859 0.019766071588512159 0 0.28328078794786549 0.013395608908452939 0 0.27039382550822311 0.00042496408912158962 0 0.28345562765708909 -0.0063169598563043682 0 0.28328078794786549 0.013395608908452939 0 0.26105612840742859 0.019766071588512159 0 0.27600839267686272 0.032097344441581903 0 0.27039382550822311 0.00042496408912158962 0 0.26105612840742859 0.019766071588512159 0 0.25252126317799439 -0.010205438598489529 0 0.28164685776036752 0.050230043984215517 0 0.2623716781646051 0.045788612707243131 0 0.26368722792178162 0.071811153825974028 0 0.26105612840742859 0.019766071588512159 0 0.27600839267686272 0.032097344441581903 0 0.2623716781646051 0.045788612707243131 0 0.28164685776036752 0.050230043984215517 0 0.27600839267686272 0.032097344441581903 0 0.2623716781646051 0.045788612707243131 0 0.24056739647699929 0.042988530474928142 0 0.26105612840742859 0.019766071588512159 0 0.2623716781646051 0.045788612707243131 0 0.26105612840742859 0.019766071588512159 0 0.2623716781646051 0.045788612707243131 0 0.2496150297495873 0.059439042563006972 0 0.2623716781646051 0.045788612707243131 0 0.26368722792178162 0.071811153825974028 0 0.2623716781646051 0.045788612707243131 0 0.26368722792178162 0.071811153825974028 0 0.2496150297495873 0.059439042563006972 0 0.24056739647699929 0.042988530474928142 0 0.2623716781646051 0.045788612707243131 0 0.24783375955663281 0.07805906859882511 0 0.2496150297495873 0.059439042563006972 0 0.26368722792178162 0.071811153825974028 0 0.24783375955663281 0.07805906859882511 0 0.26368722792178162 0.071811153825974028 0 0.26500277767895808 0.097833694944705049 0 0.26368722792178162 0.071811153825974028 0 0.26500277767895808 0.097833694944705049 0 0.24407163389601341 0.093976130437590316 0 0.24783375955663281 0.07805906859882511 0 0.26500277767895808 0.097833694944705049 0 0.26368722792178162 0.071811153825974028 0 0.27873914167810898 0.087815044165917483 0 0.26500277767895808 0.097833694944705049 0 0.28164685776036752 0.050230043984215517 0 0.26368722792178162 0.071811153825974028 0 0.28438991277957071 0.07163751732552609 0 0.26368722792178162 0.071811153825974028 0 0.27873914167810898 0.087815044165917483 0 0.28438991277957071 0.07163751732552609 0 0.29620194706938208 0.058720322718057723 0 0.28438991277957071 0.07163751732552609 0 0.3030541456608189 0.073497559958172143 0 0.28438991277957071 0.07163751732552609 0 0.29558089507000068 0.09014236065302772 0 0.3030541456608189 0.073497559958172143 0 0.27873914167810898 0.087815044165917483 0 0.28438991277957071 0.07163751732552609 0 0.29558089507000068 0.09014236065302772 0 0.32097446003697849 0.07275118410308079 0 0.31287031497804912 0.091409336480511499 0 0.3030541456608189 0.073497559958172143 0 0.31287031497804912 0.091409336480511499 0 0.29558089507000068 0.09014236065302772 0 0.3030541456608189 0.073497559958172143 0 0.32097446003697849 0.07275118410308079 0 0.30895726259080558 0.060346681030832877 0 0.3030541456608189 0.073497559958172143 0 0.30895726259080558 0.060346681030832877 0 0.29620194706938208 0.058720322718057723 0 0.3030541456608189 0.073497559958172143 0 0.32033265659001903 0.1145348523438889 0 0.30006271370435122 0.124459754408701 0 0.30244820753499602 0.1068045904541297 0 0.31287031497804912 0.091409336480511499 0 0.32033265659001903 0.1145348523438889 0 0.30244820753499602 0.1068045904541297 0 0.31287031497804912 0.091409336480511499 0 0.29558089507000068 0.09014236065302772 0 0.30244820753499602 0.1068045904541297 0 0.29558089507000068 0.09014236065302772 0 0.30244820753499602 0.1068045904541297 0 0.28185238235334192 0.10964758771574649 0 0.27873914167810898 0.087815044165917483 0 0.29558089507000068 0.09014236065302772 0 0.28185238235334192 0.10964758771574649 0 0.30006271370435122 0.124459754408701 0 0.30244820753499602 0.1068045904541297 0 0.28185238235334192 0.10964758771574649 0 0.30006271370435122 0.124459754408701 0 0.28185238235334192 0.10964758771574649 0 0.28231506296171521 0.13171056704109929 0 0.26631832743613448 0.1238562360634361 0 0.26500277767895808 0.097833694944705049 0 0.28185238235334192 0.10964758771574649 0 0.26631832743613448 0.1238562360634361 0 0.28231506296171521 0.13171056704109929 0 0.28185238235334192 0.10964758771574649 0 0.26631832743613448 0.1238562360634361 0 0.26500277767895808 0.097833694944705049 0 0.27873914167810898 0.087815044165917483 0 0.28185238235334192 0.10964758771574649 0 0.26500277767895808 0.097833694944705049 0 0.24822695803859379 0.119625051895888 0 0.24407163389601341 0.093976130437590316 0 0.26500277767895808 0.097833694944705049 0 0.24822695803859379 0.119625051895888 0 0.26631832743613448 0.1238562360634361 0 0.26500277767895808 0.097833694944705049 0 0.24822695803859379 0.119625051895888 0 0.26631832743613448 0.1238562360634361 0 0.25238228218117409 0.1452739733541856 0 0.24822695803859379 0.119625051895888 0 0.25238228218117409 0.1452739733541856 0 0.26631832743613448 0.1238562360634361 0 0.268890240685693 0.14077252878480101 0 0.25238228218117409 0.1452739733541856 0 0.26631832743613448 0.1238562360634361 0 0.268890240685693 0.14077252878480101 0 0.28231506296171521 0.13171056704109929 0 0.268890240685693 0.14077252878480101 0 0.28231506296171521 0.13171056704109929 0 0.28166552506632819 0.1497235286040203 0 0.268890240685693 0.14077252878480101 0 0.26695373285087393 0.15481397932880181 0 0.28166552506632819 0.1497235286040203 0 0.268890240685693 0.14077252878480101 0 0.26695373285087393 0.15481397932880181 0 0.25238228218117409 0.1452739733541856 0 0.24574744319262781 0.15923880285475339 0 0.25238228218117409 0.1452739733541856 0 0.25653760632375439 0.17092289481248321 0 0.26695373285087393 0.15481397932880181 0 0.25238228218117409 0.1452739733541856 0 0.25653760632375439 0.17092289481248321 0 0.25238228218117409 0.1452739733541856 0 0.25653760632375439 0.17092289481248321 0 0.25653760632375439 0.17092289481248321 0 0.26069293046633468 0.1965718162707808 0 0.25052941350297298 0.18971531408661929 0 0.25653760632375439 0.17092289481248321 0 0.26955606054075598 0.18188099460622159 0 0.26069293046633468 0.1965718162707808 0 0.25653760632375439 0.17092289481248321 0 0.26069293046633468 0.1965718162707808 0 0.25653760632375439 0.17092289481248321 0 0.26955606054075598 0.18188099460622159 0 0.27529300999741979 0.16737697108851921 0 0.26955606054075598 0.18188099460622159 0 0.27529300999741979 0.16737697108851921 0 0.28443734070747512 0.1832124716773692 0 0.26955606054075598 0.18188099460622159 0 0.28443734070747512 0.1832124716773692 0 0.27299466386798937 0.19403871079008869 0 0.26695373285087393 0.15481397932880181 0 0.27529300999741979 0.16737697108851921 0 0.28166552506632819 0.1497235286040203 0 0.26695373285087393 0.15481397932880181 0 0.25653760632375439 0.17092289481248321 0 0.27529300999741979 0.16737697108851921 0 0.27529300999741979 0.16737697108851921 0 0.29633081197398931 0.16209068458896811 0 0.28166552506632819 0.1497235286040203 0 0.27529300999741979 0.16737697108851921 0 0.29633081197398931 0.16209068458896811 0 0.28443734070747512 0.1832124716773692 0 0.28443734070747512 0.1832124716773692 0 0.30054630999428361 0.1817786740100642 0 0.29644231987109598 0.1955105075288581 0 0.29633081197398931 0.16209068458896811 0 0.28443734070747512 0.1832124716773692 0 0.30054630999428361 0.1817786740100642 0 0.30054630999428361 0.1817786740100642 0 0.31124611513331069 0.1979408532842975 0 0.3142749622855468 0.1701388529708279 0 0.29633081197398931 0.16209068458896811 0 0.31730380943778291 0.14233685265735829 0 0.3142749622855468 0.1701388529708279 0 0.29633081197398931 0.16209068458896811 0 0.30054630999428361 0.1817786740100642 0 0.3142749622855468 0.1701388529708279 0 0.29633081197398931 0.16209068458896811 0 0.29510118852444223 0.141803766669891 0 0.31730380943778291 0.14233685265735829 0 0.30006271370435122 0.124459754408701 0 0.29510118852444223 0.141803766669891 0 0.31730380943778291 0.14233685265735829 0 0.30006271370435122 0.124459754408701 0 0.28231506296171521 0.13171056704109929 0 0.29510118852444223 0.141803766669891 0 0.29633081197398931 0.16209068458896811 0 0.29510118852444223 0.141803766669891 0 0.28166552506632819 0.1497235286040203 0 0.28231506296171521 0.13171056704109929 0 0.29510118852444223 0.141803766669891 0 0.28166552506632819 0.1497235286040203 0 0.27233146060088798 0.25316074610884981 0 0.28085362636713362 0.2375282103650726 0 0.28504550834992343 0.24884756898793101 0 0.27233146060088798 0.25316074610884981 0 0.28085362636713362 0.2375282103650726 0 0.27233146060088798 0.25316074610884981 0 0.28085362636713362 0.2375282103650726 0 0.27038992549696139 0.2455621478438022 0 0.28085362636713362 0.2375282103650726 0 0.27327870031964191 0.23788273356738809 0 0.27261492559383621 0.23398169094474849 0 0.28085362636713362 0.2375282103650726 0 0.27327870031964191 0.23788273356738809 0 0.27038992549696139 0.2455621478438022 0 0.27327870031964191 0.23788273356738809 0 0.26448214045642382 0.2391953052709013 0 0.27261492559383621 0.23398169094474849 0 0.27327870031964191 0.23788273356738809 0 0.25859327421991551 0.2494597678777338 0 0.2657844840571153 0.25392006059086852 0 0.27038992549696139 0.2455621478438022 0 0.26266022157239621 0.24840538672223431 0 0.27327870031964191 0.23788273356738809 0 0.27038992549696139 0.2455621478438022 0 0.26266022157239621 0.24840538672223431 0 0.27327870031964191 0.23788273356738809 0 0.26266022157239621 0.24840538672223431 0 0.25859327421991551 0.2494597678777338 0 0.26448214045642382 0.2391953052709013 0 0.25450005993729752 0.23428800737667529 0 0.27261492559383621 0.23398169094474849 0 0.2496882489778261 0.24290325795427631 0 0.25859327421991551 0.2494597678777338 0 0.25450005993729752 0.23428800737667529 0 0.2468507990765075 0.24988320060761271 0 0.2496882489778261 0.24290325795427631 0 0.25859327421991551 0.2494597678777338 0 0.2496882489778261 0.24290325795427631 0 0.25023667544839739 0.23606729375595131 0 0.25450005993729752 0.23428800737667529 0 0.25859327421991551 0.2494597678777338 0 0.25450005993729752 0.23428800737667529 0 0.25023667544839739 0.23606729375595131 0 0.25450005993729752 0.23428800737667529 0 0.25859327421991551 0.2494597678777338 0 0.26448214045642382 0.2391953052709013 0 0.25450005993729752 0.23428800737667529 0 0.27327870031964191 0.23788273356738809 0 0.25859327421991551 0.2494597678777338 0 0.26448214045642382 0.2391953052709013 0 0.25450005993729752 0.23428800737667529 0 0.26484825460891498 0.22222073772907841 0 0.25023138274302892 0.21846588237266501 0 0.25450005993729752 0.23428800737667529 0 0.25023138274302892 0.21846588237266501 0 0.24620720171794441 0.231027062253818 0 0.25450005993729752 0.23428800737667529 0 0.25023138274302892 0.21846588237266501 0 0.24620720171794441 0.231027062253818 0 0.25023667544839739 0.23606729375595131 0 0.25450005993729752 0.23428800737667529 0 0.25450005993729752 0.23428800737667529 0 0.26484825460891498 0.22222073772907841 0 0.27769844247479258 0.22460636449935589 0 0.25450005993729752 0.23428800737667529 0 0.27261492559383621 0.23398169094474849 0 0.27769844247479258 0.22460636449935589 0 0.25450005993729752 0.23428800737667529 0 0.27769844247479258 0.22460636449935589 0 0.28085362636713362 0.2375282103650726 0 0.27261492559383621 0.23398169094474849 0 0.28444456072091812 0.23104017310405231 0 0.27261492559383621 0.23398169094474849 0 0.27769844247479258 0.22460636449935589 0 0.28444456072091812 0.23104017310405231 0 0.26484825460891498 0.22222073772907841 0 0.27769844247479258 0.22460636449935589 0 0.27864661167315241 0.21350738518700041 0 0.26484825460891498 0.22222073772907841 0 0.27214590911544062 0.20555046325066151 0 0.26069293046633468 0.1965718162707808 0 0.26484825460891498 0.22222073772907841 0 0.27864661167315241 0.21350738518700041 0 0.27214590911544062 0.20555046325066151 0 0.27864661167315241 0.21350738518700041 0 0.27214590911544062 0.20555046325066151 0 0.28354708496081149 0.20141366627635929 0 0.25023138274302892 0.21846588237266501 0 0.26069293046633468 0.1965718162707808 0 0.25002767978558532 0.2000225228547507 0 0.26484825460891498 0.22222073772907841 0 0.25023138274302892 0.21846588237266501 0 0.26069293046633468 0.1965718162707808 0 0.26484825460891498 0.22222073772907841 0 0.26069293046633468 0.1965718162707808 0 0.26069293046633468 0.1965718162707808 0 0.25002767978558532 0.2000225228547507 0 0.25052941350297298 0.18971531408661929 0 0.28443734070747512 0.1832124716773692 0 0.27299466386798937 0.19403871079008869 0 0.28354708496081149 0.20141366627635929 0 0.26955606054075598 0.18188099460622159 0 0.26069293046633468 0.1965718162707808 0 0.27299466386798937 0.19403871079008869 0 0.27214590911544062 0.20555046325066151 0 0.26069293046633468 0.1965718162707808 0 0.27299466386798937 0.19403871079008869 0 0.27214590911544062 0.20555046325066151 0 0.27299466386798937 0.19403871079008869 0 0.28354708496081149 0.20141366627635929 0 0.28443734070747512 0.1832124716773692 0 0.29644231987109598 0.1955105075288581 0 0.28354708496081149 0.20141366627635929 0 0.30054630999428361 0.1817786740100642 0 0.29644231987109598 0.1955105075288581 0 0.31124611513331069 0.1979408532842975 0 0.29644231987109598 0.1955105075288581 0 0.31124611513331069 0.1979408532842975 0 0.30089682501228809 0.21492472162203771 0 0.31124611513331069 0.1979408532842975 0 0.30089682501228809 0.21492472162203771 0 0.32409520754978383 0.20524307874471939 0 0.30089682501228809 0.21492472162203771 0 0.32409520754978383 0.20524307874471939 0 0.27769844247479258 0.22460636449935589 0 0.27864661167315241 0.21350738518700041 0 0.30089682501228809 0.21492472162203771 0 0.27864661167315241 0.21350738518700041 0 0.28354708496081149 0.20141366627635929 0 0.30089682501228809 0.21492472162203771 0 0.29644231987109598 0.1955105075288581 0 0.28354708496081149 0.20141366627635929 0 0.30089682501228809 0.21492472162203771 0 0.27769844247479258 0.22460636449935589 0 0.30089682501228809 0.21492472162203771 0 0.29249204494101633 0.22750224505290531 0 0.27769844247479258 0.22460636449935589 0 0.30089682501228809 0.21492472162203771 0 0.27769844247479258 0.22460636449935589 0 0.28444456072091812 0.23104017310405231 0 0.29249204494101633 0.22750224505290531 0 0.28444456072091812 0.23104017310405231 0 0.29249204494101633 0.22750224505290531 0 0.29479652116683208 0.23725600970858171 0 0.30089682501228809 0.21492472162203771 0 0.29249204494101633 0.22750224505290531 0 0.30549490920022471 0.22704321637121069 0 0.30549490920022471 0.22704321637121069 0 0.29479652116683208 0.23725600970858171 0 0.31816215134194809 0.23474533714592391 0 0.30089682501228809 0.21492472162203771 0 0.30549490920022471 0.22704321637121069 0 0.31622001524562737 0.2190070502772764 0 0.29249204494101633 0.22750224505290531 0 0.30549490920022471 0.22704321637121069 0 0.29479652116683208 0.23725600970858171 0 0.29630545597748881 0.25461063337801759 0 0.31816215134194809 0.23474533714592391 0 0.29630545597748881 0.25461063337801759 0 0.29479652116683208 0.23725600970858171 0 0.31816215134194809 0.23474533714592391 0 0.29630545597748881 0.25461063337801759 0 0.29479652116683208 0.23725600970858171 0 0.28504550834992343 0.24884756898793101 0 0.28085362636713362 0.2375282103650726 0 0.29479652116683208 0.23725600970858171 0 0.28504550834992343 0.24884756898793101 0 0.28085362636713362 0.2375282103650726 0 0.28444456072091812 0.23104017310405231 0 0.29479652116683208 0.23725600970858171 0 0.31816215134194809 0.23474533714592391 0 0.34001884670640747 0.2148800409138302 0 0.35143150222895547 0.23418541121702391 0 0.33387916702828763 0.25056691403351689 0 0.31816215134194809 0.23474533714592391 0 0.35143150222895547 0.23418541121702391 0 0.31497460046591008 0.26310967504609412 0 0.33387916702828763 0.25056691403351689 0 0.31816215134194809 0.23474533714592391 0 0.30549490920022471 0.22704321637121069 0 0.31816215134194809 0.23474533714592391 0 0.31622001524562737 0.2190070502772764 0 0.31816215134194809 0.23474533714592391 0 0.31622001524562737 0.2190070502772764 0 0.34001884670640747 0.2148800409138302 0 0.31816215134194809 0.23474533714592391 0 0.34001884670640747 0.2148800409138302 0 0.34001884670640747 0.2148800409138302 0 0.32409520754978383 0.20524307874471939 0 0.33800375687338502 0.19973454466348001 0 0.31622001524562737 0.2190070502772764 0 0.34001884670640747 0.2148800409138302 0 0.32409520754978383 0.20524307874471939 0 0.30089682501228809 0.21492472162203771 0 0.31622001524562737 0.2190070502772764 0 0.32409520754978383 0.20524307874471939 0 0.31124611513331069 0.1979408532842975 0 0.32409520754978383 0.20524307874471939 0 0.3247728577078256 0.18909484743540331 0 0.3247728577078256 0.18909484743540331 0 0.34283065319436162 0.18753211068935161 0 0.33800375687338502 0.19973454466348001 0 0.32409520754978383 0.20524307874471939 0 0.3247728577078256 0.18909484743540331 0 0.33800375687338502 0.19973454466348001 0 0.34283065319436162 0.18753211068935161 0 0.33800375687338502 0.19973454466348001 0 0.36187554207086681 0.19501474468173649 0 0.36187554207086681 0.19501474468173649 0 0.36886270182028252 0.2094140185102428 0 0.37926355641798848 0.2031213978361196 0 0.36187554207086681 0.19501474468173649 0 0.36886270182028252 0.2094140185102428 0 0.35751351217512117 0.21530622355548221 0 0.36886270182028252 0.2094140185102428 0 0.37618255063802047 0.21809057314745081 0 0.37926355641798848 0.2031213978361196 0 0.36886270182028252 0.2094140185102428 0 0.36506859708071632 0.22360472113447999 0 0.37618255063802047 0.21809057314745081 0 0.36886270182028252 0.2094140185102428 0 0.35751351217512117 0.21530622355548221 0 0.36506859708071632 0.22360472113447999 0 0.34001884670640747 0.2148800409138302 0 0.33800375687338502 0.19973454466348001 0 0.36187554207086681 0.19501474468173649 0 0.34001884670640747 0.2148800409138302 0 0.36187554207086681 0.19501474468173649 0 0.34001884670640747 0.2148800409138302 0 0.36187554207086681 0.19501474468173649 0 0.35751351217512117 0.21530622355548221 0 0.34001884670640747 0.2148800409138302 0 0.35751351217512117 0.21530622355548221 0 0.35143150222895547 0.23418541121702391 0 0.35751351217512117 0.21530622355548221 0 0.35143150222895547 0.23418541121702391 0 0.36506859708071632 0.22360472113447999 0 0.35143150222895547 0.23418541121702391 0 0.37310154485805319 0.23305974845878219 0 0.35143150222895547 0.23418541121702391 0 0.36506859708071632 0.22360472113447999 0 0.37310154485805319 0.23305974845878219 0 0.37310154485805319 0.23305974845878219 0 0.37618255063802047 0.21809057314745081 0 0.36506859708071632 0.22360472113447999 0 0.37310154485805319 0.23305974845878219 0 0.37618255063802047 0.21809057314745081 0 0.37310154485805319 0.23305974845878219 0 0.36978443397455302 0.24917604874782129 0 0.38200224297838992 0.24854138767131839 0 0.35143150222895547 0.23418541121702391 0 0.37310154485805319 0.23305974845878219 0 0.36978443397455302 0.24917604874782129 0 0.37310154485805319 0.23305974845878219 0 0.36978443397455302 0.24917604874782129 0 0.35081428384065189 0.25367106851290039 0 0.35143150222895547 0.23418541121702391 0 0.36978443397455302 0.24917604874782129 0 0.33387916702828763 0.25056691403351689 0 0.35081428384065189 0.25367106851290039 0 0.35143150222895547 0.23418541121702391 0 0.33656258623417568 0.15099812028935161 0 0.33553761455523651 0.13051028660321051 0 0.35501390346873579 0.14682570335343029 0 0.33656258623417568 0.15099812028935161 0 0.33553761455523651 0.13051028660321051 0 0.31730380943778291 0.14233685265735829 0 0.32033265659001903 0.1145348523438889 0 0.31730380943778291 0.14233685265735829 0 0.32033265659001903 0.1145348523438889 0 0.30006271370435122 0.124459754408701 0 0.31730380943778291 0.14233685265735829 0 0.32033265659001903 0.1145348523438889 0 0.33553761455523651 0.13051028660321051 0 0.31730380943778291 0.14233685265735829 0 0.33656258623417568 0.15099812028935161 0 0.31730380943778291 0.14233685265735829 0 0.32940714596004023 0.16356783116543569 0 0.31730380943778291 0.14233685265735829 0 0.3142749622855468 0.1701388529708279 0 0.3142749622855468 0.1701388529708279 0 0.33220049229808879 0.17736130136812059 0 0.32940714596004023 0.16356783116543569 0 0.31730380943778291 0.14233685265735829 0 0.3142749622855468 0.1701388529708279 0 0.32940714596004023 0.16356783116543569 0 0.31124611513331069 0.1979408532842975 0 0.3247728577078256 0.18909484743540331 0 0.3142749622855468 0.1701388529708279 0 0.3247728577078256 0.18909484743540331 0 0.3142749622855468 0.1701388529708279 0 0.33220049229808879 0.17736130136812059 0 0.31124611513331069 0.1979408532842975 0 0.3142749622855468 0.1701388529708279 0 0.34283065319436162 0.18753211068935161 0 0.33220049229808879 0.17736130136812059 0 0.34468660970245568 0.17009723301181379 0 0.3247728577078256 0.18909484743540331 0 0.34283065319436162 0.18753211068935161 0 0.33220049229808879 0.17736130136812059 0 0.33656258623417568 0.15099812028935161 0 0.32940714596004023 0.16356783116543569 0 0.34468660970245568 0.17009723301181379 0 0.33220049229808879 0.17736130136812059 0 0.32940714596004023 0.16356783116543569 0 0.34468660970245568 0.17009723301181379 0 0.34468660970245568 0.17009723301181379 0 0.36329625328533349 0.16123975323527689 0 0.35501390346873579 0.14682570335343029 0 0.34468660970245568 0.17009723301181379 0 0.3613886430799072 0.1766438667140203 0 0.36329625328533349 0.16123975323527689 0 0.34283065319436162 0.18753211068935161 0 0.34468660970245568 0.17009723301181379 0 0.3613886430799072 0.1766438667140203 0 0.34283065319436162 0.18753211068935161 0 0.36187554207086681 0.19501474468173649 0 0.3613886430799072 0.1766438667140203 0 0.3613886430799072 0.1766438667140203 0 0.3742467814121983 0.16809755922723821 0 0.38373223743532597 0.17514944844964289 0 0.36187554207086681 0.19501474468173649 0 0.38373223743532597 0.17514944844964289 0 0.36187554207086681 0.19501474468173649 0 0.3613886430799072 0.1766438667140203 0 0.38373223743532597 0.17514944844964289 0 0.36329625328533349 0.16123975323527689 0 0.3742467814121983 0.16809755922723821 0 0.38114532876337059 0.14453440386988189 0 0.3613886430799072 0.1766438667140203 0 0.36329625328533349 0.16123975323527689 0 0.3742467814121983 0.16809755922723821 0 0.35501390346873579 0.14682570335343029 0 0.36869000497274218 0.13164616764447171 0 0.38114532876337059 0.14453440386988189 0 0.36329625328533349 0.16123975323527689 0 0.35501390346873579 0.14682570335343029 0 0.38114532876337059 0.14453440386988189 0 0.33656258623417568 0.15099812028935161 0 0.34468660970245568 0.17009723301181379 0 0.35501390346873579 0.14682570335343029 0 0.35371969170769119 0.12268247984680609 0 0.33553761455523651 0.13051028660321051 0 0.35501390346873579 0.14682570335343029 0 0.35371969170769119 0.12268247984680609 0 0.35501390346873579 0.14682570335343029 0 0.36869000497274218 0.13164616764447171 0 0.36869000497274218 0.13164616764447171 0 0.38114532876337059 0.14453440386988189 0 0.38804387611454288 0.1209712485125255 0 0.40063556930475058 0.14091038338921269 0 0.38114532876337059 0.14453440386988189 0 0.38804387611454288 0.1209712485125255 0 0.38114532876337059 0.14453440386988189 0 0.38804387611454288 0.1209712485125255 0 0.40063556930475058 0.14091038338921269 0 0.40778108869946839 0.11494257548698029 0 0.38804387611454288 0.1209712485125255 0 0.40063556930475058 0.14091038338921269 0 0.39542633217017992 0.15734704609929939 0 0.41164118813937078 0.1623740209146233 0 0.40063556930475058 0.14091038338921269 0 0.38114532876337059 0.14453440386988189 0 0.39542633217017992 0.15734704609929939 0 0.38114532876337059 0.14453440386988189 0 0.38683420251803569 0.16384065603438469 0 0.39542633217017992 0.15734704609929939 0 0.3742467814121983 0.16809755922723821 0 0.38114532876337059 0.14453440386988189 0 0.3742467814121983 0.16809755922723821 0 0.38114532876337059 0.14453440386988189 0 0.38683420251803569 0.16384065603438469 0 0.38683420251803569 0.16384065603438469 0 0.38373223743532597 0.17514944844964289 0 0.39962033280910381 0.17407482252586101 0 0.3742467814121983 0.16809755922723821 0 0.38683420251803569 0.16384065603438469 0 0.38373223743532597 0.17514944844964289 0 0.38373223743532597 0.17514944844964289 0 0.39215397835882088 0.18231036686529831 0 0.38426732689818671 0.19170485487848349 0 0.36187554207086681 0.19501474468173649 0 0.38373223743532597 0.17514944844964289 0 0.38426732689818671 0.19170485487848349 0 0.38373223743532597 0.17514944844964289 0 0.39962033280910381 0.17407482252586101 0 0.39215397835882088 0.18231036686529831 0 0.39962033280910381 0.17407482252586101 0 0.39215397835882088 0.18231036686529831 0 0.39898685686725899 0.1910939280976566 0 0.39962033280910381 0.17407482252586101 0 0.41638780733875191 0.18332442040708061 0 0.39898685686725899 0.1910939280976566 0 0.39962033280910381 0.17407482252586101 0 0.39542633217017992 0.15734704609929939 0 0.41164118813937078 0.1623740209146233 0 0.38683420251803569 0.16384065603438469 0 0.39962033280910381 0.17407482252586101 0 0.39542633217017992 0.15734704609929939 0 0.41164118813937078 0.1623740209146233 0 0.41638780733875191 0.18332442040708061 0 0.42822429452740662 0.16780941642938799 0 0.39962033280910381 0.17407482252586101 0 0.41164118813937078 0.1623740209146233 0 0.41638780733875191 0.18332442040708061 0 0.41638780733875191 0.18332442040708061 0 0.42822429452740662 0.16780941642938799 0 0.44188210912648213 0.1839742491411582 0 0.42822429452740662 0.16780941642938799 0 0.42726805227241699 0.14917356852747371 0 0.44394231576000809 0.16020082315660361 0 0.41164118813937078 0.1623740209146233 0 0.42822429452740662 0.16780941642938799 0 0.42726805227241699 0.14917356852747371 0 0.42726805227241699 0.14917356852747371 0 0.41742584112188952 0.13233196569257091 0 0.44600252239353072 0.13642739717204849 0 0.41742584112188952 0.13233196569257091 0 0.44600252239353072 0.13642739717204849 0 0.42783514117977017 0.1159801900381697 0 0.40063556930475058 0.14091038338921269 0 0.41742584112188952 0.13233196569257091 0 0.40778108869946839 0.11494257548698029 0 0.40063556930475058 0.14091038338921269 0 0.41164118813937078 0.1623740209146233 0 0.42726805227241699 0.14917356852747371 0 0.40063556930475058 0.14091038338921269 0 0.42726805227241699 0.14917356852747371 0 0.41742584112188952 0.13233196569257091 0 0.40095602858256041 0.26009253496263057 0 0.40014444104144631 0.231654989749741 0 0.40626169246956778 0.24511190550505879 0 0.40095602858256041 0.26009253496263057 0 0.39753716286572433 0.2317904263057749 0 0.40014444104144631 0.231654989749741 0 0.40095602858256041 0.26009253496263057 0 0.38200224297838992 0.24854138767131839 0 0.39753716286572433 0.2317904263057749 0 0.40095602858256041 0.26009253496263057 0 0.40014444104144631 0.231654989749741 0 0.37310154485805319 0.23305974845878219 0 0.38200224297838992 0.24854138767131839 0 0.39753716286572433 0.2317904263057749 0 0.38200224297838992 0.24854138767131839 0 0.39753716286572433 0.2317904263057749 0 0.37310154485805319 0.23305974845878219 0 0.39753716286572433 0.2317904263057749 0 0.37310154485805319 0.23305974845878219 0 0.38567077072646239 0.22497214532095691 0 0.39753716286572433 0.2317904263057749 0 0.37310154485805319 0.23305974845878219 0 0.38567077072646239 0.22497214532095691 0 0.37618255063802047 0.21809057314745081 0 0.38567077072646239 0.22497214532095691 0 0.39352318397096181 0.22393167561890329 0 0.3880094112995523 0.2179883030738711 0 0.38567077072646239 0.22497214532095691 0 0.3880094112995523 0.2179883030738711 0 0.37618255063802047 0.21809057314745081 0 0.40007035173954048 0.22905894463321699 0 0.40349322902283891 0.2220394877530425 0 0.39952860430339981 0.2100764363654368 0 0.39352318397096181 0.22393167561890329 0 0.40007035173954048 0.22905894463321699 0 0.39952860430339981 0.2100764363654368 0 0.40007035173954048 0.22905894463321699 0 0.39952860430339981 0.2100764363654368 0 0.39352318397096181 0.22393167561890329 0 0.39753716286572433 0.2317904263057749 0 0.40007035173954048 0.22905894463321699 0 0.38567077072646239 0.22497214532095691 0 0.39352318397096181 0.22393167561890329 0 0.39753716286572433 0.2317904263057749 0 0.40007035173954048 0.22905894463321699 0 0.40014444104144631 0.231654989749741 0 0.40580816774172118 0.22287198423225271 0 0.39753716286572433 0.2317904263057749 0 0.40007035173954048 0.22905894463321699 0 0.40007035173954048 0.22905894463321699 0 0.40014444104144631 0.231654989749741 0 0.39753716286572433 0.2317904263057749 0 0.40007035173954048 0.22905894463321699 0 0.40014444104144631 0.231654989749741 0 0.39753716286572433 0.2317904263057749 0 0.40014444104144631 0.231654989749741 0 0.40007035173954048 0.22905894463321699 0 0.40580816774172118 0.22287198423225271 0 0.40007035173954048 0.22905894463321699 0 0.40580816774172118 0.22287198423225271 0 0.40349322902283891 0.2220394877530425 0 0.40580816774172118 0.22287198423225271 0 0.40349322902283891 0.2220394877530425 0 0.40580816774172118 0.22287198423225271 0 0.39952860430339981 0.2100764363654368 0 0.40891131493704608 0.20215797715782591 0 0.40580816774172118 0.22287198423225271 0 0.40349322902283891 0.2220394877530425 0 0.39952860430339981 0.2100764363654368 0 0.39952860430339981 0.2100764363654368 0 0.3880094112995523 0.2179883030738711 0 0.3881421818338775 0.2071012523371458 0 0.39352318397096181 0.22393167561890329 0 0.39952860430339981 0.2100764363654368 0 0.3880094112995523 0.2179883030738711 0 0.3880094112995523 0.2179883030738711 0 0.37618255063802047 0.21809057314745081 0 0.3881421818338775 0.2071012523371458 0 0.37618255063802047 0.21809057314745081 0 0.37926355641798848 0.2031213978361196 0 0.37618255063802047 0.21809057314745081 0 0.3881421818338775 0.2071012523371458 0 0.37926355641798848 0.2031213978361196 0 0.36187554207086681 0.19501474468173649 0 0.37926355641798848 0.2031213978361196 0 0.38426732689818671 0.19170485487848349 0 0.3881421818338775 0.2071012523371458 0 0.37926355641798848 0.2031213978361196 0 0.38426732689818671 0.19170485487848349 0 0.3881421818338775 0.2071012523371458 0 0.38426732689818671 0.19170485487848349 0 0.39898685686725899 0.1910939280976566 0 0.39952860430339981 0.2100764363654368 0 0.39898685686725899 0.1910939280976566 0 0.40891131493704608 0.20215797715782591 0 0.39952860430339981 0.2100764363654368 0 0.3881421818338775 0.2071012523371458 0 0.39898685686725899 0.1910939280976566 0 0.39215397835882088 0.18231036686529831 0 0.38426732689818671 0.19170485487848349 0 0.39898685686725899 0.1910939280976566 0 0.39952860430339981 0.2100764363654368 0 0.39898685686725899 0.1910939280976566 0 0.41638780733875191 0.18332442040708061 0 0.39898685686725899 0.1910939280976566 0 0.40891131493704608 0.20215797715782591 0 0.41638780733875191 0.18332442040708061 0 0.40891131493704608 0.20215797715782591 0 0.42384513843409949 0.20342311668670349 0 0.42384513843409949 0.20342311668670349 0 0.44188210912648213 0.1839742491411582 0 0.42384513843409949 0.20342311668670349 0 0.44041296955234099 0.20092715102907191 0 0.44188210912648213 0.1839742491411582 0 0.41638780733875191 0.18332442040708061 0 0.42384513843409949 0.20342311668670349 0 0.44188210912648213 0.1839742491411582 0 0.41740137384294868 0.21638453967318791 0 0.42951973125978099 0.2208030233675895 0 0.44041296955234099 0.20092715102907191 0 0.42384513843409949 0.20342311668670349 0 0.41740137384294868 0.21638453967318791 0 0.44041296955234099 0.20092715102907191 0 0.42951973125978099 0.2208030233675895 0 0.43896791107817462 0.21760217290305681 0 0.44041296955234099 0.20092715102907191 0 0.41740137384294868 0.21638453967318791 0 0.44041296955234099 0.20092715102907191 0 0.40580816774172118 0.22287198423225271 0 0.42384513843409949 0.20342311668670349 0 0.40580816774172118 0.22287198423225271 0 0.42384513843409949 0.20342311668670349 0 0.41740137384294868 0.21638453967318791 0 0.40580816774172118 0.22287198423225271 0 0.40891131493704608 0.20215797715782591 0 0.42384513843409949 0.20342311668670349 0 0.40014444104144631 0.231654989749741 0 0.42643383825128528 0.2302893719758316 0 0.40580816774172118 0.22287198423225271 0 0.42643383825128528 0.2302893719758316 0 0.40014444104144631 0.231654989749741 0 0.42643383825128528 0.2302893719758316 0 0.41549414607841101 0.24083991578515671 0 0.40014444104144631 0.231654989749741 0 0.40580816774172118 0.22287198423225271 0 0.42643383825128528 0.2302893719758316 0 0.40580816774172118 0.22287198423225271 0 0.41740137384294868 0.21638453967318791 0 0.42643383825128528 0.2302893719758316 0 0.41740137384294868 0.21638453967318791 0 0.42951973125978099 0.2208030233675895 0 0.42643383825128528 0.2302893719758316 0 0.43357191091192299 0.22991858070895621 0 0.43752285260401169 0.2342771947770419 0 0.43896791107817462 0.21760217290305681 0 0.42951973125978099 0.2208030233675895 0 0.43357191091192299 0.22991858070895621 0 0.43896791107817462 0.21760217290305681 0 0.42643383825128528 0.2302893719758316 0 0.43752285260401169 0.2342771947770419 0 0.43357191091192299 0.22991858070895621 0 0.42643383825128528 0.2302893719758316 0 0.43752285260401169 0.2342771947770419 0 0.42951973125978099 0.2208030233675895 0 0.43357191091192299 0.22991858070895621 0 0.42643383825128528 0.2302893719758316 0 0.43357191091192299 0.22991858070895621 0 0.42643383825128528 0.2302893719758316 0 0.42643383825128528 0.2302893719758316 0 0.42704192638147398 0.24465952080229089 0 0.41549414607841101 0.24083991578515671 0 0.43575639483054618 0.25466095262392802 0 0.43752285260401169 0.2342771947770419 0 0.43575639483054618 0.25466095262392802 0 0.42704192638147398 0.24465952080229089 0 0.43752285260401169 0.2342771947770419 0 0.42643383825128528 0.2302893719758316 0 0.42704192638147398 0.24465952080229089 0 0.43752285260401169 0.2342771947770419 0 0.41758883224828108 0.25248379089286138 0 0.42704192638147398 0.24465952080229089 0 0.41549414607841101 0.24083991578515671 0 0.40014444104144631 0.231654989749741 0 0.41549414607841101 0.24083991578515671 0 0.40626169246956778 0.24511190550505879 0 0.41758883224828108 0.25248379089286138 0 0.41549414607841101 0.24083991578515671 0 0.40626169246956778 0.24511190550505879 0 0.45960743701738099 0.2422192360151087 0 0.46416179814234321 0.2276882883803876 0 0.47727162820823238 0.23398632197500421 0 0.45960743701738099 0.2422192360151087 0 0.43752285260401169 0.2342771947770419 0 0.43575639483054618 0.25466095262392802 0 0.45960743701738099 0.2422192360151087 0 0.43752285260401169 0.2342771947770419 0 0.43752285260401169 0.2342771947770419 0 0.43896791107817462 0.21760217290305681 0 0.43752285260401169 0.2342771947770419 0 0.4510668970068446 0.2252320473691892 0 0.43896791107817462 0.21760217290305681 0 0.45960743701738099 0.2422192360151087 0 0.43752285260401169 0.2342771947770419 0 0.4510668970068446 0.2252320473691892 0 0.45960743701738099 0.2422192360151087 0 0.4510668970068446 0.2252320473691892 0 0.46416179814234321 0.2276882883803876 0 0.46416179814234321 0.2276882883803876 0 0.45777302079750221 0.21732331234590879 0 0.48089688445068751 0.2197716997056014 0 0.4510668970068446 0.2252320473691892 0 0.46416179814234321 0.2276882883803876 0 0.45777302079750221 0.21732331234590879 0 0.46179376890137402 0.20945229089045581 0 0.45777302079750221 0.21732331234590879 0 0.48089688445068751 0.2197716997056014 0 0.46179376890137402 0.20945229089045581 0 0.45818835439815159 0.20377133732921709 0 0.46825227263277402 0.20136430402475139 0 0.46179376890137402 0.20945229089045581 0 0.46825227263277402 0.20136430402475139 0 0.47358389447693111 0.2067258453969498 0 0.45818835439815159 0.20377133732921709 0 0.45527002671401151 0.20924077845638789 0 0.45022662707137218 0.20337487192272599 0 0.46179376890137402 0.20945229089045581 0 0.45818835439815159 0.20377133732921709 0 0.45527002671401151 0.20924077845638789 0 0.45527002671401151 0.20924077845638789 0 0.45777302079750221 0.21732331234590879 0 0.44836836240165739 0.21228207979363151 0 0.46179376890137402 0.20945229089045581 0 0.45527002671401151 0.20924077845638789 0 0.45777302079750221 0.21732331234590879 0 0.43896791107817462 0.21760217290305681 0 0.44041296955234099 0.20092715102907191 0 0.4510668970068446 0.2252320473691892 0 0.44836836240165739 0.21228207979363151 0 0.43896791107817462 0.21760217290305681 0 0.44836836240165739 0.21228207979363151 0 0.43896791107817462 0.21760217290305681 0 0.44041296955234099 0.20092715102907191 0 0.4510668970068446 0.2252320473691892 0 0.45777302079750221 0.21732331234590879 0 0.44836836240165739 0.21228207979363151 0 0.45527002671401151 0.20924077845638789 0 0.44836836240165739 0.21228207979363151 0 0.45022662707137218 0.20337487192272599 0 0.44836836240165739 0.21228207979363151 0 0.45022662707137218 0.20337487192272599 0 0.44041296955234099 0.20092715102907191 0 0.45022662707137218 0.20337487192272599 0 0.44041296955234099 0.20092715102907191 0 0.46515162623474021 0.1843096580180561 0 0.44041296955234099 0.20092715102907191 0 0.46515162623474021 0.1843096580180561 0 0.44041296955234099 0.20092715102907191 0 0.44188210912648213 0.1839742491411582 0 0.45034650405904142 0.18504607305524909 0 0.44041296955234099 0.20092715102907191 0 0.44188210912648213 0.1839742491411582 0 0.44041296955234099 0.20092715102907191 0 0.45034650405904142 0.18504607305524909 0 0.46515162623474021 0.1843096580180561 0 0.45818835439815159 0.20377133732921709 0 0.47403931865764509 0.1857317511681284 0 0.45818835439815159 0.20377133732921709 0 0.46825227263277402 0.20136430402475139 0 0.47403931865764509 0.1857317511681284 0 0.45818835439815159 0.20377133732921709 0 0.45022662707137218 0.20337487192272599 0 0.46515162623474021 0.1843096580180561 0 0.45818835439815159 0.20377133732921709 0 0.46515162623474021 0.1843096580180561 0 0.47403931865764509 0.1857317511681284 0 0.46825227263277402 0.20136430402475139 0 0.47444529985427047 0.19957418223530621 0 0.47403931865764509 0.1857317511681284 0 0.47444529985427047 0.19957418223530621 0 0.48118444149158163 0.1934434801709157 0 0.47403931865764509 0.1857317511681284 0 0.46825227263277402 0.20136430402475139 0 0.47444529985427047 0.19957418223530621 0 0.47358389447693111 0.2067258453969498 0 0.47444529985427047 0.19957418223530621 0 0.48118444149158163 0.1934434801709157 0 0.48253124654554902 0.20346675012863449 0 0.48118444149158163 0.1934434801709157 0 0.4887102873623046 0.19405437267409931 0 0.48253124654554902 0.20346675012863449 0 0.48118444149158163 0.1934434801709157 0 0.47403931865764509 0.1857317511681284 0 0.48619605503813829 0.1843903446484102 0 0.4887102873623046 0.19405437267409931 0 0.5 0.2054562552573809 0 0.5 0.18082140199401431 0 0.48118444149158163 0.1934434801709157 0 0.4887102873623046 0.19405437267409931 0 0.48619605503813829 0.1843903446484102 0 0.4887102873623046 0.19405437267409931 0 0.5 0.2054562552573809 0 0.48253124654554902 0.20346675012863449 0 0.5 0.2054562552573809 0 0.48089688445068751 0.2197716997056014 0 0.500000000000001 0.23009110852074741 0 0.5 0.2054562552573809 0 0.48253124654554902 0.20346675012863449 0 0.48089688445068751 0.2197716997056014 0 0.48253124654554902 0.20346675012863449 0 0.47358389447693111 0.2067258453969498 0 0.48089688445068751 0.2197716997056014 0 0.46179376890137402 0.20945229089045581 0 0.48089688445068751 0.2197716997056014 0 0.46179376890137402 0.20945229089045581 0 0.47358389447693111 0.2067258453969498 0 0.48089688445068751 0.2197716997056014 0 0.47444529985427047 0.19957418223530621 0 0.48253124654554902 0.20346675012863449 0 0.47358389447693111 0.2067258453969498 0 0.46416179814234321 0.2276882883803876 0 0.48089688445068751 0.2197716997056014 0 0.47727162820823238 0.23398632197500421 0 0.48089688445068751 0.2197716997056014 0 0.47727162820823238 0.23398632197500421 0 0.500000000000001 0.23009110852074741 0 0.48089688445068751 0.2197716997056014 0 0.500000000000001 0.23009110852074741 0 0.48169202143075018 0.25016127725317611 0 0.47727162820823238 0.23398632197500421 0 0.500000000000001 0.23009110852074741 0 0.48169202143075018 0.25016127725317611 0 0.5 0.25659808598344241 0 0.500000000000001 0.23009110852074741 0 0.48169202143075018 0.25016127725317611 0 0.45960743701738099 0.2422192360151087 0 0.47727162820823238 0.23398632197500421 0 0.48169202143075018 0.25016127725317611 0 0.45960743701738099 0.2422192360151087 0 0.45720550586537112 0.148916639557817 0 0.4550531042046756 0.15991471036044161 0 0.46599651351871768 0.15797221892426311 0 0.45720550586537112 0.148916639557817 0 0.46599651351871768 0.15797221892426311 0 0.47089664022982669 0.14729141112044949 0 0.45720550586537112 0.148916639557817 0 0.46031776453997708 0.1349009887889861 0 0.47089664022982669 0.14729141112044949 0 0.46031776453997708 0.1349009887889861 0 0.47089664022982669 0.14729141112044949 0 0.47254806755265749 0.1264957956573162 0 0.45720550586537112 0.148916639557817 0 0.46031776453997708 0.1349009887889861 0 0.44600252239353072 0.13642739717204849 0 0.46031776453997708 0.1349009887889861 0 0.44600252239353072 0.13642739717204849 0 0.44806272902705341 0.1126539711874934 0 0.42726805227241699 0.14917356852747371 0 0.44600252239353072 0.13642739717204849 0 0.44394231576000809 0.16020082315660361 0 0.44600252239353072 0.13642739717204849 0 0.44394231576000809 0.16020082315660361 0 0.45720550586537112 0.148916639557817 0 0.44600252239353072 0.13642739717204849 0 0.44394231576000809 0.16020082315660361 0 0.44394231576000809 0.16020082315660361 0 0.44188210912648213 0.1839742491411582 0 0.45393931132259829 0.17097323403270909 0 0.42822429452740662 0.16780941642938799 0 0.44394231576000809 0.16020082315660361 0 0.44188210912648213 0.1839742491411582 0 0.45720550586537112 0.148916639557817 0 0.44394231576000809 0.16020082315660361 0 0.4550531042046756 0.15991471036044161 0 0.44394231576000809 0.16020082315660361 0 0.4550531042046756 0.15991471036044161 0 0.45393931132259829 0.17097323403270909 0 0.44394231576000809 0.16020082315660361 0 0.44188210912648213 0.1839742491411582 0 0.44188210912648213 0.1839742491411582 0 0.45393931132259829 0.17097323403270909 0 0.44188210912648213 0.1839742491411582 0 0.45034650405904142 0.18504607305524909 0 0.45393931132259829 0.17097323403270909 0 0.45034650405904142 0.18504607305524909 0 0.46515162623474021 0.1843096580180561 0 0.45393931132259829 0.17097323403270909 0 0.46515162623474021 0.1843096580180561 0 0.45393931132259829 0.17097323403270909 0 0.46923748906555568 0.169110656800772 0 0.4550531042046756 0.15991471036044161 0 0.45393931132259829 0.17097323403270909 0 0.46599651351871768 0.15797221892426311 0 0.45393931132259829 0.17097323403270909 0 0.46599651351871768 0.15797221892426311 0 0.45393931132259829 0.17097323403270909 0 0.46599651351871768 0.15797221892426311 0 0.46923748906555568 0.169110656800772 0 0.46599651351871768 0.15797221892426311 0 0.47610675656372858 0.161230113869022 0 0.47429816452074491 0.1553023284317826 0 0.46599651351871768 0.15797221892426311 0 0.47610675656372858 0.161230113869022 0 0.46923748906555568 0.169110656800772 0 0.47610675656372858 0.161230113869022 0 0.46923748906555568 0.169110656800772 0 0.48989028291713882 0.16769216500703951 0 0.47610675656372858 0.161230113869022 0 0.48989028291713882 0.16769216500703951 0 0.48333700598864687 0.1542689444046815 0 0.47610675656372858 0.161230113869022 0 0.48333700598864687 0.1542689444046815 0 0.47429816452074491 0.1553023284317826 0 0.46515162623474021 0.1843096580180561 0 0.46923748906555568 0.169110656800772 0 0.48989028291713882 0.16769216500703951 0 0.47403931865764509 0.1857317511681284 0 0.48989028291713882 0.16769216500703951 0 0.46515162623474021 0.1843096580180561 0 0.48989028291713882 0.16769216500703951 0 0.47403931865764509 0.1857317511681284 0 0.48619605503813829 0.1843903446484102 0 0.48989028291713882 0.16769216500703951 0 0.46515162623474021 0.1843096580180561 0 0.47403931865764509 0.1857317511681284 0 0.48989028291713882 0.16769216500703951 0 0.48619605503813829 0.1843903446484102 0 0.5 0.18082140199401431 0 0.48989028291713882 0.16769216500703951 0 0.4887102873623046 0.19405437267409931 0 0.48619605503813829 0.1843903446484102 0 0.5 0.18082140199401431 0 0.5 0.18082140199401431 0 0.49162175954661608 0.16652909454777931 0 0.50000000000000089 0.15618654873064769 0 0.48989028291713882 0.16769216500703951 0 0.50000000000000089 0.15618654873064769 0 0.48333700598864687 0.1542689444046815 0 0.48989028291713882 0.16769216500703951 0 0.49162175954661608 0.16652909454777931 0 0.5 0.18082140199401431 0 0.48989028291713882 0.16769216500703951 0 0.49162175954661608 0.16652909454777931 0 0.48989028291713882 0.16769216500703951 0 0.50000000000000089 0.15618654873064769 0 0.48989028291713882 0.16769216500703951 0 0.49162175954661608 0.16652909454777931 0 0.50000000000000089 0.15618654873064769 0 0.50000000000000089 0.15618654873064769 0 0.48333700598864687 0.1542689444046815 0 0.48380109039687069 0.1380530797117554 0 0.50000000000000089 0.15618654873064769 0 0.48380109039687069 0.1380530797117554 0 0.5 0.13118189496385579 0 0.48333700598864687 0.1542689444046815 0 0.47089664022982669 0.14729141112044949 0 0.48380109039687069 0.1380530797117554 0 0.46599651351871768 0.15797221892426311 0 0.47089664022982669 0.14729141112044949 0 0.47429816452074491 0.1553023284317826 0 0.48333700598864687 0.1542689444046815 0 0.47089664022982669 0.14729141112044949 0 0.47429816452074491 0.1553023284317826 0 0.47089664022982669 0.14729141112044949 0 0.47254806755265749 0.1264957956573162 0 0.48380109039687069 0.1380530797117554 0 0.47254806755265749 0.1264957956573162 0 0.48380109039687069 0.1380530797117554 0 0.48630451299532879 0.11731393668419179 0 0.47089664022982669 0.14729141112044949 0 0.47254806755265749 0.1264957956573162 0 0.48380109039687069 0.1380530797117554 0 0.5 0.13118189496385579 0 0.48630451299532879 0.11731393668419179 0 0.5 0.13118189496385579 0 0.48630451299532879 0.11731393668419179 0 0.5 0.106177241197064 0 0.48727842514695602 0.096275428380976663 0 0.5 0.106177241197064 0 0.50000000000000178 0.081172587430272114 0 0.48630451299532879 0.11731393668419179 0 0.48727842514695602 0.096275428380976663 0 0.5 0.106177241197064 0 0.48727842514695602 0.096275428380976663 0 0.4741994948754884 0.1057001801941829 0 0.47585092219831848 0.084904564731049487 0 0.4741994948754884 0.1057001801941829 0 0.47585092219831848 0.084904564731049487 0 0.48630451299532879 0.11731393668419179 0 0.48727842514695602 0.096275428380976663 0 0.4741994948754884 0.1057001801941829 0 0.47254806755265749 0.1264957956573162 0 0.48630451299532879 0.11731393668419179 0 0.4741994948754884 0.1057001801941829 0 0.47254806755265749 0.1264957956573162 0 0.4741994948754884 0.1057001801941829 0 0.50000000000000178 0.081172587430272114 0 0.47769118063882288 0.061731091486159087 0 0.5 0.056324793234311832 0 0.50000000000000178 0.081172587430272114 0 0.47585092219831848 0.084904564731049487 0 0.47769118063882288 0.061731091486159087 0 0.50000000000000178 0.081172587430272114 0 0.47585092219831848 0.084904564731049487 0 0.48727842514695602 0.096275428380976663 0 0.50000000000000178 0.081172587430272114 0 0.47585092219831848 0.084904564731049487 0 0.47585092219831848 0.084904564731049487 0 0.47769118063882288 0.061731091486159087 0 0.47585092219831848 0.084904564731049487 0 0.45223863991978019 0.064466713214928972 0 0.47769118063882288 0.061731091486159087 0 0.47585092219831848 0.084904564731049487 0 0.45012293566057388 0.088880545202938074 0 0.45223863991978019 0.064466713214928972 0 0.4741994948754884 0.1057001801941829 0 0.47585092219831848 0.084904564731049487 0 0.45012293566057388 0.088880545202938074 0 0.47585092219831848 0.084904564731049487 0 0.45012293566057388 0.088880545202938074 0 0.45012293566057388 0.088880545202938074 0 0.45223863991978019 0.064466713214928972 0 0.45012293566057388 0.088880545202938074 0 0.45223863991978019 0.064466713214928972 0 0.43437280878651158 0.07826961707697784 0 0.45223863991978019 0.064466713214928972 0 0.43437280878651158 0.07826961707697784 0 0.43043912569261339 0.062487597120358729 0 0.47254806755265749 0.1264957956573162 0 0.4741994948754884 0.1057001801941829 0 0.44806272902705341 0.1126539711874934 0 0.46031776453997708 0.1349009887889861 0 0.47254806755265749 0.1264957956573162 0 0.44806272902705341 0.1126539711874934 0 0.4741994948754884 0.1057001801941829 0 0.45012293566057388 0.088880545202938074 0 0.44806272902705341 0.1126539711874934 0 0.45012293566057388 0.088880545202938074 0 0.44806272902705341 0.1126539711874934 0 0.42253267956314461 0.093144319179050791 0 0.45012293566057388 0.088880545202938074 0 0.44806272902705341 0.1126539711874934 0 0.44600252239353072 0.13642739717204849 0 0.44806272902705341 0.1126539711874934 0 0.42783514117977017 0.1159801900381697 0 0.44600252239353072 0.13642739717204849 0 0.44806272902705341 0.1126539711874934 0 0.41742584112188952 0.13233196569257091 0 0.42783514117977017 0.1159801900381697 0 0.40778108869946839 0.11494257548698029 0 0.40778108869946839 0.11494257548698029 0 0.42253267956314461 0.093144319179050791 0 0.39494242346571617 0.097408093155169462 0 0.42783514117977017 0.1159801900381697 0 0.40778108869946839 0.11494257548698029 0 0.42253267956314461 0.093144319179050791 0 0.42253267956314461 0.093144319179050791 0 0.39494242346571617 0.097408093155169462 0 0.44806272902705341 0.1126539711874934 0 0.42783514117977017 0.1159801900381697 0 0.42253267956314461 0.093144319179050791 0 0.43437280878651158 0.07826961707697784 0 0.42253267956314461 0.093144319179050791 0 0.41497499572999941 0.071859354046429236 0 0.45012293566057388 0.088880545202938074 0 0.42253267956314461 0.093144319179050791 0 0.45012293566057388 0.088880545202938074 0 0.43437280878651158 0.07826961707697784 0 0.42253267956314461 0.093144319179050791 0 0.43437280878651158 0.07826961707697784 0 0.41497499572999941 0.071859354046429236 0 0.43043912569261339 0.062487597120358729 0 0.42253267956314461 0.093144319179050791 0 0.40791476907297952 0.087079597198048364 0 0.39494242346571617 0.097408093155169462 0 0.42253267956314461 0.093144319179050791 0 0.41497499572999941 0.071859354046429236 0 0.40791476907297952 0.087079597198048364 0 0.40791476907297952 0.087079597198048364 0 0.39650268109149778 0.092078769318960502 0 0.39494242346571617 0.097408093155169462 0 0.41497499572999941 0.071859354046429236 0 0.40791476907297952 0.087079597198048364 0 0.3948130703309185 0.077388272240923248 0 0.40791476907297952 0.087079597198048364 0 0.39650268109149778 0.092078769318960502 0 0.3948130703309185 0.077388272240923248 0 0.39650268109149778 0.092078769318960502 0 0.3948130703309185 0.077388272240923248 0 0.386126046536441 0.091933877581619527 0 0.3948130703309185 0.077388272240923248 0 0.38277433083614582 0.064523062797461228 0 0.39537943130851128 0.055798838991598938 0 0.41497499572999941 0.071859354046429236 0 0.3948130703309185 0.077388272240923248 0 0.39537943130851128 0.055798838991598938 0 0.3948130703309185 0.077388272240923248 0 0.38277433083614582 0.064523062797461228 0 0.3782063942564946 0.078040830287928825 0 0.36495428360339338 0.061608261334142378 0 0.38277433083614582 0.064523062797461228 0 0.3782063942564946 0.078040830287928825 0 0.3948130703309185 0.077388272240923248 0 0.3782063942564946 0.078040830287928825 0 0.386126046536441 0.091933877581619527 0 0.3782063942564946 0.078040830287928825 0 0.386126046536441 0.091933877581619527 0 0.37527466291227979 0.089468568578773486 0 0.386126046536441 0.091933877581619527 0 0.37527466291227979 0.089468568578773486 0 0.37937345398328498 0.099814108042449556 0 0.37937345398328498 0.099814108042449556 0 0.38804387611454288 0.1209712485125255 0 0.39494242346571617 0.097408093155169462 0 0.386126046536441 0.091933877581619527 0 0.37937345398328498 0.099814108042449556 0 0.39494242346571617 0.097408093155169462 0 0.37937345398328498 0.099814108042449556 0 0.39494242346571617 0.097408093155169462 0 0.3703593611956521 0.1163842787056756 0 0.37937345398328498 0.099814108042449556 0 0.38804387611454288 0.1209712485125255 0 0.3703593611956521 0.1163842787056756 0 0.36869000497274218 0.13164616764447171 0 0.38804387611454288 0.1209712485125255 0 0.40778108869946839 0.11494257548698029 0 0.38804387611454288 0.1209712485125255 0 0.39494242346571617 0.097408093155169462 0 0.38804387611454288 0.1209712485125255 0 0.39494242346571617 0.097408093155169462 0 0.39650268109149778 0.092078769318960502 0 0.386126046536441 0.091933877581619527 0 0.39494242346571617 0.097408093155169462 0 0.39650268109149778 0.092078769318960502 0 0.39494242346571617 0.097408093155169462 0 0.39696344935610411 0.017180780454136058 0 0.39341144794343558 0.03699286878981952 0 0.40913096180484781 0.029304918311745341 0 0.39696344935610411 0.017180780454136058 0 0.40236713586959599 0.0070511996842659956 0 0.39295267895501113 -0.00034306088728790213 0 0.40236713586959599 0.0070511996842659956 0 0.4092168574862039 -0.001915797133794512 0 0.39295267895501113 -0.00034306088728790213 0 0.39696344935610411 0.017180780454136058 0 0.40236713586959599 0.0070511996842659956 0 0.41615182324782701 0.01568089964906327 0 0.39696344935610411 0.017180780454136058 0 0.38158067923716771 0.0078780024799149622 0 0.39295267895501113 -0.00034306088728790213 0 0.38158067923716771 0.0078780024799149622 0 0.39295267895501113 -0.00034306088728790213 0 0.38158067923716771 0.0078780024799149622 0 0.38005006779316719 0.023272481257376888 0 0.39696344935610411 0.017180780454136058 0 0.38005006779316719 0.023272481257376888 0 0.39341144794343558 0.03699286878981952 0 0.36424198851613532 0.020412515200514729 0 0.38158067923716771 0.0078780024799149622 0 0.38005006779316719 0.023272481257376888 0 0.39696344935610411 0.017180780454136058 0 0.38158067923716771 0.0078780024799149622 0 0.38005006779316719 0.023272481257376888 0 0.38005006779316719 0.023272481257376888 0 0.378519456349168 0.038666960034838917 0 0.378519456349168 0.038666960034838917 0 0.3788404532251749 0.051892278838948383 0 0.39341144794343558 0.03699286878981952 0 0.38005006779316719 0.023272481257376888 0 0.378519456349168 0.038666960034838917 0 0.39341144794343558 0.03699286878981952 0 0.3788404532251749 0.051892278838948383 0 0.39537943130851128 0.055798838991598938 0 0.39341144794343558 0.03699286878981952 0 0.36495428360339338 0.061608261334142378 0 0.38277433083614582 0.064523062797461228 0 0.3788404532251749 0.051892278838948383 0 0.38277433083614582 0.064523062797461228 0 0.3788404532251749 0.051892278838948383 0 0.39537943130851128 0.055798838991598938 0 0.39537943130851128 0.055798838991598938 0 0.41687749786134148 0.045695165492794357 0 0.39537943130851128 0.055798838991598938 0 0.39341144794343558 0.03699286878981952 0 0.41687749786134148 0.045695165492794357 0 0.39341144794343558 0.03699286878981952 0 0.41687749786134148 0.045695165492794357 0 0.40913096180484781 0.029304918311745341 0 0.41687749786134148 0.045695165492794357 0 0.42265748809051762 0.03011100032243531 0 0.40913096180484781 0.029304918311745341 0 0.41497499572999941 0.071859354046429236 0 0.41687749786134148 0.045695165492794357 0 0.43043912569261339 0.062487597120358729 0 0.41497499572999941 0.071859354046429236 0 0.39537943130851128 0.055798838991598938 0 0.41687749786134148 0.045695165492794357 0 0.41687749786134148 0.045695165492794357 0 0.43043912569261339 0.062487597120358729 0 0.43837556441417191 0.035591491993989748 0 0.41687749786134148 0.045695165492794357 0 0.42265748809051762 0.03011100032243531 0 0.43837556441417191 0.035591491993989748 0 0.41687749786134148 0.045695165492794357 0 0.43837556441417191 0.035591491993989748 0 0.43629973910628261 0.016749520028414309 0 0.42265748809051762 0.03011100032243531 0 0.43837556441417191 0.035591491993989748 0 0.43629973910628261 0.016749520028414309 0 0.42265748809051762 0.03011100032243531 0 0.41615182324782701 0.01568089964906327 0 0.39696344935610411 0.017180780454136058 0 0.41615182324782701 0.01568089964906327 0 0.40913096180484781 0.029304918311745341 0 0.42265748809051762 0.03011100032243531 0 0.41615182324782701 0.01568089964906327 0 0.40913096180484781 0.029304918311745341 0 0.41615182324782701 0.01568089964906327 0 0.42445911265736608 0.0025021171645692461 0 0.4092168574862039 -0.001915797133794512 0 0.40236713586959599 0.0070511996842659956 0 0.41615182324782701 0.01568089964906327 0 0.4092168574862039 -0.001915797133794512 0 0.43629973910628261 0.016749520028414309 0 0.41615182324782701 0.01568089964906327 0 0.42445911265736608 0.0025021171645692461 0 0.43629973910628261 0.016749520028414309 0 0.42445911265736608 0.0025021171645692461 0 0.43833468053237112 0.0018368462066534661 0 0.43629973910628261 0.016749520028414309 0 0.43833468053237112 0.0018368462066534661 0 0.45524430804349658 0.0062686323842164413 0 0.43629973910628261 0.016749520028414309 0 0.45987363096700229 0.02548781849518509 0 0.45524430804349658 0.0062686323842164413 0 0.45987363096700229 0.02548781849518509 0 0.43837556441417191 0.035591491993989748 0 0.43629973910628261 0.016749520028414309 0 0.45987363096700229 0.02548781849518509 0 0.43837556441417191 0.035591491993989748 0 0.45987363096700229 0.02548781849518509 0 0.476583488445466 0.01763451021003724 0 0.45987363096700229 0.02548781849518509 0 0.45524430804349658 0.0062686323842164413 0 0.476583488445466 0.01763451021003724 0 0.45524430804349658 0.0062686323842164413 0 0.476583488445466 0.01763451021003724 0 0.47024568498820718 -0.0095509005338218107 0 0.45223863991978019 0.064466713214928972 0 0.43837556441417191 0.035591491993989748 0 0.46154209100382082 0.045166946686306289 0 0.45223863991978019 0.064466713214928972 0 0.43043912569261339 0.062487597120358729 0 0.43837556441417191 0.035591491993989748 0 0.45987363096700229 0.02548781849518509 0 0.43837556441417191 0.035591491993989748 0 0.46154209100382082 0.045166946686306289 0 0.45987363096700229 0.02548781849518509 0 0.46154209100382082 0.045166946686306289 0 0.47953143907932672 0.038557618241268569 0 0.45223863991978019 0.064466713214928972 0 0.46154209100382082 0.045166946686306289 0 0.47769118063882288 0.061731091486159087 0 0.46154209100382082 0.045166946686306289 0 0.47769118063882288 0.061731091486159087 0 0.47953143907932672 0.038557618241268569 0 0.47769118063882288 0.061731091486159087 0 0.47953143907932672 0.038557618241268569 0 0.47953143907932672 0.038557618241268569 0 0.5 0.031476999038351439 0 0.5 0.056324793234311832 0 0.47769118063882288 0.061731091486159087 0 0.47953143907932672 0.038557618241268569 0 0.5 0.056324793234311832 0 0.48137169751983172 0.01538414499637813 0 0.48329481153547849 -0.0088326879264556072 0 0.476583488445466 0.01763451021003724 0 0.47024568498820718 -0.0095509005338218107 0 0.48137169751983172 0.01538414499637813 0 0.476583488445466 0.01763451021003724 0 0.47024568498820718 -0.0095509005338218107 0 0.47953143907932672 0.038557618241268569 0 0.48137169751983172 0.01538414499637813 0 0.45987363096700229 0.02548781849518509 0 0.47953143907932672 0.038557618241268569 0 0.476583488445466 0.01763451021003724 0 0.47953143907932672 0.038557618241268569 0 0.48137169751983172 0.01538414499637813 0 0.476583488445466 0.01763451021003724 0 0.48137169751983172 0.01538414499637813 0 0.476583488445466 0.01763451021003724 0 0.5 0.031476999038351439 0 0.48137169751983172 0.01538414499637813 0 0.49999999999999628 0.0066292048423911686 0 0.47953143907932672 0.038557618241268569 0 0.5 0.031476999038351439 0 0.48137169751983172 0.01538414499637813 0 0.48137169751983172 0.01538414499637813 0 0.4911666272638272 0.001316853267541742 0 0.49999999999999628 0.0066292048423911686 0 0.48137169751983172 0.01538414499637813 0 0.4911666272638272 0.001316853267541742 0 0.48329481153547849 -0.0088326879264556072 0 0.48137169751983172 0.01538414499637813 0 0.49999999999999628 0.0066292048423911686 0 0.4911666272638272 0.001316853267541742 0 0.49999999999999628 0.0066292048423911686 0 0.49999999999999972 -0.0079132488421466175 0 0.49999999999999972 -0.0079132488421466175 0 0.48329481153547849 -0.0088326879264556072 0 0.49999999999999972 -0.0079132488421466175 0 0.48329481153547849 -0.0088326879264556072 0 0.49208475045231398 -0.020145215069735632 0 0.4911666272638272 0.001316853267541742 0 0.49999999999999972 -0.0079132488421466175 0 0.48329481153547849 -0.0088326879264556072 0 0.48137169751983172 0.01538414499637813 0 0.48329481153547849 -0.0088326879264556072 0 0.47024568498820718 -0.0095509005338218107 0 0.48329481153547849 -0.0088326879264556072 0 0.47024568498820718 -0.0095509005338218107 0 0.47738636143866742 -0.02038588735710983 0 0.48329481153547849 -0.0088326879264556072 0 0.47024568498820718 -0.0095509005338218107 0 0.47738636143866742 -0.02038588735710983 0 0.47487185531379261 -0.039566079263442078 0 0.46549494500118949 -0.030281180314582261 0 0.47738636143866742 -0.02038588735710983 0 0.4850441902737776 -0.030861757591278779 0 0.47487185531379261 -0.039566079263442078 0 0.48329481153547849 -0.0088326879264556072 0 0.47738636143866742 -0.02038588735710983 0 0.4850441902737776 -0.030861757591278779 0 0.47024568498820718 -0.0095509005338218107 0 0.47738636143866742 -0.02038588735710983 0 0.46549494500118949 -0.030281180314582261 0 0.48329481153547849 -0.0088326879264556072 0 0.4850441902737776 -0.030861757591278779 0 0.48329481153547849 -0.0088326879264556072 0 0.4850441902737776 -0.030861757591278779 0 0.49208475045231398 -0.020145215069735632 0 0.49999999999999972 -0.0079132488421466175 0 0.49208475045231398 -0.020145215069735632 0 0.5 -0.03297316591906152 0 0.4850441902737776 -0.030861757591278779 0 0.49208475045231398 -0.020145215069735632 0 0.5 -0.03297316591906152 0 0.4850441902737776 -0.030861757591278779 0 0.5 -0.03297316591906152 0 0.48679356901207588 -0.052890827256102127 0 0.4850441902737776 -0.030861757591278779 0 0.48679356901207588 -0.052890827256102127 0 0.50000000000000089 -0.058033082995976482 0 0.47202966563500731 -0.066730490991108671 0 0.50000000000000089 -0.058033082995976482 0 0.48679356901207588 -0.052890827256102127 0 0.47202966563500731 -0.066730490991108671 0 0.5 -0.03297316591906152 0 0.50000000000000089 -0.058033082995976482 0 0.48679356901207588 -0.052890827256102127 0 0.48679356901207588 -0.052890827256102127 0 0.47376786114287162 -0.051965362966236363 0 0.47101665056688491 -0.064730800287858381 0 0.48679356901207588 -0.052890827256102127 0 0.47202966563500731 -0.066730490991108671 0 0.47101665056688491 -0.064730800287858381 0 0.48679356901207588 -0.052890827256102127 0 0.47376786114287162 -0.051965362966236363 0 0.47487185531379261 -0.039566079263442078 0 0.47376786114287162 -0.051965362966236363 0 0.47487185531379261 -0.039566079263442078 0 0.46074420501417362 -0.051011460095343117 0 0.47376786114287162 -0.051965362966236363 0 0.46538054543777169 -0.059862340806385382 0 0.47101665056688491 -0.064730800287858381 0 0.4850441902737776 -0.030861757591278779 0 0.48679356901207588 -0.052890827256102127 0 0.47487185531379261 -0.039566079263442078 0 0.46074420501417362 -0.051011460095343117 0 0.46549494500118949 -0.030281180314582261 0 0.44593783819881211 -0.041293688327905649 0 0.44868226750180118 -0.025451760064702341 0 0.46549494500118949 -0.030281180314582261 0 0.46074420501417362 -0.051011460095343117 0 0.44593783819881211 -0.041293688327905649 0 0.46549494500118949 -0.030281180314582261 0 0.47487185531379261 -0.039566079263442078 0 0.46074420501417362 -0.051011460095343117 0 0.46549494500118949 -0.030281180314582261 0 0.46074420501417362 -0.051011460095343117 0 0.4559934650271571 -0.071741739876103883 0 0.44736109827718767 -0.064010436183278618 0 0.46538054543777169 -0.059862340806385382 0 0.46074420501417362 -0.051011460095343117 0 0.4559934650271571 -0.071741739876103883 0 0.46074420501417362 -0.051011460095343117 0 0.4559934650271571 -0.071741739876103883 0 0.47376786114287162 -0.051965362966236363 0 0.46538054543777169 -0.059862340806385382 0 0.46074420501417362 -0.051011460095343117 0 0.46074420501417362 -0.051011460095343117 0 0.44083385542770892 -0.054739522536584241 0 0.44593783819881211 -0.041293688327905649 0 0.46074420501417362 -0.051011460095343117 0 0.44083385542770892 -0.054739522536584241 0 0.44736109827718767 -0.064010436183278618 0 0.44083385542770892 -0.054739522536584241 0 0.44736109827718767 -0.064010436183278618 0 0.43630554572723101 -0.066734944003843055 0 0.44593783819881211 -0.041293688327905649 0 0.44868226750180118 -0.025451760064702341 0 0.43629515449969752 -0.031236343387337419 0 0.44083385542770892 -0.054739522536584241 0 0.44593783819881211 -0.041293688327905649 0 0.43032041354169631 -0.04418888372499364 0 0.44593783819881211 -0.041293688327905649 0 0.43629515449969752 -0.031236343387337419 0 0.43032041354169631 -0.04418888372499364 0 0.44868226750180118 -0.025451760064702341 0 0.43572906571174902 -0.020472761578376811 0 0.43629515449969752 -0.031236343387337419 0 0.44868226750180118 -0.025451760064702341 0 0.44607546477119231 -0.01088120849120197 0 0.45871754784754709 -0.018570154532283101 0 0.44868226750180118 -0.025451760064702341 0 0.44607546477119231 -0.01088120849120197 0 0.43572906571174902 -0.020472761578376811 0 0.43833468053237112 0.0018368462066534661 0 0.45524430804349658 0.0062686323842164413 0 0.44607546477119231 -0.01088120849120197 0 0.43833468053237112 0.0018368462066534661 0 0.44607546477119231 -0.01088120849120197 0 0.43269362562877678 -0.0046884403921402234 0 0.45524430804349658 0.0062686323842164413 0 0.47024568498820718 -0.0095509005338218107 0 0.44607546477119231 -0.01088120849120197 0 0.47024568498820718 -0.0095509005338218107 0 0.44607546477119231 -0.01088120849120197 0 0.45871754784754709 -0.018570154532283101 0 0.47024568498820718 -0.0095509005338218107 0 0.44607546477119231 -0.01088120849120197 0 0.44868226750180118 -0.025451760064702341 0 0.46549494500118949 -0.030281180314582261 0 0.45871754784754709 -0.018570154532283101 0 0.47024568498820718 -0.0095509005338218107 0 0.46549494500118949 -0.030281180314582261 0 0.45871754784754709 -0.018570154532283101 0 0.47024568498820718 -0.0095509005338218107 0 0.46549494500118949 -0.030281180314582261 0 0.48358748727385847 -0.1149772742925161 0 0.47353276330217797 -0.1212614124509136 0 0.48632151616169722 -0.1306433098535387 0 0.48358748727385847 -0.1149772742925161 0 0.47353276330217797 -0.1212614124509136 0 0.47138462842416617 -0.10535093570744269 0 0.48358748727385847 -0.1149772742925161 0 0.50000000000000089 -0.1219439022784192 0 0.48669852848125111 -0.095686811172266059 0 0.48358748727385847 -0.1149772742925161 0 0.50000000000000089 -0.1219439022784192 0 0.48632151616169722 -0.1306433098535387 0 0.50000000000000089 -0.1219439022784192 0 0.5 -0.1006402958509383 0 0.48669852848125111 -0.095686811172266059 0 0.50000000000000089 -0.1219439022784192 0 0.48669852848125111 -0.095686811172266059 0 0.48669852848125111 -0.095686811172266059 0 0.47138462842416617 -0.10535093570744269 0 0.47128049920677251 -0.088777285513697415 0 0.48358748727385847 -0.1149772742925161 0 0.48669852848125111 -0.095686811172266059 0 0.47138462842416617 -0.10535093570744269 0 0.48669852848125111 -0.095686811172266059 0 0.47339705696250078 -0.069429720066113337 0 0.48669852848125111 -0.095686811172266059 0 0.47128049920677251 -0.088777285513697415 0 0.47339705696250078 -0.069429720066113337 0 0.47128049920677251 -0.088777285513697415 0 0.47339705696250078 -0.069429720066113337 0 0.46172798719568953 -0.082264715478942596 0 0.48669852848125111 -0.095686811172266059 0 0.5 -0.079336689423457396 0 0.47339705696250078 -0.069429720066113337 0 0.5 -0.1006402958509383 0 0.48669852848125111 -0.095686811172266059 0 0.5 -0.079336689423457396 0 0.50000000000000089 -0.058033082995976482 0 0.47339705696250078 -0.069429720066113337 0 0.50000000000000089 -0.058033082995976482 0 0.5 -0.079336689423457396 0 0.47339705696250078 -0.069429720066113337 0 0.50000000000000089 -0.058033082995976482 0 0.47202966563500731 -0.066730490991108671 0 0.47339705696250078 -0.069429720066113337 0 0.47202966563500731 -0.066730490991108671 0 0.47101665056688491 -0.064730800287858381 0 0.47202966563500731 -0.066730490991108671 0 0.47339705696250078 -0.069429720066113337 0 0.47202966563500731 -0.066730490991108671 0 0.4559934650271571 -0.071741739876103883 0 0.47202966563500731 -0.066730490991108671 0 0.47101665056688491 -0.064730800287858381 0 0.4559934650271571 -0.071741739876103883 0 0.47339705696250078 -0.069429720066113337 0 0.45469409800860922 -0.077411644334367841 0 0.46172798719568953 -0.082264715478942596 0 0.47339705696250078 -0.069429720066113337 0 0.45469409800860922 -0.077411644334367841 0 0.4559934650271571 -0.071741739876103883 0 0.47202966563500731 -0.066730490991108671 0 0.47339705696250078 -0.069429720066113337 0 0.4559934650271571 -0.071741739876103883 0 0.47339705696250078 -0.069429720066113337 0 0.45469409800860922 -0.077411644334367841 0 0.46538054543777169 -0.059862340806385382 0 0.47101665056688491 -0.064730800287858381 0 0.4559934650271571 -0.071741739876103883 0 0.45469409800860922 -0.077411644334367841 0 0.4559934650271571 -0.071741739876103883 0 0.44736109827718767 -0.064010436183278618 0 0.44292842018966749 -0.075824514404518636 0 0.43630554572723101 -0.066734944003843055 0 0.4559934650271571 -0.071741739876103883 0 0.44736109827718767 -0.064010436183278618 0 0.44292842018966749 -0.075824514404518636 0 0.45469409800860922 -0.077411644334367841 0 0.4559934650271571 -0.071741739876103883 0 0.44292842018966749 -0.075824514404518636 0 0.4559934650271571 -0.071741739876103883 0 0.44292842018966749 -0.075824514404518636 0 0.45469409800860922 -0.077411644334367841 0 0.44292842018966749 -0.075824514404518636 0 0.44004613794924841 -0.083663003179058781 0 0.45469409800860922 -0.077411644334367841 0 0.44833060853125611 -0.083798655378567913 0 0.44004613794924841 -0.083663003179058781 0 0.45469409800860922 -0.077411644334367841 0 0.44004613794924841 -0.083663003179058781 0 0.45469409800860922 -0.077411644334367841 0 0.44833060853125611 -0.083798655378567913 0 0.45563140141424319 -0.08583788641800133 0 0.44292842018966749 -0.075824514404518636 0 0.44004613794924841 -0.083663003179058781 0 0.43161242586125959 -0.077099024293684468 0 0.44833060853125611 -0.083798655378567913 0 0.44004613794924841 -0.083663003179058781 0 0.44454905131979278 -0.089503410586403792 0 0.44004613794924841 -0.083663003179058781 0 0.44454905131979278 -0.089503410586403792 0 0.43946357013294729 -0.097985972257717269 0 0.44454905131979278 -0.089503410586403792 0 0.45035588866571952 -0.092566011530271247 0 0.43946357013294729 -0.097985972257717269 0 0.44833060853125611 -0.083798655378567913 0 0.45035588866571952 -0.092566011530271247 0 0.45563140141424319 -0.08583788641800133 0 0.44833060853125611 -0.083798655378567913 0 0.44454905131979278 -0.089503410586403792 0 0.45035588866571952 -0.092566011530271247 0 0.45563140141424319 -0.08583788641800133 0 0.46172798719568953 -0.082264715478942596 0 0.46099209321812712 -0.09307797514722449 0 0.45035588866571952 -0.092566011530271247 0 0.45563140141424319 -0.08583788641800133 0 0.46099209321812712 -0.09307797514722449 0 0.45469409800860922 -0.077411644334367841 0 0.45563140141424319 -0.08583788641800133 0 0.46172798719568953 -0.082264715478942596 0 0.47128049920677251 -0.088777285513697415 0 0.46172798719568953 -0.082264715478942596 0 0.46099209321812712 -0.09307797514722449 0 0.47138462842416617 -0.10535093570744269 0 0.45557215440217169 -0.10367101623499179 0 0.46129818808050538 -0.1139597552643325 0 0.47138462842416617 -0.10535093570744269 0 0.47128049920677251 -0.088777285513697415 0 0.46099209321812712 -0.09307797514722449 0 0.47138462842416617 -0.10535093570744269 0 0.46099209321812712 -0.09307797514722449 0 0.45557215440217169 -0.10367101623499179 0 0.45035588866571952 -0.092566011530271247 0 0.46099209321812712 -0.09307797514722449 0 0.45557215440217169 -0.10367101623499179 0 0.45035588866571952 -0.092566011530271247 0 0.45557215440217169 -0.10367101623499179 0 0.43946357013294729 -0.097985972257717269 0 0.43946357013294729 -0.097985972257717269 0 0.44690128577715899 -0.11240926673007511 0 0.43011070698805542 -0.1070363242839312 0 0.45557215440217169 -0.10367101623499179 0 0.43946357013294729 -0.097985972257717269 0 0.44690128577715899 -0.11240926673007511 0 0.44690128577715899 -0.11240926673007511 0 0.43011070698805542 -0.1070363242839312 0 0.4409806753504289 -0.1257972598264494 0 0.44690128577715899 -0.11240926673007511 0 0.4591001084968519 -0.12710614519823929 0 0.4409806753504289 -0.1257972598264494 0 0.47353276330217797 -0.1212614124509136 0 0.47138462842416617 -0.10535093570744269 0 0.46129818808050538 -0.1139597552643325 0 0.44690128577715899 -0.11240926673007511 0 0.46129818808050538 -0.1139597552643325 0 0.4591001084968519 -0.12710614519823929 0 0.45557215440217169 -0.10367101623499179 0 0.44690128577715899 -0.11240926673007511 0 0.46129818808050538 -0.1139597552643325 0 0.47353276330217797 -0.1212614124509136 0 0.46129818808050538 -0.1139597552643325 0 0.4591001084968519 -0.12710614519823929 0 0.41478067607622371 -0.1155893979670798 0 0.43011070698805542 -0.1070363242839312 0 0.4409806753504289 -0.1257972598264494 0 0.41478067607622371 -0.1155893979670798 0 0.4409806753504289 -0.1257972598264494 0 0.43946357013294729 -0.097985972257717269 0 0.43011070698805542 -0.1070363242839312 0 0.42539817788988732 -0.089914362023748931 0 0.43011070698805542 -0.1070363242839312 0 0.41631171265523381 -0.10118966645788791 0 0.42539817788988732 -0.089914362023748931 0 0.41631171265523381 -0.10118966645788791 0 0.42539817788988732 -0.089914362023748931 0 0.40449369226726273 -0.091921936511969199 0 0.41478067607622371 -0.1155893979670798 0 0.41631171265523381 -0.10118966645788791 0 0.38858067680201858 -0.1053815361077096 0 0.41478067607622371 -0.1155893979670798 0 0.43011070698805542 -0.1070363242839312 0 0.41631171265523381 -0.10118966645788791 0 0.41124403876699522 -0.081879144104021195 0 0.42539817788988732 -0.089914362023748931 0 0.40449369226726273 -0.091921936511969199 0 0.41124403876699522 -0.081879144104021195 0 0.42539817788988732 -0.089914362023748931 0 0.41932444961153659 -0.076029524905538423 0 0.44004613794924841 -0.083663003179058781 0 0.43946357013294729 -0.097985972257717269 0 0.42539817788988732 -0.089914362023748931 0 0.44004613794924841 -0.083663003179058781 0 0.42539817788988732 -0.089914362023748931 0 0.44004613794924841 -0.083663003179058781 0 0.42539817788988732 -0.089914362023748931 0 0.43161242586125959 -0.077099024293684468 0 0.42539817788988732 -0.089914362023748931 0 0.43161242586125959 -0.077099024293684468 0 0.41932444961153659 -0.076029524905538423 0 0.43161242586125959 -0.077099024293684468 0 0.42583423201996679 -0.068353183610922477 0 0.41932444961153659 -0.076029524905538423 0 0.43161242586125959 -0.077099024293684468 0 0.43630554572723101 -0.066734944003843055 0 0.42583423201996679 -0.068353183610922477 0 0.44292842018966749 -0.075824514404518636 0 0.43161242586125959 -0.077099024293684468 0 0.43630554572723101 -0.066734944003843055 0 0.43630554572723101 -0.066734944003843055 0 0.42583423201996679 -0.068353183610922477 0 0.42984268076849019 -0.057813181112519103 0 0.42583423201996679 -0.068353183610922477 0 0.41662209261048022 -0.067223369421288759 0 0.41992389541440828 -0.059622919267198433 0 0.42583423201996679 -0.068353183610922477 0 0.41662209261048022 -0.067223369421288759 0 0.41932444961153659 -0.076029524905538423 0 0.41662209261048022 -0.067223369421288759 0 0.41932444961153659 -0.076029524905538423 0 0.40750663880843441 -0.07183619668598959 0 0.41124403876699522 -0.081879144104021195 0 0.41932444961153659 -0.076029524905538423 0 0.40750663880843441 -0.07183619668598959 0 0.41662209261048022 -0.067223369421288759 0 0.40750663880843441 -0.07183619668598959 0 0.41052124719805488 -0.060275022636794913 0 0.39283090382514518 -0.069260983631133061 0 0.38382828382233147 -0.083804308549562723 0 0.39949723525785469 -0.079693700392859779 0 0.40750663880843441 -0.07183619668598959 0 0.41052124719805488 -0.060275022636794913 0 0.39990736267385751 -0.05997125142663956 0 0.40750663880843441 -0.07183619668598959 0 0.39283090382514518 -0.069260983631133061 0 0.39990736267385751 -0.05997125142663956 0 0.40750663880843441 -0.07183619668598959 0 0.39283090382514518 -0.069260983631133061 0 0.39949723525785469 -0.079693700392859779 0 0.41124403876699522 -0.081879144104021195 0 0.40750663880843441 -0.07183619668598959 0 0.39949723525785469 -0.079693700392859779 0 0.39283090382514518 -0.069260983631133061 0 0.38382828382233147 -0.083804308549562723 0 0.37907589084264331 -0.062227080991416023 0 0.38382828382233147 -0.083804308549562723 0 0.37907589084264331 -0.062227080991416023 0 0.38382828382233147 -0.083804308549562723 0 0.37907589084264331 -0.062227080991416023 0 0.36810434842363537 -0.064890906049798414 0 0.38382828382233147 -0.083804308549562723 0 0.40449369226726273 -0.091921936511969199 0 0.38858067680201858 -0.1053815361077096 0 0.38382828382233147 -0.083804308549562723 0 0.39949723525785469 -0.079693700392859779 0 0.40449369226726273 -0.091921936511969199 0 0.41124403876699522 -0.081879144104021195 0 0.39949723525785469 -0.079693700392859779 0 0.40449369226726273 -0.091921936511969199 0 0.41631171265523381 -0.10118966645788791 0 0.40449369226726273 -0.091921936511969199 0 0.38858067680201858 -0.1053815361077096 0 0.38382828382233147 -0.083804308549562723 0 0.38858067680201858 -0.1053815361077096 0 0.3629070545893644 -0.095378757625405708 0 0.38858067680201858 -0.1053815361077096 0 0.3629070545893644 -0.095378757625405708 0 0.38382828382233147 -0.083804308549562723 0 0.38858067680201858 -0.1053815361077096 0 0.39191772611515308 -0.1205326973668861 0 0.36843662320438098 -0.1145980693545072 0 0.37621263295835838 -0.13321560300615501 0 0.38858067680201858 -0.1053815361077096 0 0.39191772611515308 -0.1205326973668861 0 0.38858067680201858 -0.1053815361077096 0 0.39191772611515308 -0.1205326973668861 0 0.36843662320438098 -0.1145980693545072 0 0.41478067607622371 -0.1155893979670798 0 0.39191772611515308 -0.1205326973668861 0 0.40412821895561318 -0.1269305613706572 0 0.41478067607622371 -0.1155893979670798 0 0.38858067680201858 -0.1053815361077096 0 0.39191772611515308 -0.1205326973668861 0 0.41478067607622371 -0.1155893979670798 0 0.38858067680201858 -0.1053815361077096 0 0.4179998298767672 -0.016863012784690459 0 0.40127987868380599 -0.019474744503155561 0 0.4179998298767672 -0.016863012784690459 0 0.40855148018272652 -0.021935484471530962 0 0.40127987868380599 -0.019474744503155561 0 0.4179998298767672 -0.016863012784690459 0 0.42190524455417738 -0.012211516448581631 0 0.42568719723187642 -0.02258297950006067 0 0.4179998298767672 -0.016863012784690459 0 0.41739450116522758 -0.023575467856465221 0 0.42568719723187642 -0.02258297950006067 0 0.4179998298767672 -0.016863012784690459 0 0.41739450116522758 -0.023575467856465221 0 0.41125179756310398 -0.024489991696432029 0 0.42038669031114628 -0.027693489341962731 0 0.41739450116522758 -0.023575467856465221 0 0.42568719723187642 -0.02258297950006067 0 0.42038669031114628 -0.027693489341962731 0 0.41474590739065859 -0.029021033997826119 0 0.41837889719857341 -0.033890577676061663 0 0.42038669031114628 -0.027693489341962731 0 0.41474590739065859 -0.029021033997826119 0 0.41739450116522758 -0.023575467856465221 0 0.41474590739065859 -0.029021033997826119 0 0.41739450116522758 -0.023575467856465221 0 0.41125179756310398 -0.024489991696432029 0 0.41474590739065859 -0.029021033997826119 0 0.41125179756310398 -0.024489991696432029 0 0.40934991338250409 -0.029831207055869471 0 0.41125179756310398 -0.024489991696432029 0 0.40934991338250409 -0.029831207055869471 0 0.40367441460722869 -0.026914188901845791 0 0.41125179756310398 -0.024489991696432029 0 0.40855148018272652 -0.021935484471530962 0 0.40367441460722869 -0.026914188901845791 0 0.4179998298767672 -0.016863012784690459 0 0.41125179756310398 -0.024489991696432029 0 0.40855148018272652 -0.021935484471530962 0 0.4092168574862039 -0.001915797133794512 0 0.42190524455417738 -0.012211516448581631 0 0.39773502433716262 -0.0135418244059613 0 0.4179998298767672 -0.016863012784690459 0 0.42190524455417738 -0.012211516448581631 0 0.39773502433716262 -0.0135418244059613 0 0.42190524455417738 -0.012211516448581631 0 0.39773502433716262 -0.0135418244059613 0 0.42445911265736608 0.0025021171645692461 0 0.4092168574862039 -0.001915797133794512 0 0.42190524455417738 -0.012211516448581631 0 0.44607546477119231 -0.01088120849120197 0 0.42190524455417738 -0.012211516448581631 0 0.44607546477119231 -0.01088120849120197 0 0.42190524455417738 -0.012211516448581631 0 0.43269362562877678 -0.0046884403921402234 0 0.44607546477119231 -0.01088120849120197 0 0.42190524455417738 -0.012211516448581631 0 0.43572906571174902 -0.020472761578376811 0 0.42445911265736608 0.0025021171645692461 0 0.42190524455417738 -0.012211516448581631 0 0.43269362562877678 -0.0046884403921402234 0 0.42445911265736608 0.0025021171645692461 0 0.43833468053237112 0.0018368462066534661 0 0.43269362562877678 -0.0046884403921402234 0 0.42190524455417738 -0.012211516448581631 0 0.43572906571174902 -0.020472761578376811 0 0.42568719723187642 -0.02258297950006067 0 0.42038669031114628 -0.027693489341962731 0 0.42568719723187642 -0.02258297950006067 0 0.42556834242355179 -0.033127229761723283 0 0.42568719723187642 -0.02258297950006067 0 0.43629515449969752 -0.031236343387337419 0 0.42556834242355179 -0.033127229761723283 0 0.43572906571174902 -0.020472761578376811 0 0.42568719723187642 -0.02258297950006067 0 0.43629515449969752 -0.031236343387337419 0 0.43629515449969752 -0.031236343387337419 0 0.43032041354169631 -0.04418888372499364 0 0.42556834242355179 -0.033127229761723283 0 0.43032041354169631 -0.04418888372499364 0 0.42234170175832131 -0.039171104939923547 0 0.41974186936113922 -0.044964997774429943 0 0.42234170175832131 -0.039171104939923547 0 0.42556834242355179 -0.033127229761723283 0 0.41837889719857341 -0.033890577676061663 0 0.43032041354169631 -0.04418888372499364 0 0.42234170175832131 -0.039171104939923547 0 0.42556834242355179 -0.033127229761723283 0 0.44083385542770892 -0.054739522536584241 0 0.43630554572723101 -0.066734944003843055 0 0.42984268076849019 -0.057813181112519103 0 0.44083385542770892 -0.054739522536584241 0 0.43032041354169631 -0.04418888372499364 0 0.42984268076849019 -0.057813181112519103 0 0.43032041354169631 -0.04418888372499364 0 0.42984268076849019 -0.057813181112519103 0 0.42300570982763408 -0.05189489379165893 0 0.43032041354169631 -0.04418888372499364 0 0.42300570982763408 -0.05189489379165893 0 0.41974186936113922 -0.044964997774429943 0 0.42583423201996679 -0.068353183610922477 0 0.42984268076849019 -0.057813181112519103 0 0.41992389541440828 -0.059622919267198433 0 0.42984268076849019 -0.057813181112519103 0 0.42300570982763408 -0.05189489379165893 0 0.41992389541440828 -0.059622919267198433 0 0.41992389541440828 -0.059622919267198433 0 0.41481037581761548 -0.051711291559946512 0 0.41052124719805488 -0.060275022636794913 0 0.41662209261048022 -0.067223369421288759 0 0.41992389541440828 -0.059622919267198433 0 0.41052124719805488 -0.060275022636794913 0 0.42300570982763408 -0.05189489379165893 0 0.41992389541440828 -0.059622919267198433 0 0.41481037581761548 -0.051711291559946512 0 0.42300570982763408 -0.05189489379165893 0 0.41481037581761548 -0.051711291559946512 0 0.41974186936113922 -0.044964997774429943 0 0.41481037581761548 -0.051711291559946512 0 0.41052124719805488 -0.060275022636794913 0 0.4048334408973619 -0.050427226199113641 0 0.41481037581761548 -0.051711291559946512 0 0.41159557359397753 -0.043564341840296013 0 0.4048334408973619 -0.050427226199113641 0 0.41837889719857341 -0.033890577676061663 0 0.41637744162759061 -0.039259470789761039 0 0.41160667683732333 -0.035450769947079977 0 0.41474590739065859 -0.029021033997826119 0 0.41837889719857341 -0.033890577676061663 0 0.41160667683732333 -0.035450769947079977 0 0.42038669031114628 -0.027693489341962731 0 0.42556834242355179 -0.033127229761723283 0 0.41837889719857341 -0.033890577676061663 0 0.42234170175832131 -0.039171104939923547 0 0.41837889719857341 -0.033890577676061663 0 0.41637744162759061 -0.039259470789761039 0 0.41481037581761548 -0.051711291559946512 0 0.41974186936113922 -0.044964997774429943 0 0.41159557359397753 -0.043564341840296013 0 0.42234170175832131 -0.039171104939923547 0 0.41974186936113922 -0.044964997774429943 0 0.41637744162759061 -0.039259470789761039 0 0.41974186936113922 -0.044964997774429943 0 0.41637744162759061 -0.039259470789761039 0 0.41159557359397753 -0.043564341840296013 0 0.41637744162759061 -0.039259470789761039 0 0.41159557359397753 -0.043564341840296013 0 0.41160667683732333 -0.035450769947079977 0 0.41159557359397753 -0.043564341840296013 0 0.41160667683732333 -0.035450769947079977 0 0.404537366242048 -0.040182342803127047 0 0.41159557359397753 -0.043564341840296013 0 0.404537366242048 -0.040182342803127047 0 0.4048334408973619 -0.050427226199113641 0 0.41160667683732333 -0.035450769947079977 0 0.40547077051420599 -0.033280050736163462 0 0.404537366242048 -0.040182342803127047 0 0.41474590739065859 -0.029021033997826119 0 0.40934991338250409 -0.029831207055869471 0 0.41160667683732333 -0.035450769947079977 0 0.40934991338250409 -0.029831207055869471 0 0.41160667683732333 -0.035450769947079977 0 0.40547077051420599 -0.033280050736163462 0 0.40547077051420599 -0.033280050736163462 0 0.39838776036973739 -0.034635048200967702 0 0.40367441460722869 -0.026914188901845791 0 0.40547077051420599 -0.033280050736163462 0 0.404537366242048 -0.040182342803127047 0 0.39838776036973739 -0.034635048200967702 0 0.404537366242048 -0.040182342803127047 0 0.39523714185037367 -0.043813306900604677 0 0.39838776036973739 -0.034635048200967702 0 0.404537366242048 -0.040182342803127047 0 0.39523714185037367 -0.043813306900604677 0 0.4048334408973619 -0.050427226199113641 0 0.39523714185037367 -0.043813306900604677 0 0.39838776036973739 -0.034635048200967702 0 0.38622792713208831 -0.038862768584131797 0 0.39838776036973739 -0.034635048200967702 0 0.38622792713208831 -0.038862768584131797 0 0.39493152175556379 -0.027486255965837311 0 0.41052124719805488 -0.060275022636794913 0 0.39990736267385751 -0.05997125142663956 0 0.4048334408973619 -0.050427226199113641 0 0.39990736267385751 -0.05997125142663956 0 0.4048334408973619 -0.050427226199113641 0 0.3969684680487312 -0.052462711368250307 0 0.39523714185037367 -0.043813306900604677 0 0.4048334408973619 -0.050427226199113641 0 0.3969684680487312 -0.052462711368250307 0 0.39523714185037367 -0.043813306900604677 0 0.3969684680487312 -0.052462711368250307 0 0.38789592677333179 -0.055639060946643372 0 0.39990736267385751 -0.05997125142663956 0 0.3969684680487312 -0.052462711368250307 0 0.38789592677333179 -0.055639060946643372 0 0.39283090382514518 -0.069260983631133061 0 0.39990736267385751 -0.05997125142663956 0 0.38789592677333179 -0.055639060946643372 0 0.37907589084264331 -0.062227080991416023 0 0.3743234978629551 -0.040649853433269288 0 0.38188081065275459 -0.049344690988865118 0 0.37907589084264331 -0.062227080991416023 0 0.3743234978629551 -0.040649853433269288 0 0.38789592677333179 -0.055639060946643372 0 0.38188081065275459 -0.049344690988865118 0 0.38622792713208831 -0.038862768584131797 0 0.38789592677333179 -0.055639060946643372 0 0.38622792713208831 -0.038862768584131797 0 0.39283090382514518 -0.069260983631133061 0 0.38789592677333179 -0.055639060946643372 0 0.37907589084264331 -0.062227080991416023 0 0.38789592677333179 -0.055639060946643372 0 0.38188081065275459 -0.049344690988865118 0 0.37907589084264331 -0.062227080991416023 0 0.39523714185037367 -0.043813306900604677 0 0.38789592677333179 -0.055639060946643372 0 0.38622792713208831 -0.038862768584131797 0 0.38622792713208831 -0.038862768584131797 0 0.38455992749084478 -0.02208647622162023 0 0.372178093772569 -0.03383533169697437 0 0.38188081065275459 -0.049344690988865118 0 0.38622792713208831 -0.038862768584131797 0 0.3743234978629551 -0.040649853433269288 0 0.38622792713208831 -0.038862768584131797 0 0.3743234978629551 -0.040649853433269288 0 0.372178093772569 -0.03383533169697437 0 0.38622792713208831 -0.038862768584131797 0 0.38455992749084478 -0.02208647622162023 0 0.39493152175556379 -0.027486255965837311 0 0.38622792713208831 -0.038862768584131797 0 0.38455992749084478 -0.02208647622162023 0 0.4179998298767672 -0.016863012784690459 0 0.40127987868380599 -0.019474744503155561 0 0.39773502433716262 -0.0135418244059613 0 0.38455992749084478 -0.02208647622162023 0 0.40127987868380599 -0.019474744503155561 0 0.38455992749084478 -0.02208647622162023 0 0.40127987868380599 -0.019474744503155561 0 0.39773502433716262 -0.0135418244059613 0 0.38455992749084478 -0.02208647622162023 0 0.39493152175556379 -0.027486255965837311 0 0.40127987868380599 -0.019474744503155561 0 0.40855148018272652 -0.021935484471530962 0 0.40127987868380599 -0.019474744503155561 0 0.40367441460722869 -0.026914188901845791 0 0.39838776036973739 -0.034635048200967702 0 0.39493152175556379 -0.027486255965837311 0 0.40367441460722869 -0.026914188901845791 0 0.39493152175556379 -0.027486255965837311 0 0.40127987868380599 -0.019474744503155561 0 0.40367441460722869 -0.026914188901845791 0 0.40934991338250409 -0.029831207055869471 0 0.40547077051420599 -0.033280050736163462 0 0.40367441460722869 -0.026914188901845791 0 0.4092168574862039 -0.001915797133794512 0 0.39773502433716262 -0.0135418244059613 0 0.39295267895501113 -0.00034306088728790213 0 0.38455992749084478 -0.02208647622162023 0 0.39773502433716262 -0.0135418244059613 0 0.39295267895501113 -0.00034306088728790213 0 0.38158067923716771 0.0078780024799149622 0 0.38455992749084478 -0.02208647622162023 0 0.39295267895501113 -0.00034306088728790213 0 0.38158067923716771 0.0078780024799149622 0 0.38455992749084478 -0.02208647622162023 0 0.38158067923716771 0.0078780024799149622 0 0.38455992749084478 -0.02208647622162023 0 0.37293823436178491 -0.0075236892011508686 0 0.37293823436178491 -0.0075236892011508686 0 0.35552249148999793 -0.026622254571155472 0 0.35856686411262972 -0.0033105511437120862 0 0.36740822099193271 0.00739377240977011 0 0.37293823436178491 -0.0075236892011508686 0 0.35856686411262972 -0.0033105511437120862 0 0.38455992749084478 -0.02208647622162023 0 0.35552249148999793 -0.026622254571155472 0 0.372178093772569 -0.03383533169697437 0 0.38455992749084478 -0.02208647622162023 0 0.35552249148999793 -0.026622254571155472 0 0.38455992749084478 -0.02208647622162023 0 0.37293823436178491 -0.0075236892011508686 0 0.35552249148999793 -0.026622254571155472 0 0.33709463695305059 0.0011195889012099709 0 0.34441726201120731 -0.014992812433586959 0 0.35856686411262972 -0.0033105511437120862 0 0.35552249148999793 -0.026622254571155472 0 0.34441726201120731 -0.014992812433586959 0 0.35856686411262972 -0.0033105511437120862 0 0.33709463695305059 0.0011195889012099709 0 0.34441726201120731 -0.014992812433586959 0 0.32648505548915108 -0.03115803292069028 0 0.33709463695305059 0.0011195889012099709 0 0.32648505548915108 -0.03115803292069028 0 0.31109301432555653 -0.01004807443475985 0 0.35552249148999793 -0.026622254571155472 0 0.32648505548915108 -0.03115803292069028 0 0.35552249148999793 -0.026622254571155472 0 0.34441726201120731 -0.014992812433586959 0 0.32648505548915108 -0.03115803292069028 0 0.31876096194088371 -0.047028253173060683 0 0.31330714715612568 -0.059504144410823891 0 0.33151456429055348 -0.062196470015971027 0 0.32648505548915108 -0.03115803292069028 0 0.31876096194088371 -0.047028253173060683 0 0.29744761948830423 -0.035693811270225077 0 0.32648505548915108 -0.03115803292069028 0 0.31876096194088371 -0.047028253173060683 0 0.34120471428549581 -0.043549519303292261 0 0.35552249148999793 -0.026622254571155472 0 0.32648505548915108 -0.03115803292069028 0 0.34120471428549581 -0.043549519303292261 0 0.34120471428549581 -0.043549519303292261 0 0.33151456429055348 -0.062196470015971027 0 0.35386039335028002 -0.058546583915177322 0 0.31876096194088371 -0.047028253173060683 0 0.34120471428549581 -0.043549519303292261 0 0.33151456429055348 -0.062196470015971027 0 0.34120471428549581 -0.043549519303292261 0 0.35386039335028002 -0.058546583915177322 0 0.36025662488695898 -0.040955305674695082 0 0.35552249148999793 -0.026622254571155472 0 0.34120471428549581 -0.043549519303292261 0 0.36025662488695898 -0.040955305674695082 0 0.35552249148999793 -0.026622254571155472 0 0.36025662488695898 -0.040955305674695082 0 0.372178093772569 -0.03383533169697437 0 0.36025662488695898 -0.040955305674695082 0 0.3743234978629551 -0.040649853433269288 0 0.36616118620009569 -0.053710071802682391 0 0.36025662488695898 -0.040955305674695082 0 0.3743234978629551 -0.040649853433269288 0 0.372178093772569 -0.03383533169697437 0 0.35386039335028002 -0.058546583915177322 0 0.36025662488695898 -0.040955305674695082 0 0.36616118620009569 -0.053710071802682391 0 0.37907589084264331 -0.062227080991416023 0 0.3743234978629551 -0.040649853433269288 0 0.36616118620009569 -0.053710071802682391 0 0.35386039335028002 -0.058546583915177322 0 0.36616118620009569 -0.053710071802682391 0 0.36810434842363537 -0.064890906049798414 0 0.37907589084264331 -0.062227080991416023 0 0.36616118620009569 -0.053710071802682391 0 0.36810434842363537 -0.064890906049798414 0 0.35386039335028002 -0.058546583915177322 0 0.36810434842363537 -0.064890906049798414 0 0.36310858965845078 -0.074978038002575811 0 0.38382828382233147 -0.083804308549562723 0 0.36810434842363537 -0.064890906049798414 0 0.36310858965845078 -0.074978038002575811 0 0.38382828382233147 -0.083804308549562723 0 0.36310858965845078 -0.074978038002575811 0 0.3629070545893644 -0.095378757625405708 0 0.34804302916131669 -0.07873233668995952 0 0.3629070545893644 -0.095378757625405708 0 0.34293976621778638 -0.1004045832470125 0 0.36310858965845078 -0.074978038002575811 0 0.34804302916131669 -0.07873233668995952 0 0.3629070545893644 -0.095378757625405708 0 0.35386039335028002 -0.058546583915177322 0 0.36310858965845078 -0.074978038002575811 0 0.34804302916131669 -0.07873233668995952 0 0.33151456429055348 -0.062196470015971027 0 0.35386039335028002 -0.058546583915177322 0 0.34804302916131669 -0.07873233668995952 0 0.36843662320438098 -0.1145980693545072 0 0.34293976621778638 -0.1004045832470125 0 0.34671005004183852 -0.13316064616250109 0 0.38858067680201858 -0.1053815361077096 0 0.36843662320438098 -0.1145980693545072 0 0.3629070545893644 -0.095378757625405708 0 0.36843662320438098 -0.1145980693545072 0 0.3629070545893644 -0.095378757625405708 0 0.34293976621778638 -0.1004045832470125 0 0.34293976621778638 -0.1004045832470125 0 0.32323986927819609 -0.1144096403959694 0 0.34671005004183852 -0.13316064616250109 0 0.32323986927819609 -0.1144096403959694 0 0.34671005004183852 -0.13316064616250109 0 0.34293976621778638 -0.1004045832470125 0 0.32323986927819609 -0.1144096403959694 0 0.31947146056696352 -0.090315621721671582 0 0.32323986927819609 -0.1144096403959694 0 0.31947146056696352 -0.090315621721671582 0 0.29976968851455371 -0.095658634629437828 0 0.32323986927819609 -0.1144096403959694 0 0.29867168699124591 -0.1249832263365092 0 0.31747443892932409 -0.13418385928146709 0 0.33151456429055348 -0.062196470015971027 0 0.34804302916131669 -0.07873233668995952 0 0.33392780686146539 -0.080889587333614912 0 0.34293976621778638 -0.1004045832470125 0 0.33392780686146539 -0.080889587333614912 0 0.31947146056696352 -0.090315621721671582 0 0.34804302916131669 -0.07873233668995952 0 0.34293976621778638 -0.1004045832470125 0 0.33392780686146539 -0.080889587333614912 0 0.33392780686146539 -0.080889587333614912 0 0.31947146056696352 -0.090315621721671582 0 0.3145187077722093 -0.073474452090725353 0 0.33392780686146539 -0.080889587333614912 0 0.3145187077722093 -0.073474452090725353 0 0.33151456429055348 -0.062196470015971027 0 0.33392780686146539 -0.080889587333614912 0 0.3145187077722093 -0.073474452090725353 0 0.31330714715612568 -0.059504144410823891 0 0.33151456429055348 -0.062196470015971027 0 0.3145187077722093 -0.073474452090725353 0 0.3145187077722093 -0.073474452090725353 0 0.29913410258838191 -0.063738278500051371 0 0.29510960868295388 -0.066059316847833713 0 0.31330714715612568 -0.059504144410823891 0 0.3145187077722093 -0.073474452090725353 0 0.29913410258838191 -0.063738278500051371 0 0.3145187077722093 -0.073474452090725353 0 0.29510960868295388 -0.066059316847833713 0 0.3145187077722093 -0.073474452090725353 0 0.30243292475757039 -0.077056832633269484 0 0.29510960868295388 -0.066059316847833713 0 0.29913410258838191 -0.063738278500051371 0 0.29510960868295388 -0.066059316847833713 0 0.30243292475757039 -0.077056832633269484 0 0.29510960868295388 -0.066059316847833713 0 0.29452212358197571 -0.074169446198641298 0 0.30243292475757039 -0.077056832633269484 0 0.29166644278252862 -0.080176703804717128 0 0.29976968851455371 -0.095658634629437828 0 0.31947146056696352 -0.090315621721671582 0 0.3145187077722093 -0.073474452090725353 0 0.30243292475757039 -0.077056832633269484 0 0.31947146056696352 -0.090315621721671582 0 0.30243292475757039 -0.077056832633269484 0 0.29976968851455371 -0.095658634629437828 0 0.29976968851455371 -0.095658634629437828 0 0.27629950775091139 -0.076907628862905961 0 0.29976968851455371 -0.095658634629437828 0 0.27178252816054449 -0.10056498460960581 0 0.27629950775091139 -0.076907628862905961 0 0.29166644278252862 -0.080176703804717128 0 0.29976968851455371 -0.095658634629437828 0 0.27629950775091139 -0.076907628862905961 0 0.28321544822337152 -0.067167556227529956 0 0.29510960868295388 -0.066059316847833713 0 0.27948130357041312 -0.071841494846811182 0 0.29510960868295388 -0.066059316847833713 0 0.27629950775091139 -0.076907628862905961 0 0.29510960868295388 -0.066059316847833713 0 0.2893994206995924 -0.074328273928524521 0 0.27629950775091139 -0.076907628862905961 0 0.29510960868295388 -0.066059316847833713 0 0.27948130357041312 -0.071841494846811182 0 0.27629950775091139 -0.076907628862905961 0 0.29166644278252862 -0.080176703804717128 0 0.2893994206995924 -0.074328273928524521 0 0.27629950775091139 -0.076907628862905961 0 0.28321544822337152 -0.067167556227529956 0 0.29510960868295388 -0.066059316847833713 0 0.26724117808478148 -0.055412342408568023 0 0.29510960868295388 -0.066059316847833713 0 0.29452212358197571 -0.074169446198641298 0 0.2893994206995924 -0.074328273928524521 0 0.30243292475757039 -0.077056832633269484 0 0.29166644278252862 -0.080176703804717128 0 0.29452212358197571 -0.074169446198641298 0 0.29166644278252862 -0.080176703804717128 0 0.29452212358197571 -0.074169446198641298 0 0.2893994206995924 -0.074328273928524521 0 0.32323986927819609 -0.1144096403959694 0 0.29867168699124591 -0.1249832263365092 0 0.29976968851455371 -0.095658634629437828 0 0.32323986927819609 -0.1144096403959694 0 0.29976968851455371 -0.095658634629437828 0 0.29976968851455371 -0.095658634629437828 0 0.2818453387580892 -0.1162330566825045 0 0.27178252816054449 -0.10056498460960581 0 0.29867168699124591 -0.1249832263365092 0 0.29976968851455371 -0.095658634629437828 0 0.2818453387580892 -0.1162330566825045 0 0.2818453387580892 -0.1162330566825045 0 0.27178252816054449 -0.10056498460960581 0 0.2632328922212101 -0.12061564729224319 0 0.27178252816054449 -0.10056498460960581 0 0.25382345726124178 -0.10530698324834489 0 0.2632328922212101 -0.12061564729224319 0 0.27178252816054449 -0.10056498460960581 0 0.25382345726124178 -0.10530698324834489 0 0.25715206791224893 -0.087950493673154384 0 0.2632328922212101 -0.12061564729224319 0 0.25232014725039781 -0.13580108181409431 0 0.23894516993861839 -0.1184104321833177 0 0.25382345726124178 -0.10530698324834489 0 0.2632328922212101 -0.12061564729224319 0 0.23894516993861839 -0.1184104321833177 0 0.28321544822337152 -0.067167556227529956 0 0.27484212965606042 -0.066165386121966943 0 0.26724117808478148 -0.055412342408568023 0 0.26849866602226091 -0.071815822275203792 0 0.27629950775091139 -0.076907628862905961 0 0.26456263818080328 -0.076000650872273742 0 0.26849866602226091 -0.071815822275203792 0 0.27402798416632279 -0.07123699508176512 0 0.27629950775091139 -0.076907628862905961 0 0.26927136272455532 -0.066216536252793404 0 0.27484212965606042 -0.066165386121966943 0 0.26724117808478148 -0.055412342408568023 0 0.26849866602226091 -0.071815822275203792 0 0.26927136272455532 -0.066216536252793404 0 0.26082360414750572 -0.067246295908028816 0 0.26927136272455532 -0.066216536252793404 0 0.26082360414750572 -0.067246295908028816 0 0.26724117808478148 -0.055412342408568023 0 0.26927136272455532 -0.066216536252793404 0 0.27484212965606042 -0.066165386121966943 0 0.27402798416632279 -0.07123699508176512 0 0.26849866602226091 -0.071815822275203792 0 0.26927136272455532 -0.066216536252793404 0 0.27402798416632279 -0.07123699508176512 0 0.28321544822337152 -0.067167556227529956 0 0.27484212965606042 -0.066165386121966943 0 0.27948130357041312 -0.071841494846811182 0 0.27484212965606042 -0.066165386121966943 0 0.27948130357041312 -0.071841494846811182 0 0.27402798416632279 -0.07123699508176512 0 0.27948130357041312 -0.071841494846811182 0 0.27650621441041429 -0.073750357928592511 0 0.27629950775091139 -0.076907628862905961 0 0.27650621441041429 -0.073750357928592511 0 0.27402798416632279 -0.07123699508176512 0 0.27629950775091139 -0.076907628862905961 0 0.27948130357041312 -0.071841494846811182 0 0.27650621441041429 -0.073750357928592511 0 0.27402798416632279 -0.07123699508176512 0 0.27178252816054449 -0.10056498460960581 0 0.27629950775091139 -0.076907628862905961 0 0.25715206791224893 -0.087950493673154384 0 0.27629950775091139 -0.076907628862905961 0 0.25715206791224893 -0.087950493673154384 0 0.27629950775091139 -0.076907628862905961 0 0.25715206791224893 -0.087950493673154384 0 0.26456263818080328 -0.076000650872273742 0 0.25715206791224893 -0.087950493673154384 0 0.25228763128995813 -0.072878699196203128 0 0.26456263818080328 -0.076000650872273742 0 0.26849866602226091 -0.071815822275203792 0 0.26456263818080328 -0.076000650872273742 0 0.26082360414750572 -0.067246295908028816 0 0.25228763128995813 -0.072878699196203128 0 0.26456263818080328 -0.076000650872273742 0 0.26082360414750572 -0.067246295908028816 0 0.25228763128995813 -0.072878699196203128 0 0.26082360414750572 -0.067246295908028816 0 0.24925446120544861 -0.060733060224481557 0 0.26724117808478148 -0.055412342408568023 0 0.23937274748661089 -0.044765367969297351 0 0.26724117808478148 -0.055412342408568023 0 0.24925446120544861 -0.060733060224481557 0 0.23937274748661089 -0.044765367969297351 0 0.26082360414750572 -0.067246295908028816 0 0.26724117808478148 -0.055412342408568023 0 0.24925446120544861 -0.060733060224481557 0 0.26724117808478148 -0.055412342408568023 0 0.28894618678254502 -0.055458689812610082 0 0.28293868566881691 -0.046946180257616189 0 0.26724117808478148 -0.055412342408568023 0 0.26841018348745732 -0.040229589619759892 0 0.28293868566881691 -0.046946180257616189 0 0.29510960868295388 -0.066059316847833713 0 0.26724117808478148 -0.055412342408568023 0 0.26841018348745732 -0.040229589619759892 0 0.26906483945592058 -0.033775403586323298 0 0.28390362990679319 -0.02515633880236888 0 0.26724117808478148 -0.055412342408568023 0 0.26841018348745732 -0.040229589619759892 0 0.23937274748661089 -0.044765367969297351 0 0.26841018348745732 -0.040229589619759892 0 0.2530182964698886 -0.036154790891571142 0 0.24664834374715339 -0.039194746680125493 0 0.26841018348745732 -0.040229589619759892 0 0.2530182964698886 -0.036154790891571142 0 0.2575232089310579 -0.029433518967220872 0 0.26841018348745732 -0.040229589619759892 0 0.26906483945592058 -0.033775403586323298 0 0.2575232089310579 -0.029433518967220872 0 0.26841018348745732 -0.040229589619759892 0 0.23937274748661089 -0.044765367969297351 0 0.26841018348745732 -0.040229589619759892 0 0.23937274748661089 -0.044765367969297351 0 0.24664834374715339 -0.039194746680125493 0 0.26906483945592058 -0.033775403586323298 0 0.25252126317799439 -0.010205438598489529 0 0.27165532035073747 -0.01451446159656325 0 0.26906483945592058 -0.033775403586323298 0 0.2575232089310579 -0.029433518967220872 0 0.25252126317799439 -0.010205438598489529 0 0.2530182964698886 -0.036154790891571142 0 0.2575232089310579 -0.029433518967220872 0 0.24460146206402841 -0.026802372139960472 0 0.2575232089310579 -0.029433518967220872 0 0.25252126317799439 -0.010205438598489529 0 0.24460146206402841 -0.026802372139960472 0 0.26906483945592058 -0.033775403586323298 0 0.25252126317799439 -0.010205438598489529 0 0.27039382550822311 0.00042496408912158962 0 0.25252126317799439 -0.010205438598489529 0 0.27165532035073747 -0.01451446159656325 0 0.27165532035073747 -0.01451446159656325 0 0.28390362990679319 -0.02515633880236888 0 0.28345562765708909 -0.0063169598563043682 0 0.27039382550822311 0.00042496408912158962 0 0.27165532035073747 -0.01451446159656325 0 0.28345562765708909 -0.0063169598563043682 0 0.26906483945592058 -0.033775403586323298 0 0.27165532035073747 -0.01451446159656325 0 0.28390362990679319 -0.02515633880236888 0 0.28390362990679319 -0.02515633880236888 0 0.29441516816047869 -0.015372341874102609 0 0.29744761948830423 -0.035693811270225077 0 0.28390362990679319 -0.02515633880236888 0 0.29441516816047869 -0.015372341874102609 0 0.28345562765708909 -0.0063169598563043682 0 0.29617594942465092 0.0003534749931451462 0 0.29441516816047869 -0.015372341874102609 0 0.28345562765708909 -0.0063169598563043682 0 0.29617594942465092 0.0003534749931451462 0 0.29441516816047869 -0.015372341874102609 0 0.31109301432555653 -0.01004807443475985 0 0.32648505548915108 -0.03115803292069028 0 0.31109301432555653 -0.01004807443475985 0 0.29744761948830423 -0.035693811270225077 0 0.29441516816047869 -0.015372341874102609 0 0.31109301432555653 -0.01004807443475985 0 0.29744761948830423 -0.035693811270225077 0 0.32648505548915108 -0.03115803292069028 0 0.29744761948830423 -0.035693811270225077 0 0.31876096194088371 -0.047028253173060683 0 0.29744761948830423 -0.035693811270225077 0 0.30260739918860019 -0.051083268274311033 0 0.29744761948830423 -0.035693811270225077 0 0.30260739918860019 -0.051083268274311033 0 0.29264826050099668 -0.047936468176917872 0 0.31876096194088371 -0.047028253173060683 0 0.31330714715612568 -0.059504144410823891 0 0.30260739918860019 -0.051083268274311033 0 0.31330714715612568 -0.059504144410823891 0 0.29913410258838191 -0.063738278500051371 0 0.30260739918860019 -0.051083268274311033 0 0.29913410258838191 -0.063738278500051371 0 0.30260739918860019 -0.051083268274311033 0 0.28894618678254502 -0.055458689812610082 0 0.29510960868295388 -0.066059316847833713 0 0.26724117808478148 -0.055412342408568023 0 0.28894618678254502 -0.055458689812610082 0 0.30260739918860019 -0.051083268274311033 0 0.29264826050099668 -0.047936468176917872 0 0.28894618678254502 -0.055458689812610082 0 0.29913410258838191 -0.063738278500051371 0 0.29510960868295388 -0.066059316847833713 0 0.28894618678254502 -0.055458689812610082 0 0.29264826050099668 -0.047936468176917872 0 0.28894618678254502 -0.055458689812610082 0 0.28293868566881691 -0.046946180257616189 0 0.26841018348745732 -0.040229589619759892 0 0.28390362990679319 -0.02515633880236888 0 0.29744761948830423 -0.035693811270225077 0 0.26841018348745732 -0.040229589619759892 0 0.29744761948830423 -0.035693811270225077 0 0.28293868566881691 -0.046946180257616189 0 0.26841018348745732 -0.040229589619759892 0 0.29744761948830423 -0.035693811270225077 0 0.29744761948830423 -0.035693811270225077 0 0.29264826050099668 -0.047936468176917872 0 0.28293868566881691 -0.046946180257616189 0 0.29568169839391811 -0.20188006639118869 0 0.29787152122649568 -0.22724114783494839 0 0.27746259748242169 -0.2244094984090356 0 0.29568169839391811 -0.20188006639118869 0 0.27746259748242169 -0.2244094984090356 0 0.27213626717277928 -0.20227021196030459 0 0.29568169839391811 -0.20188006639118869 0 0.27213626717277928 -0.20227021196030459 0 0.2791922197348502 -0.17294383061338561 0 0.29568169839391811 -0.20188006639118869 0 0.3152991678073207 -0.17726775943543491 0 0.32253050080928147 -0.2070687819861888 0 0.29568169839391811 -0.20188006639118869 0 0.32253050080928147 -0.2070687819861888 0 0.29568169839391811 -0.20188006639118869 0 0.29787152122649568 -0.22724114783494839 0 0.32253050080928147 -0.2070687819861888 0 0.29787152122649568 -0.22724114783494839 0 0.32253050080928147 -0.2070687819861888 0 0.31589257470311077 -0.2333470758989277 0 0.29787152122649568 -0.22724114783494839 0 0.29543453125965979 -0.2462781488942887 0 0.31589257470311077 -0.2333470758989277 0 0.29543453125965979 -0.2462781488942887 0 0.31589257470311077 -0.2333470758989277 0 0.31517562456562642 -0.25252999686536898 0 0.28447560966841878 -0.24082757601066901 0 0.29543453125965979 -0.2462781488942887 0 0.28631337127484091 -0.259255448141474 0 0.29787152122649568 -0.22724114783494839 0 0.28447560966841878 -0.24082757601066901 0 0.29543453125965979 -0.2462781488942887 0 0.29787152122649568 -0.22724114783494839 0 0.28447560966841878 -0.24082757601066901 0 0.27746259748242169 -0.2244094984090356 0 0.28447560966841878 -0.24082757601066901 0 0.27746259748242169 -0.2244094984090356 0 0.26529602709867611 -0.2469536367735983 0 0.28447560966841878 -0.24082757601066901 0 0.26529602709867611 -0.2469536367735983 0 0.28631337127484091 -0.259255448141474 0 0.26529602709867611 -0.2469536367735983 0 0.24538975261109239 -0.25339754837374329 0 0.24547495081528159 -0.23761622849674871 0 0.26529602709867611 -0.2469536367735983 0 0.25339984290733553 -0.22167452615853681 0 0.24547495081528159 -0.23761622849674871 0 0.26529602709867611 -0.2469536367735983 0 0.25339984290733553 -0.22167452615853681 0 0.27746259748242169 -0.2244094984090356 0 0.26529602709867611 -0.2469536367735983 0 0.25339984290733553 -0.22167452615853681 0 0.25339984290733553 -0.22167452615853681 0 0.27213626717277928 -0.20227021196030459 0 0.25391972478308661 -0.1877348298849853 0 0.27746259748242169 -0.2244094984090356 0 0.25339984290733553 -0.22167452615853681 0 0.27213626717277928 -0.20227021196030459 0 0.27213626717277928 -0.20227021196030459 0 0.25391972478308661 -0.1877348298849853 0 0.2791922197348502 -0.17294383061338561 0 0.25391972478308661 -0.1877348298849853 0 0.25871758243715859 -0.17069418638294601 0 0.2448314414270738 -0.1681734591417221 0 0.25391972478308661 -0.1877348298849853 0 0.25871758243715859 -0.17069418638294601 0 0.2791922197348502 -0.17294383061338561 0 0.25871758243715859 -0.17069418638294601 0 0.25692694380362391 -0.15392462589169101 0 0.2448314414270738 -0.1681734591417221 0 0.25871758243715859 -0.17069418638294601 0 0.2791922197348502 -0.17294383061338561 0 0.25692694380362391 -0.15392462589169101 0 0.2791922197348502 -0.17294383061338561 0 0.25692694380362391 -0.15392462589169101 0 0.27576989790289208 -0.1393427905447264 0 0.2632328922212101 -0.12061564729224319 0 0.25232014725039781 -0.13580108181409431 0 0.27576989790289208 -0.1393427905447264 0 0.25232014725039781 -0.13580108181409431 0 0.25692694380362391 -0.15392462589169101 0 0.27576989790289208 -0.1393427905447264 0 0.2818453387580892 -0.1162330566825045 0 0.2632328922212101 -0.12061564729224319 0 0.27576989790289208 -0.1393427905447264 0 0.2791922197348502 -0.17294383061338561 0 0.27576989790289208 -0.1393427905447264 0 0.30023628509126521 -0.15022905701443889 0 0.29867168699124591 -0.1249832263365092 0 0.2818453387580892 -0.1162330566825045 0 0.27576989790289208 -0.1393427905447264 0 0.29867168699124591 -0.1249832263365092 0 0.27576989790289208 -0.1393427905447264 0 0.30023628509126521 -0.15022905701443889 0 0.29867168699124591 -0.1249832263365092 0 0.30023628509126521 -0.15022905701443889 0 0.31747443892932409 -0.13418385928146709 0 0.2791922197348502 -0.17294383061338561 0 0.30023628509126521 -0.15022905701443889 0 0.3152991678073207 -0.17726775943543491 0 0.29568169839391811 -0.20188006639118869 0 0.2791922197348502 -0.17294383061338561 0 0.3152991678073207 -0.17726775943543491 0 0.30023628509126521 -0.15022905701443889 0 0.3152991678073207 -0.17726775943543491 0 0.32641244293196248 -0.15146434888313501 0 0.3152991678073207 -0.17726775943543491 0 0.33715955892774779 -0.16964065893758859 0 0.32641244293196248 -0.15146434888313501 0 0.33715955892774779 -0.16964065893758859 0 0.32641244293196248 -0.15146434888313501 0 0.34744171277063679 -0.15558818134996241 0 0.3152991678073207 -0.17726775943543491 0 0.33715955892774779 -0.16964065893758859 0 0.34547581473720729 -0.19091827207307091 0 0.30023628509126521 -0.15022905701443889 0 0.31747443892932409 -0.13418385928146709 0 0.32641244293196248 -0.15146434888313501 0 0.32641244293196248 -0.15146434888313501 0 0.34671005004183852 -0.13316064616250109 0 0.34744171277063679 -0.15558818134996241 0 0.31747443892932409 -0.13418385928146709 0 0.32641244293196248 -0.15146434888313501 0 0.34671005004183852 -0.13316064616250109 0 0.32323986927819609 -0.1144096403959694 0 0.31747443892932409 -0.13418385928146709 0 0.34671005004183852 -0.13316064616250109 0 0.34671005004183852 -0.13316064616250109 0 0.34744171277063679 -0.15558818134996241 0 0.37030979901767552 -0.1526346811591931 0 0.36843662320438098 -0.1145980693545072 0 0.34671005004183852 -0.13316064616250109 0 0.37621263295835838 -0.13321560300615501 0 0.34671005004183852 -0.13316064616250109 0 0.37030979901767552 -0.1526346811591931 0 0.37621263295835838 -0.13321560300615501 0 0.35661671293396002 -0.1710405716073945 0 0.3671048416811023 -0.192587092350434 0 0.34547581473720729 -0.19091827207307091 0 0.33715955892774779 -0.16964065893758859 0 0.35661671293396002 -0.1710405716073945 0 0.34547581473720729 -0.19091827207307091 0 0.34744171277063679 -0.15558818134996241 0 0.37030979901767552 -0.1526346811591931 0 0.35661671293396002 -0.1710405716073945 0 0.33715955892774779 -0.16964065893758859 0 0.34744171277063679 -0.15558818134996241 0 0.35661671293396002 -0.1710405716073945 0 0.37030979901767552 -0.1526346811591931 0 0.35661671293396002 -0.1710405716073945 0 0.37529422405416157 -0.17371641453184841 0 0.35661671293396002 -0.1710405716073945 0 0.3671048416811023 -0.192587092350434 0 0.37529422405416157 -0.17371641453184841 0 0.3671048416811023 -0.192587092350434 0 0.36994910595242603 -0.20564692440588461 0 0.38328434251495208 -0.20474109970807081 0 0.3671048416811023 -0.192587092350434 0 0.36994910595242603 -0.20564692440588461 0 0.34937930322464522 -0.212257497581189 0 0.34937930322464522 -0.212257497581189 0 0.36112721830103078 -0.2235267661667541 0 0.3762281056400088 -0.21744621317618909 0 0.36994910595242603 -0.20564692440588461 0 0.34937930322464522 -0.212257497581189 0 0.3762281056400088 -0.21744621317618909 0 0.34937930322464522 -0.212257497581189 0 0.3762281056400088 -0.21744621317618909 0 0.3671048416811023 -0.192587092350434 0 0.34937930322464522 -0.212257497581189 0 0.34547581473720729 -0.19091827207307091 0 0.34937930322464522 -0.212257497581189 0 0.32253050080928147 -0.2070687819861888 0 0.33419459307378302 -0.2261227775277431 0 0.34937930322464522 -0.212257497581189 0 0.32253050080928147 -0.2070687819861888 0 0.34937930322464522 -0.212257497581189 0 0.34547581473720729 -0.19091827207307091 0 0.32253050080928147 -0.2070687819861888 0 0.3152991678073207 -0.17726775943543491 0 0.34547581473720729 -0.19091827207307091 0 0.32253050080928147 -0.2070687819861888 0 0.31589257470311077 -0.2333470758989277 0 0.33229851240136932 -0.24330847130703009 0 0.31517562456562642 -0.25252999686536898 0 0.31589257470311077 -0.2333470758989277 0 0.33419459307378302 -0.2261227775277431 0 0.33229851240136932 -0.24330847130703009 0 0.32253050080928147 -0.2070687819861888 0 0.31589257470311077 -0.2333470758989277 0 0.33419459307378302 -0.2261227775277431 0 0.33229851240136932 -0.24330847130703009 0 0.35087207423050831 -0.23463206086537969 0 0.34619378628552078 -0.25016824150646771 0 0.33419459307378302 -0.2261227775277431 0 0.33229851240136932 -0.24330847130703009 0 0.35087207423050831 -0.23463206086537969 0 0.35087207423050831 -0.23463206086537969 0 0.35862533860017232 -0.24767319606762589 0 0.36852234915526588 -0.23904874617131081 0 0.35087207423050831 -0.23463206086537969 0 0.35862533860017232 -0.24767319606762589 0 0.34619378628552078 -0.25016824150646771 0 0.34937930322464522 -0.212257497581189 0 0.33419459307378302 -0.2261227775277431 0 0.35087207423050831 -0.23463206086537969 0 0.34937930322464522 -0.212257497581189 0 0.35087207423050831 -0.23463206086537969 0 0.36112721830103078 -0.2235267661667541 0 0.35087207423050831 -0.23463206086537969 0 0.36112721830103078 -0.2235267661667541 0 0.36852234915526588 -0.23904874617131081 0 0.36112721830103078 -0.2235267661667541 0 0.36852234915526588 -0.23904874617131081 0 0.37519715913972601 -0.22904073248039861 0 0.36112721830103078 -0.2235267661667541 0 0.37519715913972601 -0.22904073248039861 0 0.3762281056400088 -0.21744621317618909 0 0.35862533860017232 -0.24767319606762589 0 0.36852234915526588 -0.23904874617131081 0 0.36932567567971902 -0.24957259989972541 0 0.36852234915526588 -0.23904874617131081 0 0.36932567567971902 -0.24957259989972541 0 0.37843685426423429 -0.24573047467998879 0 0.36852234915526588 -0.23904874617131081 0 0.37843685426423429 -0.24573047467998879 0 0.38516536096397291 -0.23726968763626841 0 0.36932567567971902 -0.24957259989972541 0 0.37843685426423429 -0.24573047467998879 0 0.3839351786006443 -0.25453057406757917 0 0.36852234915526588 -0.23904874617131081 0 0.38516536096397291 -0.23726968763626841 0 0.37519715913972601 -0.22904073248039861 0 0.38516536096397291 -0.23726968763626841 0 0.38650461750248111 -0.2453270467415713 0 0.39848107618107309 -0.24377745058244871 0 0.37843685426423429 -0.24573047467998879 0 0.38516536096397291 -0.23726968763626841 0 0.38650461750248111 -0.2453270467415713 0 0.38650461750248111 -0.2453270467415713 0 0.39848107618107309 -0.24377745058244871 0 0.3839351786006443 -0.25453057406757917 0 0.37843685426423429 -0.24573047467998879 0 0.38650461750248111 -0.2453270467415713 0 0.3839351786006443 -0.25453057406757917 0 0.38516536096397291 -0.23726968763626841 0 0.39848107618107309 -0.24377745058244871 0 0.3972349560369961 -0.23017646153176069 0 0.3972349560369961 -0.23017646153176069 0 0.39946384334880197 -0.21689510706570761 0 0.41564334418264848 -0.22904911442334891 0 0.39848107618107309 -0.24377745058244871 0 0.3972349560369961 -0.23017646153176069 0 0.41564334418264848 -0.22904911442334891 0 0.3972349560369961 -0.23017646153176069 0 0.38742115550848388 -0.22389094795103001 0 0.39946384334880197 -0.21689510706570761 0 0.38516536096397291 -0.23726968763626841 0 0.3972349560369961 -0.23017646153176069 0 0.38742115550848388 -0.22389094795103001 0 0.38516536096397291 -0.23726968763626841 0 0.38742115550848388 -0.22389094795103001 0 0.37519715913972601 -0.22904073248039861 0 0.38742115550848388 -0.22389094795103001 0 0.37519715913972601 -0.22904073248039861 0 0.3762281056400088 -0.21744621317618909 0 0.38742115550848388 -0.22389094795103001 0 0.3762281056400088 -0.21744621317618909 0 0.38328434251495208 -0.20474109970807081 0 0.38742115550848388 -0.22389094795103001 0 0.38328434251495208 -0.20474109970807081 0 0.39946384334880197 -0.21689510706570761 0 0.36994910595242603 -0.20564692440588461 0 0.3762281056400088 -0.21744621317618909 0 0.38328434251495208 -0.20474109970807081 0 0.3671048416811023 -0.192587092350434 0 0.38328434251495208 -0.20474109970807081 0 0.3671048416811023 -0.192587092350434 0 0.38328434251495208 -0.20474109970807081 0 0.38626083995614269 -0.1895131982221033 0 0.38328434251495208 -0.20474109970807081 0 0.38626083995614269 -0.1895131982221033 0 0.39658169265915549 -0.20383752331045549 0 0.40438187820627303 -0.19176584945498529 0 0.39658169265915549 -0.20383752331045549 0 0.41259839864827741 -0.21175094172523309 0 0.38626083995614269 -0.1895131982221033 0 0.40438187820627303 -0.19176584945498529 0 0.39658169265915549 -0.20383752331045549 0 0.38328434251495208 -0.20474109970807081 0 0.39946384334880197 -0.21689510706570761 0 0.39658169265915549 -0.20383752331045549 0 0.39946384334880197 -0.21689510706570761 0 0.41259839864827741 -0.21175094172523309 0 0.38328434251495208 -0.20474109970807081 0 0.39658169265915549 -0.20383752331045549 0 0.39946384334880197 -0.21689510706570761 0 0.41259839864827741 -0.21175094172523309 0 0.42218793468844762 -0.19662789721957061 0 0.42865094817465421 -0.2178862329090249 0 0.40438187820627303 -0.19176584945498529 0 0.42218793468844762 -0.19662789721957061 0 0.42037687446770139 -0.1839829492719591 0 0.40438187820627303 -0.19176584945498529 0 0.41259839864827741 -0.21175094172523309 0 0.42218793468844762 -0.19662789721957061 0 0.42218793468844762 -0.19662789721957061 0 0.44165855216665961 -0.20672335139470069 0 0.42218793468844762 -0.19662789721957061 0 0.42037687446770139 -0.1839829492719591 0 0.43789294944846913 -0.18581939797824931 0 0.42218793468844762 -0.19662789721957061 0 0.44165855216665961 -0.20672335139470069 0 0.44055364981456729 -0.19539157747492519 0 0.42218793468844762 -0.19662789721957061 0 0.43789294944846913 -0.18581939797824931 0 0.44055364981456729 -0.19539157747492519 0 0.42218793468844762 -0.19662789721957061 0 0.42865094817465421 -0.2178862329090249 0 0.44165855216665961 -0.20672335139470069 0 0.42865094817465421 -0.2178862329090249 0 0.44165855216665961 -0.20672335139470069 0 0.42865094817465421 -0.2178862329090249 0 0.43598757876340799 -0.23177993957328899 0 0.44687384009199771 -0.22590085658932851 0 0.42865094817465421 -0.2178862329090249 0 0.42657806407590931 -0.2287476306716362 0 0.43598757876340799 -0.23177993957328899 0 0.42865094817465421 -0.2178862329090249 0 0.41564334418264848 -0.22904911442334891 0 0.42865094817465421 -0.2178862329090249 0 0.42657806407590931 -0.2287476306716362 0 0.41564334418264848 -0.22904911442334891 0 0.42657806407590931 -0.2287476306716362 0 0.42759719401208052 -0.23802882153983329 0 0.41564334418264848 -0.22904911442334891 0 0.42657806407590931 -0.2287476306716362 0 0.43598757876340799 -0.23177993957328899 0 0.42759719401208052 -0.23802882153983329 0 0.43089919662563758 -0.24050927903183131 0 0.42420775402689398 -0.24485297059990141 0 0.43484498540418559 -0.25638249238299449 0 0.43089919662563758 -0.24050927903183131 0 0.42759719401208052 -0.23802882153983329 0 0.45023784746239881 -0.2483361561566223 0 0.42759719401208052 -0.23802882153983329 0 0.42490743446701812 -0.23680428746308951 0 0.41564334418264848 -0.22904911442334891 0 0.42420775402689398 -0.24485297059990141 0 0.42759719401208052 -0.23802882153983329 0 0.42490743446701812 -0.23680428746308951 0 0.42759719401208052 -0.23802882153983329 0 0.42490743446701812 -0.23680428746308951 0 0.43089919662563758 -0.24050927903183131 0 0.42759719401208052 -0.23802882153983329 0 0.43089919662563758 -0.24050927903183131 0 0.42420775402689398 -0.24485297059990141 0 0.42759719401208052 -0.23802882153983329 0 0.39848107618107309 -0.24377745058244871 0 0.41474483072402862 -0.24410171722074989 0 0.40714686771660707 -0.25637848562267679 0 0.42490743446701812 -0.23680428746308951 0 0.41474483072402862 -0.24410171722074989 0 0.41564334418264848 -0.22904911442334891 0 0.39848107618107309 -0.24377745058244871 0 0.41474483072402862 -0.24410171722074989 0 0.41564334418264848 -0.22904911442334891 0 0.42420775402689398 -0.24485297059990141 0 0.42490743446701812 -0.23680428746308951 0 0.41474483072402862 -0.24410171722074989 0 0.39848107618107309 -0.24377745058244871 0 0.41564334418264848 -0.22904911442334891 0 0.42420775402689398 -0.24485297059990141 0 0.41474483072402862 -0.24410171722074989 0 0.41975465553678409 -0.25377878141486482 0 0.39946384334880197 -0.21689510706570761 0 0.41564334418264848 -0.22904911442334891 0 0.41259839864827741 -0.21175094172523309 0 0.42865094817465421 -0.2178862329090249 0 0.41564334418264848 -0.22904911442334891 0 0.39946384334880197 -0.21689510706570761 0 0.41259839864827741 -0.21175094172523309 0 0.41564334418264848 -0.22904911442334891 0 0.42759719401208052 -0.23802882153983329 0 0.41564334418264848 -0.22904911442334891 0 0.40412821895561318 -0.1269305613706572 0 0.39525477542828641 -0.13568385862606289 0 0.41455969820279009 -0.13591629152260001 0 0.39525477542828641 -0.13568385862606289 0 0.40028379867372749 -0.1462169068744173 0 0.41455969820279009 -0.13591629152260001 0 0.39191772611515308 -0.1205326973668861 0 0.39525477542828641 -0.13568385862606289 0 0.39191772611515308 -0.1205326973668861 0 0.40412821895561318 -0.1269305613706572 0 0.39525477542828641 -0.13568385862606289 0 0.39525477542828641 -0.13568385862606289 0 0.37621263295835838 -0.13321560300615501 0 0.38464682394281541 -0.14268366536777941 0 0.39191772611515308 -0.1205326973668861 0 0.39525477542828641 -0.13568385862606289 0 0.37621263295835838 -0.13321560300615501 0 0.37030979901767552 -0.1526346811591931 0 0.37621263295835838 -0.13321560300615501 0 0.38464682394281541 -0.14268366536777941 0 0.37030979901767552 -0.1526346811591931 0 0.38464682394281541 -0.14268366536777941 0 0.3912145905777652 -0.15356439928458429 0 0.38464682394281541 -0.14268366536777941 0 0.3912145905777652 -0.15356439928458429 0 0.40028379867372749 -0.1462169068744173 0 0.3912145905777652 -0.15356439928458429 0 0.40028379867372749 -0.1462169068744173 0 0.39997502454806988 -0.1601003351705339 0 0.39525477542828641 -0.13568385862606289 0 0.38464682394281541 -0.14268366536777941 0 0.40028379867372749 -0.1462169068744173 0 0.40028379867372749 -0.1462169068744173 0 0.39997502454806988 -0.1601003351705339 0 0.41003855418086171 -0.15302249050802419 0 0.39997502454806988 -0.1601003351705339 0 0.39515383797828402 -0.17390456577092461 0 0.41012719805562448 -0.1663729608575841 0 0.39997502454806988 -0.1601003351705339 0 0.38459742376460943 -0.16470140819505191 0 0.39515383797828402 -0.17390456577092461 0 0.3912145905777652 -0.15356439928458429 0 0.39997502454806988 -0.1601003351705339 0 0.38459742376460943 -0.16470140819505191 0 0.38459742376460943 -0.16470140819505191 0 0.37529422405416157 -0.17371641453184841 0 0.39515383797828402 -0.17390456577092461 0 0.37030979901767552 -0.1526346811591931 0 0.38459742376460943 -0.16470140819505191 0 0.37529422405416157 -0.17371641453184841 0 0.37030979901767552 -0.1526346811591931 0 0.3912145905777652 -0.15356439928458429 0 0.38459742376460943 -0.16470140819505191 0 0.38626083995614269 -0.1895131982221033 0 0.37529422405416157 -0.17371641453184841 0 0.39515383797828402 -0.17390456577092461 0 0.3671048416811023 -0.192587092350434 0 0.38626083995614269 -0.1895131982221033 0 0.37529422405416157 -0.17371641453184841 0 0.40438187820627303 -0.19176584945498529 0 0.39515383797828402 -0.17390456577092461 0 0.40922239581177078 -0.1785644146070855 0 0.38626083995614269 -0.1895131982221033 0 0.40438187820627303 -0.19176584945498529 0 0.39515383797828402 -0.17390456577092461 0 0.39515383797828402 -0.17390456577092461 0 0.40922239581177078 -0.1785644146070855 0 0.41012719805562448 -0.1663729608575841 0 0.40438187820627303 -0.19176584945498529 0 0.40922239581177078 -0.1785644146070855 0 0.42037687446770139 -0.1839829492719591 0 0.40922239581177078 -0.1785644146070855 0 0.42119371288941521 -0.17256755175984889 0 0.41012719805562448 -0.1663729608575841 0 0.40922239581177078 -0.1785644146070855 0 0.42119371288941521 -0.17256755175984889 0 0.42037687446770139 -0.1839829492719591 0 0.42037687446770139 -0.1839829492719591 0 0.42963539174959209 -0.1770611839259276 0 0.43789294944846913 -0.18581939797824931 0 0.42963539174959209 -0.1770611839259276 0 0.4384620908464838 -0.1738601950809622 0 0.43789294944846913 -0.18581939797824931 0 0.42963539174959209 -0.1770611839259276 0 0.43119008775745682 -0.16845440858608199 0 0.4384620908464838 -0.1738601950809622 0 0.42119371288941521 -0.17256755175984889 0 0.42963539174959209 -0.1770611839259276 0 0.43119008775745682 -0.16845440858608199 0 0.42119371288941521 -0.17256755175984889 0 0.42037687446770139 -0.1839829492719591 0 0.42963539174959209 -0.1770611839259276 0 0.42119371288941521 -0.17256755175984889 0 0.43119008775745682 -0.16845440858608199 0 0.42259209670321068 -0.15901066227608771 0 0.43119008775745682 -0.16845440858608199 0 0.43367690537517228 -0.16069684948657101 0 0.4384146123419691 -0.16666206681955709 0 0.43119008775745682 -0.16845440858608199 0 0.4384146123419691 -0.16666206681955709 0 0.4384620908464838 -0.1738601950809622 0 0.43367690537517228 -0.16069684948657101 0 0.43200591433919711 -0.14719775777692479 0 0.44335246680558149 -0.16200782345333031 0 0.43119008775745682 -0.16845440858608199 0 0.43367690537517228 -0.16069684948657101 0 0.42259209670321068 -0.15901066227608771 0 0.42259209670321068 -0.15901066227608771 0 0.41012719805562448 -0.1663729608575841 0 0.41003855418086171 -0.15302249050802419 0 0.42119371288941521 -0.17256755175984889 0 0.42259209670321068 -0.15901066227608771 0 0.41012719805562448 -0.1663729608575841 0 0.39997502454806988 -0.1601003351705339 0 0.41012719805562448 -0.1663729608575841 0 0.41003855418086171 -0.15302249050802419 0 0.40028379867372749 -0.1462169068744173 0 0.41003855418086171 -0.15302249050802419 0 0.41455969820279009 -0.13591629152260001 0 0.41003855418086171 -0.15302249050802419 0 0.41979906585651477 -0.1487868005209092 0 0.41455969820279009 -0.13591629152260001 0 0.42259209670321068 -0.15901066227608771 0 0.41003855418086171 -0.15302249050802419 0 0.41979906585651477 -0.1487868005209092 0 0.41979906585651477 -0.1487868005209092 0 0.43200591433919711 -0.14719775777692479 0 0.41455969820279009 -0.13591629152260001 0 0.43367690537517228 -0.16069684948657101 0 0.42259209670321068 -0.15901066227608771 0 0.43200591433919711 -0.14719775777692479 0 0.42259209670321068 -0.15901066227608771 0 0.41979906585651477 -0.1487868005209092 0 0.43200591433919711 -0.14719775777692479 0 0.43200591433919711 -0.14719775777692479 0 0.41455969820279009 -0.13591629152260001 0 0.4409806753504289 -0.1257972598264494 0 0.41478067607622371 -0.1155893979670798 0 0.41455969820279009 -0.13591629152260001 0 0.4409806753504289 -0.1257972598264494 0 0.41478067607622371 -0.1155893979670798 0 0.40412821895561318 -0.1269305613706572 0 0.41455969820279009 -0.13591629152260001 0 0.4591001084968519 -0.12710614519823929 0 0.46750007312969472 -0.14355085452848859 0 0.47380124018463782 -0.1325672149962033 0 0.4591001084968519 -0.12710614519823929 0 0.4506402890572328 -0.14383352326694379 0 0.46750007312969472 -0.14355085452848859 0 0.43200591433919711 -0.14719775777692479 0 0.4409806753504289 -0.1257972598264494 0 0.4506402890572328 -0.14383352326694379 0 0.4591001084968519 -0.12710614519823929 0 0.4409806753504289 -0.1257972598264494 0 0.4506402890572328 -0.14383352326694379 0 0.43200591433919711 -0.14719775777692479 0 0.4506402890572328 -0.14383352326694379 0 0.44410659960268672 -0.15220636378117741 0 0.43200591433919711 -0.14719775777692479 0 0.44335246680558149 -0.16200782345333031 0 0.43200591433919711 -0.14719775777692479 0 0.44410659960268672 -0.15220636378117741 0 0.44335246680558149 -0.16200782345333031 0 0.4506402890572328 -0.14383352326694379 0 0.44410659960268672 -0.15220636378117741 0 0.45042772820873578 -0.15578635062751081 0 0.4506402890572328 -0.14383352326694379 0 0.46750007312969472 -0.14355085452848859 0 0.46081313651077482 -0.15627686297739021 0 0.4506402890572328 -0.14383352326694379 0 0.45042772820873578 -0.15578635062751081 0 0.46081313651077482 -0.15627686297739021 0 0.46750007312969472 -0.14355085452848859 0 0.46081313651077482 -0.15627686297739021 0 0.47220974322502779 -0.15755082532772921 0 0.46531077387118902 -0.16838033712508729 0 0.46081313651077482 -0.15627686297739021 0 0.47220974322502779 -0.15755082532772921 0 0.46531077387118902 -0.16838033712508729 0 0.4550705948580489 -0.16511654053716229 0 0.45469901927196588 -0.17681788912973581 0 0.46531077387118902 -0.16838033712508729 0 0.4550705948580489 -0.16511654053716229 0 0.46081313651077482 -0.15627686297739021 0 0.45042772820873578 -0.15578635062751081 0 0.4550705948580489 -0.16511654053716229 0 0.46081313651077482 -0.15627686297739021 0 0.44410659960268672 -0.15220636378117741 0 0.45042772820873578 -0.15578635062751081 0 0.44335246680558149 -0.16200782345333031 0 0.45042772820873578 -0.15578635062751081 0 0.4550705948580489 -0.16511654053716229 0 0.44335246680558149 -0.16200782345333031 0 0.43367690537517228 -0.16069684948657101 0 0.44335246680558149 -0.16200782345333031 0 0.4384146123419691 -0.16666206681955709 0 0.4384146123419691 -0.16666206681955709 0 0.44539151092515128 -0.16829105749083989 0 0.4384620908464838 -0.1738601950809622 0 0.44335246680558149 -0.16200782345333031 0 0.4384146123419691 -0.16666206681955709 0 0.44539151092515128 -0.16829105749083989 0 0.4550705948580489 -0.16511654053716229 0 0.44335246680558149 -0.16200782345333031 0 0.45469901927196588 -0.17681788912973581 0 0.44335246680558149 -0.16200782345333031 0 0.44539151092515128 -0.16829105749083989 0 0.45469901927196588 -0.17681788912973581 0 0.44335246680558149 -0.16200782345333031 0 0.45469901927196588 -0.17681788912973581 0 0.44539151092515128 -0.16829105749083989 0 0.44537592423998801 -0.17876661386411519 0 0.45469901927196588 -0.17681788912973581 0 0.44539151092515128 -0.16829105749083989 0 0.45469901927196588 -0.17681788912973581 0 0.44537592423998801 -0.17876661386411519 0 0.4384620908464838 -0.1738601950809622 0 0.43789294944846913 -0.18581939797824931 0 0.44539151092515128 -0.16829105749083989 0 0.44537592423998801 -0.17876661386411519 0 0.4384620908464838 -0.1738601950809622 0 0.44537592423998801 -0.17876661386411519 0 0.43789294944846913 -0.18581939797824931 0 0.45043405070786968 -0.1890445296407888 0 0.44537592423998801 -0.17876661386411519 0 0.45469901927196588 -0.17681788912973581 0 0.45043405070786968 -0.1890445296407888 0 0.45469901927196588 -0.17681788912973581 0 0.4633493497081459 -0.1881087162124134 0 0.45469901927196588 -0.17681788912973581 0 0.45043405070786968 -0.1890445296407888 0 0.4633493497081459 -0.1881087162124134 0 0.46531077387118902 -0.16838033712508729 0 0.45469901927196588 -0.17681788912973581 0 0.46524645955876909 -0.18648065215886209 0 0.45469901927196588 -0.17681788912973581 0 0.46524645955876909 -0.18648065215886209 0 0.45469901927196588 -0.17681788912973581 0 0.46524645955876909 -0.18648065215886209 0 0.4633493497081459 -0.1881087162124134 0 0.46524645955876909 -0.18648065215886209 0 0.4633493497081459 -0.1881087162124134 0 0.46524645955876909 -0.18648065215886209 0 0.48722221494268358 -0.18698408118301921 0 0.48262322977938982 -0.1715682342228903 0 0.46524645955876909 -0.18648065215886209 0 0.48262322977938982 -0.1715682342228903 0 0.46531077387118902 -0.16838033712508729 0 0.46524645955876909 -0.18648065215886209 0 0.48262322977938982 -0.1715682342228903 0 0.5 -0.1772102789004201 0 0.48722221494268358 -0.18698408118301921 0 0.5 -0.19776474151392701 0 0.5 -0.1772102789004201 0 0.48722221494268358 -0.18698408118301921 0 0.48262322977938982 -0.1715682342228903 0 0.5 -0.1772102789004201 0 0.50000000000000622 -0.1566558162869133 0 0.48262322977938982 -0.1715682342228903 0 0.50000000000000622 -0.1566558162869133 0 0.48262322977938982 -0.1715682342228903 0 0.50000000000000622 -0.1566558162869133 0 0.48262322977938982 -0.1715682342228903 0 0.4848015028340909 -0.14797783778478971 0 0.48262322977938982 -0.1715682342228903 0 0.47220974322502779 -0.15755082532772921 0 0.4848015028340909 -0.14797783778478971 0 0.46531077387118902 -0.16838033712508729 0 0.48262322977938982 -0.1715682342228903 0 0.47220974322502779 -0.15755082532772921 0 0.46750007312969472 -0.14355085452848859 0 0.47220974322502779 -0.15755082532772921 0 0.4848015028340909 -0.14797783778478971 0 0.46750007312969472 -0.14355085452848859 0 0.4848015028340909 -0.14797783778478971 0 0.47380124018463782 -0.1325672149962033 0 0.50000000000000622 -0.1566558162869133 0 0.4848015028340909 -0.14797783778478971 0 0.5 -0.13929985928266619 0 0.4848015028340909 -0.14797783778478971 0 0.5 -0.13929985928266619 0 0.48632151616169722 -0.1306433098535387 0 0.50000000000000089 -0.1219439022784192 0 0.5 -0.13929985928266619 0 0.48632151616169722 -0.1306433098535387 0 0.4848015028340909 -0.14797783778478971 0 0.48632151616169722 -0.1306433098535387 0 0.47380124018463782 -0.1325672149962033 0 0.47353276330217797 -0.1212614124509136 0 0.48632151616169722 -0.1306433098535387 0 0.47380124018463782 -0.1325672149962033 0 0.47353276330217797 -0.1212614124509136 0 0.4591001084968519 -0.12710614519823929 0 0.47380124018463782 -0.1325672149962033 0 0.45899622238829818 -0.23216065356266899 0 0.46598028969804689 -0.21933409612236729 0 0.44687384009199771 -0.22590085658932851 0 0.45899622238829818 -0.23216065356266899 0 0.46598028969804689 -0.21933409612236729 0 0.47139876519993928 -0.23864319846701859 0 0.45899622238829818 -0.23216065356266899 0 0.45023784746239881 -0.2483361561566223 0 0.47139876519993928 -0.23864319846701859 0 0.45023784746239881 -0.2483361561566223 0 0.47139876519993928 -0.23864319846701859 0 0.47287850091271699 -0.25864349077341142 0 0.42759719401208052 -0.23802882153983329 0 0.45023784746239881 -0.2483361561566223 0 0.43598757876340799 -0.23177993957328899 0 0.45023784746239881 -0.2483361561566223 0 0.44687384009199771 -0.22590085658932851 0 0.43598757876340799 -0.23177993957328899 0 0.42759719401208052 -0.23802882153983329 0 0.45023784746239881 -0.2483361561566223 0 0.45899622238829818 -0.23216065356266899 0 0.45023784746239881 -0.2483361561566223 0 0.44687384009199771 -0.22590085658932851 0 0.43089919662563758 -0.24050927903183131 0 0.45023784746239881 -0.2483361561566223 0 0.43484498540418559 -0.25638249238299449 0 0.46598028969804689 -0.21933409612236729 0 0.44687384009199771 -0.22590085658932851 0 0.44165855216665961 -0.20672335139470069 0 0.42865094817465421 -0.2178862329090249 0 0.44687384009199771 -0.22590085658932851 0 0.44165855216665961 -0.20672335139470069 0 0.44165855216665961 -0.20672335139470069 0 0.45043405070786968 -0.1890445296407888 0 0.4633493497081459 -0.1881087162124134 0 0.44165855216665961 -0.20672335139470069 0 0.4633493497081459 -0.1881087162124134 0 0.44165855216665961 -0.20672335139470069 0 0.44055364981456729 -0.19539157747492519 0 0.45043405070786968 -0.1890445296407888 0 0.43789294944846913 -0.18581939797824931 0 0.44055364981456729 -0.19539157747492519 0 0.45043405070786968 -0.1890445296407888 0 0.44165855216665961 -0.20672335139470069 0 0.4633493497081459 -0.1881087162124134 0 0.46429111240007381 -0.203752893422017 0 0.46598028969804689 -0.21933409612236729 0 0.44165855216665961 -0.20672335139470069 0 0.46598028969804689 -0.21933409612236729 0 0.44165855216665961 -0.20672335139470069 0 0.46429111240007381 -0.203752893422017 0 0.46598028969804689 -0.21933409612236729 0 0.46429111240007381 -0.203752893422017 0 0.47012584342863661 -0.211002507315489 0 0.46598028969804689 -0.21933409612236729 0 0.47012584342863661 -0.211002507315489 0 0.48295409687409169 -0.21642955135195949 0 0.46429111240007381 -0.203752893422017 0 0.47012584342863661 -0.211002507315489 0 0.47915103768908479 -0.20873383890840899 0 0.47915103768908479 -0.20873383890840899 0 0.48295409687409169 -0.21642955135195949 0 0.48262322977938621 -0.20239992814314739 0 0.47012584342863661 -0.211002507315489 0 0.47915103768908479 -0.20873383890840899 0 0.48295409687409169 -0.21642955135195949 0 0.4633493497081459 -0.1881087162124134 0 0.47915103768908479 -0.20873383890840899 0 0.48262322977938621 -0.20239992814314739 0 0.46524645955876909 -0.18648065215886209 0 0.4633493497081459 -0.1881087162124134 0 0.48262322977938621 -0.20239992814314739 0 0.4633493497081459 -0.1881087162124134 0 0.47915103768908479 -0.20873383890840899 0 0.46524645955876909 -0.18648065215886209 0 0.48722221494268358 -0.18698408118301921 0 0.48262322977938621 -0.20239992814314739 0 0.46524645955876909 -0.18648065215886209 0 0.48262322977938621 -0.20239992814314739 0 0.4633493497081459 -0.1881087162124134 0 0.46429111240007381 -0.203752893422017 0 0.47915103768908479 -0.20873383890840899 0 0.48722221494268358 -0.18698408118301921 0 0.48262322977938621 -0.20239992814314739 0 0.5 -0.19776474151392701 0 0.48295409687409169 -0.21642955135195949 0 0.48262322977938621 -0.20239992814314739 0 0.500000000000002 -0.2183192041274338 0 0.48262322977938621 -0.20239992814314739 0 0.500000000000002 -0.2183192041274338 0 0.48262322977938621 -0.20239992814314739 0 0.5 -0.19776474151392701 0 0.500000000000002 -0.2183192041274338 0 0.48295409687409169 -0.21642955135195949 0 0.500000000000002 -0.2183192041274338 0 0.49030202722943539 -0.23194484085003189 0 0.500000000000002 -0.2183192041274338 0 0.49030202722943539 -0.23194484085003189 0 0.5 -0.24474173778312969 0 0.46598028969804689 -0.21933409612236729 0 0.48295409687409169 -0.21642955135195949 0 0.49030202722943539 -0.23194484085003189 0 0.46598028969804689 -0.21933409612236729 0 0.49030202722943539 -0.23194484085003189 0 0.47139876519993928 -0.23864319846701859 0 0.46598028969804689 -0.21933409612236729 0 0.49030202722943539 -0.23194484085003189 0 0.49030202722943539 -0.23194484085003189 0 0.47139876519993928 -0.23864319846701859 0 0.48382737082372818 -0.243704533705868 0 0.47139876519993928 -0.23864319846701859 0 0.48382737082372818 -0.243704533705868 0 0.47287850091271699 -0.25864349077341142 0 0.49030202722943539 -0.23194484085003189 0 0.48382737082372818 -0.243704533705868 0 0.5 -0.24474173778312969 0 0.48382737082372818 -0.243704533705868 0 0.5 -0.24474173778312969 0 0.4881249516596875 -0.25474856314681033 0 0.5 -0.24474173778312969 0 0.4881249516596875 -0.25474856314681033 0 0.49551915436303529 -0.26895082539020049 0 0.5 -0.24474173778312969 0 0.5 -0.2711642714388256 0 0.49551915436303529 -0.26895082539020049 0 0.4881249516596875 -0.25474856314681033 0 0.49551915436303529 -0.26895082539020049 0 0.47287850091271699 -0.25864349077341142 0 0.49280136836911398 -0.27408620905499631 0 0.5 -0.2711642714388256 0 0.49124918573437759 -0.28323702443064402 0 0.49280136836911398 -0.27408620905499631 0 0.5 -0.2711642714388256 0 0.49551915436303529 -0.26895082539020049 0 0.49280136836911398 -0.27408620905499631 0 0.49551915436303529 -0.26895082539020049 0 0.48443713337904332 -0.27299271496031519 0 0.49280136836911398 -0.27408620905499631 0 0.48443713337904332 -0.27299271496031519 0 0.49124918573437759 -0.28323702443064402 0 0.48443713337904332 -0.27299271496031519 0 0.47918656824881001 -0.28175615715344399 0 0.49124918573437759 -0.28323702443064402 0 0.49551915436303529 -0.26895082539020049 0 0.48443713337904332 -0.27299271496031519 0 0.47287850091271699 -0.25864349077341142 0 0.48443713337904332 -0.27299271496031519 0 0.47039224181498468 -0.27348770036510661 0 0.47918656824881001 -0.28175615715344399 0 0.48443713337904332 -0.27299271496031519 0 0.47039224181498468 -0.27348770036510661 0 0.47287850091271699 -0.25864349077341142 0 0.47039224181498468 -0.27348770036510661 0 0.46936773689184119 -0.28275648264401182 0 0.47918656824881001 -0.28175615715344399 0 0.49551915436303529 -0.26895082539020049 0 0.47287850091271699 -0.25864349077341142 0 0.48382737082372818 -0.243704533705868 0 0.4881249516596875 -0.25474856314681033 0 0.47287850091271699 -0.25864349077341142 0 0.47039224181498468 -0.27348770036510661 0 0.47287850091271699 -0.25864349077341142 0 0.4569660610145958 -0.26357666422638398 0 0.45023784746239881 -0.2483361561566223 0 0.47287850091271699 -0.25864349077341142 0 0.45023784746239881 -0.2483361561566223 0 0.47287850091271699 -0.25864349077341142 0 0.4569660610145958 -0.26357666422638398 0 0.47039224181498468 -0.27348770036510661 0 0.4569660610145958 -0.26357666422638398 0 0.45919953999174462 -0.28008585910339301 0 0.47039224181498468 -0.27348770036510661 0 0.45919953999174462 -0.28008585910339301 0 0.46936773689184119 -0.28275648264401182 0 0.4569660610145958 -0.26357666422638398 0 0.45919953999174462 -0.28008585910339301 0 0.44293088244579448 -0.2739266684008736 0 0.4569660610145958 -0.26357666422638398 0 0.44293088244579448 -0.2739266684008736 0 0.43484498540418559 -0.25638249238299449 0 0.45023784746239881 -0.2483361561566223 0 0.4569660610145958 -0.26357666422638398 0 0.43484498540418559 -0.25638249238299449 0 0.44645140481368523 -0.30276724403944311 0 0.43941659955420631 -0.2939039067411392 0 0.46203686325232562 -0.29724844763695529 0 0.44645140481368523 -0.30276724403944311 0 0.44367223969346298 -0.31373644976897702 0 0.42574864941360852 -0.31046759881363678 0 0.44645140481368523 -0.30276724403944311 0 0.4577651334034728 -0.30255096066303661 0 0.44367223969346298 -0.31373644976897702 0 0.44293088244579448 -0.2739266684008736 0 0.43941659955420631 -0.2939039067411392 0 0.46203686325232562 -0.29724844763695529 0 0.44293088244579448 -0.2739266684008736 0 0.46203686325232562 -0.29724844763695529 0 0.45919953999174462 -0.28008585910339301 0 0.44293088244579448 -0.2739266684008736 0 0.46203686325232562 -0.29724844763695529 0 0.45919953999174462 -0.28008585910339301 0 0.46579647699814702 -0.28793166386243108 0 0.46203686325232562 -0.29724844763695529 0 0.45919953999174462 -0.28008585910339301 0 0.46579647699814702 -0.28793166386243108 0 0.46936773689184119 -0.28275648264401182 0 0.46579647699814702 -0.28793166386243108 0 0.46203686325232562 -0.29724844763695529 0 0.47226385740551963 -0.29052103273568419 0 0.46203686325232562 -0.29724844763695529 0 0.48114284405885732 -0.32057022687303632 0 0.46159582997331738 -0.31700530072431737 0 0.4577651334034728 -0.30255096066303661 0 0.46159582997331738 -0.31700530072431737 0 0.44367223969346298 -0.31373644976897702 0 0.46203686325232562 -0.29724844763695529 0 0.4577651334034728 -0.30255096066303661 0 0.46159582997331738 -0.31700530072431737 0 0.44645140481368523 -0.30276724403944311 0 0.46203686325232562 -0.29724844763695529 0 0.4577651334034728 -0.30255096066303661 0 0.4577651334034728 -0.30255096066303661 0 0.46159582997331738 -0.31700530072431737 0 0.46203686325232562 -0.29724844763695529 0 0.47935174679566778 -0.29912249032528232 0 0.48114284405885732 -0.32057022687303632 0 0.46203686325232562 -0.29724844763695529 0 0.48114284405885732 -0.32057022687303632 0 0.46203686325232562 -0.29724844763695529 0 0.47935174679566778 -0.29912249032528232 0 0.47226385740551963 -0.29052103273568419 0 0.46936773689184119 -0.28275648264401182 0 0.47226385740551963 -0.29052103273568419 0 0.47918656824881001 -0.28175615715344399 0 0.46579647699814702 -0.28793166386243108 0 0.46936773689184119 -0.28275648264401182 0 0.47226385740551963 -0.29052103273568419 0 0.47935174679566778 -0.29912249032528232 0 0.47226385740551963 -0.29052103273568419 0 0.48159802124000461 -0.28900801975301882 0 0.48159802124000461 -0.28900801975301882 0 0.47918656824881001 -0.28175615715344399 0 0.49124918573437759 -0.28323702443064402 0 0.47226385740551963 -0.29052103273568419 0 0.48159802124000461 -0.28900801975301882 0 0.47918656824881001 -0.28175615715344399 0 0.47935174679566778 -0.29912249032528232 0 0.48159802124000461 -0.28900801975301882 0 0.5 -0.29758680509452168 0 0.5 -0.2711642714388256 0 0.49124918573437759 -0.28323702443064402 0 0.5 -0.29758680509452168 0 0.48159802124000461 -0.28900801975301882 0 0.49124918573437759 -0.28323702443064402 0 0.5 -0.29758680509452168 0 0.47935174679566778 -0.29912249032528232 0 0.5 -0.29758680509452168 0 0.48114284405885732 -0.32057022687303632 0 0.5 -0.29758680509452168 0 0.49999999999999922 -0.32400933875021781 0 0.48114284405885732 -0.32057022687303632 0 0.49999999999999922 -0.32400933875021781 0 0.48114284405885732 -0.32057022687303632 0 0.49999999999999778 -0.34358827720674601 0 0.48114284405885732 -0.32057022687303632 0 0.49999999999999922 -0.32400933875021781 0 0.49999999999999778 -0.34358827720674601 0 0.48114284405885732 -0.32057022687303632 0 0.49999999999999778 -0.34358827720674601 0 0.48342855090563919 -0.33870053723455651 0 0.48114284405885732 -0.32057022687303632 0 0.48342855090563919 -0.33870053723455651 0 0.48114284405885732 -0.32057022687303632 0 0.46770094840686288 -0.34004170059152522 0 0.48342855090563919 -0.33870053723455651 0 0.48487041115683671 -0.35060194426691937 0 0.46770094840686288 -0.34004170059152522 0 0.48114284405885732 -0.32057022687303632 0 0.46159582997331738 -0.31700530072431737 0 0.46770094840686288 -0.34004170059152522 0 0.48114284405885732 -0.32057022687303632 0 0.46159582997331738 -0.31700530072431737 0 0.48995559263697741 -0.37097117805960128 0 0.49999999999999928 -0.35582785579326232 0 0.5 -0.38006352391379222 0 0.48995559263697741 -0.37097117805960128 0 0.49999999999999928 -0.35582785579326232 0 0.49999999999999778 -0.34358827720674601 0 0.48342855090563919 -0.33870053723455651 0 0.48487041115683671 -0.35060194426691937 0 0.48995559263697741 -0.37097117805960128 0 0.49999999999999928 -0.35582785579326232 0 0.48487041115683671 -0.35060194426691937 0 0.49999999999999778 -0.34358827720674601 0 0.49999999999999928 -0.35582785579326232 0 0.48487041115683671 -0.35060194426691937 0 0.47380606684040888 -0.3630781004587329 0 0.46770094840686288 -0.34004170059152522 0 0.48487041115683671 -0.35060194426691937 0 0.47380606684040888 -0.3630781004587329 0 0.46770094840686288 -0.34004170059152522 0 0.47380606684040888 -0.3630781004587329 0 0.4799111852739556 -0.38611450032594041 0 0.48995559263697741 -0.37097117805960128 0 0.47380606684040888 -0.3630781004587329 0 0.4799111852739556 -0.38611450032594041 0 0.48995559263697741 -0.37097117805960128 0 0.48487041115683671 -0.35060194426691937 0 0.47380606684040888 -0.3630781004587329 0 0.47380606684040888 -0.3630781004587329 0 0.44886982468804082 -0.36044788551874002 0 0.46704465651761368 -0.3777862855155138 0 0.44886982468804082 -0.36044788551874002 0 0.46704465651761368 -0.3777862855155138 0 0.45312830503350171 -0.38479542980038051 0 0.47380606684040888 -0.3630781004587329 0 0.44886982468804082 -0.36044788551874002 0 0.46770094840686288 -0.34004170059152522 0 0.44886982468804082 -0.36044788551874002 0 0.46770094840686288 -0.34004170059152522 0 0.44709414602972181 -0.33333290305582303 0 0.44886982468804082 -0.36044788551874002 0 0.44709414602972181 -0.33333290305582303 0 0.42839313119185962 -0.34362764337418289 0 0.44886982468804082 -0.36044788551874002 0 0.45312830503350171 -0.38479542980038051 0 0.43193925428550062 -0.3793449421185966 0 0.46159582997331738 -0.31700530072431737 0 0.46770094840686288 -0.34004170059152522 0 0.46159582997331738 -0.31700530072431737 0 0.46770094840686288 -0.34004170059152522 0 0.44709414602972181 -0.33333290305582303 0 0.44709414602972181 -0.33333290305582303 0 0.44367223969346298 -0.31373644976897702 0 0.43224711671267618 -0.32572939741666662 0 0.46159582997331738 -0.31700530072431737 0 0.44709414602972181 -0.33333290305582303 0 0.44367223969346298 -0.31373644976897702 0 0.46159582997331738 -0.31700530072431737 0 0.44367223969346298 -0.31373644976897702 0 0.44367223969346298 -0.31373644976897702 0 0.43224711671267618 -0.32572939741666662 0 0.42574864941360852 -0.31046759881363678 0 0.43224711671267618 -0.32572939741666662 0 0.4163274172347281 -0.32748239207071328 0 0.42574864941360852 -0.31046759881363678 0 0.44709414602972181 -0.33333290305582303 0 0.43224711671267618 -0.32572939741666662 0 0.42839313119185962 -0.34362764337418289 0 0.43224711671267618 -0.32572939741666662 0 0.42839313119185962 -0.34362764337418289 0 0.4163274172347281 -0.32748239207071328 0 0.42839313119185962 -0.34362764337418289 0 0.4163274172347281 -0.32748239207071328 0 0.40327511141340361 -0.3486771041329858 0 0.4163274172347281 -0.32748239207071328 0 0.42574864941360852 -0.31046759881363678 0 0.4087201943980639 -0.30343176698799301 0 0.4163274172347281 -0.32748239207071328 0 0.3968629973710448 -0.32433786682659033 0 0.4087201943980639 -0.30343176698799301 0 0.44886982468804082 -0.36044788551874002 0 0.42332485640138628 -0.3618675345357405 0 0.43193925428550062 -0.3793449421185966 0 0.44886982468804082 -0.36044788551874002 0 0.42839313119185962 -0.34362764337418289 0 0.42332485640138628 -0.3618675345357405 0 0.42839313119185962 -0.34362764337418289 0 0.42332485640138628 -0.3618675345357405 0 0.40327511141340361 -0.3486771041329858 0 0.42332485640138628 -0.3618675345357405 0 0.43193925428550062 -0.3793449421185966 0 0.40414696042812698 -0.37724009753419718 0 0.42332485640138628 -0.3618675345357405 0 0.40327511141340361 -0.3486771041329858 0 0.40414696042812698 -0.37724009753419718 0 0.40327511141340361 -0.3486771041329858 0 0.37894980881251478 -0.36394378416698991 0 0.40414696042812698 -0.37724009753419718 0 0.40327511141340361 -0.3486771041329858 0 0.37894980881251478 -0.36394378416698991 0 0.38235377169419649 -0.33906715124417508 0 0.40327511141340361 -0.3486771041329858 0 0.3968629973710448 -0.32433786682659033 0 0.38235377169419649 -0.33906715124417508 0 0.4163274172347281 -0.32748239207071328 0 0.40327511141340361 -0.3486771041329858 0 0.3968629973710448 -0.32433786682659033 0 0.3968629973710448 -0.32433786682659033 0 0.38036238728453958 -0.31963428050617487 0 0.38873740365938891 -0.30641170162552828 0 0.38235377169419649 -0.33906715124417508 0 0.38036238728453958 -0.31963428050617487 0 0.36397347512243372 -0.32560705052322758 0 0.3968629973710448 -0.32433786682659033 0 0.38235377169419649 -0.33906715124417508 0 0.38036238728453958 -0.31963428050617487 0 0.38036238728453958 -0.31963428050617487 0 0.38873740365938891 -0.30641170162552828 0 0.36988428857563421 -0.30274763231135299 0 0.38873740365938891 -0.30641170162552828 0 0.38393496666680271 -0.29051117178717961 0 0.36988428857563421 -0.30274763231135299 0 0.38873740365938891 -0.30641170162552828 0 0.39634537237165879 -0.29206646350061682 0 0.4087201943980639 -0.30343176698799301 0 0.3968629973710448 -0.32433786682659033 0 0.38873740365938891 -0.30641170162552828 0 0.4087201943980639 -0.30343176698799301 0 0.39634537237165879 -0.29206646350061682 0 0.4087201943980639 -0.30343176698799301 0 0.40754783005724599 -0.28167072361711198 0 0.39634537237165879 -0.29206646350061682 0 0.39492507018987899 -0.27881688092028512 0 0.40754783005724599 -0.28167072361711198 0 0.39634537237165879 -0.29206646350061682 0 0.38393496666680271 -0.29051117178717961 0 0.39492507018987899 -0.27881688092028512 0 0.38393496666680271 -0.29051117178717961 0 0.38264320425612708 -0.27741242370895652 0 0.39492507018987899 -0.27881688092028512 0 0.38873740365938891 -0.30641170162552828 0 0.39634537237165879 -0.29206646350061682 0 0.38393496666680271 -0.29051117178717961 0 0.38393496666680271 -0.29051117178717961 0 0.38264320425612708 -0.27741242370895652 0 0.37107446094812852 -0.28561192865633822 0 0.38037126772746549 -0.26837645262629273 0 0.38131880817949693 -0.25850578674154762 0 0.36415654017792071 -0.27323412290064658 0 0.38264320425612708 -0.27741242370895652 0 0.38037126772746549 -0.26837645262629273 0 0.37456136827741038 -0.27615873197305851 0 0.38264320425612708 -0.27741242370895652 0 0.37456136827741038 -0.27615873197305851 0 0.37107446094812852 -0.28561192865633822 0 0.38264320425612708 -0.27741242370895652 0 0.38037126772746549 -0.26837645262629273 0 0.38992210241313668 -0.26871250471486208 0 0.38037126772746549 -0.26837645262629273 0 0.38992210241313668 -0.26871250471486208 0 0.38634067254381133 -0.26332137923956889 0 0.38264320425612708 -0.27741242370895652 0 0.38992210241313668 -0.26871250471486208 0 0.39492507018987899 -0.27881688092028512 0 0.39848107618107309 -0.24377745058244871 0 0.38131880817949693 -0.25850578674154762 0 0.39848107618107309 -0.24377745058244871 0 0.38131880817949693 -0.25850578674154762 0 0.3839351786006443 -0.25453057406757917 0 0.38037126772746549 -0.26837645262629273 0 0.38131880817949693 -0.25850578674154762 0 0.38634067254381133 -0.26332137923956889 0 0.38131880817949693 -0.25850578674154762 0 0.3839351786006443 -0.25453057406757917 0 0.37177831380586529 -0.26154745870743351 0 0.38992210241313668 -0.26871250471486208 0 0.38634067254381133 -0.26332137923956889 0 0.39375051185514581 -0.2576907728755734 0 0.38131880817949693 -0.25850578674154762 0 0.38634067254381133 -0.26332137923956889 0 0.39375051185514581 -0.2576907728755734 0 0.39848107618107309 -0.24377745058244871 0 0.38131880817949693 -0.25850578674154762 0 0.39375051185514581 -0.2576907728755734 0 0.38992210241313668 -0.26871250471486208 0 0.39375051185514581 -0.2576907728755734 0 0.40267678466015627 -0.26918736101301938 0 0.39375051185514581 -0.2576907728755734 0 0.40267678466015627 -0.26918736101301938 0 0.40714686771660707 -0.25637848562267679 0 0.39848107618107309 -0.24377745058244871 0 0.39375051185514581 -0.2576907728755734 0 0.40714686771660707 -0.25637848562267679 0 0.38992210241313668 -0.26871250471486208 0 0.39492507018987899 -0.27881688092028512 0 0.40267678466015627 -0.26918736101301938 0 0.39492507018987899 -0.27881688092028512 0 0.40267678466015627 -0.26918736101301938 0 0.40754783005724599 -0.28167072361711198 0 0.40267678466015627 -0.26918736101301938 0 0.41977755098742009 -0.26881656880118771 0 0.40754783005724599 -0.28167072361711198 0 0.41977755098742009 -0.26881656880118771 0 0.42265848974795139 -0.28825432804261258 0 0.40754783005724599 -0.28167072361711198 0 0.40267678466015627 -0.26918736101301938 0 0.41977755098742009 -0.26881656880118771 0 0.40714686771660707 -0.25637848562267679 0 0.41474483072402862 -0.24410171722074989 0 0.40714686771660707 -0.25637848562267679 0 0.41975465553678409 -0.25377878141486482 0 0.41977755098742009 -0.26881656880118771 0 0.40714686771660707 -0.25637848562267679 0 0.41975465553678409 -0.25377878141486482 0 0.42420775402689398 -0.24485297059990141 0 0.41975465553678409 -0.25377878141486482 0 0.43484498540418559 -0.25638249238299449 0 0.41977755098742009 -0.26881656880118771 0 0.41975465553678409 -0.25377878141486482 0 0.43484498540418559 -0.25638249238299449 0 0.44293088244579448 -0.2739266684008736 0 0.41977755098742009 -0.26881656880118771 0 0.42265848974795139 -0.28825432804261258 0 0.44293088244579448 -0.2739266684008736 0 0.41977755098742009 -0.26881656880118771 0 0.43484498540418559 -0.25638249238299449 0 0.44293088244579448 -0.2739266684008736 0 0.43941659955420631 -0.2939039067411392 0 0.42265848974795139 -0.28825432804261258 0 0.43941659955420631 -0.2939039067411392 0 0.42265848974795139 -0.28825432804261258 0 0.42574864941360852 -0.31046759881363678 0 0.44645140481368523 -0.30276724403944311 0 0.43941659955420631 -0.2939039067411392 0 0.42574864941360852 -0.31046759881363678 0 0.44367223969346298 -0.31373644976897702 0 0.42574864941360852 -0.31046759881363678 0 0.42265848974795139 -0.28825432804261258 0 0.42574864941360852 -0.31046759881363678 0 0.4087201943980639 -0.30343176698799301 0 0.42265848974795139 -0.28825432804261258 0 0.4087201943980639 -0.30343176698799301 0 0.40754783005724599 -0.28167072361711198 0 0.44217420766628401 -0.48673117762384221 0 0.45465662577317489 -0.47437719972123488 0 0.45629718166982619 -0.5 0 0.44217420766628401 -0.48673117762384221 0 0.45629718166982619 -0.5 0 0.43237890327474038 -0.5 0 0.45465662577317489 -0.47437719972123488 0 0.45035174504951753 -0.46053377576885252 0 0.4328012502979296 -0.47311003091370829 0 0.44217420766628401 -0.48673117762384221 0 0.45465662577317489 -0.47437719972123488 0 0.4328012502979296 -0.47311003091370829 0 0.45465662577317489 -0.47437719972123488 0 0.4328012502979296 -0.47311003091370829 0 0.45465662577317489 -0.47437719972123488 0 0.45629718166982619 -0.5 0 0.4765120012484203 -0.4756443685287608 0 0.45465662577317489 -0.47437719972123488 0 0.4765120012484203 -0.4756443685287608 0 0.45465662577317489 -0.47437719972123488 0 0.4765120012484203 -0.4756443685287608 0 0.46269836637426198 -0.4597246709890408 0 0.45629718166982619 -0.5 0 0.48021546006491211 -0.50000000000000133 0 0.4765120012484203 -0.4756443685287608 0 0.48021546006491211 -0.50000000000000133 0 0.4765120012484203 -0.4756443685287608 0 0.48021546006491211 -0.50000000000000133 0 0.49010773003245589 -0.48850309819795618 0 0.4765120012484203 -0.4756443685287608 0 0.48021546006491211 -0.50000000000000133 0 0.5 -0.5 0 0.49010773003245589 -0.48850309819795618 0 0.5 -0.5 0 0.49010773003245589 -0.48850309819795618 0 0.4999999999999995 -0.47700619639591191 0 0.4999999999999995 -0.47700619639591191 0 0.4765120012484203 -0.4756443685287608 0 0.48589110514851319 -0.45966871319666058 0 0.4999999999999995 -0.47700619639591191 0 0.4765120012484203 -0.4756443685287608 0 0.49010773003245589 -0.48850309819795618 0 0.4999999999999995 -0.47700619639591191 0 0.4765120012484203 -0.4756443685287608 0 0.4765120012484203 -0.4756443685287608 0 0.47237395822096251 -0.44843071340720031 0 0.4765120012484203 -0.4756443685287608 0 0.47237395822096251 -0.44843071340720031 0 0.46269836637426198 -0.4597246709890408 0 0.4765120012484203 -0.4756443685287608 0 0.48589110514851319 -0.45966871319666058 0 0.47237395822096251 -0.44843071340720031 0 0.4999999999999995 -0.47700619639591191 0 0.48589110514851319 -0.45966871319666058 0 0.5 -0.45277052827538189 0 0.48589110514851319 -0.45966871319666058 0 0.5 -0.45277052827538189 0 0.48660480616273621 -0.44055939935686528 0 0.5 -0.45277052827538189 0 0.48660480616273621 -0.44055939935686528 0 0.5 -0.42853486015485193 0 0.48589110514851319 -0.45966871319666058 0 0.48660480616273621 -0.44055939935686528 0 0.47237395822096251 -0.44843071340720031 0 0.48660480616273621 -0.44055939935686528 0 0.47237395822096251 -0.44843071340720031 0 0.47438299345130319 -0.4342037863338773 0 0.45959750157923501 -0.43963729751915498 0 0.45035174504951753 -0.46053377576885252 0 0.47237395822096251 -0.44843071340720031 0 0.45959750157923501 -0.43963729751915498 0 0.46269836637426198 -0.4597246709890408 0 0.45959750157923501 -0.43963729751915498 0 0.46269836637426198 -0.4597246709890408 0 0.45035174504951753 -0.46053377576885252 0 0.45465662577317489 -0.47437719972123488 0 0.46269836637426198 -0.4597246709890408 0 0.45035174504951753 -0.46053377576885252 0 0.45035174504951753 -0.46053377576885252 0 0.44507167211471382 -0.44614219554339418 0 0.43428557687092428 -0.4564616483802969 0 0.45035174504951753 -0.46053377576885252 0 0.43428557687092428 -0.4564616483802969 0 0.4328012502979296 -0.47311003091370829 0 0.45959750157923501 -0.43963729751915498 0 0.45035174504951753 -0.46053377576885252 0 0.44507167211471382 -0.44614219554339418 0 0.44507167211471382 -0.44614219554339418 0 0.43491458423617152 -0.4420700823848388 0 0.43428557687092428 -0.4564616483802969 0 0.44507167211471382 -0.44614219554339418 0 0.4462089528377205 -0.43200817366382799 0 0.43491458423617152 -0.4420700823848388 0 0.45959750157923501 -0.43963729751915498 0 0.44507167211471382 -0.44614219554339418 0 0.4462089528377205 -0.43200817366382799 0 0.45092347458036192 -0.42261519239085071 0 0.4462089528377205 -0.43200817366382799 0 0.45942239635787452 -0.42706616540644909 0 0.4462089528377205 -0.43200817366382799 0 0.43196463266276203 -0.42805679547384851 0 0.43491458423617152 -0.4420700823848388 0 0.45092347458036192 -0.42261519239085071 0 0.4462089528377205 -0.43200817366382799 0 0.43830921666083889 -0.41673817283592363 0 0.4462089528377205 -0.43200817366382799 0 0.43830921666083889 -0.41673817283592363 0 0.43196463266276203 -0.42805679547384851 0 0.43830921666083889 -0.41673817283592363 0 0.45361417478816052 -0.41298892792353742 0 0.44287303443026571 -0.39864676514705671 0 0.45092347458036192 -0.42261519239085071 0 0.43830921666083889 -0.41673817283592363 0 0.45361417478816052 -0.41298892792353742 0 0.45092347458036192 -0.42261519239085071 0 0.45884447077654228 -0.41871876340080988 0 0.45361417478816052 -0.41298892792353742 0 0.45884447077654228 -0.41871876340080988 0 0.45361417478816052 -0.41298892792353742 0 0.46162338932710162 -0.41154558371975192 0 0.45361417478816052 -0.41298892792353742 0 0.46162338932710162 -0.41154558371975192 0 0.45709109481320731 -0.40090192743469749 0 0.46162338932710162 -0.41154558371975192 0 0.46635802824514389 -0.40654774413972661 0 0.45709109481320731 -0.40090192743469749 0 0.46162338932710162 -0.41154558371975192 0 0.46635802824514389 -0.40654774413972661 0 0.46884325810895239 -0.4187408192694575 0 0.45884447077654228 -0.41871876340080988 0 0.46162338932710162 -0.41154558371975192 0 0.46884325810895239 -0.4187408192694575 0 0.45884447077654228 -0.41871876340080988 0 0.45942239635787452 -0.42706616540644909 0 0.46884325810895239 -0.4187408192694575 0 0.46782757294678001 -0.42103638511435693 0 0.46884325810895239 -0.4187408192694575 0 0.45959750157923501 -0.43963729751915498 0 0.46782757294678001 -0.42103638511435693 0 0.45942239635787452 -0.42706616540644909 0 0.46782757294678001 -0.42103638511435693 0 0.45942239635787452 -0.42706616540644909 0 0.46884325810895239 -0.4187408192694575 0 0.45959750157923501 -0.43963729751915498 0 0.46782757294678001 -0.42103638511435693 0 0.47237395822096251 -0.44843071340720031 0 0.45959750157923501 -0.43963729751915498 0 0.46782757294678001 -0.42103638511435693 0 0.45092347458036192 -0.42261519239085071 0 0.45884447077654228 -0.41871876340080988 0 0.45942239635787452 -0.42706616540644909 0 0.45959750157923501 -0.43963729751915498 0 0.4462089528377205 -0.43200817366382799 0 0.45942239635787452 -0.42706616540644909 0 0.47237395822096251 -0.44843071340720031 0 0.46782757294678001 -0.42103638511435693 0 0.47237395822096251 -0.44843071340720031 0 0.46782757294678001 -0.42103638511435693 0 0.47438299345130319 -0.4342037863338773 0 0.46782757294678001 -0.42103638511435693 0 0.47438299345130319 -0.4342037863338773 0 0.47433888706477501 -0.42544757666834782 0 0.46782757294678001 -0.42103638511435693 0 0.47433888706477501 -0.42544757666834782 0 0.47237106982084398 -0.42091868011250227 0 0.47433888706477501 -0.42544757666834782 0 0.47634860209975238 -0.42139133021875241 0 0.47237106982084398 -0.42091868011250227 0 0.47438299345130319 -0.4342037863338773 0 0.47433888706477501 -0.42544757666834782 0 0.48331975505352448 -0.42512218686751518 0 0.47433888706477501 -0.42544757666834782 0 0.48331975505352448 -0.42512218686751518 0 0.47634860209975238 -0.42139133021875241 0 0.48660480616273621 -0.44055939935686528 0 0.47438299345130319 -0.4342037863338773 0 0.48331975505352448 -0.42512218686751518 0 0.48331975505352448 -0.42512218686751518 0 0.5 -0.42853486015485193 0 0.49074220522434309 -0.414884144191635 0 0.48660480616273621 -0.44055939935686528 0 0.48331975505352448 -0.42512218686751518 0 0.5 -0.42853486015485193 0 0.5 -0.42853486015485193 0 0.49074220522434309 -0.414884144191635 0 0.5 -0.40429919203432202 0 0.49074220522434309 -0.414884144191635 0 0.48840463965961822 -0.40348416768733109 0 0.5 -0.40429919203432202 0 0.48331975505352448 -0.42512218686751518 0 0.49074220522434309 -0.414884144191635 0 0.4819866314085729 -0.41298031421415482 0 0.49074220522434309 -0.414884144191635 0 0.4819866314085729 -0.41298031421415482 0 0.48840463965961822 -0.40348416768733109 0 0.4819866314085729 -0.41298031421415482 0 0.47545972855893542 -0.41369598598765139 0 0.47808901463866982 -0.39784434101976007 0 0.46884325810895239 -0.4187408192694575 0 0.47545972855893542 -0.41369598598765139 0 0.47808901463866982 -0.39784434101976007 0 0.46884325810895239 -0.4187408192694575 0 0.47808901463866982 -0.39784434101976007 0 0.46635802824514389 -0.40654774413972661 0 0.46884325810895239 -0.4187408192694575 0 0.47808901463866982 -0.39784434101976007 0 0.4819866314085729 -0.41298031421415482 0 0.47634860209975238 -0.42139133021875241 0 0.47545972855893542 -0.41369598598765139 0 0.48331975505352448 -0.42512218686751518 0 0.4819866314085729 -0.41298031421415482 0 0.47634860209975238 -0.42139133021875241 0 0.47634860209975238 -0.42139133021875241 0 0.4732556646471211 -0.41868670389709101 0 0.47237106982084398 -0.42091868011250227 0 0.47634860209975238 -0.42139133021875241 0 0.4732556646471211 -0.41868670389709101 0 0.47545972855893542 -0.41369598598765139 0 0.4732556646471211 -0.41868670389709101 0 0.46884325810895239 -0.4187408192694575 0 0.47545972855893542 -0.41369598598765139 0 0.46782757294678001 -0.42103638511435693 0 0.47237106982084398 -0.42091868011250227 0 0.46884325810895239 -0.4187408192694575 0 0.4732556646471211 -0.41868670389709101 0 0.47237106982084398 -0.42091868011250227 0 0.46884325810895239 -0.4187408192694575 0 0.46635802824514389 -0.40654774413972661 0 0.4799111852739556 -0.38611450032594041 0 0.46635802824514389 -0.40654774413972661 0 0.4799111852739556 -0.38611450032594041 0 0.46494963705507059 -0.39088711387773228 0 0.46635802824514389 -0.40654774413972661 0 0.47808901463866982 -0.39784434101976007 0 0.4799111852739556 -0.38611450032594041 0 0.47808901463866982 -0.39784434101976007 0 0.48124439070047659 -0.39071282646676148 0 0.49072614620579741 -0.39201949027864591 0 0.47808901463866982 -0.39784434101976007 0 0.48124439070047659 -0.39071282646676148 0 0.4799111852739556 -0.38611450032594041 0 0.47808901463866982 -0.39784434101976007 0 0.48124439070047659 -0.39071282646676148 0 0.4819866314085729 -0.41298031421415482 0 0.47808901463866982 -0.39784434101976007 0 0.48840463965961822 -0.40348416768733109 0 0.49072614620579741 -0.39201949027864591 0 0.5 -0.40429919203432202 0 0.5 -0.38006352391379222 0 0.47808901463866982 -0.39784434101976007 0 0.48840463965961822 -0.40348416768733109 0 0.49072614620579741 -0.39201949027864591 0 0.48840463965961822 -0.40348416768733109 0 0.49072614620579741 -0.39201949027864591 0 0.5 -0.40429919203432202 0 0.48995559263697741 -0.37097117805960128 0 0.5 -0.38006352391379222 0 0.48733477116838708 -0.37694786277006281 0 0.49072614620579741 -0.39201949027864591 0 0.5 -0.38006352391379222 0 0.48733477116838708 -0.37694786277006281 0 0.48124439070047659 -0.39071282646676148 0 0.49072614620579741 -0.39201949027864591 0 0.48733477116838708 -0.37694786277006281 0 0.48995559263697741 -0.37097117805960128 0 0.48733477116838708 -0.37694786277006281 0 0.4799111852739556 -0.38611450032594041 0 0.48995559263697741 -0.37097117805960128 0 0.4799111852739556 -0.38611450032594041 0 0.47380606684040888 -0.3630781004587329 0 0.4799111852739556 -0.38611450032594041 0 0.46704465651761368 -0.3777862855155138 0 0.48124439070047659 -0.39071282646676148 0 0.48733477116838708 -0.37694786277006281 0 0.4799111852739556 -0.38611450032594041 0 0.48124439070047659 -0.39071282646676148 0 0.48733477116838708 -0.37694786277006281 0 0.48124439070047659 -0.39071282646676148 0 0.4799111852739556 -0.38611450032594041 0 0.4799111852739556 -0.38611450032594041 0 0.46704465651761368 -0.3777862855155138 0 0.46494963705507059 -0.39088711387773228 0 0.46704465651761368 -0.3777862855155138 0 0.45312830503350171 -0.38479542980038051 0 0.46494963705507059 -0.39088711387773228 0 0.45312830503350171 -0.38479542980038051 0 0.46494963705507059 -0.39088711387773228 0 0.45709109481320731 -0.40090192743469749 0 0.46635802824514389 -0.40654774413972661 0 0.46494963705507059 -0.39088711387773228 0 0.45709109481320731 -0.40090192743469749 0 0.45312830503350171 -0.38479542980038051 0 0.45709109481320731 -0.40090192743469749 0 0.44287303443026571 -0.39864676514705671 0 0.45361417478816052 -0.41298892792353742 0 0.45709109481320731 -0.40090192743469749 0 0.44287303443026571 -0.39864676514705671 0 0.45312830503350171 -0.38479542980038051 0 0.44287303443026571 -0.39864676514705671 0 0.43193925428550062 -0.3793449421185966 0 0.43830921666083889 -0.41673817283592363 0 0.44287303443026571 -0.39864676514705671 0 0.42205782738405079 -0.39913067068172547 0 0.44287303443026571 -0.39864676514705671 0 0.43193925428550062 -0.3793449421185966 0 0.42205782738405079 -0.39913067068172547 0 0.42205782738405079 -0.39913067068172547 0 0.40414696042812698 -0.37724009753419718 0 0.39960503052695567 -0.40319502803967011 0 0.43193925428550062 -0.3793449421185966 0 0.42205782738405079 -0.39913067068172547 0 0.40414696042812698 -0.37724009753419718 0 0.40414696042812698 -0.37724009753419718 0 0.37955931241339719 -0.38994974232056628 0 0.39960503052695567 -0.40319502803967011 0 0.37894980881251478 -0.36394378416698991 0 0.37955931241339719 -0.38994974232056628 0 0.37894980881251478 -0.36394378416698991 0 0.40414696042812698 -0.37724009753419718 0 0.37955931241339719 -0.38994974232056628 0 0.37955931241339719 -0.38994974232056628 0 0.39960503052695567 -0.40319502803967011 0 0.38016881601427971 -0.41595570047414282 0 0.37955931241339719 -0.38994974232056628 0 0.38016881601427971 -0.41595570047414282 0 0.39960503052695567 -0.40319502803967011 0 0.3972003863396758 -0.43011147611852008 0 0.41549315542115423 -0.42032353415603868 0 0.39960503052695567 -0.40319502803967011 0 0.38016881601427971 -0.41595570047414282 0 0.3972003863396758 -0.43011147611852008 0 0.38016881601427971 -0.41595570047414282 0 0.38077831961516212 -0.44196165862771908 0 0.38016881601427971 -0.41595570047414282 0 0.3972003863396758 -0.43011147611852008 0 0.38077831961516212 -0.44196165862771908 0 0.38016881601427971 -0.41595570047414282 0 0.38077831961516212 -0.44196165862771908 0 0.36420470180245218 -0.42828215788855811 0 0.41549315542115423 -0.42032353415603868 0 0.43196463266276203 -0.42805679547384851 0 0.41321951512191929 -0.44608319813111008 0 0.41549315542115423 -0.42032353415603868 0 0.41321951512191929 -0.44608319813111008 0 0.3972003863396758 -0.43011147611852008 0 0.41549315542115423 -0.42032353415603868 0 0.41321951512191929 -0.44608319813111008 0 0.42205782738405079 -0.39913067068172547 0 0.39960503052695567 -0.40319502803967011 0 0.41549315542115423 -0.42032353415603868 0 0.43830921666083889 -0.41673817283592363 0 0.42205782738405079 -0.39913067068172547 0 0.41549315542115423 -0.42032353415603868 0 0.43830921666083889 -0.41673817283592363 0 0.41549315542115423 -0.42032353415603868 0 0.43196463266276203 -0.42805679547384851 0 0.43196463266276203 -0.42805679547384851 0 0.43491458423617152 -0.4420700823848388 0 0.41321951512191929 -0.44608319813111008 0 0.43491458423617152 -0.4420700823848388 0 0.43428557687092428 -0.4564616483802969 0 0.41321951512191929 -0.44608319813111008 0 0.43428557687092428 -0.4564616483802969 0 0.42260026751927121 -0.46280072371671699 0 0.41321951512191929 -0.44608319813111008 0 0.43428557687092428 -0.4564616483802969 0 0.42260026751927121 -0.46280072371671699 0 0.4328012502979296 -0.47311003091370829 0 0.42260026751927121 -0.46280072371671699 0 0.41321951512191929 -0.44608319813111008 0 0.4109458748226843 -0.47184286210618143 0 0.41321951512191929 -0.44608319813111008 0 0.39552294945787569 -0.45682015680373272 0 0.4109458748226843 -0.47184286210618143 0 0.41321951512191929 -0.44608319813111008 0 0.4109458748226843 -0.47184286210618143 0 0.3972003863396758 -0.43011147611852008 0 0.38077831961516212 -0.44196165862771908 0 0.39552294945787569 -0.45682015680373272 0 0.3972003863396758 -0.43011147611852008 0 0.41321951512191929 -0.44608319813111008 0 0.39552294945787569 -0.45682015680373272 0 0.38077831961516212 -0.44196165862771908 0 0.39552294945787569 -0.45682015680373272 0 0.38061642912466781 -0.47118143701808191 0 0.39552294945787569 -0.45682015680373272 0 0.39557516847751872 -0.47109196200980452 0 0.38061642912466781 -0.47118143701808191 0 0.39552294945787569 -0.45682015680373272 0 0.39557516847751872 -0.47109196200980452 0 0.4109458748226843 -0.47184286210618143 0 0.40317710508230969 -0.47984216018454418 0 0.39557516847751872 -0.47109196200980452 0 0.4109458748226843 -0.47184286210618143 0 0.40317710508230969 -0.47984216018454418 0 0.39557516847751872 -0.47109196200980452 0 0.39107329564034188 -0.48449778026253248 0 0.38061642912466781 -0.47118143701808191 0 0.39107329564034188 -0.48449778026253248 0 0.37393671980914589 -0.48711429932077632 0 0.39557516847751872 -0.47109196200980452 0 0.38061642912466781 -0.47118143701808191 0 0.39107329564034188 -0.48449778026253248 0 0.38544468816598199 -0.5 0 0.39107329564034188 -0.48449778026253248 0 0.37393671980914589 -0.48711429932077632 0 0.38544468816598199 -0.5 0 0.39107329564034188 -0.48449778026253248 0 0.40846062487965451 -0.50000000000000244 0 0.40317710508230969 -0.47984216018454418 0 0.39107329564034188 -0.48449778026253248 0 0.40846062487965451 -0.50000000000000244 0 0.40846062487965451 -0.50000000000000244 0 0.43237890327474038 -0.5 0 0.42333558094495838 -0.48635371844735997 0 0.40846062487965451 -0.50000000000000244 0 0.4109458748226843 -0.47184286210618143 0 0.42333558094495838 -0.48635371844735997 0 0.40846062487965451 -0.50000000000000244 0 0.4109458748226843 -0.47184286210618143 0 0.4109458748226843 -0.47184286210618143 0 0.4328012502979296 -0.47311003091370829 0 0.40317710508230969 -0.47984216018454418 0 0.40846062487965451 -0.50000000000000244 0 0.4109458748226843 -0.47184286210618143 0 0.42260026751927121 -0.46280072371671699 0 0.4109458748226843 -0.47184286210618143 0 0.4328012502979296 -0.47311003091370829 0 0.44217420766628401 -0.48673117762384221 0 0.4328012502979296 -0.47311003091370829 0 0.42333558094495838 -0.48635371844735997 0 0.4109458748226843 -0.47184286210618143 0 0.4328012502979296 -0.47311003091370829 0 0.42333558094495838 -0.48635371844735997 0 0.44217420766628401 -0.48673117762384221 0 0.43237890327474038 -0.5 0 0.42333558094495838 -0.48635371844735997 0 0.3163968780249643 -0.49999999999999872 0 0.3156560829588127 -0.47195701219463349 0 0.33315323969752147 -0.48322192961299643 0 0.33315323969752147 -0.48322192961299643 0 0.35523178760119539 -0.48042654771318649 0 0.33906863516399832 -0.46372608815716171 0 0.3156560829588127 -0.47195701219463349 0 0.33315323969752147 -0.48322192961299643 0 0.33906863516399832 -0.46372608815716171 0 0.3163968780249643 -0.49999999999999872 0 0.33315323969752147 -0.48322192961299643 0 0.33941281473863683 -0.5 0 0.33315323969752147 -0.48322192961299643 0 0.33941281473863683 -0.5 0 0.35523178760119539 -0.48042654771318649 0 0.33941281473863683 -0.5 0 0.36242875145230952 -0.5 0 0.35523178760119539 -0.48042654771318649 0 0.38544468816598199 -0.5 0 0.36242875145230952 -0.5 0 0.37393671980914589 -0.48711429932077632 0 0.36242875145230952 -0.5 0 0.37393671980914589 -0.48711429932077632 0 0.35523178760119539 -0.48042654771318649 0 0.38061642912466781 -0.47118143701808191 0 0.35523178760119539 -0.48042654771318649 0 0.36235202875495792 -0.45481828847453037 0 0.38061642912466781 -0.47118143701808191 0 0.37393671980914589 -0.48711429932077632 0 0.35523178760119539 -0.48042654771318649 0 0.35523178760119539 -0.48042654771318649 0 0.36235202875495792 -0.45481828847453037 0 0.33906863516399832 -0.46372608815716171 0 0.38077831961516212 -0.44196165862771908 0 0.38061642912466781 -0.47118143701808191 0 0.36235202875495792 -0.45481828847453037 0 0.38077831961516212 -0.44196165862771908 0 0.36235202875495792 -0.45481828847453037 0 0.36420470180245218 -0.42828215788855811 0 0.36235202875495792 -0.45481828847453037 0 0.3479714750951442 -0.43944540217261119 0 0.36420470180245218 -0.42828215788855811 0 0.36235202875495792 -0.45481828847453037 0 0.3479714750951442 -0.43944540217261119 0 0.33906863516399832 -0.46372608815716171 0 0.3479714750951442 -0.43944540217261119 0 0.32448616669032682 -0.45394917521950201 0 0.32377359618119939 -0.43663144992634778 0 0.3479714750951442 -0.43944540217261119 0 0.33906863516399832 -0.46372608815716171 0 0.32448616669032682 -0.45394917521950201 0 0.3156560829588127 -0.47195701219463349 0 0.32448616669032682 -0.45394917521950201 0 0.30798136203655452 -0.45318718007958181 0 0.3156560829588127 -0.47195701219463349 0 0.33906863516399832 -0.46372608815716171 0 0.32448616669032682 -0.45394917521950201 0 0.32448616669032682 -0.45394917521950201 0 0.32377359618119939 -0.43663144992634778 0 0.30798136203655452 -0.45318718007958181 0 0.32377359618119939 -0.43663144992634778 0 0.31973986794120413 -0.41791833692008901 0 0.30353977870730192 -0.42551683169857629 0 0.31973986794120413 -0.41791833692008901 0 0.31870973632162491 -0.40167930472277602 0 0.30152143503365109 -0.4123476149662284 0 0.31973986794120413 -0.41791833692008901 0 0.33400958813525922 -0.40151299980345101 0 0.31870973632162491 -0.40167930472277602 0 0.31973986794120413 -0.41791833692008901 0 0.34773370874473142 -0.41336677518902881 0 0.33400958813525922 -0.40151299980345101 0 0.32377359618119939 -0.43663144992634778 0 0.31973986794120413 -0.41791833692008901 0 0.34773370874473142 -0.41336677518902881 0 0.3479714750951442 -0.43944540217261119 0 0.32377359618119939 -0.43663144992634778 0 0.34773370874473142 -0.41336677518902881 0 0.3479714750951442 -0.43944540217261119 0 0.36420470180245218 -0.42828215788855811 0 0.34773370874473142 -0.41336677518902881 0 0.3479714750951442 -0.43944540217261119 0 0.34773370874473142 -0.41336677518902881 0 0.38016881601427971 -0.41595570047414282 0 0.36420470180245218 -0.42828215788855811 0 0.36371911099546722 -0.40166506732275048 0 0.36420470180245218 -0.42828215788855811 0 0.34773370874473142 -0.41336677518902881 0 0.36371911099546722 -0.40166506732275048 0 0.34773370874473142 -0.41336677518902881 0 0.34749594239431869 -0.38728814820544633 0 0.34773370874473142 -0.41336677518902881 0 0.36371911099546722 -0.40166506732275048 0 0.34749594239431869 -0.38728814820544633 0 0.37955931241339719 -0.38994974232056628 0 0.38016881601427971 -0.41595570047414282 0 0.36371911099546722 -0.40166506732275048 0 0.37894980881251478 -0.36394378416698991 0 0.37955931241339719 -0.38994974232056628 0 0.36210853810571908 -0.37411452357935859 0 0.37955931241339719 -0.38994974232056628 0 0.36371911099546722 -0.40166506732275048 0 0.36210853810571908 -0.37411452357935859 0 0.36371911099546722 -0.40166506732275048 0 0.34749594239431869 -0.38728814820544633 0 0.36210853810571908 -0.37411452357935859 0 0.34749594239431869 -0.38728814820544633 0 0.32915162653115532 -0.38683604916860231 0 0.34045007567018482 -0.3723770255127884 0 0.34773370874473142 -0.41336677518902881 0 0.34749594239431869 -0.38728814820544633 0 0.33400958813525922 -0.40151299980345101 0 0.34749594239431869 -0.38728814820544633 0 0.32915162653115532 -0.38683604916860231 0 0.33400958813525922 -0.40151299980345101 0 0.32915162653115532 -0.38683604916860231 0 0.33400958813525922 -0.40151299980345101 0 0.31870973632162491 -0.40167930472277602 0 0.32915162653115532 -0.38683604916860231 0 0.31334102106860129 -0.3775224530353104 0 0.34045007567018482 -0.3723770255127884 0 0.32915162653115532 -0.38683604916860231 0 0.31870973632162491 -0.40167930472277602 0 0.31334102106860129 -0.3775224530353104 0 0.31334102106860129 -0.3775224530353104 0 0.28623196646701782 -0.38266788055783241 0 0.30075941525713712 -0.36510083559999013 0 0.31334102106860129 -0.3775224530353104 0 0.29840746172657923 -0.39684145966863171 0 0.28623196646701782 -0.38266788055783241 0 0.31334102106860129 -0.3775224530353104 0 0.28623196646701782 -0.38266788055783241 0 0.31870973632162491 -0.40167930472277602 0 0.29840746172657923 -0.39684145966863171 0 0.30152143503365109 -0.4123476149662284 0 0.31870973632162491 -0.40167930472277602 0 0.31334102106860129 -0.3775224530353104 0 0.29840746172657923 -0.39684145966863171 0 0.29840746172657923 -0.39684145966863171 0 0.28623196646701782 -0.38266788055783241 0 0.27770293297008442 -0.39318989175852292 0 0.29840746172657923 -0.39684145966863171 0 0.27770293297008442 -0.39318989175852292 0 0.28273735308243098 -0.40796791400841559 0 0.29840746172657923 -0.39684145966863171 0 0.28273735308243098 -0.40796791400841559 0 0.30152143503365109 -0.4123476149662284 0 0.28623196646701782 -0.38266788055783241 0 0.27044571771780318 -0.37742831641863628 0 0.25912291186543429 -0.38781330808035441 0 0.28623196646701782 -0.38266788055783241 0 0.26452415848014771 -0.39006306668463969 0 0.25912291186543429 -0.38781330808035441 0 0.28623196646701782 -0.38266788055783241 0 0.26452415848014771 -0.39006306668463969 0 0.27770293297008442 -0.39318989175852292 0 0.28623196646701782 -0.38266788055783241 0 0.25912291186543429 -0.38781330808035441 0 0.28623196646701782 -0.38266788055783241 0 0.27044571771780318 -0.37742831641863628 0 0.2825265725527743 -0.36756930848497721 0 0.27044571771780318 -0.37742831641863628 0 0.25731215437089627 -0.37922718610039402 0 0.25907863555456662 -0.37057365668643882 0 0.27044571771780318 -0.37742831641863628 0 0.25912291186543429 -0.38781330808035441 0 0.25731215437089627 -0.37922718610039402 0 0.25912291186543429 -0.38781330808035441 0 0.25333028055694318 -0.38342839192807943 0 0.25731215437089627 -0.37922718610039402 0 0.25912291186543429 -0.38781330808035441 0 0.25333028055694318 -0.38342839192807943 0 0.2463482629591042 -0.38547561123023533 0 0.25333028055694318 -0.38342839192807943 0 0.25053779303233797 -0.38119746230133378 0 0.2463482629591042 -0.38547561123023533 0 0.25333028055694318 -0.38342839192807943 0 0.25053779303233797 -0.38119746230133378 0 0.25731215437089627 -0.37922718610039402 0 0.25053779303233797 -0.38119746230133378 0 0.25731215437089627 -0.37922718610039402 0 0.24960891101326549 -0.37304825598747771 0 0.26452415848014771 -0.39006306668463969 0 0.2409676605078547 -0.39597254536230952 0 0.26452415848014771 -0.39006306668463969 0 0.25355766278286868 -0.40111833226318272 0 0.2409676605078547 -0.39597254536230952 0 0.26452415848014771 -0.39006306668463969 0 0.25912291186543429 -0.38781330808035441 0 0.2409676605078547 -0.39597254536230952 0 0.26452415848014771 -0.39006306668463969 0 0.25355766278286868 -0.40111833226318272 0 0.26410650766417249 -0.39958011907541052 0 0.26410650766417249 -0.39958011907541052 0 0.27103793788860681 -0.40324267100926647 0 0.26126385781932548 -0.40778439915771941 0 0.25355766278286868 -0.40111833226318272 0 0.26410650766417249 -0.39958011907541052 0 0.26126385781932548 -0.40778439915771941 0 0.26410650766417249 -0.39958011907541052 0 0.27103793788860681 -0.40324267100926647 0 0.26934288425075281 -0.3965189371319599 0 0.26452415848014771 -0.39006306668463969 0 0.26410650766417249 -0.39958011907541052 0 0.26934288425075281 -0.3965189371319599 0 0.26452415848014771 -0.39006306668463969 0 0.26934288425075281 -0.3965189371319599 0 0.27770293297008442 -0.39318989175852292 0 0.27103793788860681 -0.40324267100926647 0 0.26934288425075281 -0.3965189371319599 0 0.27770293297008442 -0.39318989175852292 0 0.27103793788860681 -0.40324267100926647 0 0.27770293297008442 -0.39318989175852292 0 0.28273735308243098 -0.40796791400841559 0 0.27103793788860681 -0.40324267100926647 0 0.27131879300105283 -0.41488147225166588 0 0.28273735308243098 -0.40796791400841559 0 0.27131879300105283 -0.41488147225166588 0 0.28599441242276641 -0.42416184277888208 0 0.28273735308243098 -0.40796791400841559 0 0.27131879300105283 -0.41488147225166588 0 0.25827480620344628 -0.41770721158124302 0 0.26882537532399581 -0.42943100205671708 0 0.27103793788860681 -0.40324267100926647 0 0.27131879300105283 -0.41488147225166588 0 0.26126385781932548 -0.40778439915771941 0 0.27131879300105283 -0.41488147225166588 0 0.26126385781932548 -0.40778439915771941 0 0.25827480620344628 -0.41770721158124302 0 0.26126385781932548 -0.40778439915771941 0 0.25827480620344628 -0.41770721158124302 0 0.24691806038933781 -0.41081379186618688 0 0.25355766278286868 -0.40111833226318272 0 0.26126385781932548 -0.40778439915771941 0 0.24691806038933781 -0.41081379186618688 0 0.25827480620344628 -0.41770721158124302 0 0.25468545432512718 -0.43174213899265262 0 0.24310374909831109 -0.42755285647914348 0 0.25827480620344628 -0.41770721158124302 0 0.25468545432512718 -0.43174213899265262 0 0.26882537532399581 -0.42943100205671708 0 0.25468545432512718 -0.43174213899265262 0 0.26882537532399581 -0.42943100205671708 0 0.25926223805504722 -0.44316001286860401 0 0.27131879300105283 -0.41488147225166588 0 0.26882537532399581 -0.42943100205671708 0 0.28599441242276641 -0.42416184277888208 0 0.26882537532399581 -0.42943100205671708 0 0.28599441242276641 -0.42416184277888208 0 0.28230341794062108 -0.4388862556916947 0 0.26882537532399581 -0.42943100205671708 0 0.28230341794062108 -0.4388862556916947 0 0.27190600737526488 -0.44000600846760352 0 0.28599441242276641 -0.42416184277888208 0 0.30353977870730192 -0.42551683169857629 0 0.29822519045118068 -0.4390377256766419 0 0.28599441242276641 -0.42416184277888208 0 0.29822519045118068 -0.4390377256766419 0 0.28230341794062108 -0.4388862556916947 0 0.28599441242276641 -0.42416184277888208 0 0.28273735308243098 -0.40796791400841559 0 0.30152143503365109 -0.4123476149662284 0 0.28599441242276641 -0.42416184277888208 0 0.30152143503365109 -0.4123476149662284 0 0.30353977870730192 -0.42551683169857629 0 0.31973986794120413 -0.41791833692008901 0 0.30152143503365109 -0.4123476149662284 0 0.30353977870730192 -0.42551683169857629 0 0.32377359618119939 -0.43663144992634778 0 0.30353977870730192 -0.42551683169857629 0 0.29822519045118068 -0.4390377256766419 0 0.32377359618119939 -0.43663144992634778 0 0.29822519045118068 -0.4390377256766419 0 0.30798136203655452 -0.45318718007958181 0 0.29822519045118068 -0.4390377256766419 0 0.30798136203655452 -0.45318718007958181 0 0.29039677350208859 -0.45166559592062377 0 0.3156560829588127 -0.47195701219463349 0 0.29793866691549359 -0.46399396021268829 0 0.30798136203655452 -0.45318718007958181 0 0.29793866691549359 -0.46399396021268829 0 0.30798136203655452 -0.45318718007958181 0 0.29039677350208859 -0.45166559592062377 0 0.29793866691549359 -0.46399396021268829 0 0.29039677350208859 -0.45166559592062377 0 0.27830711804501979 -0.46210667524573529 0 0.29039677350208859 -0.45166559592062377 0 0.2772329981813958 -0.44854676325339837 0 0.27830711804501979 -0.46210667524573529 0 0.29039677350208859 -0.45166559592062377 0 0.28230341794062108 -0.4388862556916947 0 0.2772329981813958 -0.44854676325339837 0 0.29822519045118068 -0.4390377256766419 0 0.29039677350208859 -0.45166559592062377 0 0.28230341794062108 -0.4388862556916947 0 0.2772329981813958 -0.44854676325339837 0 0.25926223805504722 -0.44316001286860401 0 0.27830711804501979 -0.46210667524573529 0 0.2772329981813958 -0.44854676325339837 0 0.27190600737526488 -0.44000600846760352 0 0.25926223805504722 -0.44316001286860401 0 0.25926223805504722 -0.44316001286860401 0 0.27830711804501979 -0.46210667524573529 0 0.28230341794062108 -0.4388862556916947 0 0.2772329981813958 -0.44854676325339837 0 0.27190600737526488 -0.44000600846760352 0 0.26882537532399581 -0.42943100205671708 0 0.27190600737526488 -0.44000600846760352 0 0.25926223805504722 -0.44316001286860401 0 0.25468545432512718 -0.43174213899265262 0 0.25926223805504722 -0.44316001286860401 0 0.24145437529986491 -0.44665488994292968 0 0.25926223805504722 -0.44316001286860401 0 0.26540604172819637 -0.45847983401816089 0 0.24145437529986491 -0.44665488994292968 0 0.26540604172819637 -0.45847983401816089 0 0.24145437529986491 -0.44665488994292968 0 0.26540604172819637 -0.45847983401816089 0 0.24907591744480689 -0.46268372009834141 0 0.24145437529986491 -0.44665488994292968 0 0.26540604172819637 -0.45847983401816089 0 0.26030183385490768 -0.46875634867145322 0 0.24907591744480689 -0.46268372009834141 0 0.25926223805504722 -0.44316001286860401 0 0.26540604172819637 -0.45847983401816089 0 0.27830711804501979 -0.46210667524573529 0 0.26540604172819637 -0.45847983401816089 0 0.27830711804501979 -0.46210667524573529 0 0.26030183385490768 -0.46875634867145322 0 0.27830711804501979 -0.46210667524573529 0 0.26627567254529988 -0.48014516074240171 0 0.26030183385490768 -0.46875634867145322 0 0.27830711804501979 -0.46210667524573529 0 0.26627567254529988 -0.48014516074240171 0 0.28206926141825639 -0.47921519011773051 0 0.26030183385490768 -0.46875634867145322 0 0.24544425051691329 -0.47868897983452352 0 0.24907591744480689 -0.46268372009834141 0 0.26627567254529988 -0.48014516074240171 0 0.26030183385490768 -0.46875634867145322 0 0.24544425051691329 -0.47868897983452352 0 0.26627567254529988 -0.48014516074240171 0 0.25756200524151351 -0.5 0 0.24544425051691329 -0.47868897983452352 0 0.26627567254529988 -0.48014516074240171 0 0.25756200524151351 -0.5 0 0.28697944163323902 -0.5 0 0.26627567254529988 -0.48014516074240171 0 0.28697944163323902 -0.5 0 0.28206926141825639 -0.47921519011773051 0 0.28697944163323902 -0.5 0 0.28206926141825639 -0.47921519011773051 0 0.2973519980349924 -0.48105333762286678 0 0.29793866691549359 -0.46399396021268829 0 0.27830711804501979 -0.46210667524573529 0 0.2973519980349924 -0.48105333762286678 0 0.27830711804501979 -0.46210667524573529 0 0.2973519980349924 -0.48105333762286678 0 0.27830711804501979 -0.46210667524573529 0 0.28206926141825639 -0.47921519011773051 0 0.2973519980349924 -0.48105333762286678 0 0.3163968780249643 -0.49999999999999872 0 0.3156560829588127 -0.47195701219463349 0 0.2973519980349924 -0.48105333762286678 0 0.3156560829588127 -0.47195701219463349 0 0.29793866691549359 -0.46399396021268829 0 0.2973519980349924 -0.48105333762286678 0 0.3163968780249643 -0.49999999999999872 0 0.2973519980349924 -0.48105333762286678 0 0.3163968780249643 -0.49999999999999872 0 0.28697944163323902 -0.5 0 0.2973519980349924 -0.48105333762286678 0 0.33325781973905821 -0.30313885578381772 0 0.31724126268134462 -0.28872353818569729 0 0.34699427217634449 -0.28796245905974549 0 0.33325781973905821 -0.30313885578381772 0 0.35153701611679677 -0.30863867227049002 0 0.33459875860288951 -0.32017747074243252 0 0.33325781973905821 -0.30313885578381772 0 0.31591778911791568 -0.3101921386607232 0 0.33459875860288951 -0.32017747074243252 0 0.33325781973905821 -0.30313885578381772 0 0.31591778911791568 -0.3101921386607232 0 0.31724126268134462 -0.28872353818569729 0 0.31724126268134462 -0.28872353818569729 0 0.33147027793015449 -0.26530812817234217 0 0.30523782759490953 -0.27069690522472373 0 0.33147027793015449 -0.26530812817234217 0 0.30523782759490953 -0.27069690522472373 0 0.33229851240136932 -0.24330847130703009 0 0.31517562456562642 -0.25252999686536898 0 0.33147027793015449 -0.26530812817234217 0 0.31517562456562642 -0.25252999686536898 0 0.33147027793015449 -0.26530812817234217 0 0.30523782759490953 -0.27069690522472373 0 0.33229851240136932 -0.24330847130703009 0 0.33147027793015449 -0.26530812817234217 0 0.34619378628552078 -0.25016824150646771 0 0.33147027793015449 -0.26530812817234217 0 0.34902265968242541 -0.2722885139163751 0 0.34699427217634449 -0.28796245905974549 0 0.31724126268134462 -0.28872353818569729 0 0.33147027793015449 -0.26530812817234217 0 0.34699427217634449 -0.28796245905974549 0 0.36415654017792071 -0.27323412290064658 0 0.34699427217634449 -0.28796245905974549 0 0.34902265968242541 -0.2722885139163751 0 0.36415654017792071 -0.27323412290064658 0 0.34699427217634449 -0.28796245905974549 0 0.33147027793015449 -0.26530812817234217 0 0.34902265968242541 -0.2722885139163751 0 0.35770272826539939 -0.25991935111996067 0 0.34902265968242541 -0.2722885139163751 0 0.35770272826539939 -0.25991935111996067 0 0.36415654017792071 -0.27323412290064658 0 0.33147027793015449 -0.26530812817234217 0 0.35770272826539939 -0.25991935111996067 0 0.33147027793015449 -0.26530812817234217 0 0.34619378628552078 -0.25016824150646771 0 0.35770272826539939 -0.25991935111996067 0 0.35862533860017232 -0.24767319606762589 0 0.34619378628552078 -0.25016824150646771 0 0.35770272826539939 -0.25991935111996067 0 0.38131880817949693 -0.25850578674154762 0 0.37177831380586529 -0.26154745870743351 0 0.36415654017792071 -0.27323412290064658 0 0.36932567567971902 -0.24957259989972541 0 0.3839351786006443 -0.25453057406757917 0 0.35770272826539939 -0.25991935111996067 0 0.3839351786006443 -0.25453057406757917 0 0.35770272826539939 -0.25991935111996067 0 0.37177831380586529 -0.26154745870743351 0 0.3839351786006443 -0.25453057406757917 0 0.35770272826539939 -0.25991935111996067 0 0.35862533860017232 -0.24767319606762589 0 0.36932567567971902 -0.24957259989972541 0 0.35770272826539939 -0.25991935111996067 0 0.35770272826539939 -0.25991935111996067 0 0.37177831380586529 -0.26154745870743351 0 0.36415654017792071 -0.27323412290064658 0 0.38131880817949693 -0.25850578674154762 0 0.36415654017792071 -0.27323412290064658 0 0.38037126772746549 -0.26837645262629273 0 0.36415654017792071 -0.27323412290064658 0 0.37456136827741038 -0.27615873197305851 0 0.36415654017792071 -0.27323412290064658 0 0.37456136827741038 -0.27615873197305851 0 0.37107446094812852 -0.28561192865633822 0 0.36415654017792071 -0.27323412290064658 0 0.37107446094812852 -0.28561192865633822 0 0.34699427217634449 -0.28796245905974549 0 0.38393496666680271 -0.29051117178717961 0 0.37107446094812852 -0.28561192865633822 0 0.36988428857563421 -0.30274763231135299 0 0.37107446094812852 -0.28561192865633822 0 0.34699427217634449 -0.28796245905974549 0 0.36988428857563421 -0.30274763231135299 0 0.34699427217634449 -0.28796245905974549 0 0.35153701611679677 -0.30863867227049002 0 0.36988428857563421 -0.30274763231135299 0 0.33325781973905821 -0.30313885578381772 0 0.34699427217634449 -0.28796245905974549 0 0.35153701611679677 -0.30863867227049002 0 0.35153701611679677 -0.30863867227049002 0 0.36988428857563421 -0.30274763231135299 0 0.36397347512243372 -0.32560705052322758 0 0.38036238728453958 -0.31963428050617487 0 0.36988428857563421 -0.30274763231135299 0 0.36397347512243372 -0.32560705052322758 0 0.38235377169419649 -0.33906715124417508 0 0.36397347512243372 -0.32560705052322758 0 0.360291142004728 -0.34978628249559313 0 0.36397347512243372 -0.32560705052322758 0 0.34666880572779307 -0.33504909069281102 0 0.360291142004728 -0.34978628249559313 0 0.35153701611679677 -0.30863867227049002 0 0.34919451389247819 -0.3223680710572403 0 0.33459875860288951 -0.32017747074243252 0 0.36397347512243372 -0.32560705052322758 0 0.34666880572779307 -0.33504909069281102 0 0.34919451389247819 -0.3223680710572403 0 0.35153701611679677 -0.30863867227049002 0 0.36397347512243372 -0.32560705052322758 0 0.34919451389247819 -0.3223680710572403 0 0.37894980881251478 -0.36394378416698991 0 0.36210853810571908 -0.37411452357935859 0 0.360291142004728 -0.34978628249559313 0 0.37894980881251478 -0.36394378416698991 0 0.38235377169419649 -0.33906715124417508 0 0.360291142004728 -0.34978628249559313 0 0.34666880572779307 -0.33504909069281102 0 0.360291142004728 -0.34978628249559313 0 0.34044753198580069 -0.34929253764971668 0 0.360291142004728 -0.34978628249559313 0 0.34725817604390591 -0.36120952122186389 0 0.34044753198580069 -0.34929253764971668 0 0.34749594239431869 -0.38728814820544633 0 0.34725817604390591 -0.36120952122186389 0 0.34045007567018482 -0.3723770255127884 0 0.34749594239431869 -0.38728814820544633 0 0.36210853810571908 -0.37411452357935859 0 0.34725817604390591 -0.36120952122186389 0 0.36210853810571908 -0.37411452357935859 0 0.360291142004728 -0.34978628249559313 0 0.34725817604390591 -0.36120952122186389 0 0.34749594239431869 -0.38728814820544633 0 0.34725817604390591 -0.36120952122186389 0 0.34725817604390591 -0.36120952122186389 0 0.34045007567018482 -0.3723770255127884 0 0.3272278457836732 -0.35802047734470871 0 0.34725817604390591 -0.36120952122186389 0 0.34044753198580069 -0.34929253764971668 0 0.3272278457836732 -0.35802047734470871 0 0.34044753198580069 -0.34929253764971668 0 0.3272278457836732 -0.35802047734470871 0 0.32905795349171879 -0.33868145675418071 0 0.3272278457836732 -0.35802047734470871 0 0.30075941525713712 -0.36510083559999013 0 0.31247828741919931 -0.34721482628841138 0 0.3272278457836732 -0.35802047734470871 0 0.32905795349171879 -0.33868145675418071 0 0.31247828741919931 -0.34721482628841138 0 0.31334102106860129 -0.3775224530353104 0 0.34045007567018482 -0.3723770255127884 0 0.31334102106860129 -0.3775224530353104 0 0.34045007567018482 -0.3723770255127884 0 0.3272278457836732 -0.35802047734470871 0 0.31334102106860129 -0.3775224530353104 0 0.3272278457836732 -0.35802047734470871 0 0.30075941525713712 -0.36510083559999013 0 0.34666880572779307 -0.33504909069281102 0 0.34919451389247819 -0.3223680710572403 0 0.33459875860288951 -0.32017747074243252 0 0.34666880572779307 -0.33504909069281102 0 0.34044753198580069 -0.34929253764971668 0 0.32905795349171879 -0.33868145675418071 0 0.34666880572779307 -0.33504909069281102 0 0.33459875860288951 -0.32017747074243252 0 0.32905795349171879 -0.33868145675418071 0 0.32905795349171879 -0.33868145675418071 0 0.31867468786621561 -0.32795420081274479 0 0.31247828741919931 -0.34721482628841138 0 0.33459875860288951 -0.32017747074243252 0 0.32905795349171879 -0.33868145675418071 0 0.31867468786621561 -0.32795420081274479 0 0.31591778911791568 -0.3101921386607232 0 0.33459875860288951 -0.32017747074243252 0 0.31867468786621561 -0.32795420081274479 0 0.31591778911791568 -0.3101921386607232 0 0.31867468786621561 -0.32795420081274479 0 0.30132065069935438 -0.32350511161797613 0 0.30132065069935438 -0.32350511161797613 0 0.31247828741919931 -0.34721482628841138 0 0.30132065069935438 -0.32350511161797613 0 0.29432736719377323 -0.33826606360065348 0 0.31247828741919931 -0.34721482628841138 0 0.31867468786621561 -0.32795420081274479 0 0.30132065069935438 -0.32350511161797613 0 0.31247828741919931 -0.34721482628841138 0 0.30132065069935438 -0.32350511161797613 0 0.29432736719377323 -0.33826606360065348 0 0.28338323393682391 -0.32853749919002939 0 0.29432736719377323 -0.33826606360065348 0 0.28338323393682391 -0.32853749919002939 0 0.27384887401227709 -0.34314521393799358 0 0.30132065069935438 -0.32350511161797613 0 0.28338323393682391 -0.32853749919002939 0 0.28264023977957309 -0.31483453665158878 0 0.30132065069935438 -0.32350511161797613 0 0.28264023977957309 -0.31483453665158878 0 0.29016301397950939 -0.29979539694754048 0 0.30075941525713712 -0.36510083559999013 0 0.31247828741919931 -0.34721482628841138 0 0.28886567250685719 -0.35245632817166339 0 0.29432736719377323 -0.33826606360065348 0 0.31247828741919931 -0.34721482628841138 0 0.28886567250685719 -0.35245632817166339 0 0.29432736719377323 -0.33826606360065348 0 0.28886567250685719 -0.35245632817166339 0 0.27384887401227709 -0.34314521393799358 0 0.30075941525713712 -0.36510083559999013 0 0.28886567250685719 -0.35245632817166339 0 0.2825265725527743 -0.36756930848497721 0 0.28623196646701782 -0.38266788055783241 0 0.30075941525713712 -0.36510083559999013 0 0.2825265725527743 -0.36756930848497721 0 0.27044571771780318 -0.37742831641863628 0 0.2825265725527743 -0.36756930848497721 0 0.26707100834034447 -0.36127860360950392 0 0.28886567250685719 -0.35245632817166339 0 0.2825265725527743 -0.36756930848497721 0 0.26707100834034447 -0.36127860360950392 0 0.26707100834034447 -0.36127860360950392 0 0.2592892877007511 -0.35001786575472299 0 0.27384887401227709 -0.34314521393799358 0 0.28886567250685719 -0.35245632817166339 0 0.26707100834034447 -0.36127860360950392 0 0.27384887401227709 -0.34314521393799358 0 0.2592892877007511 -0.35001786575472299 0 0.25844678956711409 -0.33495588282533489 0 0.2443563967072773 -0.34964823589899202 0 0.2592892877007511 -0.35001786575472299 0 0.25272336987674271 -0.36106139250179031 0 0.2443563967072773 -0.34964823589899202 0 0.26707100834034447 -0.36127860360950392 0 0.2592892877007511 -0.35001786575472299 0 0.25272336987674271 -0.36106139250179031 0 0.27044571771780318 -0.37742831641863628 0 0.26707100834034447 -0.36127860360950392 0 0.25907863555456662 -0.37057365668643882 0 0.26707100834034447 -0.36127860360950392 0 0.25272336987674271 -0.36106139250179031 0 0.25907863555456662 -0.37057365668643882 0 0.25272336987674271 -0.36106139250179031 0 0.25907863555456662 -0.37057365668643882 0 0.24960891101326549 -0.37304825598747771 0 0.25731215437089627 -0.37922718610039402 0 0.25907863555456662 -0.37057365668643882 0 0.24960891101326549 -0.37304825598747771 0 0.28338323393682391 -0.32853749919002939 0 0.2682767885831735 -0.31895192411315643 0 0.25844678956711409 -0.33495588282533489 0 0.28264023977957309 -0.31483453665158878 0 0.2682767885831735 -0.31895192411315643 0 0.27275388623918029 -0.30519214274339618 0 0.28338323393682391 -0.32853749919002939 0 0.28264023977957309 -0.31483453665158878 0 0.2682767885831735 -0.31895192411315643 0 0.28338323393682391 -0.32853749919002939 0 0.27384887401227709 -0.34314521393799358 0 0.25844678956711409 -0.33495588282533489 0 0.28338323393682391 -0.32853749919002939 0 0.25844678956711409 -0.33495588282533489 0 0.2592892877007511 -0.35001786575472299 0 0.27384887401227709 -0.34314521393799358 0 0.25844678956711409 -0.33495588282533489 0 0.25844678956711409 -0.33495588282533489 0 0.25550836250982017 -0.32191830187350451 0 0.24608926577217349 -0.32945205516060111 0 0.2682767885831735 -0.31895192411315643 0 0.25844678956711409 -0.33495588282533489 0 0.25550836250982017 -0.32191830187350451 0 0.2682767885831735 -0.31895192411315643 0 0.25550836250982017 -0.32191830187350451 0 0.26030081100204638 -0.31103890573599829 0 0.25550836250982017 -0.32191830187350451 0 0.26030081100204638 -0.31103890573599829 0 0.24720052447001711 -0.31490397510957041 0 0.26046086774821692 -0.29603757619451843 0 0.24720052447001711 -0.31490397510957041 0 0.26030081100204638 -0.31103890573599829 0 0.26046086774821692 -0.29603757619451843 0 0.24720052447001711 -0.31490397510957041 0 0.26046086774821692 -0.29603757619451843 0 0.24567260280009509 -0.30174221654075112 0 0.24720052447001711 -0.31490397510957041 0 0.26046086774821692 -0.29603757619451843 0 0.24927218691364481 -0.2930126492289663 0 0.24567260280009509 -0.30174221654075112 0 0.26030081100204638 -0.31103890573599829 0 0.26046086774821692 -0.29603757619451843 0 0.27275388623918029 -0.30519214274339618 0 0.2517366973915004 -0.28168732583096218 0 0.26046086774821692 -0.29603757619451843 0 0.27372121102641811 -0.2771711772794675 0 0.2517366973915004 -0.28168732583096218 0 0.26046086774821692 -0.29603757619451843 0 0.24927218691364481 -0.2930126492289663 0 0.26046086774821692 -0.29603757619451843 0 0.27372121102641811 -0.2771711772794675 0 0.26046086774821692 -0.29603757619451843 0 0.27468159634256278 -0.2904945168175751 0 0.27372121102641811 -0.2771711772794675 0 0.27468159634256278 -0.2904945168175751 0 0.27900537725966451 -0.27608568227710523 0 0.27372121102641811 -0.2771711772794675 0 0.27468159634256278 -0.2904945168175751 0 0.27275388623918029 -0.30519214274339618 0 0.29016301397950939 -0.29979539694754048 0 0.2682767885831735 -0.31895192411315643 0 0.26030081100204638 -0.31103890573599829 0 0.27275388623918029 -0.30519214274339618 0 0.26046086774821692 -0.29603757619451843 0 0.27468159634256278 -0.2904945168175751 0 0.27275388623918029 -0.30519214274339618 0 0.28264023977957309 -0.31483453665158878 0 0.27275388623918029 -0.30519214274339618 0 0.29016301397950939 -0.29979539694754048 0 0.30132065069935438 -0.32350511161797613 0 0.29016301397950939 -0.29979539694754048 0 0.29016301397950939 -0.29979539694754048 0 0.29554159304977412 -0.28357005041644778 0 0.27900537725966451 -0.27608568227710523 0 0.27468159634256278 -0.2904945168175751 0 0.29016301397950939 -0.29979539694754048 0 0.27900537725966451 -0.27608568227710523 0 0.29016301397950939 -0.29979539694754048 0 0.27900537725966451 -0.27608568227710523 0 0.31724126268134462 -0.28872353818569729 0 0.29016301397950939 -0.29979539694754048 0 0.29554159304977412 -0.28357005041644778 0 0.31591778911791568 -0.3101921386607232 0 0.30132065069935438 -0.32350511161797613 0 0.29016301397950939 -0.29979539694754048 0 0.31591778911791568 -0.3101921386607232 0 0.31724126268134462 -0.28872353818569729 0 0.29016301397950939 -0.29979539694754048 0 0.29543453125965979 -0.2462781488942887 0 0.31517562456562642 -0.25252999686536898 0 0.30523782759490953 -0.27069690522472373 0 0.31724126268134462 -0.28872353818569729 0 0.29554159304977412 -0.28357005041644778 0 0.30523782759490953 -0.27069690522472373 0 0.29554159304977412 -0.28357005041644778 0 0.30523782759490953 -0.27069690522472373 0 0.27900537725966451 -0.27608568227710523 0 0.30523782759490953 -0.27069690522472373 0 0.28631337127484091 -0.259255448141474 0 0.27900537725966451 -0.27608568227710523 0 0.30523782759490953 -0.27069690522472373 0 0.27900537725966451 -0.27608568227710523 0 0.28631337127484091 -0.259255448141474 0 0.27719221129002042 -0.27223274738865821 0 0.29543453125965979 -0.2462781488942887 0 0.30523782759490953 -0.27069690522472373 0 0.28631337127484091 -0.259255448141474 0 0.29543453125965979 -0.2462781488942887 0 0.28631337127484091 -0.259255448141474 0 0.26529602709867611 -0.2469536367735983 0 0.27719221129002042 -0.27223274738865821 0 0.26089178676962549 -0.26446493204104549 0 0.26529602709867611 -0.2469536367735983 0 0.27719221129002042 -0.27223274738865821 0 0.26529602709867611 -0.2469536367735983 0 0.28631337127484091 -0.259255448141474 0 0.27719221129002042 -0.27223274738865821 0 0.27372121102641811 -0.2771711772794675 0 0.27719221129002042 -0.27223274738865821 0 0.26089178676962549 -0.26446493204104549 0 0.28631337127484091 -0.259255448141474 0 0.27900537725966451 -0.27608568227710523 0 0.27719221129002042 -0.27223274738865821 0 0.27900537725966451 -0.27608568227710523 0 0.27719221129002042 -0.27223274738865821 0 0.27372121102641811 -0.2771711772794675 0 0.27719221129002042 -0.27223274738865821 0 0.27900537725966451 -0.27608568227710523 0 0.27372121102641811 -0.2771711772794675 0 0.27719221129002042 -0.27223274738865821 0 0.27900537725966451 -0.27608568227710523 0 0.27372121102641811 -0.2771711772794675 0 0.2517366973915004 -0.28168732583096218 0 0.27372121102641811 -0.2771711772794675 0 0.2517366973915004 -0.28168732583096218 0 0.27372121102641811 -0.2771711772794675 0 0.26089178676962549 -0.26446493204104549 0 0.2517366973915004 -0.28168732583096218 0 0.26089178676962549 -0.26446493204104549 0 0.23748925367677701 -0.27098650814607722 0 0.26529602709867611 -0.2469536367735983 0 0.26089178676962549 -0.26446493204104549 0 0.24538975261109239 -0.25339754837374329 0 0.24538975261109239 -0.25339754837374329 0 0.23748925367677701 -0.27098650814607722 0 0.23297252655948031 -0.25651326169165478 0 0.26089178676962549 -0.26446493204104549 0 0.24538975261109239 -0.25339754837374329 0 0.23748925367677701 -0.27098650814607722 0 0.24538975261109239 -0.25339754837374329 0 0.23297252655948031 -0.25651326169165478 0 0.23057147674338649 -0.24153169701834079 0 0.23748925367677701 -0.27098650814607722 0 0.21843962320666521 -0.26013729322845769 0 0.2201751255539125 -0.28152057911658901 0 0.23748925367677701 -0.27098650814607722 0 0.23297252655948031 -0.25651326169165478 0 0.21843962320666521 -0.26013729322845769 0 0.23297252655948031 -0.25651326169165478 0 0.21843962320666521 -0.26013729322845769 0 0.23057147674338649 -0.24153169701834079 0 0.21843962320666521 -0.26013729322845769 0 0.2008615692423722 -0.26265165692983539 0 0.20081795707652339 -0.2470243834015575 0 0.21843962320666521 -0.26013729322845769 0 0.21573888824894441 -0.24358485532315791 0 0.20081795707652339 -0.2470243834015575 0 0.21843962320666521 -0.26013729322845769 0 0.20619194964251669 -0.27627276449830168 0 0.2008615692423722 -0.26265165692983539 0 0.21843962320666521 -0.26013729322845769 0 0.20619194964251669 -0.27627276449830168 0 0.2201751255539125 -0.28152057911658901 0 0.20619194964251669 -0.27627276449830168 0 0.1893015851808551 -0.27240396025962349 0 0.2008615692423722 -0.26265165692983539 0 0.20619194964251669 -0.27627276449830168 0 0.1893015851808551 -0.27240396025962349 0 0.19617370867458769 -0.2929156394662914 0 0.19030180467147739 -0.25765733574570948 0 0.2008615692423722 -0.26265165692983539 0 0.20081795707652339 -0.2470243834015575 0 0.1893015851808551 -0.27240396025962349 0 0.19030180467147739 -0.25765733574570948 0 0.2008615692423722 -0.26265165692983539 0 0.19030180467147739 -0.25765733574570948 0 0.20081795707652339 -0.2470243834015575 0 0.18524691204393889 -0.24695115827232009 0 0.19617370867458769 -0.2929156394662914 0 0.21390429152596721 -0.30019599313096079 0 0.19722164722039179 -0.31718001071224677 0 0.19617370867458769 -0.2929156394662914 0 0.19722164722039179 -0.31718001071224677 0 0.1859257595435202 -0.30672817791205731 0 0.1893015851808551 -0.27240396025962349 0 0.19617370867458769 -0.2929156394662914 0 0.17819055527723471 -0.28453395690525418 0 0.20619194964251669 -0.27627276449830168 0 0.19617370867458769 -0.2929156394662914 0 0.20891933590582329 -0.28865206031610952 0 0.20891933590582329 -0.28865206031610952 0 0.21390429152596721 -0.30019599313096079 0 0.2201751255539125 -0.28152057911658901 0 0.19617370867458769 -0.2929156394662914 0 0.20891933590582329 -0.28865206031610952 0 0.21390429152596721 -0.30019599313096079 0 0.20619194964251669 -0.27627276449830168 0 0.20891933590582329 -0.28865206031610952 0 0.2201751255539125 -0.28152057911658901 0 0.21390429152596721 -0.30019599313096079 0 0.21413586095835191 -0.31542219005614019 0 0.19722164722039179 -0.31718001071224677 0 0.21390429152596721 -0.30019599313096079 0 0.22402887258509979 -0.30861762449138758 0 0.21413586095835191 -0.31542219005614019 0 0.21390429152596721 -0.30019599313096079 0 0.22402887258509979 -0.30861762449138758 0 0.23630622951512451 -0.2919144634389258 0 0.22402887258509979 -0.30861762449138758 0 0.23630622951512451 -0.2919144634389258 0 0.23512320535347209 -0.31284241873177449 0 0.21390429152596721 -0.30019599313096079 0 0.2201751255539125 -0.28152057911658901 0 0.23630622951512451 -0.2919144634389258 0 0.23748925367677701 -0.27098650814607722 0 0.2201751255539125 -0.28152057911658901 0 0.23630622951512451 -0.2919144634389258 0 0.23748925367677701 -0.27098650814607722 0 0.23630622951512451 -0.2919144634389258 0 0.2517366973915004 -0.28168732583096218 0 0.23748925367677701 -0.27098650814607722 0 0.23630622951512451 -0.2919144634389258 0 0.23630622951512451 -0.2919144634389258 0 0.24927218691364481 -0.2930126492289663 0 0.24567260280009509 -0.30174221654075112 0 0.2517366973915004 -0.28168732583096218 0 0.23630622951512451 -0.2919144634389258 0 0.24927218691364481 -0.2930126492289663 0 0.23630622951512451 -0.2919144634389258 0 0.24567260280009509 -0.30174221654075112 0 0.23512320535347209 -0.31284241873177449 0 0.23630622951512451 -0.2919144634389258 0 0.23512320535347209 -0.31284241873177449 0 0.24567260280009509 -0.30174221654075112 0 0.24720052447001711 -0.31490397510957041 0 0.23512320535347209 -0.31284241873177449 0 0.24720052447001711 -0.31490397510957041 0 0.24608926577217349 -0.32945205516060111 0 0.23394018119181839 -0.33377037402462312 0 0.23512320535347209 -0.31284241873177449 0 0.23394018119181839 -0.33377037402462312 0 0.24720052447001711 -0.31490397510957041 0 0.23512320535347209 -0.31284241873177449 0 0.23394018119181839 -0.33377037402462312 0 0.24720052447001711 -0.31490397510957041 0 0.23394018119181839 -0.33377037402462312 0 0.25550836250982017 -0.32191830187350451 0 0.24720052447001711 -0.31490397510957041 0 0.24608926577217349 -0.32945205516060111 0 0.25844678956711409 -0.33495588282533489 0 0.23351034519740371 -0.34137426646063762 0 0.2443563967072773 -0.34964823589899202 0 0.25844678956711409 -0.33495588282533489 0 0.24608926577217349 -0.32945205516060111 0 0.23351034519740371 -0.34137426646063762 0 0.25844678956711409 -0.33495588282533489 0 0.23351034519740371 -0.34137426646063762 0 0.24608926577217349 -0.32945205516060111 0 0.23394018119181839 -0.33377037402462312 0 0.23351034519740371 -0.34137426646063762 0 0.23394018119181839 -0.33377037402462312 0 0.22322569222248509 -0.33294161163677838 0 0.2244248251438003 -0.32259675767668672 0 0.23394018119181839 -0.33377037402462312 0 0.22751029169206419 -0.34291861836015902 0 0.23394018119181839 -0.33377037402462312 0 0.23351034519740371 -0.34137426646063762 0 0.22751029169206419 -0.34291861836015902 0 0.23394018119181839 -0.33377037402462312 0 0.22751029169206419 -0.34291861836015902 0 0.22322569222248509 -0.33294161163677838 0 0.23351034519740371 -0.34137426646063762 0 0.22751029169206419 -0.34291861836015902 0 0.23394018119181839 -0.33377037402462312 0 0.23351034519740371 -0.34137426646063762 0 0.22751029169206419 -0.34291861836015902 0 0.22322569222248509 -0.33294161163677838 0 0.21517733155299629 -0.33774790165282292 0 0.23512320535347209 -0.31284241873177449 0 0.23394018119181839 -0.33377037402462312 0 0.2244248251438003 -0.32259675767668672 0 0.22322569222248509 -0.33294161163677838 0 0.2244248251438003 -0.32259675767668672 0 0.21109966831650009 -0.32852056426941922 0 0.22402887258509979 -0.30861762449138758 0 0.2244248251438003 -0.32259675767668672 0 0.21413586095835191 -0.31542219005614019 0 0.22402887258509979 -0.30861762449138758 0 0.23512320535347209 -0.31284241873177449 0 0.2244248251438003 -0.32259675767668672 0 0.24084147541437509 -0.37272604943185061 0 0.2315893870513929 -0.36832351177343953 0 0.23493393310767319 -0.37802288172494908 0 0.24084147541437509 -0.37272604943185061 0 0.24176299820945121 -0.36390328819898471 0 0.2315893870513929 -0.36832351177343953 0 0.24084147541437509 -0.37272604943185061 0 0.24960891101326549 -0.37304825598747771 0 0.24176299820945121 -0.36390328819898471 0 0.25272336987674271 -0.36106139250179031 0 0.24960891101326549 -0.37304825598747771 0 0.24176299820945121 -0.36390328819898471 0 0.24176299820945121 -0.36390328819898471 0 0.2327625126591262 -0.3546035870737787 0 0.2315893870513929 -0.36832351177343953 0 0.24176299820945121 -0.36390328819898471 0 0.2443563967072773 -0.34964823589899202 0 0.2327625126591262 -0.3546035870737787 0 0.25272336987674271 -0.36106139250179031 0 0.24176299820945121 -0.36390328819898471 0 0.2443563967072773 -0.34964823589899202 0 0.23351034519740371 -0.34137426646063762 0 0.2443563967072773 -0.34964823589899202 0 0.2327625126591262 -0.3546035870737787 0 0.22751029169206419 -0.34291861836015902 0 0.2327625126591262 -0.3546035870737787 0 0.21185028289860769 -0.36519918581698119 0 0.22751029169206419 -0.34291861836015902 0 0.21185028289860769 -0.36519918581698119 0 0.23351034519740371 -0.34137426646063762 0 0.22751029169206419 -0.34291861836015902 0 0.2327625126591262 -0.3546035870737787 0 0.23351034519740371 -0.34137426646063762 0 0.2327625126591262 -0.3546035870737787 0 0.2327625126591262 -0.3546035870737787 0 0.2315893870513929 -0.36832351177343953 0 0.21185028289860769 -0.36519918581698119 0 0.2315893870513929 -0.36832351177343953 0 0.21185028289860769 -0.36519918581698119 0 0.22451020066987029 -0.37794953811245879 0 0.2315893870513929 -0.36832351177343953 0 0.23493393310767319 -0.37802288172494908 0 0.22451020066987029 -0.37794953811245879 0 0.21185028289860769 -0.36519918581698119 0 0.2025916715712355 -0.34933241421760719 0 0.19539058522362751 -0.36760770656516117 0 0.22751029169206419 -0.34291861836015902 0 0.2025916715712355 -0.34933241421760719 0 0.22751029169206419 -0.34291861836015902 0 0.20689833363243579 -0.34712380874539889 0 0.2025916715712355 -0.34933241421760719 0 0.22751029169206419 -0.34291861836015902 0 0.21185028289860769 -0.36519918581698119 0 0.2025916715712355 -0.34933241421760719 0 0.20689833363243579 -0.34712380874539889 0 0.2025916715712355 -0.34933241421760719 0 0.20664760931690579 -0.33935379337534372 0 0.20689833363243579 -0.34712380874539889 0 0.2025916715712355 -0.34933241421760719 0 0.2025916715712355 -0.34933241421760719 0 0.19539058522362751 -0.36760770656516117 0 0.18476069813808749 -0.35847675499466441 0 0.2025916715712355 -0.34933241421760719 0 0.18476069813808749 -0.35847675499466441 0 0.17989480597744589 -0.35517435337060338 0 0.2025916715712355 -0.34933241421760719 0 0.19032784411165379 -0.34304149457359823 0 0.17989480597744589 -0.35517435337060338 0 0.2025916715712355 -0.34933241421760719 0 0.18476069813808749 -0.35847675499466441 0 0.2025916715712355 -0.34933241421760719 0 0.17989480597744589 -0.35517435337060338 0 0.21185028289860769 -0.36519918581698119 0 0.19539058522362751 -0.36760770656516117 0 0.19619027410515191 -0.38747975327380357 0 0.21413586095835191 -0.31542219005614019 0 0.21109966831650009 -0.32852056426941922 0 0.19722164722039179 -0.31718001071224677 0 0.2244248251438003 -0.32259675767668672 0 0.21413586095835191 -0.31542219005614019 0 0.21109966831650009 -0.32852056426941922 0 0.21109966831650009 -0.32852056426941922 0 0.21517733155299629 -0.33774790165282292 0 0.20664760931690579 -0.33935379337534372 0 0.22751029169206419 -0.34291861836015902 0 0.20689833363243579 -0.34712380874539889 0 0.21517733155299629 -0.33774790165282292 0 0.22322569222248509 -0.33294161163677838 0 0.21109966831650009 -0.32852056426941922 0 0.21517733155299629 -0.33774790165282292 0 0.20689833363243579 -0.34712380874539889 0 0.21517733155299629 -0.33774790165282292 0 0.20664760931690579 -0.33935379337534372 0 0.21109966831650009 -0.32852056426941922 0 0.20664760931690579 -0.33935379337534372 0 0.19747104151136141 -0.33404427799147002 0 0.19747104151136141 -0.33404427799147002 0 0.19032784411165379 -0.34304149457359823 0 0.1813538573865722 -0.3336149327147121 0 0.19747104151136141 -0.33404427799147002 0 0.19722164722039179 -0.31718001071224677 0 0.1813538573865722 -0.3336149327147121 0 0.2025916715712355 -0.34933241421760719 0 0.19747104151136141 -0.33404427799147002 0 0.19032784411165379 -0.34304149457359823 0 0.2025916715712355 -0.34933241421760719 0 0.20664760931690579 -0.33935379337534372 0 0.19747104151136141 -0.33404427799147002 0 0.21109966831650009 -0.32852056426941922 0 0.19747104151136141 -0.33404427799147002 0 0.19722164722039179 -0.31718001071224677 0 0.19722164722039179 -0.31718001071224677 0 0.1813538573865722 -0.3336149327147121 0 0.19722164722039179 -0.31718001071224677 0 0.1808669892157706 -0.31785608241136248 0 0.1859257595435202 -0.30672817791205731 0 0.1808669892157706 -0.31785608241136248 0 0.17192204700090319 -0.32414381257043062 0 0.1813538573865722 -0.3336149327147121 0 0.19722164722039179 -0.31718001071224677 0 0.1808669892157706 -0.31785608241136248 0 0.1813538573865722 -0.3336149327147121 0 0.1808669892157706 -0.31785608241136248 0 0.17192204700090319 -0.32414381257043062 0 0.17171246270410889 -0.31576828317892341 0 0.1808669892157706 -0.31785608241136248 0 0.17171246270410889 -0.31576828317892341 0 0.17606942314339111 -0.30786613730526841 0 0.17192204700090319 -0.32414381257043062 0 0.1813538573865722 -0.3336149327147121 0 0.16310825901233339 -0.33272789215407289 0 0.1813538573865722 -0.3336149327147121 0 0.16548606755275369 -0.35004985471717848 0 0.16310825901233339 -0.33272789215407289 0 0.16548606755275369 -0.35004985471717848 0 0.16310825901233339 -0.33272789215407289 0 0.16548606755275369 -0.35004985471717848 0 0.15468079222517839 -0.34665765041559321 0 0.1813538573865722 -0.3336149327147121 0 0.16310825901233339 -0.33272789215407289 0 0.16548606755275369 -0.35004985471717848 0 0.16310825901233339 -0.33272789215407289 0 0.16073045047191309 -0.31540592959096753 0 0.16395270784060281 -0.31766891175266432 0 0.16310825901233339 -0.33272789215407289 0 0.16073045047191309 -0.31540592959096753 0 0.16310825901233339 -0.33272789215407289 0 0.16073045047191309 -0.31540592959096753 0 0.1456123045618769 -0.32186920420837201 0 0.16073045047191309 -0.31540592959096753 0 0.16395270784060281 -0.31766891175266432 0 0.16663445189992809 -0.30974310840610902 0 0.16073045047191309 -0.31540592959096753 0 0.16395270784060281 -0.31766891175266432 0 0.16395270784060281 -0.31766891175266432 0 0.17171246270410889 -0.31576828317892341 0 0.16663445189992809 -0.30974310840610902 0 0.17192204700090319 -0.32414381257043062 0 0.16395270784060281 -0.31766891175266432 0 0.17171246270410889 -0.31576828317892341 0 0.17192204700090319 -0.32414381257043062 0 0.16310825901233339 -0.33272789215407289 0 0.16395270784060281 -0.31766891175266432 0 0.18476069813808749 -0.35847675499466441 0 0.1669297247049393 -0.36762109577172097 0 0.18155999940504911 -0.37755042452275722 0 0.18476069813808749 -0.35847675499466441 0 0.1669297247049393 -0.36762109577172097 0 0.18476069813808749 -0.35847675499466441 0 0.17989480597744589 -0.35517435337060338 0 0.1669297247049393 -0.36762109577172097 0 0.19539058522362751 -0.36760770656516117 0 0.18476069813808749 -0.35847675499466441 0 0.18155999940504911 -0.37755042452275722 0 0.1669297247049393 -0.36762109577172097 0 0.18155999940504911 -0.37755042452275722 0 0.1813538573865722 -0.3336149327147121 0 0.17989480597744589 -0.35517435337060338 0 0.16548606755275369 -0.35004985471717848 0 0.19032784411165379 -0.34304149457359823 0 0.1813538573865722 -0.3336149327147121 0 0.17989480597744589 -0.35517435337060338 0 0.17989480597744589 -0.35517435337060338 0 0.16673002280083729 -0.35856283280457191 0 0.16548606755275369 -0.35004985471717848 0 0.1571979403836555 -0.36101629252359729 0 0.15468079222517839 -0.34665765041559321 0 0.16548606755275369 -0.35004985471717848 0 0.16673002280083729 -0.35856283280457191 0 0.1571979403836555 -0.36101629252359729 0 0.16548606755275369 -0.35004985471717848 0 0.1571979403836555 -0.36101629252359729 0 0.16548606755275369 -0.35004985471717848 0 0.16673002280083729 -0.35856283280457191 0 0.17989480597744589 -0.35517435337060338 0 0.16548606755275369 -0.35004985471717848 0 0.16673002280083729 -0.35856283280457191 0 0.1669297247049393 -0.36762109577172097 0 0.14569357060676999 -0.37851173113696651 0 0.17989480597744589 -0.35517435337060338 0 0.16673002280083729 -0.35856283280457191 0 0.1669297247049393 -0.36762109577172097 0 0.1571979403836555 -0.36101629252359729 0 0.1669297247049393 -0.36762109577172097 0 0.1571979403836555 -0.36101629252359729 0 0.1669297247049393 -0.36762109577172097 0 0.15413751820650781 -0.36180401363281828 0 0.16673002280083729 -0.35856283280457191 0 0.1571979403836555 -0.36101629252359729 0 0.16673002280083729 -0.35856283280457191 0 0.1571979403836555 -0.36101629252359729 0 0.1669297247049393 -0.36762109577172097 0 0.15413751820650781 -0.36180401363281828 0 0.13861333055310651 -0.37788305273702022 0 0.1669297247049393 -0.36762109577172097 0 0.15413751820650781 -0.36180401363281828 0 0.14569357060676999 -0.37851173113696651 0 0.15413751820650781 -0.36180401363281828 0 0.14569357060676999 -0.37851173113696651 0 0.13861333055310651 -0.37788305273702022 0 0.15413751820650781 -0.36180401363281828 0 0.13881308748001381 -0.36574836407577149 0 0.13861333055310651 -0.37788305273702022 0 0.1571979403836555 -0.36101629252359729 0 0.15413751820650781 -0.36180401363281828 0 0.15413751820650781 -0.36180401363281828 0 0.1430233925469474 -0.35139625815971781 0 0.13881308748001381 -0.36574836407577149 0 0.15413751820650781 -0.36180401363281828 0 0.13881308748001381 -0.36574836407577149 0 0.1571979403836555 -0.36101629252359729 0 0.15468079222517839 -0.34665765041559321 0 0.1430233925469474 -0.35139625815971781 0 0.1571979403836555 -0.36101629252359729 0 0.1430233925469474 -0.35139625815971781 0 0.1571979403836555 -0.36101629252359729 0 0.15413751820650781 -0.36180401363281828 0 0.1430233925469474 -0.35139625815971781 0 0.15468079222517839 -0.34665765041559321 0 0.1430233925469474 -0.35139625815971781 0 0.14478222172127159 -0.33769941531249331 0 0.1430233925469474 -0.35139625815971781 0 0.13023828094180129 -0.34271921149802609 0 0.1430233925469474 -0.35139625815971781 0 0.14478222172127159 -0.33769941531249331 0 0.13023828094180129 -0.34271921149802609 0 0.1430233925469474 -0.35139625815971781 0 0.12890313153088209 -0.35651954819948262 0 0.13023828094180129 -0.34271921149802609 0 0.1430233925469474 -0.35139625815971781 0 0.12890313153088209 -0.35651954819948262 0 0.13881308748001381 -0.36574836407577149 0 0.12890313153088209 -0.35651954819948262 0 0.13881308748001381 -0.36574836407577149 0 0.1234886567535193 -0.36969271451872321 0 0.13881308748001381 -0.36574836407577149 0 0.1234886567535193 -0.36969271451872321 0 0.13881308748001381 -0.36574836407577149 0 0.12784776094096001 -0.37837910770210859 0 0.1234886567535193 -0.36969271451872321 0 0.13881308748001381 -0.36574836407577149 0 0.13861333055310651 -0.37788305273702022 0 0.12784776094096001 -0.37837910770210859 0 0.16073045047191309 -0.31540592959096753 0 0.1456123045618769 -0.32186920420837201 0 0.14044349801956649 -0.30115846073233749 0 0.16310825901233339 -0.33272789215407289 0 0.15468079222517839 -0.34665765041559321 0 0.14478222172127159 -0.33769941531249331 0 0.1456123045618769 -0.32186920420837201 0 0.14478222172127159 -0.33769941531249331 0 0.13148999696754199 -0.32979631984983832 0 0.16310825901233339 -0.33272789215407289 0 0.1456123045618769 -0.32186920420837201 0 0.14478222172127159 -0.33769941531249331 0 0.14478222172127159 -0.33769941531249331 0 0.13023828094180129 -0.34271921149802609 0 0.13148999696754199 -0.32979631984983832 0 0.13023828094180129 -0.34271921149802609 0 0.13148999696754199 -0.32979631984983832 0 0.11890109950640949 -0.33858894971983883 0 0.13148999696754199 -0.32979631984983832 0 0.12999496979063391 -0.31198548501294687 0 0.1181143755105791 -0.32344375993293811 0 0.1456123045618769 -0.32186920420837201 0 0.13148999696754199 -0.32979631984983832 0 0.12999496979063391 -0.31198548501294687 0 0.12999496979063391 -0.31198548501294687 0 0.14044349801956649 -0.30115846073233749 0 0.1201565455672189 -0.28691099187370889 0 0.1456123045618769 -0.32186920420837201 0 0.12999496979063391 -0.31198548501294687 0 0.14044349801956649 -0.30115846073233749 0 0.16073045047191309 -0.31540592959096753 0 0.14044349801956649 -0.30115846073233749 0 0.14796493354563739 -0.29474183904708889 0 0.16073045047191309 -0.31540592959096753 0 0.14796493354563739 -0.29474183904708889 0 0.15784517847301291 -0.29438717526331593 0 0.16073045047191309 -0.31540592959096753 0 0.14044349801956649 -0.30115846073233749 0 0.15164533610475359 -0.28670757745419789 0 0.15495990647411401 -0.27336842093566421 0 0.15784517847301291 -0.29438717526331593 0 0.15164533610475359 -0.28670757745419789 0 0.14796493354563739 -0.29474183904708889 0 0.15784517847301291 -0.29438717526331593 0 0.14044349801956649 -0.30115846073233749 0 0.14796493354563739 -0.29474183904708889 0 0.1424119839559094 -0.28679171947784349 0 0.15164533610475359 -0.28670757745419789 0 0.14796493354563739 -0.29474183904708889 0 0.1424119839559094 -0.28679171947784349 0 0.15164533610475359 -0.28670757745419789 0 0.1424119839559094 -0.28679171947784349 0 0.14683753152965981 -0.2800802217240842 0 0.14044349801956649 -0.30115846073233749 0 0.1201565455672189 -0.28691099187370889 0 0.14044349801956649 -0.30115846073233749 0 0.1424119839559094 -0.28679171947784349 0 0.1201565455672189 -0.28691099187370889 0 0.1424119839559094 -0.28679171947784349 0 0.13621038122654491 -0.2752641495567244 0 0.1201565455672189 -0.28691099187370889 0 0.13621038122654491 -0.2752641495567244 0 0.1312342236087051 -0.26196495271219977 0 0.11656805216610119 -0.26681494388427018 0 0.1312342236087051 -0.26196495271219977 0 0.14664725338266091 -0.2472495350296324 0 0.1284525449190799 -0.24687969302089219 0 0.1312342236087051 -0.26196495271219977 0 0.15265348839456511 -0.25656652669159219 0 0.15495990647411401 -0.27336842093566421 0 0.1312342236087051 -0.26196495271219977 0 0.15265348839456511 -0.25656652669159219 0 0.14664725338266091 -0.2472495350296324 0 0.15265348839456511 -0.25656652669159219 0 0.15495990647411401 -0.27336842093566421 0 0.15265348839456511 -0.25656652669159219 0 0.15727187409670301 -0.25178947245951722 0 0.14664725338266091 -0.2472495350296324 0 0.13621038122654491 -0.2752641495567244 0 0.14683753152965981 -0.2800802217240842 0 0.15495990647411401 -0.27336842093566421 0 0.1312342236087051 -0.26196495271219977 0 0.15495990647411401 -0.27336842093566421 0 0.13621038122654491 -0.2752641495567244 0 0.1312342236087051 -0.26196495271219977 0 0.15495990647411401 -0.27336842093566421 0 0.1424119839559094 -0.28679171947784349 0 0.13621038122654491 -0.2752641495567244 0 0.14683753152965981 -0.2800802217240842 0 0.15164533610475359 -0.28670757745419789 0 0.14683753152965981 -0.2800802217240842 0 0.15495990647411401 -0.27336842093566421 0 0.16124613160460891 -0.2763898205273132 0 0.17819055527723471 -0.28453395690525418 0 0.15265348839456511 -0.25656652669159219 0 0.15495990647411401 -0.27336842093566421 0 0.16124613160460891 -0.2763898205273132 0 0.16124613160460891 -0.2763898205273132 0 0.17463643589254671 -0.27189845747142588 0 0.17819055527723471 -0.28453395690525418 0 0.15495990647411401 -0.27336842093566421 0 0.16124613160460891 -0.2763898205273132 0 0.16124613160460891 -0.2763898205273132 0 0.16823116289962631 -0.26257166986560332 0 0.17463643589254671 -0.27189845747142588 0 0.16124613160460891 -0.2763898205273132 0 0.15727187409670301 -0.25178947245951722 0 0.15265348839456511 -0.25656652669159219 0 0.16124613160460891 -0.2763898205273132 0 0.15727187409670301 -0.25178947245951722 0 0.16124613160460891 -0.2763898205273132 0 0.15727187409670301 -0.25178947245951722 0 0.16823116289962631 -0.26257166986560332 0 0.15727187409670301 -0.25178947245951722 0 0.16823116289962631 -0.26257166986560332 0 0.17069787027827901 -0.25057456271484019 0 0.17069787027827901 -0.25057456271484019 0 0.17880751329079739 -0.26091462339095128 0 0.18524691204393889 -0.24695115827232009 0 0.16823116289962631 -0.26257166986560332 0 0.17880751329079739 -0.26091462339095128 0 0.17463643589254671 -0.27189845747142588 0 0.16823116289962631 -0.26257166986560332 0 0.17069787027827901 -0.25057456271484019 0 0.17880751329079739 -0.26091462339095128 0 0.1893015851808551 -0.27240396025962349 0 0.19030180467147739 -0.25765733574570948 0 0.17880751329079739 -0.26091462339095128 0 0.19030180467147739 -0.25765733574570948 0 0.17880751329079739 -0.26091462339095128 0 0.18524691204393889 -0.24695115827232009 0 0.1893015851808551 -0.27240396025962349 0 0.17880751329079739 -0.26091462339095128 0 0.17463643589254671 -0.27189845747142588 0 0.1893015851808551 -0.27240396025962349 0 0.17463643589254671 -0.27189845747142588 0 0.17819055527723471 -0.28453395690525418 0 0.19617370867458769 -0.2929156394662914 0 0.17819055527723471 -0.28453395690525418 0 0.17929702946345971 -0.29782301966511732 0 0.17819055527723471 -0.28453395690525418 0 0.17282312179642551 -0.29173576785142602 0 0.17929702946345971 -0.29782301966511732 0 0.17282312179642551 -0.29173576785142602 0 0.17929702946345971 -0.29782301966511732 0 0.17175286361109449 -0.30004689953892633 0 0.1859257595435202 -0.30672817791205731 0 0.17606942314339111 -0.30786613730526841 0 0.17929702946345971 -0.29782301966511732 0 0.19617370867458769 -0.2929156394662914 0 0.1859257595435202 -0.30672817791205731 0 0.17929702946345971 -0.29782301966511732 0 0.1808669892157706 -0.31785608241136248 0 0.1859257595435202 -0.30672817791205731 0 0.17606942314339111 -0.30786613730526841 0 0.17606942314339111 -0.30786613730526841 0 0.17929702946345971 -0.29782301966511732 0 0.17175286361109449 -0.30004689953892633 0 0.16663445189992809 -0.30974310840610902 0 0.16394029175226829 -0.29306646446671109 0 0.17175286361109449 -0.30004689953892633 0 0.16663445189992809 -0.30974310840610902 0 0.16394029175226829 -0.29306646446671109 0 0.16663445189992809 -0.30974310840610902 0 0.15784517847301291 -0.29438717526331593 0 0.16394029175226829 -0.29306646446671109 0 0.16073045047191309 -0.31540592959096753 0 0.15784517847301291 -0.29438717526331593 0 0.16073045047191309 -0.31540592959096753 0 0.16663445189992809 -0.30974310840610902 0 0.15784517847301291 -0.29438717526331593 0 0.17606942314339111 -0.30786613730526841 0 0.17175286361109449 -0.30004689953892633 0 0.16663445189992809 -0.30974310840610902 0 0.17171246270410889 -0.31576828317892341 0 0.17606942314339111 -0.30786613730526841 0 0.16663445189992809 -0.30974310840610902 0 0.15495990647411401 -0.27336842093566421 0 0.16124613160460891 -0.2763898205273132 0 0.15784517847301291 -0.29438717526331593 0 0.16124613160460891 -0.2763898205273132 0 0.16394029175226829 -0.29306646446671109 0 0.15495990647411401 -0.27336842093566421 0 0.15784517847301291 -0.29438717526331593 0 0.16124613160460891 -0.2763898205273132 0 0.17282312179642551 -0.29173576785142602 0 0.16394029175226829 -0.29306646446671109 0 0.16124613160460891 -0.2763898205273132 0 0.15784517847301291 -0.29438717526331593 0 0.16394029175226829 -0.29306646446671109 0 0.16124613160460891 -0.2763898205273132 0 0.17819055527723471 -0.28453395690525418 0 0.17282312179642551 -0.29173576785142602 0 0.17282312179642551 -0.29173576785142602 0 0.17175286361109449 -0.30004689953892633 0 0.16394029175226829 -0.29306646446671109 0 0.19872713245806231 -0.5 0 0.20136244430715061 -0.47674087217982669 0 0.1835240988037467 -0.48269088990170439 0 0.20136244430715061 -0.47674087217982669 0 0.1895746234679149 -0.46168019452929698 0 0.1835240988037467 -0.48269088990170439 0 0.20136244430715061 -0.47674087217982669 0 0.22176039009225229 -0.4796933445084326 0 0.21177512765845161 -0.45880742668254082 0 0.19872713245806231 -0.5 0 0.22814456884978779 -0.5 0 0.22176039009225229 -0.4796933445084326 0 0.19872713245806231 -0.5 0 0.20136244430715061 -0.47674087217982669 0 0.22176039009225229 -0.4796933445084326 0 0.22814456884978779 -0.5 0 0.24544425051691329 -0.47868897983452352 0 0.22176039009225229 -0.4796933445084326 0 0.25756200524151351 -0.5 0 0.22814456884978779 -0.5 0 0.24544425051691329 -0.47868897983452352 0 0.24544425051691329 -0.47868897983452352 0 0.22176039009225229 -0.4796933445084326 0 0.23116879498063711 -0.46022638448907771 0 0.22176039009225229 -0.4796933445084326 0 0.23116879498063711 -0.46022638448907771 0 0.21177512765845161 -0.45880742668254082 0 0.23116879498063711 -0.46022638448907771 0 0.24907591744480689 -0.46268372009834141 0 0.24145437529986491 -0.44665488994292968 0 0.24544425051691329 -0.47868897983452352 0 0.23116879498063711 -0.46022638448907771 0 0.24907591744480689 -0.46268372009834141 0 0.24145437529986491 -0.44665488994292968 0 0.2175027088715335 -0.43482994586769841 0 0.23116879498063711 -0.46022638448907771 0 0.24145437529986491 -0.44665488994292968 0 0.2175027088715335 -0.43482994586769841 0 0.23116879498063711 -0.46022638448907771 0 0.21177512765845161 -0.45880742668254082 0 0.2175027088715335 -0.43482994586769841 0 0.21177512765845161 -0.45880742668254082 0 0.1992127376522293 -0.44329664280798559 0 0.2175027088715335 -0.43482994586769841 0 0.21177512765845161 -0.45880742668254082 0 0.1895746234679149 -0.46168019452929698 0 0.1992127376522293 -0.44329664280798559 0 0.20136244430715061 -0.47674087217982669 0 0.21177512765845161 -0.45880742668254082 0 0.1895746234679149 -0.46168019452929698 0 0.1895746234679149 -0.46168019452929698 0 0.1992127376522293 -0.44329664280798559 0 0.1836601858200442 -0.43816064516792491 0 0.1992127376522293 -0.44329664280798559 0 0.1935510424432022 -0.42300500179246731 0 0.1836601858200442 -0.43816064516792491 0 0.1935510424432022 -0.42300500179246731 0 0.1983441127883124 -0.41382083631464389 0 0.18587726495991491 -0.40979274555581291 0 0.1983441127883124 -0.41382083631464389 0 0.2016442137477383 -0.40583738479789611 0 0.18587726495991491 -0.40979274555581291 0 0.2016442137477383 -0.40583738479789611 0 0.18587726495991491 -0.40979274555581291 0 0.1935510424432022 -0.42300500179246731 0 0.1983441127883124 -0.41382083631464389 0 0.2123039300023942 -0.41664821311239958 0 0.2123039300023942 -0.41664821311239958 0 0.21741116253556159 -0.40188202403997858 0 0.2016442137477383 -0.40583738479789611 0 0.1983441127883124 -0.41382083631464389 0 0.2123039300023942 -0.41664821311239958 0 0.2016442137477383 -0.40583738479789611 0 0.1935510424432022 -0.42300500179246731 0 0.2123039300023942 -0.41664821311239958 0 0.2175027088715335 -0.43482994586769841 0 0.1992127376522293 -0.44329664280798559 0 0.1935510424432022 -0.42300500179246731 0 0.2175027088715335 -0.43482994586769841 0 0.1935510424432022 -0.42300500179246731 0 0.2175027088715335 -0.43482994586769841 0 0.2123039300023942 -0.41664821311239958 0 0.2175027088715335 -0.43482994586769841 0 0.22879229496461731 -0.42587588550933109 0 0.24145437529986491 -0.44665488994292968 0 0.2175027088715335 -0.43482994586769841 0 0.22879229496461731 -0.42587588550933109 0 0.24145437529986491 -0.44665488994292968 0 0.22879229496461731 -0.42587588550933109 0 0.24310374909831109 -0.42755285647914348 0 0.25468545432512718 -0.43174213899265262 0 0.24145437529986491 -0.44665488994292968 0 0.24310374909831109 -0.42755285647914348 0 0.22879229496461731 -0.42587588550933109 0 0.24310374909831109 -0.42755285647914348 0 0.23210045210469929 -0.41185140521981822 0 0.25827480620344628 -0.41770721158124302 0 0.24310374909831109 -0.42755285647914348 0 0.24691806038933781 -0.41081379186618688 0 0.24310374909831109 -0.42755285647914348 0 0.24691806038933781 -0.41081379186618688 0 0.23210045210469929 -0.41185140521981822 0 0.24691806038933781 -0.41081379186618688 0 0.23210045210469929 -0.41185140521981822 0 0.23656834394945631 -0.40470403754368001 0 0.2123039300023942 -0.41664821311239958 0 0.22879229496461731 -0.42587588550933109 0 0.23210045210469929 -0.41185140521981822 0 0.2123039300023942 -0.41664821311239958 0 0.23210045210469929 -0.41185140521981822 0 0.21741116253556159 -0.40188202403997858 0 0.23210045210469929 -0.41185140521981822 0 0.21741116253556159 -0.40188202403997858 0 0.2409676605078547 -0.39597254536230952 0 0.21741116253556159 -0.40188202403997858 0 0.23210045210469929 -0.41185140521981822 0 0.23656834394945631 -0.40470403754368001 0 0.21741116253556159 -0.40188202403997858 0 0.23201385726385079 -0.39295873560287642 0 0.2409676605078547 -0.39597254536230952 0 0.21741116253556159 -0.40188202403997858 0 0.23656834394945631 -0.40470403754368001 0 0.2409676605078547 -0.39597254536230952 0 0.21741116253556159 -0.40188202403997858 0 0.23201385726385079 -0.39295873560287642 0 0.2222026131147154 -0.38961804708873449 0 0.21741116253556159 -0.40188202403997858 0 0.23656834394945631 -0.40470403754368001 0 0.2409676605078547 -0.39597254536230952 0 0.24544438420982781 -0.40300042123010688 0 0.25912291186543429 -0.38781330808035441 0 0.23201385726385079 -0.39295873560287642 0 0.2409676605078547 -0.39597254536230952 0 0.25355766278286868 -0.40111833226318272 0 0.2409676605078547 -0.39597254536230952 0 0.24544438420982781 -0.40300042123010688 0 0.24691806038933781 -0.41081379186618688 0 0.23656834394945631 -0.40470403754368001 0 0.24544438420982781 -0.40300042123010688 0 0.25355766278286868 -0.40111833226318272 0 0.24691806038933781 -0.41081379186618688 0 0.24544438420982781 -0.40300042123010688 0 0.25912291186543429 -0.38781330808035441 0 0.23201385726385079 -0.39295873560287642 0 0.25912291186543429 -0.38781330808035441 0 0.23201385726385079 -0.39295873560287642 0 0.2463482629591042 -0.38547561123023533 0 0.24084147541437509 -0.37272604943185061 0 0.24960891101326549 -0.37304825598747771 0 0.24361198886703619 -0.37954378693946339 0 0.25053779303233797 -0.38119746230133378 0 0.24960891101326549 -0.37304825598747771 0 0.24361198886703619 -0.37954378693946339 0 0.25053779303233797 -0.38119746230133378 0 0.24361198886703619 -0.37954378693946339 0 0.2463482629591042 -0.38547561123023533 0 0.24361198886703619 -0.37954378693946339 0 0.2463482629591042 -0.38547561123023533 0 0.23791464518082189 -0.38434837685735351 0 0.23201385726385079 -0.39295873560287642 0 0.2463482629591042 -0.38547561123023533 0 0.23791464518082189 -0.38434837685735351 0 0.24084147541437509 -0.37272604943185061 0 0.24361198886703619 -0.37954378693946339 0 0.23493393310767319 -0.37802288172494908 0 0.23791464518082189 -0.38434837685735351 0 0.23493393310767319 -0.37802288172494908 0 0.23054723794585569 -0.38463235957511333 0 0.24361198886703619 -0.37954378693946339 0 0.23791464518082189 -0.38434837685735351 0 0.23493393310767319 -0.37802288172494908 0 0.23493393310767319 -0.37802288172494908 0 0.23054723794585569 -0.38463235957511333 0 0.22451020066987029 -0.37794953811245879 0 0.23201385726385079 -0.39295873560287642 0 0.23054723794585569 -0.38463235957511333 0 0.2222026131147154 -0.38961804708873449 0 0.23201385726385079 -0.39295873560287642 0 0.23791464518082189 -0.38434837685735351 0 0.23054723794585569 -0.38463235957511333 0 0.23054723794585569 -0.38463235957511333 0 0.2222026131147154 -0.38961804708873449 0 0.22451020066987029 -0.37794953811245879 0 0.2222026131147154 -0.38961804708873449 0 0.22451020066987029 -0.37794953811245879 0 0.21284724379407469 -0.38602950162534178 0 0.21185028289860769 -0.36519918581698119 0 0.19619027410515191 -0.38747975327380357 0 0.21185028289860769 -0.36519918581698119 0 0.22451020066987029 -0.37794953811245879 0 0.21284724379407469 -0.38602950162534178 0 0.21185028289860769 -0.36519918581698119 0 0.21284724379407469 -0.38602950162534178 0 0.19619027410515191 -0.38747975327380357 0 0.21284724379407469 -0.38602950162534178 0 0.21741116253556159 -0.40188202403997858 0 0.19619027410515191 -0.38747975327380357 0 0.21741116253556159 -0.40188202403997858 0 0.19619027410515191 -0.38747975327380357 0 0.21741116253556159 -0.40188202403997858 0 0.2016442137477383 -0.40583738479789611 0 0.2222026131147154 -0.38961804708873449 0 0.21284724379407469 -0.38602950162534178 0 0.21741116253556159 -0.40188202403997858 0 0.21741116253556159 -0.40188202403997858 0 0.2016442137477383 -0.40583738479789611 0 0.19619027410515191 -0.38747975327380357 0 0.19619027410515191 -0.38747975327380357 0 0.18134944773692549 -0.40859481376792339 0 0.2016442137477383 -0.40583738479789611 0 0.19619027410515191 -0.38747975327380357 0 0.18587726495991491 -0.40979274555581291 0 0.19619027410515191 -0.38747975327380357 0 0.18134944773692549 -0.40859481376792339 0 0.18587726495991491 -0.40979274555581291 0 0.19539058522362751 -0.36760770656516117 0 0.19619027410515191 -0.38747975327380357 0 0.18155999940504911 -0.37755042452275722 0 0.19619027410515191 -0.38747975327380357 0 0.18155999940504911 -0.37755042452275722 0 0.19619027410515191 -0.38747975327380357 0 0.17599863683926301 -0.39035823278995979 0 0.18155999940504911 -0.37755042452275722 0 0.17599863683926301 -0.39035823278995979 0 0.18155999940504911 -0.37755042452275722 0 0.1614065677103575 -0.38300123394613178 0 0.19619027410515191 -0.38747975327380357 0 0.17599863683926301 -0.39035823278995979 0 0.18134944773692549 -0.40859481376792339 0 0.17599863683926301 -0.39035823278995979 0 0.1522853585662807 -0.40420767638082178 0 0.17599863683926301 -0.39035823278995979 0 0.1522853585662807 -0.40420767638082178 0 0.18134944773692549 -0.40859481376792339 0 0.17599863683926301 -0.39035823278995979 0 0.1614065677103575 -0.38300123394613178 0 0.1522853585662807 -0.40420767638082178 0 0.1669297247049393 -0.36762109577172097 0 0.1614065677103575 -0.38300123394613178 0 0.14569357060676999 -0.37851173113696651 0 0.1669297247049393 -0.36762109577172097 0 0.18155999940504911 -0.37755042452275722 0 0.1614065677103575 -0.38300123394613178 0 0.1614065677103575 -0.38300123394613178 0 0.14569357060676999 -0.37851173113696651 0 0.1522853585662807 -0.40420767638082178 0 0.14569357060676999 -0.37851173113696651 0 0.1244574165086 -0.38940236650221088 0 0.14569357060676999 -0.37851173113696651 0 0.13861333055310651 -0.37788305273702022 0 0.1244574165086 -0.38940236650221088 0 0.13861333055310651 -0.37788305273702022 0 0.12784776094096001 -0.37837910770210859 0 0.1244574165086 -0.38940236650221088 0 0.1522853585662807 -0.40420767638082178 0 0.12857208029329839 -0.41805711997168371 0 0.1244574165086 -0.38940236650221088 0 0.14569357060676999 -0.37851173113696651 0 0.1522853585662807 -0.40420767638082178 0 0.1244574165086 -0.38940236650221088 0 0.1522853585662807 -0.40420767638082178 0 0.14434245872483609 -0.43087779958314348 0 0.16650862136869901 -0.42970987426204299 0 0.1522853585662807 -0.40420767638082178 0 0.12857208029329839 -0.41805711997168371 0 0.14434245872483609 -0.43087779958314348 0 0.1522853585662807 -0.40420767638082178 0 0.12857208029329839 -0.41805711997168371 0 0.12857208029329839 -0.41805711997168371 0 0.14434245872483609 -0.43087779958314348 0 0.12309807384442981 -0.43570008153241979 0 0.14434245872483609 -0.43087779958314348 0 0.16650862136869901 -0.42970987426204299 0 0.15166779500047239 -0.45082493475616281 0 0.1522853585662807 -0.40420767638082178 0 0.16650862136869901 -0.42970987426204299 0 0.18134944773692549 -0.40859481376792339 0 0.16650862136869901 -0.42970987426204299 0 0.18134944773692549 -0.40859481376792339 0 0.18025328768966961 -0.42189381558822597 0 0.16650862136869901 -0.42970987426204299 0 0.18134944773692549 -0.40859481376792339 0 0.18134944773692549 -0.40859481376792339 0 0.18587726495991491 -0.40979274555581291 0 0.18025328768966961 -0.42189381558822597 0 0.1935510424432022 -0.42300500179246731 0 0.18587726495991491 -0.40979274555581291 0 0.18025328768966961 -0.42189381558822597 0 0.1935510424432022 -0.42300500179246731 0 0.18025328768966961 -0.42189381558822597 0 0.1836601858200442 -0.43816064516792491 0 0.16650862136869901 -0.42970987426204299 0 0.18025328768966961 -0.42189381558822597 0 0.1836601858200442 -0.43816064516792491 0 0.1895746234679149 -0.46168019452929698 0 0.1836601858200442 -0.43816064516792491 0 0.17111975569426741 -0.45191552651678812 0 0.16650862136869901 -0.42970987426204299 0 0.1836601858200442 -0.43816064516792491 0 0.17111975569426741 -0.45191552651678812 0 0.1895746234679149 -0.46168019452929698 0 0.17111975569426741 -0.45191552651678812 0 0.16476127908370619 -0.47288170118221828 0 0.17111975569426741 -0.45191552651678812 0 0.15166779500047239 -0.45082493475616281 0 0.16476127908370619 -0.47288170118221828 0 0.16650862136869901 -0.42970987426204299 0 0.17111975569426741 -0.45191552651678812 0 0.15166779500047239 -0.45082493475616281 0 0.16650862136869901 -0.42970987426204299 0 0.15166779500047239 -0.45082493475616281 0 0.14434245872483609 -0.43087779958314348 0 0.15166779500047239 -0.45082493475616281 0 0.12710739972096921 -0.45347115062142263 0 0.14434245872483609 -0.43087779958314348 0 0.12710739972096921 -0.45347115062142263 0 0.12309807384442981 -0.43570008153241979 0 0.15166779500047239 -0.45082493475616281 0 0.12710739972096921 -0.45347115062142263 0 0.1368269686322458 -0.47193999525028252 0 0.12710739972096921 -0.45347115062142263 0 0.1368269686322458 -0.47193999525028252 0 0.1220154485749262 -0.47512544665541201 0 0.15166779500047239 -0.45082493475616281 0 0.1368269686322458 -0.47193999525028252 0 0.16476127908370619 -0.47288170118221828 0 0.15166779500047239 -0.45082493475616281 0 0.1368269686322458 -0.47193999525028252 0 0.1368269686322458 -0.47193999525028252 0 0.15202324795804961 -0.48780878442288372 0 0.16476127908370619 -0.47288170118221828 0 0.1368269686322458 -0.47193999525028252 0 0.13768215463223141 -0.48820095885439208 0 0.15202324795804961 -0.48780878442288372 0 0.1368269686322458 -0.47193999525028252 0 0.1219861422640192 -0.49305505574440223 0 0.1368269686322458 -0.47193999525028252 0 0.1219861422640192 -0.49305505574440223 0 0.1220154485749262 -0.47512544665541201 0 0.13768215463223141 -0.48820095885439208 0 0.13989225967461091 -0.5 0 0.1219861422640192 -0.49305505574440223 0 0.1368269686322458 -0.47193999525028252 0 0.13768215463223141 -0.48820095885439208 0 0.1219861422640192 -0.49305505574440223 0 0.13989225967461091 -0.5 0 0.15202324795804961 -0.48780878442288372 0 0.16930969606633661 -0.5 0 0.13768215463223141 -0.48820095885439208 0 0.13989225967461091 -0.5 0 0.15202324795804961 -0.48780878442288372 0 0.15202324795804961 -0.48780878442288372 0 0.16930969606633661 -0.5 0 0.16476127908370619 -0.47288170118221828 0 0.1895746234679149 -0.46168019452929698 0 0.16476127908370619 -0.47288170118221828 0 0.1835240988037467 -0.48269088990170439 0 0.16930969606633661 -0.5 0 0.16476127908370619 -0.47288170118221828 0 0.1835240988037467 -0.48269088990170439 0 0.19872713245806231 -0.5 0 0.16930969606633661 -0.5 0 0.1835240988037467 -0.48269088990170439 0 0.062900552714344402 -0.48041717468915413 0 0.081057386891159822 -0.5 0 0.051639950499434151 -0.5 0 0.062900552714344402 -0.48041717468915413 0 0.084328250791173787 -0.47306441472719801 0 0.081057386891159822 -0.5 0 0.062900552714344402 -0.48041717468915413 0 0.084328250791173787 -0.47306441472719801 0 0.069225418478599754 -0.4660124534384904 0 0.062900552714344402 -0.48041717468915413 0 0.069225418478599754 -0.4660124534384904 0 0.05778937748919323 -0.46531712149258131 0 0.084328250791173787 -0.47306441472719801 0 0.081057386891159822 -0.5 0 0.1000974658720347 -0.48589415224897509 0 0.081057386891159822 -0.5 0 0.1000974658720347 -0.48589415224897509 0 0.1104748232828854 -0.5 0 0.1000974658720347 -0.48589415224897509 0 0.1104748232828854 -0.5 0 0.1180970176919855 -0.49205989155003038 0 0.13989225967461091 -0.5 0 0.1104748232828854 -0.5 0 0.1219861422640192 -0.49305505574440223 0 0.1180970176919855 -0.49205989155003038 0 0.1219861422640192 -0.49305505574440223 0 0.1220154485749262 -0.47512544665541201 0 0.1104748232828854 -0.5 0 0.1180970176919855 -0.49205989155003038 0 0.1219861422640192 -0.49305505574440223 0 0.1180970176919855 -0.49205989155003038 0 0.1220154485749262 -0.47512544665541201 0 0.1060597145654112 -0.4651011401109218 0 0.1180970176919855 -0.49205989155003038 0 0.1060597145654112 -0.4651011401109218 0 0.084328250791173787 -0.47306441472719801 0 0.1000974658720347 -0.48589415224897509 0 0.1060597145654112 -0.4651011401109218 0 0.1000974658720347 -0.48589415224897509 0 0.1180970176919855 -0.49205989155003038 0 0.1060597145654112 -0.4651011401109218 0 0.12710739972096921 -0.45347115062142263 0 0.1220154485749262 -0.47512544665541201 0 0.1060597145654112 -0.4651011401109218 0 0.12710739972096921 -0.45347115062142263 0 0.1060597145654112 -0.4651011401109218 0 0.1106096284627293 -0.4441877739233035 0 0.12710739972096921 -0.45347115062142263 0 0.1106096284627293 -0.4441877739233035 0 0.12309807384442981 -0.43570008153241979 0 0.1060597145654112 -0.4651011401109218 0 0.094022411438836939 -0.4381423886718131 0 0.082502720918553735 -0.44437016603586371 0 0.1060597145654112 -0.4651011401109218 0 0.094022411438836939 -0.4381423886718131 0 0.1106096284627293 -0.4441877739233035 0 0.094022411438836939 -0.4381423886718131 0 0.10485880202031619 -0.43190656356254559 0 0.1060597145654112 -0.4651011401109218 0 0.1106096284627293 -0.4441877739233035 0 0.094022411438836939 -0.4381423886718131 0 0.094022411438836939 -0.4381423886718131 0 0.082502720918553735 -0.44437016603586371 0 0.079082896792452728 -0.43335909559903413 0 0.1060597145654112 -0.4651011401109218 0 0.082502720918553735 -0.44437016603586371 0 0.078562062461346518 -0.45703328314718739 0 0.084328250791173787 -0.47306441472719801 0 0.1060597145654112 -0.4651011401109218 0 0.078562062461346518 -0.45703328314718739 0 0.084328250791173787 -0.47306441472719801 0 0.078562062461346518 -0.45703328314718739 0 0.069225418478599754 -0.4660124534384904 0 0.078562062461346518 -0.45703328314718739 0 0.069225418478599754 -0.4660124534384904 0 0.062546848936940874 -0.45423027313633152 0 0.069225418478599754 -0.4660124534384904 0 0.062546848936940874 -0.45423027313633152 0 0.05778937748919323 -0.46531712149258131 0 0.078562062461346518 -0.45703328314718739 0 0.062546848936940874 -0.45423027313633152 0 0.070758646645830578 -0.44603720204112701 0 0.062546848936940874 -0.45423027313633152 0 0.070758646645830578 -0.44603720204112701 0 0.059875789524615967 -0.43851805243517239 0 0.070758646645830578 -0.44603720204112701 0 0.070305811387695857 -0.43603423545108 0 0.059875789524615967 -0.43851805243517239 0 0.082502720918553735 -0.44437016603586371 0 0.070758646645830578 -0.44603720204112701 0 0.070305811387695857 -0.43603423545108 0 0.082502720918553735 -0.44437016603586371 0 0.070305811387695857 -0.43603423545108 0 0.079082896792452728 -0.43335909559903413 0 0.082502720918553735 -0.44437016603586371 0 0.078562062461346518 -0.45703328314718739 0 0.070758646645830578 -0.44603720204112701 0 0.072433300914785212 -0.42714083844936762 0 0.077963975768852833 -0.42257843273855089 0 0.079082896792452728 -0.43335909559903413 0 0.072433300914785212 -0.42714083844936762 0 0.070305811387695857 -0.43603423545108 0 0.079082896792452728 -0.43335909559903413 0 0.070305811387695857 -0.43603423545108 0 0.062394743873281387 -0.42883407686785691 0 0.059875789524615967 -0.43851805243517239 0 0.072433300914785212 -0.42714083844936762 0 0.070305811387695857 -0.43603423545108 0 0.062394743873281387 -0.42883407686785691 0 0.072433300914785212 -0.42714083844936762 0 0.075272843664448918 -0.41462591903270968 0 0.062394743873281387 -0.42883407686785691 0 0.075900673970014682 -0.41155075394765073 0 0.062394743873281387 -0.42883407686785691 0 0.063464639833791511 -0.41449993226021481 0 0.075900673970014682 -0.41155075394765073 0 0.062394743873281387 -0.42883407686785691 0 0.075900673970014682 -0.41155075394765073 0 0.075272843664448918 -0.41462591903270968 0 0.062394743873281387 -0.42883407686785691 0 0.063464639833791511 -0.41449993226021481 0 0.06171665413960091 -0.41536839367053019 0 0.062394743873281387 -0.42883407686785691 0 0.063464639833791511 -0.41449993226021481 0 0.06171665413960091 -0.41536839367053019 0 0.063464639833791511 -0.41449993226021481 0 0.074713361005282725 -0.40012401158551009 0 0.06171665413960091 -0.41536839367053019 0 0.074713361005282725 -0.40012401158551009 0 0.06171665413960091 -0.41536839367053019 0 0.075900673970014682 -0.41155075394765073 0 0.08198510831226237 -0.41118363723270451 0 0.074713361005282725 -0.40012401158551009 0 0.063464639833791511 -0.41449993226021481 0 0.075900673970014682 -0.41155075394765073 0 0.074713361005282725 -0.40012401158551009 0 0.075900673970014682 -0.41155075394765073 0 0.075272843664448918 -0.41462591903270968 0 0.08198510831226237 -0.41118363723270451 0 0.072433300914785212 -0.42714083844936762 0 0.077963975768852833 -0.42257843273855089 0 0.075272843664448918 -0.41462591903270968 0 0.08198510831226237 -0.41118363723270451 0 0.095141527347050669 -0.42445395089286497 0 0.099699787616786884 -0.4165832141043973 0 0.077963975768852833 -0.42257843273855089 0 0.075272843664448918 -0.41462591903270968 0 0.08198510831226237 -0.41118363723270451 0 0.075272843664448918 -0.41462591903270968 0 0.08198510831226237 -0.41118363723270451 0 0.094022411438836939 -0.4381423886718131 0 0.08198510831226237 -0.41118363723270451 0 0.095141527347050669 -0.42445395089286497 0 0.094022411438836939 -0.4381423886718131 0 0.08198510831226237 -0.41118363723270451 0 0.094022411438836939 -0.4381423886718131 0 0.077963975768852833 -0.42257843273855089 0 0.08198510831226237 -0.41118363723270451 0 0.094022411438836939 -0.4381423886718131 0 0.077963975768852833 -0.42257843273855089 0 0.079082896792452728 -0.43335909559903413 0 0.094022411438836939 -0.4381423886718131 0 0.095141527347050669 -0.42445395089286497 0 0.10485880202031619 -0.43190656356254559 0 0.095141527347050669 -0.42445395089286497 0 0.10485880202031619 -0.43190656356254559 0 0.099699787616786884 -0.4165832141043973 0 0.12857208029329839 -0.41805711997168371 0 0.10485880202031619 -0.43190656356254559 0 0.12857208029329839 -0.41805711997168371 0 0.10485880202031619 -0.43190656356254559 0 0.12309807384442981 -0.43570008153241979 0 0.1106096284627293 -0.4441877739233035 0 0.10485880202031619 -0.43190656356254559 0 0.12309807384442981 -0.43570008153241979 0 0.12857208029329839 -0.41805711997168371 0 0.11285675791282759 -0.41185179715538073 0 0.1244574165086 -0.38940236650221088 0 0.12857208029329839 -0.41805711997168371 0 0.10485880202031619 -0.43190656356254559 0 0.11285675791282759 -0.41185179715538073 0 0.08198510831226237 -0.41118363723270451 0 0.099699787616786884 -0.4165832141043973 0 0.10322126241043 -0.40029300186745548 0 0.10485880202031619 -0.43190656356254559 0 0.11285675791282759 -0.41185179715538073 0 0.099699787616786884 -0.4165832141043973 0 0.11285675791282759 -0.41185179715538073 0 0.099699787616786884 -0.4165832141043973 0 0.10322126241043 -0.40029300186745548 0 0.10322126241043 -0.40029300186745548 0 0.096994834069155975 -0.38451614456192179 0 0.082276881180968042 -0.39125244183653141 0 0.11285675791282759 -0.41185179715538073 0 0.10322126241043 -0.40029300186745548 0 0.1244574165086 -0.38940236650221088 0 0.10322126241043 -0.40029300186745548 0 0.1244574165086 -0.38940236650221088 0 0.12784776094096001 -0.37837910770210859 0 0.1244574165086 -0.38940236650221088 0 0.11218762718217649 -0.38072352898962231 0 0.10322126241043 -0.40029300186745548 0 0.1244574165086 -0.38940236650221088 0 0.11218762718217649 -0.38072352898962231 0 0.12784776094096001 -0.37837910770210859 0 0.11218762718217649 -0.38072352898962231 0 0.1234886567535193 -0.36969271451872321 0 0.11218762718217649 -0.38072352898962231 0 0.096994834069155975 -0.38451614456192179 0 0.099359629779647796 -0.3727955489921877 0 0.10322126241043 -0.40029300186745548 0 0.11218762718217649 -0.38072352898962231 0 0.096994834069155975 -0.38451614456192179 0 0.096994834069155975 -0.38451614456192179 0 0.087928769792557482 -0.37751620112381218 0 0.099359629779647796 -0.3727955489921877 0 0.087928769792557482 -0.37751620112381218 0 0.078724874265254347 -0.38235746546195848 0 0.080632272436375552 -0.36809459122969762 0 0.087928769792557482 -0.37751620112381218 0 0.078724874265254347 -0.38235746546195848 0 0.082276881180968042 -0.39125244183653141 0 0.096994834069155975 -0.38451614456192179 0 0.087928769792557482 -0.37751620112381218 0 0.082276881180968042 -0.39125244183653141 0 0.08198510831226237 -0.41118363723270451 0 0.10322126241043 -0.40029300186745548 0 0.082276881180968042 -0.39125244183653141 0 0.08198510831226237 -0.41118363723270451 0 0.082276881180968042 -0.39125244183653141 0 0.076244824435830028 -0.39832769395475642 0 0.08198510831226237 -0.41118363723270451 0 0.10322126241043 -0.40029300186745548 0 0.078724874265254347 -0.38235746546195848 0 0.082276881180968042 -0.39125244183653141 0 0.076244824435830028 -0.39832769395475642 0 0.08198510831226237 -0.41118363723270451 0 0.076244824435830028 -0.39832769395475642 0 0.082276881180968042 -0.39125244183653141 0 0.076244824435830028 -0.39832769395475642 0 0.076244824435830028 -0.39832769395475642 0 0.074713361005282725 -0.40012401158551009 0 0.05373311561901141 -0.38878881981659019 0 0.074713361005282725 -0.40012401158551009 0 0.05373311561901141 -0.38878881981659019 0 0.059559912512894192 -0.40114291584820683 0 0.074713361005282725 -0.40012401158551009 0 0.05373311561901141 -0.38878881981659019 0 0.08198510831226237 -0.41118363723270451 0 0.076244824435830028 -0.39832769395475642 0 0.074713361005282725 -0.40012401158551009 0 0.076244824435830028 -0.39832769395475642 0 0.074713361005282725 -0.40012401158551009 0 0.074713361005282725 -0.40012401158551009 0 0.059559912512894192 -0.40114291584820683 0 0.06171665413960091 -0.41536839367053019 0 0.078724874265254347 -0.38235746546195848 0 0.076244824435830028 -0.39832769395475642 0 0.066541623480541656 -0.3765963991649946 0 0.076244824435830028 -0.39832769395475642 0 0.066541623480541656 -0.3765963991649946 0 0.05373311561901141 -0.38878881981659019 0 0.076244824435830028 -0.39832769395475642 0 0.066541623480541656 -0.3765963991649946 0 0.078724874265254347 -0.38235746546195848 0 0.066541623480541656 -0.3765963991649946 0 0.080632272436375552 -0.36809459122969762 0 0.066541623480541656 -0.3765963991649946 0 0.05373311561901141 -0.38878881981659019 0 0.054717908399197483 -0.37286279319897331 0 0.05373311561901141 -0.38878881981659019 0 0.032752870232740747 -0.37745362804766908 0 0.054717908399197483 -0.37286279319897331 0 0.059559912512894192 -0.40114291584820683 0 0.044195164094035962 -0.39550257010111323 0 0.04554992075483219 -0.40840291801078499 0 0.05373311561901141 -0.38878881981659019 0 0.059559912512894192 -0.40114291584820683 0 0.044195164094035962 -0.39550257010111323 0 0.044195164094035962 -0.39550257010111323 0 0.036054660985853082 -0.40048656965160179 0 0.04554992075483219 -0.40840291801078499 0 0.044195164094035962 -0.39550257010111323 0 0.036054660985853082 -0.40048656965160179 0 0.032574311204793302 -0.39192501994336532 0 0.05373311561901141 -0.38878881981659019 0 0.032752870232740747 -0.37745362804766908 0 0.05373311561901141 -0.38878881981659019 0 0.032752870232740747 -0.37745362804766908 0 0.037699063486831622 -0.38226917733613008 0 0.05373311561901141 -0.38878881981659019 0 0.044195164094035962 -0.39550257010111323 0 0.037699063486831622 -0.38226917733613008 0 0.044195164094035962 -0.39550257010111323 0 0.032574311204793302 -0.39192501994336532 0 0.037699063486831622 -0.38226917733613008 0 0.037699063486831622 -0.38226917733613008 0 0.0092917282261142653 -0.3791490187586205 0 0.032752870232740747 -0.37745362804766908 0 0.0092917282261142653 -0.3791490187586205 0 0.01430168750699517 -0.37335140587589188 0 0.037699063486831622 -0.38226917733613008 0 0.02297639756554223 -0.3877893534869532 0 0.0092917282261142653 -0.3791490187586205 0 0.032752870232740747 -0.37745362804766908 0 0.037699063486831622 -0.38226917733613008 0 0.0092917282261142653 -0.3791490187586205 0 0.032574311204793302 -0.39192501994336532 0 0.037699063486831622 -0.38226917733613008 0 0.02297639756554223 -0.3877893534869532 0 -0.0079209576991021331 -0.38208384091849129 0 0.0092917282261142653 -0.3791490187586205 0 0.003337738236402286 -0.38678809717290258 0 0.0092917282261142653 -0.3791490187586205 0 0.01333923411657047 -0.38856722165853202 0 0.003337738236402286 -0.38678809717290258 0 0.01333923411657047 -0.38856722165853202 0 0.003337738236402286 -0.38678809717290258 0 0.0068076755599869899 -0.3945460342361608 0 0.02297639756554223 -0.3877893534869532 0 0.0092917282261142653 -0.3791490187586205 0 0.01333923411657047 -0.38856722165853202 0 -0.0048861065808698178 -0.40542465587961452 0 0.0068076755599869899 -0.3945460342361608 0 0.0075853773270290192 -0.40844435232476972 0 -0.007060478936782748 -0.39124467573747351 0 0.003337738236402286 -0.38678809717290258 0 0.0068076755599869899 -0.3945460342361608 0 0.01333923411657047 -0.38856722165853202 0 0.0068076755599869899 -0.3945460342361608 0 0.021977650793401509 -0.39703632973811798 0 0.0068076755599869899 -0.3945460342361608 0 0.021977650793401509 -0.39703632973811798 0 0.0075853773270290192 -0.40844435232476972 0 0.021977650793401509 -0.39703632973811798 0 0.025466630505344739 -0.41260896296352551 0 0.0075853773270290192 -0.40844435232476972 0 0.02297639756554223 -0.3877893534869532 0 0.01333923411657047 -0.38856722165853202 0 0.021977650793401509 -0.39703632973811798 0 0.036054660985853082 -0.40048656965160179 0 0.032574311204793302 -0.39192501994336532 0 0.021977650793401509 -0.39703632973811798 0 0.032574311204793302 -0.39192501994336532 0 0.02297639756554223 -0.3877893534869532 0 0.021977650793401509 -0.39703632973811798 0 0.036054660985853082 -0.40048656965160179 0 0.021977650793401509 -0.39703632973811798 0 0.025466630505344739 -0.41260896296352551 0 0.025466630505344739 -0.41260896296352551 0 0.0156564039727628 -0.42301917953769791 0 0.036667451385110877 -0.42781372776205862 0 0.025466630505344739 -0.41260896296352551 0 0.0075853773270290192 -0.40844435232476972 0 0.0156564039727628 -0.42301917953769791 0 -0.003055687984291951 -0.42596979278454739 0 0.0075853773270290192 -0.40844435232476972 0 -0.003055687984291951 -0.42596979278454739 0 0.0075853773270290192 -0.40844435232476972 0 0.0156564039727628 -0.42301917953769791 0 -0.003055687984291951 -0.42596979278454739 0 0.0156564039727628 -0.42301917953769791 0 0.011618248630621291 -0.44025906185358771 0 -0.003055687984291951 -0.42596979278454739 0 0.011618248630621291 -0.44025906185358771 0 -0.003055687984291951 -0.42596979278454739 0 -0.001755183903042279 -0.43806820660387241 0 0.011618248630621291 -0.44025906185358771 0 0.0156564039727628 -0.42301917953769791 0 0.036667451385110877 -0.42781372776205862 0 0.011618248630621291 -0.44025906185358771 0 0.036667451385110877 -0.42781372776205862 0 0.011618248630621291 -0.44025906185358771 0 0.025466630505344739 -0.41260896296352551 0 0.036667451385110877 -0.42781372776205862 0 0.04554992075483219 -0.40840291801078499 0 0.036054660985853082 -0.40048656965160179 0 0.025466630505344739 -0.41260896296352551 0 0.04554992075483219 -0.40840291801078499 0 0.059559912512894192 -0.40114291584820683 0 0.04554992075483219 -0.40840291801078499 0 0.06171665413960091 -0.41536839367053019 0 0.036667451385110877 -0.42781372776205862 0 0.04554992075483219 -0.40840291801078499 0 0.06171665413960091 -0.41536839367053019 0 0.036667451385110877 -0.42781372776205862 0 0.06171665413960091 -0.41536839367053019 0 0.044556633850554993 -0.43549610052554277 0 0.06171665413960091 -0.41536839367053019 0 0.062394743873281387 -0.42883407686785691 0 0.036667451385110877 -0.42781372776205862 0 0.044556633850554993 -0.43549610052554277 0 0.06171665413960091 -0.41536839367053019 0 0.044556633850554993 -0.43549610052554277 0 0.062394743873281387 -0.42883407686785691 0 0.048888813776548148 -0.44611739978806297 0 0.044556633850554993 -0.43549610052554277 0 0.06171665413960091 -0.41536839367053019 0 0.062394743873281387 -0.42883407686785691 0 0.048888813776548148 -0.44611739978806297 0 0.062394743873281387 -0.42883407686785691 0 0.048888813776548148 -0.44611739978806297 0 0.059875789524615967 -0.43851805243517239 0 0.062546848936940874 -0.45423027313633152 0 0.059875789524615967 -0.43851805243517239 0 0.047324697718980319 -0.45901203495678189 0 0.048888813776548148 -0.44611739978806297 0 0.059875789524615967 -0.43851805243517239 0 0.047324697718980319 -0.45901203495678189 0 0.059875789524615967 -0.43851805243517239 0 0.047324697718980319 -0.45901203495678189 0 0.05778937748919323 -0.46531712149258131 0 0.047324697718980319 -0.45901203495678189 0 0.050054544420118328 -0.47477418215171791 0 0.062546848936940874 -0.45423027313633152 0 0.05778937748919323 -0.46531712149258131 0 0.047324697718980319 -0.45901203495678189 0 0.048888813776548148 -0.44611739978806297 0 0.035382883679814757 -0.46340072270826899 0 0.038661888098579587 -0.45204435935670528 0 0.048888813776548148 -0.44611739978806297 0 0.047324697718980319 -0.45901203495678189 0 0.035382883679814757 -0.46340072270826899 0 0.048888813776548148 -0.44611739978806297 0 0.035382883679814757 -0.46340072270826899 0 0.047324697718980319 -0.45901203495678189 0 0.040234955282250892 -0.46812560046186591 0 0.035382883679814757 -0.46340072270826899 0 0.040234955282250892 -0.46812560046186591 0 0.035382883679814757 -0.46340072270826899 0 0.035382883679814757 -0.46340072270826899 0 0.027396613561508399 -0.45562380738055458 0 0.035382883679814757 -0.46340072270826899 0 0.038661888098579587 -0.45204435935670528 0 0.027396613561508399 -0.45562380738055458 0 0.044556633850554993 -0.43549610052554277 0 0.048888813776548148 -0.44611739978806297 0 0.038661888098579587 -0.45204435935670528 0 0.044556633850554993 -0.43549610052554277 0 0.027396613561508399 -0.45562380738055458 0 0.044556633850554993 -0.43549610052554277 0 0.038661888098579587 -0.45204435935670528 0 0.027396613561508399 -0.45562380738055458 0 0.036667451385110877 -0.42781372776205862 0 0.044556633850554993 -0.43549610052554277 0 0.027396613561508399 -0.45562380738055458 0 0.036667451385110877 -0.42781372776205862 0 0.011618248630621291 -0.44025906185358771 0 0.027396613561508399 -0.45562380738055458 0 0.011618248630621291 -0.44025906185358771 0 0.01180489425658871 -0.4558513239760289 0 0.027396613561508399 -0.45562380738055458 0 0.011618248630621291 -0.44025906185358771 0 0.027396613561508399 -0.45562380738055458 0 -0.001755183903042279 -0.43806820660387241 0 -0.0051002028656366404 -0.44856538267358542 0 0.011618248630621291 -0.44025906185358771 0 -0.0051002028656366404 -0.44856538267358542 0 0.011618248630621291 -0.44025906185358771 0 -0.0051002028656366404 -0.44856538267358542 0 0.011618248630621291 -0.44025906185358771 0 0.01180489425658871 -0.4558513239760289 0 -0.0051002028656366404 -0.44856538267358542 0 0.0045859136501480262 -0.46508154695711162 0 0.01180489425658871 -0.4558513239760289 0 0.0045859136501480262 -0.46508154695711162 0 0.01180489425658871 -0.4558513239760289 0 0.01404647320647333 -0.47128274641519668 0 0.026322760832917239 -0.46422644494412552 0 0.025085595120777331 -0.46928621851831431 0 0.01404647320647333 -0.47128274641519668 0 0.027396613561508399 -0.45562380738055458 0 0.026322760832917239 -0.46422644494412552 0 0.01404647320647333 -0.47128274641519668 0 0.01180489425658871 -0.4558513239760289 0 0.027396613561508399 -0.45562380738055458 0 0.01404647320647333 -0.47128274641519668 0 0.027396613561508399 -0.45562380738055458 0 0.01404647320647333 -0.47128274641519668 0 0.035382883679814757 -0.46340072270826899 0 0.026322760832917239 -0.46422644494412552 0 0.025085595120777331 -0.46928621851831431 0 0.035382883679814757 -0.46340072270826899 0 0.027396613561508399 -0.45562380738055458 0 0.026322760832917239 -0.46422644494412552 0 0.035382883679814757 -0.46340072270826899 0 0.022478089161969441 -0.4799147820343112 0 0.035382883679814757 -0.46340072270826899 0 0.022478089161969441 -0.4799147820343112 0 0.034773605913344607 -0.47950601747839139 0 0.035382883679814757 -0.46340072270826899 0 0.025085595120777331 -0.46928621851831431 0 0.022478089161969441 -0.4799147820343112 0 0.022478089161969441 -0.4799147820343112 0 0.01404647320647333 -0.47128274641519668 0 0.01219086244231295 -0.48871467105163813 0 0.025085595120777331 -0.46928621851831431 0 0.022478089161969441 -0.4799147820343112 0 0.01404647320647333 -0.47128274641519668 0 0.0045859136501480262 -0.46508154695711162 0 0.01404647320647333 -0.47128274641519668 0 0.00069633285143837903 -0.4869416854498389 0 0.01404647320647333 -0.47128274641519668 0 0.01219086244231295 -0.48871467105163813 0 0.00069633285143837903 -0.4869416854498389 0 0.01404647320647333 -0.47128274641519668 0 0.00069633285143837903 -0.4869416854498389 0 -0.0055307206059959091 -0.5 0 0.01219086244231295 -0.48871467105163813 0 0.00069633285143837903 -0.4869416854498389 0 -0.0055307206059959091 -0.5 0 0.01219086244231295 -0.48871467105163813 0 0.02222251410770856 -0.50000000000000078 0 0.022478089161969441 -0.4799147820343112 0 0.01219086244231295 -0.48871467105163813 0 0.02222251410770856 -0.50000000000000078 0 0.02222251410770856 -0.50000000000000078 0 0.034773605913344607 -0.47950601747839139 0 0.022478089161969441 -0.4799147820343112 0 0.02222251410770856 -0.50000000000000078 0 0.034773605913344607 -0.47950601747839139 0 0.02222251410770856 -0.50000000000000078 0 0.044988911125572531 -0.48731754673957972 0 0.034773605913344607 -0.47950601747839139 0 0.02222251410770856 -0.50000000000000078 0 0.044988911125572531 -0.48731754673957972 0 0.051639950499434151 -0.5 0 0.047324697718980319 -0.45901203495678189 0 0.034773605913344607 -0.47950601747839139 0 0.047324697718980319 -0.45901203495678189 0 0.034773605913344607 -0.47950601747839139 0 0.050054544420118328 -0.47477418215171791 0 0.047324697718980319 -0.45901203495678189 0 0.040234955282250892 -0.46812560046186591 0 0.034773605913344607 -0.47950601747839139 0 0.040234955282250892 -0.46812560046186591 0 0.035382883679814757 -0.46340072270826899 0 0.034773605913344607 -0.47950601747839139 0 0.044988911125572531 -0.48731754673957972 0 0.034773605913344607 -0.47950601747839139 0 0.050054544420118328 -0.47477418215171791 0 0.062900552714344402 -0.48041717468915413 0 0.044988911125572531 -0.48731754673957972 0 0.050054544420118328 -0.47477418215171791 0 0.062900552714344402 -0.48041717468915413 0 0.05778937748919323 -0.46531712149258131 0 0.050054544420118328 -0.47477418215171791 0 0.062900552714344402 -0.48041717468915413 0 0.044988911125572531 -0.48731754673957972 0 0.051639950499434151 -0.5 0 0.089504333552121743 -0.28669983990380649 0 0.081741064046208414 -0.29747737875383601 0 0.071323793193511439 -0.28902493079997388 0 0.089504333552121743 -0.28669983990380649 0 0.089656459164501601 -0.29776541965578529 0 0.097843511349458318 -0.29762494647368481 0 0.089504333552121743 -0.28669983990380649 0 0.089656459164501601 -0.29776541965578529 0 0.081741064046208414 -0.29747737875383601 0 0.089656459164501601 -0.29776541965578529 0 0.087813440556433212 -0.30777822589690729 0 0.096604653152929765 -0.30449064483530353 0 0.089656459164501601 -0.29776541965578529 0 0.087813440556433212 -0.30777822589690729 0 0.081741064046208414 -0.29747737875383601 0 0.087813440556433212 -0.30777822589690729 0 0.081741064046208414 -0.29747737875383601 0 0.063671304317619457 -0.29742931508965847 0 0.087813440556433212 -0.30777822589690729 0 0.063671304317619457 -0.29742931508965847 0 0.069403379884801455 -0.32190283519649848 0 0.087813440556433212 -0.30777822589690729 0 0.063671304317619457 -0.29742931508965847 0 0.071323793193511439 -0.28902493079997388 0 0.066084499612803174 -0.27763746487416652 0 0.055617764438804368 -0.28588065537840213 0 0.081741064046208414 -0.29747737875383601 0 0.063671304317619457 -0.29742931508965847 0 0.071323793193511439 -0.28902493079997388 0 0.063671304317619457 -0.29742931508965847 0 0.071323793193511439 -0.28902493079997388 0 0.055617764438804368 -0.28588065537840213 0 0.089504333552121743 -0.28669983990380649 0 0.071323793193511439 -0.28902493079997388 0 0.066084499612803174 -0.27763746487416652 0 0.089504333552121743 -0.28669983990380649 0 0.066084499612803174 -0.27763746487416652 0 0.066084499612803174 -0.27763746487416652 0 0.063163595346589996 -0.2670144250680439 0 0.072155874908864798 -0.27025499849328449 0 0.072155874908864798 -0.27025499849328449 0 0.079582640662523838 -0.25841605415645169 0 0.081037392036393693 -0.27378785305636683 0 0.066084499612803174 -0.27763746487416652 0 0.072155874908864798 -0.27025499849328449 0 0.081037392036393693 -0.27378785305636683 0 0.079582640662523838 -0.25841605415645169 0 0.05929568821017632 -0.24416858529782309 0 0.063252869376379417 -0.25649662315351202 0 0.079582640662523838 -0.25841605415645169 0 0.05929568821017632 -0.24416858529782309 0 0.063163595346589996 -0.2670144250680439 0 0.063252869376379417 -0.25649662315351202 0 0.079582640662523838 -0.25841605415645169 0 0.063163595346589996 -0.2670144250680439 0 0.072155874908864798 -0.27025499849328449 0 0.079582640662523838 -0.25841605415645169 0 0.079582640662523838 -0.25841605415645169 0 0.099869593114871397 -0.27266352301508029 0 0.079582640662523838 -0.25841605415645169 0 0.090742891531442632 -0.25082384707713479 0 0.099869593114871397 -0.27266352301508029 0 0.079582640662523838 -0.25841605415645169 0 0.090742891531442632 -0.25082384707713479 0 0.076544452823221615 -0.2418656299360194 0 0.089504333552121743 -0.28669983990380649 0 0.081037392036393693 -0.27378785305636683 0 0.099869593114871397 -0.27266352301508029 0 0.079582640662523838 -0.25841605415645169 0 0.081037392036393693 -0.27378785305636683 0 0.099869593114871397 -0.27266352301508029 0 0.089504333552121743 -0.28669983990380649 0 0.066084499612803174 -0.27763746487416652 0 0.081037392036393693 -0.27378785305636683 0 0.090742891531442632 -0.25082384707713479 0 0.099869593114871397 -0.27266352301508029 0 0.1075085407432959 -0.25056148448873611 0 0.099869593114871397 -0.27266352301508029 0 0.1075085407432959 -0.25056148448873611 0 0.11656805216610119 -0.26681494388427018 0 0.1312342236087051 -0.26196495271219977 0 0.1075085407432959 -0.25056148448873611 0 0.1312342236087051 -0.26196495271219977 0 0.1075085407432959 -0.25056148448873611 0 0.1284525449190799 -0.24687969302089219 0 0.1312342236087051 -0.26196495271219977 0 0.1075085407432959 -0.25056148448873611 0 0.11656805216610119 -0.26681494388427018 0 0.099869593114871397 -0.27266352301508029 0 0.1201565455672189 -0.28691099187370889 0 0.13621038122654491 -0.2752641495567244 0 0.11656805216610119 -0.26681494388427018 0 0.1201565455672189 -0.28691099187370889 0 0.099869593114871397 -0.27266352301508029 0 0.11656805216610119 -0.26681494388427018 0 0.1201565455672189 -0.28691099187370889 0 0.099869593114871397 -0.27266352301508029 0 0.1201565455672189 -0.28691099187370889 0 0.1129241674914403 -0.29576221493344662 0 0.1201565455672189 -0.28691099187370889 0 0.1129241674914403 -0.29576221493344662 0 0.11561439367385699 -0.30729963494312301 0 0.089504333552121743 -0.28669983990380649 0 0.1129241674914403 -0.29576221493344662 0 0.089504333552121743 -0.28669983990380649 0 0.099869593114871397 -0.27266352301508029 0 0.1129241674914403 -0.29576221493344662 0 0.089504333552121743 -0.28669983990380649 0 0.1129241674914403 -0.29576221493344662 0 0.097843511349458318 -0.29762494647368481 0 0.087813440556433212 -0.30777822589690729 0 0.096604653152929765 -0.30449064483530353 0 0.1036903107769211 -0.31458409892258982 0 0.087813440556433212 -0.30777822589690729 0 0.1036903107769211 -0.31458409892258982 0 0.097843511349458318 -0.29762494647368481 0 0.096604653152929765 -0.30449064483530353 0 0.1053354072889213 -0.30395230802162948 0 0.089656459164501601 -0.29776541965578529 0 0.097843511349458318 -0.29762494647368481 0 0.096604653152929765 -0.30449064483530353 0 0.1129241674914403 -0.29576221493344662 0 0.097843511349458318 -0.29762494647368481 0 0.1053354072889213 -0.30395230802162948 0 0.1053354072889213 -0.30395230802162948 0 0.11561439367385699 -0.30729963494312301 0 0.1036903107769211 -0.31458409892258982 0 0.096604653152929765 -0.30449064483530353 0 0.1053354072889213 -0.30395230802162948 0 0.1036903107769211 -0.31458409892258982 0 0.12999496979063391 -0.31198548501294687 0 0.1201565455672189 -0.28691099187370889 0 0.11561439367385699 -0.30729963494312301 0 0.1129241674914403 -0.29576221493344662 0 0.1053354072889213 -0.30395230802162948 0 0.11561439367385699 -0.30729963494312301 0 0.12999496979063391 -0.31198548501294687 0 0.11561439367385699 -0.30729963494312301 0 0.1181143755105791 -0.32344375993293811 0 0.1181143755105791 -0.32344375993293811 0 0.1067290630012807 -0.33432842494568621 0 0.1036903107769211 -0.31458409892258982 0 0.11561439367385699 -0.30729963494312301 0 0.1181143755105791 -0.32344375993293811 0 0.1036903107769211 -0.31458409892258982 0 0.13148999696754199 -0.32979631984983832 0 0.1181143755105791 -0.32344375993293811 0 0.11890109950640949 -0.33858894971983883 0 0.11890109950640949 -0.33858894971983883 0 0.1067290630012807 -0.33432842494568621 0 0.1144011062763409 -0.35268854967434371 0 0.1181143755105791 -0.32344375993293811 0 0.11890109950640949 -0.33858894971983883 0 0.1067290630012807 -0.33432842494568621 0 0.1067290630012807 -0.33432842494568621 0 0.095959237442760179 -0.3472446931909367 0 0.090768171252474841 -0.32755830508575778 0 0.1067290630012807 -0.33432842494568621 0 0.1036903107769211 -0.31458409892258982 0 0.090768171252474841 -0.32755830508575778 0 0.087813440556433212 -0.30777822589690729 0 0.1036903107769211 -0.31458409892258982 0 0.090768171252474841 -0.32755830508575778 0 0.12890313153088209 -0.35651954819948262 0 0.1234886567535193 -0.36969271451872321 0 0.1144011062763409 -0.35268854967434371 0 0.1234886567535193 -0.36969271451872321 0 0.1105380278041885 -0.36615330065118629 0 0.1144011062763409 -0.35268854967434371 0 0.11218762718217649 -0.38072352898962231 0 0.1234886567535193 -0.36969271451872321 0 0.1105380278041885 -0.36615330065118629 0 0.13023828094180129 -0.34271921149802609 0 0.11890109950640949 -0.33858894971983883 0 0.1144011062763409 -0.35268854967434371 0 0.12890313153088209 -0.35651954819948262 0 0.13023828094180129 -0.34271921149802609 0 0.1144011062763409 -0.35268854967434371 0 0.1144011062763409 -0.35268854967434371 0 0.095959237442760179 -0.3472446931909367 0 0.10289716643324461 -0.3592909329049091 0 0.1067290630012807 -0.33432842494568621 0 0.1144011062763409 -0.35268854967434371 0 0.095959237442760179 -0.3472446931909367 0 0.095959237442760179 -0.3472446931909367 0 0.10289716643324461 -0.3592909329049091 0 0.092725469388869719 -0.36229186673239089 0 0.1105380278041885 -0.36615330065118629 0 0.1144011062763409 -0.35268854967434371 0 0.10289716643324461 -0.3592909329049091 0 0.1105380278041885 -0.36615330065118629 0 0.10289716643324461 -0.3592909329049091 0 0.099359629779647796 -0.3727955489921877 0 0.10289716643324461 -0.3592909329049091 0 0.099359629779647796 -0.3727955489921877 0 0.092725469388869719 -0.36229186673239089 0 0.11218762718217649 -0.38072352898962231 0 0.1105380278041885 -0.36615330065118629 0 0.099359629779647796 -0.3727955489921877 0 0.087928769792557482 -0.37751620112381218 0 0.080632272436375552 -0.36809459122969762 0 0.092725469388869719 -0.36229186673239089 0 0.087928769792557482 -0.37751620112381218 0 0.099359629779647796 -0.3727955489921877 0 0.092725469388869719 -0.36229186673239089 0 0.080632272436375552 -0.36809459122969762 0 0.092725469388869719 -0.36229186673239089 0 0.081804613297221301 -0.35560831033637791 0 0.095959237442760179 -0.3472446931909367 0 0.092725469388869719 -0.36229186673239089 0 0.081804613297221301 -0.35560831033637791 0 0.095959237442760179 -0.3472446931909367 0 0.081804613297221301 -0.35560831033637791 0 0.081020669779101648 -0.34073791782905288 0 0.070354970030713601 -0.35135946564616499 0 0.067524854340150348 -0.36360851561587459 0 0.05109773839685261 -0.35712953411903908 0 0.070354970030713601 -0.35135946564616499 0 0.081020669779101648 -0.34073791782905288 0 0.067594834076687885 -0.33993158739813462 0 0.081804613297221301 -0.35560831033637791 0 0.070354970030713601 -0.35135946564616499 0 0.081020669779101648 -0.34073791782905288 0 0.070354970030713601 -0.35135946564616499 0 0.067594834076687885 -0.33993158739813462 0 0.058449841846545891 -0.34682015716377912 0 0.081804613297221301 -0.35560831033637791 0 0.070354970030713601 -0.35135946564616499 0 0.067524854340150348 -0.36360851561587459 0 0.080632272436375552 -0.36809459122969762 0 0.081804613297221301 -0.35560831033637791 0 0.067524854340150348 -0.36360851561587459 0 0.066541623480541656 -0.3765963991649946 0 0.067524854340150348 -0.36360851561587459 0 0.054717908399197483 -0.37286279319897331 0 0.066541623480541656 -0.3765963991649946 0 0.080632272436375552 -0.36809459122969762 0 0.067524854340150348 -0.36360851561587459 0 0.087813440556433212 -0.30777822589690729 0 0.069403379884801455 -0.32190283519649848 0 0.087813440556433212 -0.30777822589690729 0 0.090768171252474841 -0.32755830508575778 0 0.069403379884801455 -0.32190283519649848 0 0.090768171252474841 -0.32755830508575778 0 0.081020669779101648 -0.34073791782905288 0 0.069403379884801455 -0.32190283519649848 0 0.095959237442760179 -0.3472446931909367 0 0.090768171252474841 -0.32755830508575778 0 0.081020669779101648 -0.34073791782905288 0 0.067594834076687885 -0.33993158739813462 0 0.069403379884801455 -0.32190283519649848 0 0.059509328464807103 -0.33623748787797619 0 0.081020669779101648 -0.34073791782905288 0 0.067594834076687885 -0.33993158739813462 0 0.069403379884801455 -0.32190283519649848 0 0.069403379884801455 -0.32190283519649848 0 0.050993319213169137 -0.33602744449608912 0 0.045261243645986299 -0.31155392438924978 0 0.050993319213169137 -0.33602744449608912 0 0.045261243645986299 -0.31155392438924978 0 0.069403379884801455 -0.32190283519649848 0 0.059509328464807103 -0.33623748787797619 0 0.050993319213169137 -0.33602744449608912 0 0.069403379884801455 -0.32190283519649848 0 0.050993319213169137 -0.33602744449608912 0 0.059509328464807103 -0.33623748787797619 0 0.050993319213169137 -0.33602744449608912 0 0.058449841846545891 -0.34682015716377912 0 0.067594834076687885 -0.33993158739813462 0 0.059509328464807103 -0.33623748787797619 0 0.058449841846545891 -0.34682015716377912 0 0.050993319213169137 -0.33602744449608912 0 0.031382972029819919 -0.35107294038741887 0 0.050993319213169137 -0.33602744449608912 0 0.031382972029819919 -0.35107294038741887 0 0.02846135930922597 -0.33003309425293159 0 0.02618595078899854 -0.31465698678655191 0 0.02846135930922597 -0.33003309425293159 0 0.045261243645986299 -0.31155392438924978 0 0.050993319213169137 -0.33602744449608912 0 0.02846135930922597 -0.33003309425293159 0 0.045261243645986299 -0.31155392438924978 0 0.067524854340150348 -0.36360851561587459 0 0.054717908399197483 -0.37286279319897331 0 0.05109773839685261 -0.35712953411903908 0 0.070354970030713601 -0.35135946564616499 0 0.05109773839685261 -0.35712953411903908 0 0.058449841846545891 -0.34682015716377912 0 0.050993319213169137 -0.33602744449608912 0 0.05109773839685261 -0.35712953411903908 0 0.058449841846545891 -0.34682015716377912 0 0.050993319213169137 -0.33602744449608912 0 0.05109773839685261 -0.35712953411903908 0 0.031382972029819919 -0.35107294038741887 0 0.032752870232740747 -0.37745362804766908 0 0.05109773839685261 -0.35712953411903908 0 0.031382972029819919 -0.35107294038741887 0 0.032752870232740747 -0.37745362804766908 0 0.054717908399197483 -0.37286279319897331 0 0.05109773839685261 -0.35712953411903908 0 0.031382972029819919 -0.35107294038741887 0 0.01070073432333893 -0.36334026040461559 0 0.011772624846470049 -0.36611843627874802 0 0.032752870232740747 -0.37745362804766908 0 0.011772624846470049 -0.36611843627874802 0 0.01430168750699517 -0.37335140587589188 0 0.032752870232740747 -0.37745362804766908 0 0.031382972029819919 -0.35107294038741887 0 0.011772624846470049 -0.36611843627874802 0 0.032752870232740747 -0.37745362804766908 0 0.011772624846470049 -0.36611843627874802 0 0.031382972029819919 -0.35107294038741887 0 0.011772624846470049 -0.36611843627874802 0 0.031382972029819919 -0.35107294038741887 0 0.01070073432333893 -0.36334026040461559 0 0.013946201744000049 -0.34336489326696451 0 -0.00074183765288565566 -0.35175253106238907 0 0.01070073432333893 -0.36334026040461559 0 0.013946201744000049 -0.34336489326696451 0 -0.00074183765288565566 -0.35175253106238907 0 0.01070073432333893 -0.36334026040461559 0 -0.001478254409315928 -0.35731067486246981 0 -0.00074183765288565566 -0.35175253106238907 0 0.01070073432333893 -0.36334026040461559 0 -0.001478254409315928 -0.35731067486246981 0 -0.0064186499760666097 -0.35629006750430381 0 0.011772624846470049 -0.36611843627874802 0 -0.0064186499760666097 -0.35629006750430381 0 0.011772624846470049 -0.36611843627874802 0 0.0079703136112085557 -0.36903565429293261 0 -0.0064186499760666097 -0.35629006750430381 0 0.011772624846470049 -0.36611843627874802 0 -0.001478254409315928 -0.35731067486246981 0 0.01070073432333893 -0.36334026040461559 0 0.011772624846470049 -0.36611843627874802 0 -0.004500284718328351 -0.36977183894340099 0 0.0092917282261142653 -0.3791490187586205 0 0.0079703136112085557 -0.36903565429293261 0 0.0092917282261142653 -0.3791490187586205 0 0.0079703136112085557 -0.36903565429293261 0 0.01430168750699517 -0.37335140587589188 0 0.011772624846470049 -0.36611843627874802 0 0.0079703136112085557 -0.36903565429293261 0 0.01430168750699517 -0.37335140587589188 0 0.011772624846470049 -0.36611843627874802 0 0.0079703136112085557 -0.36903565429293261 0 0.02618595078899854 -0.31465698678655191 0 0.02846135930922597 -0.33003309425293159 0 0.0029984684333813618 -0.3235223761913148 0 0.031382972029819919 -0.35107294038741887 0 0.02846135930922597 -0.33003309425293159 0 0.013946201744000049 -0.34336489326696451 0 -0.00074183765288565566 -0.35175253106238907 0 0.013946201744000049 -0.34336489326696451 0 0.0029984684333813618 -0.3235223761913148 0 0.02846135930922597 -0.33003309425293159 0 0.013946201744000049 -0.34336489326696451 0 0.0029984684333813618 -0.3235223761913148 0 -0.00074183765288565566 -0.35175253106238907 0 0.0029984684333813618 -0.3235223761913148 0 0.02618595078899854 -0.31465698678655191 0 0.0029984684333813618 -0.3235223761913148 0 0.017163242628587729 -0.30599916260489751 0 0.0029984684333813618 -0.3235223761913148 0 0.0067387745196430242 -0.29529222132023969 0 0.0029984684333813618 -0.3235223761913148 0 0.0067387745196430242 -0.29529222132023969 0 0.017163242628587729 -0.30599916260489751 0 -0.0082219535966022404 -0.31630686611013298 0 0.0029984684333813618 -0.3235223761913148 0 0.0067387745196430242 -0.29529222132023969 0 0.0067387745196430242 -0.29529222132023969 0 0.017531312477772659 -0.28993467784798621 0 0.017163242628587729 -0.30599916260489751 0 -0.0053310229688179646 -0.2794973200367471 0 0.0073146390671123794 -0.29094585367415521 0 0.009530566450491015 -0.27422102640786272 0 0.0073146390671123794 -0.29094585367415521 0 0.017531312477772659 -0.28993467784798621 0 0.009530566450491015 -0.27422102640786272 0 -0.013379003010202299 -0.29299396755454787 0 0.0073146390671123794 -0.29094585367415521 0 0.0067387745196430242 -0.29529222132023969 0 0.0073146390671123794 -0.29094585367415521 0 0.009530566450491015 -0.27422102640786272 0 0.0073146390671123794 -0.29094585367415521 0 0.0067387745196430242 -0.29529222132023969 0 0.0073146390671123794 -0.29094585367415521 0 0.0067387745196430242 -0.29529222132023969 0 0.017531312477772659 -0.28993467784798621 0 0.0067387745196430242 -0.29529222132023969 0 0.017531312477772659 -0.28993467784798621 0 0.0073146390671123794 -0.29094585367415521 0 0.017531312477772659 -0.28993467784798621 0 0.017531312477772659 -0.28993467784798621 0 0.032196650305462621 -0.28393720387635007 0 0.009530566450491015 -0.27422102640786272 0 0.02939129520802666 -0.29487517990185841 0 0.028874900201639579 -0.28881196782024238 0 0.017163242628587729 -0.30599916260489751 0 0.017531312477772659 -0.28993467784798621 0 0.028874900201639579 -0.28881196782024238 0 0.017163242628587729 -0.30599916260489751 0 0.017531312477772659 -0.28993467784798621 0 0.028874900201639579 -0.28881196782024238 0 0.017531312477772659 -0.28993467784798621 0 0.032196650305462621 -0.28393720387635007 0 0.017531312477772659 -0.28993467784798621 0 0.028874900201639579 -0.28881196782024238 0 0.032196650305462621 -0.28393720387635007 0 0.028874900201639579 -0.28881196782024238 0 0.032196650305462621 -0.28393720387635007 0 0.028874900201639579 -0.28881196782024238 0 0.017163242628587729 -0.30599916260489751 0 0.02939129520802666 -0.29487517990185841 0 0.017163242628587729 -0.30599916260489751 0 0.032215447476422319 -0.30370197187078207 0 0.02618595078899854 -0.31465698678655191 0 0.017163242628587729 -0.30599916260489751 0 0.032215447476422319 -0.30370197187078207 0 0.045261243645986299 -0.31155392438924978 0 0.032215447476422319 -0.30370197187078207 0 0.039529168078805597 -0.28708040428240988 0 0.045261243645986299 -0.31155392438924978 0 0.039529168078805597 -0.28708040428240988 0 0.02618595078899854 -0.31465698678655191 0 0.045261243645986299 -0.31155392438924978 0 0.032215447476422319 -0.30370197187078207 0 0.02939129520802666 -0.29487517990185841 0 0.028874900201639579 -0.28881196782024238 0 0.039529168078805597 -0.28708040428240988 0 0.02939129520802666 -0.29487517990185841 0 0.032215447476422319 -0.30370197187078207 0 0.039529168078805597 -0.28708040428240988 0 0.028874900201639579 -0.28881196782024238 0 0.032196650305462621 -0.28393720387635007 0 0.039529168078805597 -0.28708040428240988 0 0.033517369836242032 -0.28199900992815619 0 0.032196650305462621 -0.28393720387635007 0 0.039529168078805597 -0.28708040428240988 0 0.033517369836242032 -0.28199900992815619 0 0.032196650305462621 -0.28393720387635007 0 0.032196650305462621 -0.28393720387635007 0 0.039529168078805597 -0.28708040428240988 0 0.039529168078805597 -0.28708040428240988 0 0.037836816779897392 -0.27985478538463487 0 0.033517369836242032 -0.28199900992815619 0 0.039529168078805597 -0.28708040428240988 0 0.037836816779897392 -0.27985478538463487 0 0.045784459478749581 -0.28180432181079068 0 0.039529168078805597 -0.28708040428240988 0 0.037836816779897392 -0.27985478538463487 0 0.063671304317619457 -0.29742931508965847 0 0.039529168078805597 -0.28708040428240988 0 0.055617764438804368 -0.28588065537840213 0 0.045784459478749581 -0.28180432181079068 0 0.039529168078805597 -0.28708040428240988 0 0.055617764438804368 -0.28588065537840213 0 0.063671304317619457 -0.29742931508965847 0 0.039529168078805597 -0.28708040428240988 0 0.063671304317619457 -0.29742931508965847 0 0.069403379884801455 -0.32190283519649848 0 0.045261243645986299 -0.31155392438924978 0 0.063671304317619457 -0.29742931508965847 0 0.045261243645986299 -0.31155392438924978 0 0.039529168078805597 -0.28708040428240988 0 0.050969553286227168 -0.25638742809172921 0 0.05572057847977574 -0.26740360196961599 0 0.042664665673484842 -0.26857508984452583 0 0.050969553286227168 -0.25638742809172921 0 0.05929568821017632 -0.24416858529782309 0 0.063252869376379417 -0.25649662315351202 0 0.050969553286227168 -0.25638742809172921 0 0.05929568821017632 -0.24416858529782309 0 0.063163595346589996 -0.2670144250680439 0 0.050969553286227168 -0.25638742809172921 0 0.05572057847977574 -0.26740360196961599 0 0.063163595346589996 -0.2670144250680439 0 0.063252869376379417 -0.25649662315351202 0 0.050969553286227168 -0.25638742809172921 0 0.063163595346589996 -0.2670144250680439 0 0.050969553286227168 -0.25638742809172921 0 0.066084499612803174 -0.27763746487416652 0 0.055617764438804368 -0.28588065537840213 0 0.049036642582491602 -0.27429505940991039 0 0.066084499612803174 -0.27763746487416652 0 0.05572057847977574 -0.26740360196961599 0 0.042664665673484842 -0.26857508984452583 0 0.066084499612803174 -0.27763746487416652 0 0.042664665673484842 -0.26857508984452583 0 0.066084499612803174 -0.27763746487416652 0 0.049036642582491602 -0.27429505940991039 0 0.042664665673484842 -0.26857508984452583 0 0.066084499612803174 -0.27763746487416652 0 0.063163595346589996 -0.2670144250680439 0 0.05572057847977574 -0.26740360196961599 0 0.045784459478749581 -0.28180432181079068 0 0.055617764438804368 -0.28588065537840213 0 0.049036642582491602 -0.27429505940991039 0 0.042664665673484842 -0.26857508984452583 0 0.037105665799666537 -0.27673308225876392 0 0.049036642582491602 -0.27429505940991039 0 0.042664665673484842 -0.26857508984452583 0 0.037105665799666537 -0.27673308225876392 0 0.049036642582491602 -0.27429505940991039 0 0.037836816779897392 -0.27985478538463487 0 0.037105665799666537 -0.27673308225876392 0 0.049036642582491602 -0.27429505940991039 0 0.037836816779897392 -0.27985478538463487 0 0.045784459478749581 -0.28180432181079068 0 0.049036642582491602 -0.27429505940991039 0 0.037836816779897392 -0.27985478538463487 0 0.033517369836242032 -0.28199900992815619 0 0.037105665799666537 -0.27673308225876392 0 0.033517369836242032 -0.28199900992815619 0 0.037836816779897392 -0.27985478538463487 0 0.033517369836242032 -0.28199900992815619 0 0.037836816779897392 -0.27985478538463487 0 0.037105665799666537 -0.27673308225876392 0 0.037836816779897392 -0.27985478538463487 0 0.037105665799666537 -0.27673308225876392 0 0.037105665799666537 -0.27673308225876392 0 0.031130890735527921 -0.27711622249539353 0 0.030321455059607118 -0.27099517277482682 0 0.033517369836242032 -0.28199900992815619 0 0.037105665799666537 -0.27673308225876392 0 0.031130890735527921 -0.27711622249539353 0 0.033517369836242032 -0.28199900992815619 0 0.032196650305462621 -0.28393720387635007 0 0.031130890735527921 -0.27711622249539353 0 0.037105665799666537 -0.27673308225876392 0 0.034450484048312288 -0.26539658761254009 0 0.042664665673484842 -0.26857508984452583 0 0.034450484048312288 -0.26539658761254009 0 0.042664665673484842 -0.26857508984452583 0 0.037105665799666537 -0.27673308225876392 0 0.034450484048312288 -0.26539658761254009 0 0.037105665799666537 -0.27673308225876392 0 0.034450484048312288 -0.26539658761254009 0 0.030321455059607118 -0.27099517277482682 0 0.034450484048312288 -0.26539658761254009 0 0.030500885315652961 -0.26386827852953348 0 0.030321455059607118 -0.27099517277482682 0 0.050969553286227168 -0.25638742809172921 0 0.034450484048312288 -0.26539658761254009 0 0.039266109448244137 -0.2461879830133091 0 0.034450484048312288 -0.26539658761254009 0 0.030500885315652961 -0.26386827852953348 0 0.050969553286227168 -0.25638742809172921 0 0.042664665673484842 -0.26857508984452583 0 0.034450484048312288 -0.26539658761254009 0 0.050969553286227168 -0.25638742809172921 0 0.042664665673484842 -0.26857508984452583 0 0.050969553286227168 -0.25638742809172921 0 0.039266109448244137 -0.2461879830133091 0 0.02062846028809431 -0.2607204990955283 0 0.01711732494150001 -0.25097009602916809 0 0.01403127854977735 -0.27236521228920929 0 0.034450484048312288 -0.26539658761254009 0 0.027562665610264939 -0.23598853793488461 0 0.034450484048312288 -0.26539658761254009 0 0.025927881846478588 -0.25629462338353232 0 0.027562665610264939 -0.23598853793488461 0 0.034450484048312288 -0.26539658761254009 0 0.025927881846478588 -0.25629462338353232 0 0.030500885315652961 -0.26386827852953348 0 0.030500885315652961 -0.26386827852953348 0 0.024863241332177741 -0.26282089153896299 0 0.025198844591401721 -0.26818382559869958 0 0.025927881846478588 -0.25629462338353232 0 0.030500885315652961 -0.26386827852953348 0 0.024863241332177741 -0.26282089153896299 0 0.025927881846478588 -0.25629462338353232 0 0.024863241332177741 -0.26282089153896299 0 0.02062846028809431 -0.2607204990955283 0 0.024863241332177741 -0.26282089153896299 0 0.02062846028809431 -0.2607204990955283 0 0.021178977263697382 -0.26650911795080739 0 0.025927881846478588 -0.25629462338353232 0 0.02062846028809431 -0.2607204990955283 0 0.01711732494150001 -0.25097009602916809 0 0.032196650305462621 -0.28393720387635007 0 0.009530566450491015 -0.27422102640786272 0 0.01403127854977735 -0.27236521228920929 0 0.032196650305462621 -0.28393720387635007 0 0.009530566450491015 -0.27422102640786272 0 0.032196650305462621 -0.28393720387635007 0 0.025143030560227288 -0.27369313495422309 0 0.01403127854977735 -0.27236521228920929 0 0.032196650305462621 -0.28393720387635007 0 0.031130890735527921 -0.27711622249539353 0 0.025143030560227288 -0.27369313495422309 0 0.031130890735527921 -0.27711622249539353 0 0.025143030560227288 -0.27369313495422309 0 0.030321455059607118 -0.27099517277482682 0 0.025143030560227288 -0.27369313495422309 0 0.025198844591401721 -0.26818382559869958 0 0.02094933504544232 -0.27036503450176519 0 0.025143030560227288 -0.27369313495422309 0 0.030321455059607118 -0.27099517277482682 0 0.025198844591401721 -0.26818382559869958 0 0.030500885315652961 -0.26386827852953348 0 0.030321455059607118 -0.27099517277482682 0 0.025198844591401721 -0.26818382559869958 0 0.024863241332177741 -0.26282089153896299 0 0.025198844591401721 -0.26818382559869958 0 0.021178977263697382 -0.26650911795080739 0 0.02062846028809431 -0.2607204990955283 0 0.021178977263697382 -0.26650911795080739 0 0.01403127854977735 -0.27236521228920929 0 0.025143030560227288 -0.27369313495422309 0 0.02094933504544232 -0.27036503450176519 0 0.01403127854977735 -0.27236521228920929 0 0.025198844591401721 -0.26818382559869958 0 0.021178977263697382 -0.26650911795080739 0 0.02094933504544232 -0.27036503450176519 0 0.021178977263697382 -0.26650911795080739 0 0.02094933504544232 -0.27036503450176519 0 0.01403127854977735 -0.27236521228920929 0 0.01711732494150001 -0.25097009602916809 0 0.01403127854977735 -0.27236521228920929 0 -0.013135790141680811 -0.26450473202623692 0 0.009530566450491015 -0.27422102640786272 0 0.012734451938935651 -0.25003953391982359 0 0.009530566450491015 -0.27422102640786272 0 0.01403127854977735 -0.27236521228920929 0 0.012734451938935651 -0.25003953391982359 0 0.01711732494150001 -0.25097009602916809 0 0.01403127854977735 -0.27236521228920929 0 0.012734451938935651 -0.25003953391982359 0 0.009530566450491015 -0.27422102640786272 0 0.012734451938935651 -0.25003953391982359 0 0.012734451938935651 -0.25003953391982359 0 0.015938337427378411 -0.2258580414317844 0 -0.0041270044632565851 -0.24036354253699119 0 0.012734451938935651 -0.25003953391982359 0 0.015938337427378411 -0.2258580414317844 0 -0.0041270044632565851 -0.24036354253699119 0 0.0048817812151679806 -0.21622235304774551 0 -0.0041270044632565851 -0.24036354253699119 0 0.015938337427378411 -0.2258580414317844 0 0.0048817812151679806 -0.21622235304774551 0 0.015938337427378411 -0.2258580414317844 0 0.0048817812151679806 -0.21622235304774551 0 0.02020337133322344 -0.229574979769127 0 0.027562665610264939 -0.23598853793488461 0 0.022435698781411991 -0.21409857429038731 0 0.027562665610264939 -0.23598853793488461 0 0.022435698781411991 -0.21409857429038731 0 0.032848738050503187 -0.22313338633460569 0 0.027562665610264939 -0.23598853793488461 0 0.022435698781411991 -0.21409857429038731 0 0.02020337133322344 -0.229574979769127 0 0.015938337427378411 -0.2258580414317844 0 0.02020337133322344 -0.229574979769127 0 0.015938337427378411 -0.2258580414317844 0 0.022435698781411991 -0.21409857429038731 0 0.02020337133322344 -0.229574979769127 0 0.022435698781411991 -0.21409857429038731 0 0.02020337133322344 -0.229574979769127 0 0.027562665610264939 -0.23598853793488461 0 0.012734451938935651 -0.25003953391982359 0 0.02020337133322344 -0.229574979769127 0 0.015938337427378411 -0.2258580414317844 0 0.025927881846478588 -0.25629462338353232 0 0.01711732494150001 -0.25097009602916809 0 0.027562665610264939 -0.23598853793488461 0 0.01711732494150001 -0.25097009602916809 0 0.02020337133322344 -0.229574979769127 0 0.01711732494150001 -0.25097009602916809 0 0.02020337133322344 -0.229574979769127 0 0.027562665610264939 -0.23598853793488461 0 0.01711732494150001 -0.25097009602916809 0 0.012734451938935651 -0.25003953391982359 0 0.02020337133322344 -0.229574979769127 0 -0.0033692767582445778 -0.1865352550921229 0 0.01304787858981893 -0.19433934781861331 0 0.0057877146420492213 -0.18650980480257859 0 0.01304787858981893 -0.19433934781861331 0 0.015972306848338901 -0.186502644931369 0 0.0057877146420492213 -0.18650980480257859 0 0.01304787858981893 -0.19433934781861331 0 0.015972306848338901 -0.186502644931369 0 0.01304787858981893 -0.19433934781861331 0 0.017869365084296349 -0.19460227522016479 0 -0.0013623835559313359 -0.20165386277560371 0 0.01304787858981893 -0.19433934781861331 0 0.0048817812151679806 -0.21622235304774551 0 0.01304787858981893 -0.19433934781861331 0 0.0048817812151679806 -0.21622235304774551 0 0.019280980274082361 -0.200629270559886 0 0.01304787858981893 -0.19433934781861331 0 0.0048817812151679806 -0.21622235304774551 0 0.015938337427378411 -0.2258580414317844 0 0.0048817812151679806 -0.21622235304774551 0 0.019280980274082361 -0.200629270559886 0 0.015938337427378411 -0.2258580414317844 0 0.022435698781411991 -0.21409857429038731 0 0.019280980274082361 -0.200629270559886 0 0.015938337427378411 -0.2258580414317844 0 0.019280980274082361 -0.200629270559886 0 0.022435698781411991 -0.21409857429038731 0 0.032878323800087622 -0.2067500810825427 0 0.032848738050503187 -0.22313338633460569 0 0.022435698781411991 -0.21409857429038731 0 0.019280980274082361 -0.200629270559886 0 0.02519027369047468 -0.1950015021969613 0 0.022435698781411991 -0.21409857429038731 0 0.02519027369047468 -0.1950015021969613 0 0.022435698781411991 -0.21409857429038731 0 0.02519027369047468 -0.1950015021969613 0 0.032878323800087622 -0.2067500810825427 0 0.022435698781411991 -0.21409857429038731 0 0.019280980274082361 -0.200629270559886 0 0.019280980274082361 -0.200629270559886 0 0.020063662515542601 -0.1947219356034261 0 0.017869365084296349 -0.19460227522016479 0 0.019280980274082361 -0.200629270559886 0 0.017869365084296349 -0.19460227522016479 0 0.01304787858981893 -0.19433934781861331 0 0.019280980274082361 -0.200629270559886 0 0.017869365084296349 -0.19460227522016479 0 0.019280980274082361 -0.200629270559886 0 0.020063662515542601 -0.1947219356034261 0 0.019280980274082361 -0.200629270559886 0 0.02519027369047468 -0.1950015021969613 0 0.020063662515542601 -0.1947219356034261 0 0.02519027369047468 -0.1950015021969613 0 0.026099474476638761 -0.18869814377180241 0 0.035518491049797103 -0.18673091951802931 0 0.02519027369047468 -0.1950015021969613 0 0.026099474476638761 -0.18869814377180241 0 0.02519027369047468 -0.1950015021969613 0 0.026099474476638761 -0.18869814377180241 0 0.020063662515542601 -0.1947219356034261 0 0.020063662515542601 -0.1947219356034261 0 0.017869365084296349 -0.19460227522016479 0 0.015972306848338901 -0.186502644931369 0 0.01304787858981893 -0.19433934781861331 0 0.017869365084296349 -0.19460227522016479 0 0.015972306848338901 -0.186502644931369 0 0.017869365084296349 -0.19460227522016479 0 0.015972306848338901 -0.186502644931369 0 0.020063662515542601 -0.1947219356034261 0 0.015972306848338901 -0.186502644931369 0 0.01780028614108126 -0.1816041385106682 0 0.02519027369047468 -0.1950015021969613 0 0.020063662515542601 -0.1947219356034261 0 0.020063662515542601 -0.1947219356034261 0 0.017869365084296349 -0.19460227522016479 0 0.02519027369047468 -0.1950015021969613 0 0.032878323800087622 -0.2067500810825427 0 0.052559633500140167 -0.19649402004703981 0 0.02519027369047468 -0.1950015021969613 0 0.052559633500140167 -0.19649402004703981 0 0.035518491049797103 -0.18673091951802931 0 0.02519027369047468 -0.1950015021969613 0 0.052559633500140167 -0.19649402004703981 0 0.032878323800087622 -0.2067500810825427 0 0.042017531312749733 -0.21434274908168841 0 0.052559633500140167 -0.19649402004703981 0 0.032878323800087622 -0.2067500810825427 0 0.042017531312749733 -0.21434274908168841 0 0.032848738050503187 -0.22313338633460569 0 0.042017531312749733 -0.21434274908168841 0 0.054441621117431317 -0.21078834876016939 0 0.052559633500140167 -0.19649402004703981 0 0.042017531312749733 -0.21434274908168841 0 0.054441621117431317 -0.21078834876016939 0 0.057303333238901459 -0.222703514500879 0 0.054441621117431317 -0.21078834876016939 0 0.057303333238901459 -0.222703514500879 0 0.065885986417933917 -0.2096131114110702 0 0.054441621117431317 -0.21078834876016939 0 0.052559633500140167 -0.19649402004703981 0 0.065885986417933917 -0.2096131114110702 0 0.034450484048312288 -0.26539658761254009 0 0.027562665610264939 -0.23598853793488461 0 0.039266109448244137 -0.2461879830133091 0 0.027562665610264939 -0.23598853793488461 0 0.039266109448244137 -0.2461879830133091 0 0.027562665610264939 -0.23598853793488461 0 0.039266109448244137 -0.2461879830133091 0 0.042617986440352251 -0.23245588290167951 0 0.027562665610264939 -0.23598853793488461 0 0.032848738050503187 -0.22313338633460569 0 0.042617986440352251 -0.23245588290167951 0 0.042017531312749733 -0.21434274908168841 0 0.032848738050503187 -0.22313338633460569 0 0.042617986440352251 -0.23245588290167951 0 0.042017531312749733 -0.21434274908168841 0 0.042617986440352251 -0.23245588290167951 0 0.057303333238901459 -0.222703514500879 0 0.042617986440352251 -0.23245588290167951 0 0.057303333238901459 -0.222703514500879 0 0.05929568821017632 -0.24416858529782309 0 0.039266109448244137 -0.2461879830133091 0 0.042617986440352251 -0.23245588290167951 0 0.05929568821017632 -0.24416858529782309 0 0.042617986440352251 -0.23245588290167951 0 0.05929568821017632 -0.24416858529782309 0 0.050969553286227168 -0.25638742809172921 0 0.039266109448244137 -0.2461879830133091 0 0.05929568821017632 -0.24416858529782309 0 0.079582640662523838 -0.25841605415645169 0 0.05929568821017632 -0.24416858529782309 0 0.076544452823221615 -0.2418656299360194 0 0.05929568821017632 -0.24416858529782309 0 0.076544452823221615 -0.2418656299360194 0 0.071882269288540315 -0.22569741507128871 0 0.05929568821017632 -0.24416858529782309 0 0.071882269288540315 -0.22569741507128871 0 0.090742891531442632 -0.25082384707713479 0 0.076544452823221615 -0.2418656299360194 0 0.087524468095934199 -0.24083574122919349 0 0.076544452823221615 -0.2418656299360194 0 0.087524468095934199 -0.24083574122919349 0 0.083560827610394572 -0.2343066445099922 0 0.087524468095934199 -0.24083574122919349 0 0.091645870130806301 -0.23444307494967279 0 0.083560827610394572 -0.2343066445099922 0 0.087524468095934199 -0.24083574122919349 0 0.091645870130806301 -0.23444307494967279 0 0.095128298383805807 -0.2427395096731482 0 0.090742891531442632 -0.25082384707713479 0 0.087524468095934199 -0.24083574122919349 0 0.095128298383805807 -0.2427395096731482 0 0.092976001503483091 -0.23002918089393609 0 0.071882269288540315 -0.22569741507128871 0 0.092976001503483091 -0.23002918089393609 0 0.083560827610394572 -0.2343066445099922 0 0.071882269288540315 -0.22569741507128871 0 0.092976001503483091 -0.23002918089393609 0 0.071882269288540315 -0.22569741507128871 0 0.088758453688117689 -0.21707587988990271 0 0.091645870130806301 -0.23444307494967279 0 0.092976001503483091 -0.23002918089393609 0 0.083560827610394572 -0.2343066445099922 0 0.091645870130806301 -0.23444307494967279 0 0.092976001503483091 -0.23002918089393609 0 0.076544452823221615 -0.2418656299360194 0 0.083560827610394572 -0.2343066445099922 0 0.071882269288540315 -0.22569741507128871 0 0.057303333238901459 -0.222703514500879 0 0.05929568821017632 -0.24416858529782309 0 0.071882269288540315 -0.22569741507128871 0 0.057303333238901459 -0.222703514500879 0 0.071882269288540315 -0.22569741507128871 0 0.065885986417933917 -0.2096131114110702 0 0.071882269288540315 -0.22569741507128871 0 0.080508198999321282 -0.21303861479360151 0 0.057303333238901459 -0.222703514500879 0 0.071882269288540315 -0.22569741507128871 0 0.071882269288540315 -0.22569741507128871 0 0.065885986417933917 -0.2096131114110702 0 0.080508198999321282 -0.21303861479360151 0 0.065885986417933917 -0.2096131114110702 0 0.079928993309805643 -0.19798653789712101 0 0.080508198999321282 -0.21303861479360151 0 0.052559633500140167 -0.19649402004703981 0 0.065885986417933917 -0.2096131114110702 0 0.079928993309805643 -0.19798653789712101 0 0.052559633500140167 -0.19649402004703981 0 0.079928993309805643 -0.19798653789712101 0 0.052559633500140167 -0.19649402004703981 0 0.079928993309805643 -0.19798653789712101 0 0.073405559501508399 -0.18449921630723379 0 0.079928993309805643 -0.19798653789712101 0 0.088832573103931251 -0.1862407775921775 0 0.073405559501508399 -0.18449921630723379 0 0.079928993309805643 -0.19798653789712101 0 0.089134128710102151 -0.20037981451591441 0 0.088832573103931251 -0.1862407775921775 0 0.071882269288540315 -0.22569741507128871 0 0.080508198999321282 -0.21303861479360151 0 0.088758453688117689 -0.21707587988990271 0 0.089134128710102151 -0.20037981451591441 0 0.080508198999321282 -0.21303861479360151 0 0.079928993309805643 -0.19798653789712101 0 0.089134128710102151 -0.20037981451591441 0 0.080508198999321282 -0.21303861479360151 0 0.089134128710102151 -0.20037981451591441 0 0.091322717649492346 -0.20877997575000501 0 0.099857275760875872 -0.20719443226344919 0 0.089134128710102151 -0.20037981451591441 0 0.080508198999321282 -0.21303861479360151 0 0.091322717649492346 -0.20877997575000501 0 0.080508198999321282 -0.21303861479360151 0 0.091322717649492346 -0.20877997575000501 0 0.088758453688117689 -0.21707587988990271 0 0.091322717649492346 -0.20877997575000501 0 0.088758453688117689 -0.21707587988990271 0 0.099857275760875872 -0.20719443226344919 0 0.092976001503483091 -0.23002918089393609 0 0.088758453688117689 -0.21707587988990271 0 0.099857275760875872 -0.20719443226344919 0 0.092976001503483091 -0.23002918089393609 0 0.099857275760875872 -0.20719443226344919 0 0.099857275760875872 -0.20719443226344919 0 0.1103486490406296 -0.2122177742064161 0 0.11536460230474629 -0.20352698436675029 0 0.099857275760875872 -0.20719443226344919 0 0.1103486490406296 -0.2122177742064161 0 0.1069852100211541 -0.22179665609962301 0 0.099857275760875872 -0.20719443226344919 0 0.11536460230474629 -0.20352698436675029 0 0.1067385500182686 -0.1843596836329624 0 0.089134128710102151 -0.20037981451591441 0 0.1067385500182686 -0.1843596836329624 0 0.088832573103931251 -0.1862407775921775 0 0.089134128710102151 -0.20037981451591441 0 0.099857275760875872 -0.20719443226344919 0 0.1067385500182686 -0.1843596836329624 0 0.099857275760875872 -0.20719443226344919 0 0.1067385500182686 -0.1843596836329624 0 0.12454488208232919 -0.1889002379084101 0 0.11536460230474629 -0.20352698436675029 0 0.1067385500182686 -0.1843596836329624 0 0.1103486490406296 -0.2122177742064161 0 0.12392817470783039 -0.21827741454854449 0 0.1069852100211541 -0.22179665609962301 0 0.1103486490406296 -0.2122177742064161 0 0.11536460230474629 -0.20352698436675029 0 0.12392817470783039 -0.21827741454854449 0 0.12392817470783039 -0.21827741454854449 0 0.1166162361214069 -0.23488389125594281 0 0.1069852100211541 -0.22179665609962301 0 0.1075085407432959 -0.25056148448873611 0 0.1166162361214069 -0.23488389125594281 0 0.1284525449190799 -0.24687969302089219 0 0.1075085407432959 -0.25056148448873611 0 0.1166162361214069 -0.23488389125594281 0 0.10098864520756271 -0.238371220151153 0 0.092976001503483091 -0.23002918089393609 0 0.1166162361214069 -0.23488389125594281 0 0.10098864520756271 -0.238371220151153 0 0.090742891531442632 -0.25082384707713479 0 0.1075085407432959 -0.25056148448873611 0 0.095128298383805807 -0.2427395096731482 0 0.1075085407432959 -0.25056148448873611 0 0.095128298383805807 -0.2427395096731482 0 0.10098864520756271 -0.238371220151153 0 0.091645870130806301 -0.23444307494967279 0 0.095128298383805807 -0.2427395096731482 0 0.10098864520756271 -0.238371220151153 0 0.092976001503483091 -0.23002918089393609 0 0.1166162361214069 -0.23488389125594281 0 0.092976001503483091 -0.23002918089393609 0 0.1166162361214069 -0.23488389125594281 0 0.1069852100211541 -0.22179665609962301 0 0.092976001503483091 -0.23002918089393609 0 0.099857275760875872 -0.20719443226344919 0 0.1069852100211541 -0.22179665609962301 0 0.091645870130806301 -0.23444307494967279 0 0.092976001503483091 -0.23002918089393609 0 0.10098864520756271 -0.238371220151153 0 0.09457628853914514 -0.14327748642630461 0 0.1040592008594057 -0.15752606639575911 0 0.094167288550399714 -0.16073224519957591 0 0.1085662006434794 -0.14614004285776791 0 0.09457628853914514 -0.14327748642630461 0 0.1024051907827668 -0.13250073025638751 0 0.1085662006434794 -0.14614004285776791 0 0.09457628853914514 -0.14327748642630461 0 0.1040592008594057 -0.15752606639575911 0 0.1085662006434794 -0.14614004285776791 0 0.1136198242756614 -0.16152493500247561 0 0.1040592008594057 -0.15752606639575911 0 0.09457628853914514 -0.14327748642630461 0 0.1024051907827668 -0.13250073025638751 0 0.091218715485478247 -0.12589577324664561 0 0.1085662006434794 -0.14614004285776791 0 0.1024051907827668 -0.13250073025638751 0 0.11632079594605441 -0.1283509318835161 0 0.1024051907827668 -0.13250073025638751 0 0.091218715485478247 -0.12589577324664561 0 0.1013439532996771 -0.11883941686770309 0 0.1024051907827668 -0.13250073025638751 0 0.11632079594605441 -0.1283509318835161 0 0.1013439532996771 -0.11883941686770309 0 0.11632079594605441 -0.1283509318835161 0 0.12641353394554081 -0.1142415228691516 0 0.1297954289867197 -0.13653009208207589 0 0.11632079594605441 -0.1283509318835161 0 0.1203722275254924 -0.1547889228157035 0 0.1297954289867197 -0.13653009208207589 0 0.1085662006434794 -0.14614004285776791 0 0.11632079594605441 -0.1283509318835161 0 0.1203722275254924 -0.1547889228157035 0 0.11632079594605441 -0.1283509318835161 0 0.1203722275254924 -0.1547889228157035 0 0.1085662006434794 -0.14614004285776791 0 0.1203722275254924 -0.1547889228157035 0 0.1136198242756614 -0.16152493500247561 0 0.1203722275254924 -0.1547889228157035 0 0.12444326469747551 -0.1648802859662053 0 0.1136198242756614 -0.16152493500247561 0 0.12444326469747551 -0.1648802859662053 0 0.1136198242756614 -0.16152493500247561 0 0.119803416229997 -0.17584258034360181 0 0.1136198242756614 -0.16152493500247561 0 0.119803416229997 -0.17584258034360181 0 0.1067385500182686 -0.1843596836329624 0 0.12454488208232919 -0.1889002379084101 0 0.119803416229997 -0.17584258034360181 0 0.1067385500182686 -0.1843596836329624 0 0.1136198242756614 -0.16152493500247561 0 0.1067385500182686 -0.1843596836329624 0 0.1136198242756614 -0.16152493500247561 0 0.1067385500182686 -0.1843596836329624 0 0.09892477370643793 -0.17104766855017711 0 0.1067385500182686 -0.1843596836329624 0 0.09892477370643793 -0.17104766855017711 0 0.088832573103931251 -0.1862407775921775 0 0.1136198242756614 -0.16152493500247561 0 0.1040592008594057 -0.15752606639575911 0 0.09892477370643793 -0.17104766855017711 0 0.1040592008594057 -0.15752606639575911 0 0.09892477370643793 -0.17104766855017711 0 0.094167288550399714 -0.16073224519957591 0 0.094167288550399714 -0.16073224519957591 0 0.080988609298250899 -0.16197153609101811 0 0.085396293509374138 -0.17555686753058289 0 0.09892477370643793 -0.17104766855017711 0 0.094167288550399714 -0.16073224519957591 0 0.085396293509374138 -0.17555686753058289 0 0.080988609298250899 -0.16197153609101811 0 0.085396293509374138 -0.17555686753058289 0 0.07273907127746182 -0.16992051387414239 0 0.094167288550399714 -0.16073224519957591 0 0.080988609298250899 -0.16197153609101811 0 0.080852344510724428 -0.14989686568903621 0 0.09892477370643793 -0.17104766855017711 0 0.088832573103931251 -0.1862407775921775 0 0.085396293509374138 -0.17555686753058289 0 0.088832573103931251 -0.1862407775921775 0 0.085396293509374138 -0.17555686753058289 0 0.073405559501508399 -0.18449921630723379 0 0.052559633500140167 -0.19649402004703981 0 0.073405559501508399 -0.18449921630723379 0 0.062274460661385637 -0.17732598044099021 0 0.085396293509374138 -0.17555686753058289 0 0.073405559501508399 -0.18449921630723379 0 0.07273907127746182 -0.16992051387414239 0 0.073405559501508399 -0.18449921630723379 0 0.07273907127746182 -0.16992051387414239 0 0.062274460661385637 -0.17732598044099021 0 0.080988609298250899 -0.16197153609101811 0 0.07161923957607047 -0.15677782580851221 0 0.07273907127746182 -0.16992051387414239 0 0.07273907127746182 -0.16992051387414239 0 0.062274460661385637 -0.17732598044099021 0 0.060381499574820127 -0.1647219059264943 0 0.07161923957607047 -0.15677782580851221 0 0.07273907127746182 -0.16992051387414239 0 0.060381499574820127 -0.1647219059264943 0 0.07161923957607047 -0.15677782580851221 0 0.058388290445331663 -0.15202371087078731 0 0.060381499574820127 -0.1647219059264943 0 0.07161923957607047 -0.15677782580851221 0 0.068747749749356393 -0.14528491634064669 0 0.058388290445331663 -0.15202371087078731 0 0.068747749749356393 -0.14528491634064669 0 0.080852344510724428 -0.14989686568903621 0 0.07501489135112395 -0.1313371842681596 0 0.080988609298250899 -0.16197153609101811 0 0.07161923957607047 -0.15677782580851221 0 0.080852344510724428 -0.14989686568903621 0 0.07161923957607047 -0.15677782580851221 0 0.068747749749356393 -0.14528491634064669 0 0.080852344510724428 -0.14989686568903621 0 0.09457628853914514 -0.14327748642630461 0 0.094167288550399714 -0.16073224519957591 0 0.080852344510724428 -0.14989686568903621 0 0.09457628853914514 -0.14327748642630461 0 0.080852344510724428 -0.14989686568903621 0 0.07501489135112395 -0.1313371842681596 0 0.09457628853914514 -0.14327748642630461 0 0.091218715485478247 -0.12589577324664561 0 0.07501489135112395 -0.1313371842681596 0 0.068747749749356393 -0.14528491634064669 0 0.07501489135112395 -0.1313371842681596 0 0.057157549162350219 -0.13908537946467861 0 0.07501489135112395 -0.1313371842681596 0 0.055668129581918802 -0.12685550604352391 0 0.057157549162350219 -0.13908537946467861 0 0.055668129581918802 -0.12685550604352391 0 0.043219538279132642 -0.1346075969994612 0 0.044995584341129213 -0.120807544185076 0 0.055668129581918802 -0.12685550604352391 0 0.057157549162350219 -0.13908537946467861 0 0.043219538279132642 -0.1346075969994612 0 0.068747749749356393 -0.14528491634064669 0 0.057157549162350219 -0.13908537946467861 0 0.058388290445331663 -0.15202371087078731 0 0.058388290445331663 -0.15202371087078731 0 0.043856431697066392 -0.14825125237117009 0 0.046680584910513037 -0.16028852684149 0 0.057157549162350219 -0.13908537946467861 0 0.043856431697066392 -0.14825125237117009 0 0.043219538279132642 -0.1346075969994612 0 0.057157549162350219 -0.13908537946467861 0 0.058388290445331663 -0.15202371087078731 0 0.043856431697066392 -0.14825125237117009 0 0.043856431697066392 -0.14825125237117009 0 0.043219538279132642 -0.1346075969994612 0 0.02659552962005618 -0.14542232864481541 0 0.043856431697066392 -0.14825125237117009 0 0.034804433166981077 -0.15860062353512849 0 0.02659552962005618 -0.14542232864481541 0 0.043856431697066392 -0.14825125237117009 0 0.046680584910513037 -0.16028852684149 0 0.034804433166981077 -0.15860062353512849 0 0.043219538279132642 -0.1346075969994612 0 0.031044005272275039 -0.1272235712875032 0 0.02659552962005618 -0.14542232864481541 0 0.043219538279132642 -0.1346075969994612 0 0.031044005272275039 -0.1272235712875032 0 0.044995584341129213 -0.120807544185076 0 0.052559633500140167 -0.19649402004703981 0 0.062274460661385637 -0.17732598044099021 0 0.050587350578158163 -0.17199487772304389 0 0.052559633500140167 -0.19649402004703981 0 0.050587350578158163 -0.17199487772304389 0 0.039814433621261039 -0.1771396286460338 0 0.050587350578158163 -0.17199487772304389 0 0.060381499574820127 -0.1647219059264943 0 0.046680584910513037 -0.16028852684149 0 0.062274460661385637 -0.17732598044099021 0 0.050587350578158163 -0.17199487772304389 0 0.060381499574820127 -0.1647219059264943 0 0.058388290445331663 -0.15202371087078731 0 0.060381499574820127 -0.1647219059264943 0 0.046680584910513037 -0.16028852684149 0 0.046680584910513037 -0.16028852684149 0 0.034804433166981077 -0.15860062353512849 0 0.037440290491704997 -0.1694514579659237 0 0.034804433166981077 -0.15860062353512849 0 0.037440290491704997 -0.1694514579659237 0 0.023329596067799191 -0.1700721321241207 0 0.050587350578158163 -0.17199487772304389 0 0.046680584910513037 -0.16028852684149 0 0.037440290491704997 -0.1694514579659237 0 0.052559633500140167 -0.19649402004703981 0 0.039814433621261039 -0.1771396286460338 0 0.035518491049797103 -0.18673091951802931 0 0.050587350578158163 -0.17199487772304389 0 0.037440290491704997 -0.1694514579659237 0 0.039814433621261039 -0.1771396286460338 0 0.037440290491704997 -0.1694514579659237 0 0.039814433621261039 -0.1771396286460338 0 0.032499984454201443 -0.17833457026610719 0 0.039814433621261039 -0.1771396286460338 0 0.032499984454201443 -0.17833457026610719 0 0.035518491049797103 -0.18673091951802931 0 0.026099474476638761 -0.18869814377180241 0 0.032499984454201443 -0.17833457026610719 0 0.035518491049797103 -0.18673091951802931 0 0.020063662515542601 -0.1947219356034261 0 0.023329596067799191 -0.1700721321241207 0 0.026099474476638761 -0.18869814377180241 0 0.032499984454201443 -0.17833457026610719 0 0.023329596067799191 -0.1700721321241207 0 0.026099474476638761 -0.18869814377180241 0 0.020063662515542601 -0.1947219356034261 0 0.023329596067799191 -0.1700721321241207 0 0.020063662515542601 -0.1947219356034261 0 0.01780028614108126 -0.1816041385106682 0 0.023329596067799191 -0.1700721321241207 0 0.015972306848338901 -0.186502644931369 0 0.01780028614108126 -0.1816041385106682 0 0.037440290491704997 -0.1694514579659237 0 0.032499984454201443 -0.17833457026610719 0 0.023329596067799191 -0.1700721321241207 0 0.023329596067799191 -0.1700721321241207 0 0.01030552788973225 -0.16230791351880899 0 0.015958975908007191 -0.1514614495187683 0 0.034804433166981077 -0.15860062353512849 0 0.023329596067799191 -0.1700721321241207 0 0.02659552962005618 -0.14542232864481541 0 0.01780028614108126 -0.1816041385106682 0 0.023329596067799191 -0.1700721321241207 0 0.01030552788973225 -0.16230791351880899 0 0.023329596067799191 -0.1700721321241207 0 0.02659552962005618 -0.14542232864481541 0 -0.001887691363514975 -0.164656958179625 0 0.01030552788973225 -0.16230791351880899 0 2.2319898320726539e-05 -0.15308584406029441 0 -0.001887691363514975 -0.164656958179625 0 -5.3544461884005358e-06 -0.1771938024683295 0 0.01030552788973225 -0.16230791351880899 0 0.015972306848338901 -0.186502644931369 0 0.01780028614108126 -0.1816041385106682 0 0.01030552788973225 -0.16230791351880899 0 0.015972306848338901 -0.186502644931369 0 0.01030552788973225 -0.16230791351880899 0 -5.3544461884005358e-06 -0.1771938024683295 0 0.015972306848338901 -0.186502644931369 0 0.01030552788973225 -0.16230791351880899 0 -5.3544461884005358e-06 -0.1771938024683295 0 0.015972306848338901 -0.186502644931369 0 0.0057877146420492213 -0.18650980480257859 0 -0.0033692767582445778 -0.1865352550921229 0 -5.3544461884005358e-06 -0.1771938024683295 0 0.0057877146420492213 -0.18650980480257859 0 0.020685529134713242 -0.1334480787573229 0 0.031044005272275039 -0.1272235712875032 0 0.02659552962005618 -0.14542232864481541 0 0.020685529134713242 -0.1334480787573229 0 0.01666858614473242 -0.1432411966977096 0 0.01352174788559549 -0.1356140404713681 0 0.020685529134713242 -0.1334480787573229 0 0.01352174788559549 -0.1356140404713681 0 0.012989023742748599 -0.1284818226525006 0 0.020685529134713242 -0.1334480787573229 0 0.012989023742748599 -0.1284818226525006 0 0.023294282142871742 -0.1207055127900406 0 0.020685529134713242 -0.1334480787573229 0 0.031044005272275039 -0.1272235712875032 0 0.023294282142871742 -0.1207055127900406 0 0.023329596067799191 -0.1700721321241207 0 0.02659552962005618 -0.14542232864481541 0 0.015958975908007191 -0.1514614495187683 0 0.020685529134713242 -0.1334480787573229 0 0.02659552962005618 -0.14542232864481541 0 0.01666858614473242 -0.1432411966977096 0 0.02659552962005618 -0.14542232864481541 0 0.015958975908007191 -0.1514614495187683 0 0.01666858614473242 -0.1432411966977096 0 0.015958975908007191 -0.1514614495187683 0 0.01666858614473242 -0.1432411966977096 0 0.0085586979493707596 -0.14172270514721641 0 0.01030552788973225 -0.16230791351880899 0 0.015958975908007191 -0.1514614495187683 0 0.0085586979493707596 -0.14172270514721641 0 0.01030552788973225 -0.16230791351880899 0 0.0085586979493707596 -0.14172270514721641 0 0.0046387489311270954 -0.13811318210624859 0 0.01030552788973225 -0.16230791351880899 0 0.0046387489311270954 -0.13811318210624859 0 0.01030552788973225 -0.16230791351880899 0 2.2319898320726539e-05 -0.15308584406029441 0 0.0046387489311270954 -0.13811318210624859 0 -0.003295276397832322 -0.14382612380074011 0 2.2319898320726539e-05 -0.15308584406029441 0 0.0046387489311270954 -0.13811318210624859 0 -0.001028030027478062 -0.11391845069368831 0 0.0046387489311270954 -0.13811318210624859 0 0.012989023742748599 -0.1284818226525006 0 -0.001028030027478062 -0.11391845069368831 0 0.0046387489311270954 -0.13811318210624859 0 0.0085586979493707596 -0.14172270514721641 0 0.012989023742748599 -0.1284818226525006 0 0.0085586979493707596 -0.14172270514721641 0 0.0046387489311270954 -0.13811318210624859 0 0.012989023742748599 -0.1284818226525006 0 0.0085586979493707596 -0.14172270514721641 0 0.01352174788559549 -0.1356140404713681 0 0.012989023742748599 -0.1284818226525006 0 0.01666858614473242 -0.1432411966977096 0 0.0085586979493707596 -0.14172270514721641 0 0.01352174788559549 -0.1356140404713681 0 0.01352174788559549 -0.1356140404713681 0 0.012989023742748599 -0.1284818226525006 0 -0.001028030027478062 -0.11391845069368831 0 0.012989023742748599 -0.1284818226525006 0 0.011412519828645421 -0.1073752716192235 0 0.012989023742748599 -0.1284818226525006 0 0.021114501190329451 -0.1041972672688614 0 0.011412519828645421 -0.1073752716192235 0 0.012989023742748599 -0.1284818226525006 0 0.011412519828645421 -0.1073752716192235 0 0.023294282142871742 -0.1207055127900406 0 0.030027390330725011 -0.1121775824533021 0 0.021114501190329451 -0.1041972672688614 0 0.012989023742748599 -0.1284818226525006 0 0.023294282142871742 -0.1207055127900406 0 0.021114501190329451 -0.1041972672688614 0 0.012989023742748599 -0.1284818226525006 0 0.021114501190329451 -0.1041972672688614 0 0.031044005272275039 -0.1272235712875032 0 0.023294282142871742 -0.1207055127900406 0 0.030027390330725011 -0.1121775824533021 0 0.030192840571277781 -0.103025418710359 0 0.021114501190329451 -0.1041972672688614 0 0.029239978637909569 -0.079912711885221893 0 0.030027390330725011 -0.1121775824533021 0 0.030192840571277781 -0.103025418710359 0 0.021114501190329451 -0.1041972672688614 0 0.011412519828645421 -0.1073752716192235 0 0.0098360159145431079 -0.086268720585946285 0 0.011412519828645421 -0.1073752716192235 0 0.0033814241824068128 -0.099321540544996478 0 0.0098360159145431079 -0.086268720585946285 0 0.021114501190329451 -0.1041972672688614 0 0.011412519828645421 -0.1073752716192235 0 0.0098360159145431079 -0.086268720585946285 0 -0.001028030027478062 -0.11391845069368831 0 0.011412519828645421 -0.1073752716192235 0 0.0033814241824068128 -0.099321540544996478 0 -0.0066948089860832194 -0.089723719281127878 0 0.0033814241824068128 -0.099321540544996478 0 0.0098360159145431079 -0.086268720585946285 0 -0.00024021725394687791 -0.076670899322077657 0 -0.0066948089860832194 -0.089723719281127878 0 0.0098360159145431079 -0.086268720585946285 0 0.0098360159145431079 -0.086268720585946285 0 0.0082595120004408315 -0.065162169552669041 0 0.01715474364761958 -0.065003936776481391 0 -0.00024021725394687791 -0.076670899322077657 0 0.0098360159145431079 -0.086268720585946285 0 0.0082595120004408315 -0.065162169552669041 0 0.0098360159145431079 -0.086268720585946285 0 0.0082595120004408315 -0.065162169552669041 0 0.0082595120004408315 -0.065162169552669041 0 0.01715474364761958 -0.065003936776481391 0 0.01715474364761958 -0.065003936776481391 0 0.029239978637909569 -0.079912711885221893 0 0.03736545608548969 -0.055628156501582357 0 0.0098360159145431079 -0.086268720585946285 0 0.01715474364761958 -0.065003936776481391 0 0.029239978637909569 -0.079912711885221893 0 0.021114501190329451 -0.1041972672688614 0 0.0098360159145431079 -0.086268720585946285 0 0.029239978637909569 -0.079912711885221893 0 0.021114501190329451 -0.1041972672688614 0 0.029239978637909569 -0.079912711885221893 0 0.0454814956437877 -0.084188917138116409 0 0.053027828366359137 -0.1000226369663761 0 0.036298843294205137 -0.096205872852507146 0 0.030192840571277781 -0.103025418710359 0 0.029239978637909569 -0.079912711885221893 0 0.036298843294205137 -0.096205872852507146 0 0.029239978637909569 -0.079912711885221893 0 0.0454814956437877 -0.084188917138116409 0 0.036298843294205137 -0.096205872852507146 0 0.029239978637909569 -0.079912711885221893 0 0.046268124595260272 -0.069916709785880368 0 0.03736545608548969 -0.055628156501582357 0 0.029239978637909569 -0.079912711885221893 0 0.0454814956437877 -0.084188917138116409 0 0.046268124595260272 -0.069916709785880368 0 0.029239978637909569 -0.079912711885221893 0 0.03736545608548969 -0.055628156501582357 0 0.046268124595260272 -0.069916709785880368 0 0.060396487192455869 -0.077688968062046379 0 0.058857205416658537 -0.052164795342434761 0 0.0454814956437877 -0.084188917138116409 0 0.046268124595260272 -0.069916709785880368 0 0.060396487192455869 -0.077688968062046379 0 0.0454814956437877 -0.084188917138116409 0 0.060396487192455869 -0.077688968062046379 0 0.053027828366359137 -0.1000226369663761 0 0.060396487192455869 -0.077688968062046379 0 0.053027828366359137 -0.1000226369663761 0 0.068722248181336584 -0.091728672433855754 0 0.053027828366359137 -0.1000226369663761 0 0.068722248181336584 -0.091728672433855754 0 0.053027828366359137 -0.1000226369663761 0 0.061629400372374903 -0.1161342973840119 0 0.06921873473027039 -0.1039119745009328 0 0.055668129581918802 -0.12685550604352391 0 0.061629400372374903 -0.1161342973840119 0 0.044995584341129213 -0.120807544185076 0 0.053027828366359137 -0.1000226369663761 0 0.061629400372374903 -0.1161342973840119 0 0.044995584341129213 -0.120807544185076 0 0.030027390330725011 -0.1121775824533021 0 0.053027828366359137 -0.1000226369663761 0 0.044995584341129213 -0.120807544185076 0 0.031044005272275039 -0.1272235712875032 0 0.030027390330725011 -0.1121775824533021 0 0.044995584341129213 -0.120807544185076 0 0.030027390330725011 -0.1121775824533021 0 0.053027828366359137 -0.1000226369663761 0 0.030027390330725011 -0.1121775824533021 0 0.030192840571277781 -0.103025418710359 0 0.036298843294205137 -0.096205872852507146 0 0.030027390330725011 -0.1121775824533021 0 0.053027828366359137 -0.1000226369663761 0 0.036298843294205137 -0.096205872852507146 0 0.029823443873244929 -0.015238663034871411 0 0.026669856371053929 -0.001868688990480078 0 0.01381512893962817 -0.01134674955611437 0 0.0119194590113617 0.003513960174329206 0 0.026669856371053929 -0.001868688990480078 0 0.01381512893962817 -0.01134674955611437 0 -0.0091135872956926781 -0.0064884857586527227 0 0.0119194590113617 0.003513960174329206 0 -0.0091135872956926781 -0.0064884857586527227 0 0.01381512893962817 -0.01134674955611437 0 0.0051143707887136552 -0.023054387327477829 0 -0.0091135872956926781 -0.0064884857586527227 0 0.0119194590113617 0.003513960174329206 0 0.01381512893962817 -0.01134674955611437 0 0.01381512893962817 -0.01134674955611437 0 0.0051143707887136552 -0.023054387327477829 0 0.02065811054144278 -0.029719113570340398 0 0.029823443873244929 -0.015238663034871411 0 0.01381512893962817 -0.01134674955611437 0 0.02065811054144278 -0.029719113570340398 0 0.02065811054144278 -0.029719113570340398 0 0.0066869413945772234 -0.044108278440073492 0 0.02219938249975769 -0.049407012891355899 0 0.02065811054144278 -0.029719113570340398 0 0.02219938249975769 -0.049407012891355899 0 0.045490933533069808 -0.031343601117942821 0 0.0051143707887136552 -0.023054387327477829 0 0.0066869413945772234 -0.044108278440073492 0 0.0051143707887136552 -0.023054387327477829 0 0.02065811054144278 -0.029719113570340398 0 0.0066869413945772234 -0.044108278440073492 0 -0.007540626864187619 -0.02996866905717829 0 0.0051143707887136552 -0.023054387327477829 0 0.0066869413945772234 -0.044108278440073492 0 0.0082595120004408315 -0.065162169552669041 0 0.0066869413945772234 -0.044108278440073492 0 -0.0056097205319509333 -0.050804953611167721 0 0.0082595120004408315 -0.065162169552669041 0 0.0066869413945772234 -0.044108278440073492 0 0.0082595120004408315 -0.065162169552669041 0 0.0066869413945772234 -0.044108278440073492 0 0.02219938249975769 -0.049407012891355899 0 0.01715474364761958 -0.065003936776481391 0 0.02219938249975769 -0.049407012891355899 0 0.03736545608548969 -0.055628156501582357 0 0.0082595120004408315 -0.065162169552669041 0 0.01715474364761958 -0.065003936776481391 0 0.02219938249975769 -0.049407012891355899 0 0.046268124595260272 -0.069916709785880368 0 0.03736545608548969 -0.055628156501582357 0 0.058857205416658537 -0.052164795342434761 0 0.03736545608548969 -0.055628156501582357 0 0.058857205416658537 -0.052164795342434761 0 0.045490933533069808 -0.031343601117942821 0 0.058857205416658537 -0.052164795342434761 0 0.061117874070944912 -0.034626232217066649 0 0.045490933533069808 -0.031343601117942821 0 0.02219938249975769 -0.049407012891355899 0 0.03736545608548969 -0.055628156501582357 0 0.045490933533069808 -0.031343601117942821 0 0.03736545608548969 -0.055628156501582357 0 0.045490933533069808 -0.031343601117942821 0 0.029823443873244929 -0.015238663034871411 0 0.02065811054144278 -0.029719113570340398 0 0.045490933533069808 -0.031343601117942821 0 0.029823443873244929 -0.015238663034871411 0 0.045490933533069808 -0.031343601117942821 0 0.045313929399375619 -0.0037494574130846488 0 0.061117874070944912 -0.034626232217066649 0 0.045490933533069808 -0.031343601117942821 0 0.06361918667926364 -0.019315338165353989 0 0.045490933533069808 -0.031343601117942821 0 0.045313929399375619 -0.0037494574130846488 0 0.06361918667926364 -0.019315338165353989 0 0.067233990164689603 0.0045101081110712534 0 0.045313929399375619 -0.0037494574130846488 0 0.06361918667926364 -0.019315338165353989 0 0.029823443873244929 -0.015238663034871411 0 0.026669856371053929 -0.001868688990480078 0 0.045313929399375619 -0.0037494574130846488 0 0.067233990164689603 0.0045101081110712534 0 0.085144050071697161 -0.011962341956641099 0 0.06361918667926364 -0.019315338165353989 0 0.061117874070944912 -0.034626232217066649 0 0.06361918667926364 -0.019315338165353989 0 0.076504170654787679 -0.035681194242535033 0 0.085144050071697161 -0.011962341956641099 0 0.06361918667926364 -0.019315338165353989 0 0.076504170654787679 -0.035681194242535033 0 0.085144050071697161 -0.011962341956641099 0 0.091086215380791896 -0.034045069312210033 0 0.1000552678659085 -0.022208726231411721 0 0.085144050071697161 -0.011962341956641099 0 0.091086215380791896 -0.034045069312210033 0 0.076504170654787679 -0.035681194242535033 0 0.091086215380791896 -0.034045069312210033 0 0.076504170654787679 -0.035681194242535033 0 0.081771003470835921 -0.060031709175514737 0 0.091086215380791896 -0.034045069312210033 0 0.081771003470835921 -0.060031709175514737 0 0.1031455197492164 -0.042374450288983748 0 0.058857205416658537 -0.052164795342434761 0 0.061117874070944912 -0.034626232217066649 0 0.076504170654787679 -0.035681194242535033 0 0.058857205416658537 -0.052164795342434761 0 0.076504170654787679 -0.035681194242535033 0 0.081771003470835921 -0.060031709175514737 0 0.081771003470835921 -0.060031709175514737 0 0.099664739893759055 -0.051331340964241329 0 0.094131515333126622 -0.065398886954370711 0 0.081771003470835921 -0.060031709175514737 0 0.1031455197492164 -0.042374450288983748 0 0.10411425202137781 -0.048696002195987582 0 0.1132493591638989 -0.055408604993235688 0 0.1065918045815443 -0.065506349578072137 0 0.099664739893759055 -0.051331340964241329 0 0.10411425202137781 -0.048696002195987582 0 0.1065918045815443 -0.065506349578072137 0 0.10411425202137781 -0.048696002195987582 0 0.1065918045815443 -0.065506349578072137 0 0.081771003470835921 -0.060031709175514737 0 0.099664739893759055 -0.051331340964241329 0 0.1031455197492164 -0.042374450288983748 0 0.099664739893759055 -0.051331340964241329 0 0.094131515333126622 -0.065398886954370711 0 0.1065918045815443 -0.065506349578072137 0 0.099664739893759055 -0.051331340964241329 0 0.10411425202137781 -0.048696002195987582 0 0.1031455197492164 -0.042374450288983748 0 0.099664739893759055 -0.051331340964241329 0 0.10411425202137781 -0.048696002195987582 0 0.1132493591638989 -0.055408604993235688 0 0.1065918045815443 -0.065506349578072137 0 0.1280893259241381 -0.062148339873924853 0 0.1132493591638989 -0.055408604993235688 0 0.1208386210213974 -0.050110304845489 0 0.1280893259241381 -0.062148339873924853 0 0.10411425202137781 -0.048696002195987582 0 0.1132493591638989 -0.055408604993235688 0 0.1156680670810519 -0.047713668507483417 0 0.1132493591638989 -0.055408604993235688 0 0.1208386210213974 -0.050110304845489 0 0.1156680670810519 -0.047713668507483417 0 0.1031455197492164 -0.042374450288983748 0 0.1198542827818649 -0.02857152016889377 0 0.10411425202137781 -0.048696002195987582 0 0.1156680670810519 -0.047713668507483417 0 0.12447003611753341 -0.036639761995221357 0 0.1031455197492164 -0.042374450288983748 0 0.1089056108732705 -0.02927461666222923 0 0.1198542827818649 -0.02857152016889377 0 0.12447003611753341 -0.036639761995221357 0 0.1031455197492164 -0.042374450288983748 0 0.1198542827818649 -0.02857152016889377 0 0.10411425202137781 -0.048696002195987582 0 0.12447003611753341 -0.036639761995221357 0 0.10411425202137781 -0.048696002195987582 0 0.12447003611753341 -0.036639761995221357 0 0.1031455197492164 -0.042374450288983748 0 0.1208386210213974 -0.050110304845489 0 0.12447003611753341 -0.036639761995221357 0 0.1283902630966447 -0.048264764658380317 0 0.1208386210213974 -0.050110304845489 0 0.1156680670810519 -0.047713668507483417 0 0.12447003611753341 -0.036639761995221357 0 0.1031455197492164 -0.042374450288983748 0 0.1000552678659085 -0.022208726231411721 0 0.1089056108732705 -0.02927461666222923 0 0.091086215380791896 -0.034045069312210033 0 0.1031455197492164 -0.042374450288983748 0 0.1000552678659085 -0.022208726231411721 0 0.1031455197492164 -0.042374450288983748 0 0.1000552678659085 -0.022208726231411721 0 0.10411425202137781 -0.048696002195987582 0 0.1031455197492164 -0.042374450288983748 0 0.1000552678659085 -0.022208726231411721 0 0.1109745311742166 -0.023718578724796002 0 0.1150829631758227 -0.01481945183664928 0 0.1000552678659085 -0.022208726231411721 0 0.1089056108732705 -0.02927461666222923 0 0.1109745311742166 -0.023718578724796002 0 0.1089056108732705 -0.02927461666222923 0 0.1109745311742166 -0.023718578724796002 0 0.1198542827818649 -0.02857152016889377 0 0.12447003611753341 -0.036639761995221357 0 0.1198542827818649 -0.02857152016889377 0 0.12875622596930211 -0.021249139679682501 0 0.1198542827818649 -0.02857152016889377 0 0.1150829631758227 -0.01481945183664928 0 0.12875622596930211 -0.021249139679682501 0 0.1109745311742166 -0.023718578724796002 0 0.1198542827818649 -0.02857152016889377 0 0.1150829631758227 -0.01481945183664928 0 0.1150829631758227 -0.01481945183664928 0 0.1116929663085572 -0.0018049306385004059 0 0.1019000067770314 -0.0094702647928099157 0 0.1150829631758227 -0.01481945183664928 0 0.1226802507548381 -0.0019164014345253279 0 0.12776856080380361 -0.01029712178914983 0 0.1150829631758227 -0.01481945183664928 0 0.12776856080380361 -0.01029712178914983 0 0.12875622596930211 -0.021249139679682501 0 0.1150829631758227 -0.01481945183664928 0 0.1226802507548381 -0.0019164014345253279 0 0.1116929663085572 -0.0018049306385004059 0 0.097524786463171559 0.00344412669915293 0 0.085144050071697161 -0.011962341956641099 0 0.1019000067770314 -0.0094702647928099157 0 0.097524786463171559 0.00344412669915293 0 0.1116929663085572 -0.0018049306385004059 0 0.1019000067770314 -0.0094702647928099157 0 0.085144050071697161 -0.011962341956641099 0 0.1000552678659085 -0.022208726231411721 0 0.1019000067770314 -0.0094702647928099157 0 0.1000552678659085 -0.022208726231411721 0 0.1150829631758227 -0.01481945183664928 0 0.1019000067770314 -0.0094702647928099157 0 0.078452655811647648 -0.099976180540821663 0 0.068722248181336584 -0.091728672433855754 0 0.090112443463914366 -0.093616099046057277 0 0.078452655811647648 -0.099976180540821663 0 0.086949382369496772 -0.1090236191676703 0 0.06921873473027039 -0.1039119745009328 0 0.078452655811647648 -0.099976180540821663 0 0.086949382369496772 -0.1090236191676703 0 0.090112443463914366 -0.093616099046057277 0 0.091218715485478247 -0.12589577324664561 0 0.086949382369496772 -0.1090236191676703 0 0.1013439532996771 -0.11883941686770309 0 0.091218715485478247 -0.12589577324664561 0 0.07501489135112395 -0.1313371842681596 0 0.086949382369496772 -0.1090236191676703 0 0.061629400372374903 -0.1161342973840119 0 0.086949382369496772 -0.1090236191676703 0 0.06921873473027039 -0.1039119745009328 0 0.07501489135112395 -0.1313371842681596 0 0.061629400372374903 -0.1161342973840119 0 0.086949382369496772 -0.1090236191676703 0 0.061629400372374903 -0.1161342973840119 0 0.086949382369496772 -0.1090236191676703 0 0.07501489135112395 -0.1313371842681596 0 0.055668129581918802 -0.12685550604352391 0 0.061629400372374903 -0.1161342973840119 0 0.053027828366359137 -0.1000226369663761 0 0.06921873473027039 -0.1039119745009328 0 0.068722248181336584 -0.091728672433855754 0 0.078452655811647648 -0.099976180540821663 0 0.06921873473027039 -0.1039119745009328 0 0.068722248181336584 -0.091728672433855754 0 0.060396487192455869 -0.077688968062046379 0 0.068722248181336584 -0.091728672433855754 0 0.076028266401993255 -0.087867691479450158 0 0.060396487192455869 -0.077688968062046379 0 0.076028266401993255 -0.087867691479450158 0 0.083505072566103733 -0.074427038943283702 0 0.068722248181336584 -0.091728672433855754 0 0.076028266401993255 -0.087867691479450158 0 0.060396487192455869 -0.077688968062046379 0 0.081771003470835921 -0.060031709175514737 0 0.060396487192455869 -0.077688968062046379 0 0.081771003470835921 -0.060031709175514737 0 0.083505072566103733 -0.074427038943283702 0 0.060396487192455869 -0.077688968062046379 0 0.058857205416658537 -0.052164795342434761 0 0.081771003470835921 -0.060031709175514737 0 0.083505072566103733 -0.074427038943283702 0 0.094131515333126622 -0.065398886954370711 0 0.09902870443762754 -0.075712745992524089 0 0.081771003470835921 -0.060031709175514737 0 0.083505072566103733 -0.074427038943283702 0 0.094131515333126622 -0.065398886954370711 0 0.076028266401993255 -0.087867691479450158 0 0.09902870443762754 -0.075712745992524089 0 0.076028266401993255 -0.087867691479450158 0 0.083505072566103733 -0.074427038943283702 0 0.09902870443762754 -0.075712745992524089 0 0.076028266401993255 -0.087867691479450158 0 0.090112443463914366 -0.093616099046057277 0 0.09902870443762754 -0.075712745992524089 0 0.068722248181336584 -0.091728672433855754 0 0.076028266401993255 -0.087867691479450158 0 0.090112443463914366 -0.093616099046057277 0 0.068722248181336584 -0.091728672433855754 0 0.090112443463914366 -0.093616099046057277 0 0.090112443463914366 -0.093616099046057277 0 0.09902870443762754 -0.075712745992524089 0 0.1111991682934842 -0.094929277640645598 0 0.1065918045815443 -0.065506349578072137 0 0.1111991682934842 -0.094929277640645598 0 0.09902870443762754 -0.075712745992524089 0 0.1065918045815443 -0.065506349578072137 0 0.1111991682934842 -0.094929277640645598 0 0.094131515333126622 -0.065398886954370711 0 0.09902870443762754 -0.075712745992524089 0 0.1065918045815443 -0.065506349578072137 0 0.1065918045815443 -0.065506349578072137 0 0.1280893259241381 -0.062148339873924853 0 0.1065918045815443 -0.065506349578072137 0 0.124169949165413 -0.074662251908694216 0 0.1280893259241381 -0.062148339873924853 0 0.1065918045815443 -0.065506349578072137 0 0.1127750039189017 -0.076981048097366861 0 0.124169949165413 -0.074662251908694216 0 0.1127750039189017 -0.076981048097366861 0 0.13090106973484331 -0.096680549336273139 0 0.13002987902002819 -0.086468490428733294 0 0.1127750039189017 -0.076981048097366861 0 0.124169949165413 -0.074662251908694216 0 0.13002987902002819 -0.086468490428733294 0 0.1127750039189017 -0.076981048097366861 0 0.13090106973484331 -0.096680549336273139 0 0.1065918045815443 -0.065506349578072137 0 0.1127750039189017 -0.076981048097366861 0 0.1111991682934842 -0.094929277640645598 0 0.1127750039189017 -0.076981048097366861 0 0.1111991682934842 -0.094929277640645598 0 0.13090106973484331 -0.096680549336273139 0 0.11226936436661859 -0.1019129409513284 0 0.12641353394554081 -0.1142415228691516 0 0.13090106973484331 -0.096680549336273139 0 0.11226936436661859 -0.1019129409513284 0 0.13090106973484331 -0.096680549336273139 0 0.1111991682934842 -0.094929277640645598 0 0.13090106973484331 -0.096680549336273139 0 0.11226936436661859 -0.1019129409513284 0 0.1111991682934842 -0.094929277640645598 0 0.13090106973484331 -0.096680549336273139 0 0.11226936436661859 -0.1019129409513284 0 0.1111991682934842 -0.094929277640645598 0 0.090112443463914366 -0.093616099046057277 0 0.1111991682934842 -0.094929277640645598 0 0.086949382369496772 -0.1090236191676703 0 0.090112443463914366 -0.093616099046057277 0 0.11226936436661859 -0.1019129409513284 0 0.090112443463914366 -0.093616099046057277 0 0.11226936436661859 -0.1019129409513284 0 0.1111991682934842 -0.094929277640645598 0 0.086949382369496772 -0.1090236191676703 0 0.11226936436661859 -0.1019129409513284 0 0.086949382369496772 -0.1090236191676703 0 0.11226936436661859 -0.1019129409513284 0 0.1013439532996771 -0.11883941686770309 0 0.11632079594605441 -0.1283509318835161 0 0.11226936436661859 -0.1019129409513284 0 0.12641353394554081 -0.1142415228691516 0 0.11632079594605441 -0.1283509318835161 0 0.11226936436661859 -0.1019129409513284 0 0.1013439532996771 -0.11883941686770309 0 0.11632079594605441 -0.1283509318835161 0 0.11226936436661859 -0.1019129409513284 0 0.12641353394554081 -0.1142415228691516 0 0.14475218224755601 -0.11173400941278171 0 0.140555953988212 -0.1253292230732434 0 0.14475218224755601 -0.11173400941278171 0 0.1636049173413637 -0.098192852635782202 0 0.1586032947602688 -0.12678746948929001 0 0.14475218224755601 -0.11173400941278171 0 0.140555953988212 -0.1253292230732434 0 0.1586032947602688 -0.12678746948929001 0 0.14475218224755601 -0.11173400941278171 0 0.1586032947602688 -0.12678746948929001 0 0.14801708743663791 -0.097222118454326906 0 0.13242925753191201 -0.096251384272872081 0 0.1490009127688473 -0.091597522042029395 0 0.13242925753191201 -0.096251384272872081 0 0.1490009127688473 -0.091597522042029395 0 0.14475218224755601 -0.11173400941278171 0 0.14801708743663791 -0.097222118454326906 0 0.1636049173413637 -0.098192852635782202 0 0.14801708743663791 -0.097222118454326906 0 0.1636049173413637 -0.098192852635782202 0 0.14801708743663791 -0.097222118454326906 0 0.1490009127688473 -0.091597522042029395 0 0.1636049173413637 -0.098192852635782202 0 0.14475218224755601 -0.11173400941278171 0 0.14801708743663791 -0.097222118454326906 0 0.13242925753191201 -0.096251384272872081 0 0.12641353394554081 -0.1142415228691516 0 0.14475218224755601 -0.11173400941278171 0 0.13090106973484331 -0.096680549336273139 0 0.14801708743663791 -0.097222118454326906 0 0.13242925753191201 -0.096251384272872081 0 0.14475218224755601 -0.11173400941278171 0 0.13242925753191201 -0.096251384272872081 0 0.13090106973484331 -0.096680549336273139 0 0.14475218224755601 -0.11173400941278171 0 0.13090106973484331 -0.096680549336273139 0 0.13242925753191201 -0.096251384272872081 0 0.13090106973484331 -0.096680549336273139 0 0.13242925753191201 -0.096251384272872081 0 0.1386249938704012 -0.087284997952465637 0 0.1490009127688473 -0.091597522042029395 0 0.13242925753191201 -0.096251384272872081 0 0.13090106973484331 -0.096680549336273139 0 0.13002987902002819 -0.086468490428733294 0 0.124169949165413 -0.074662251908694216 0 0.13002987902002819 -0.086468490428733294 0 0.13583793267570099 -0.078039042742011094 0 0.13002987902002819 -0.086468490428733294 0 0.1386249938704012 -0.087284997952465637 0 0.13583793267570099 -0.078039042742011094 0 0.1386249938704012 -0.087284997952465637 0 0.13583793267570099 -0.078039042742011094 0 0.14470669686999499 -0.082149991260826616 0 0.13242925753191201 -0.096251384272872081 0 0.13002987902002819 -0.086468490428733294 0 0.1386249938704012 -0.087284997952465637 0 0.13583793267570099 -0.078039042742011094 0 0.14629718449059681 -0.071664751209213534 0 0.1280893259241381 -0.062148339873924853 0 0.124169949165413 -0.074662251908694216 0 0.13583793267570099 -0.078039042742011094 0 0.1280893259241381 -0.062148339873924853 0 0.14629718449059681 -0.071664751209213534 0 0.1280893259241381 -0.062148339873924853 0 0.14958684726673199 -0.058790330169777562 0 0.13583793267570099 -0.078039042742011094 0 0.14629718449059681 -0.071664751209213534 0 0.14470669686999499 -0.082149991260826616 0 0.14629718449059681 -0.071664751209213534 0 0.15377246054442861 -0.082163642358413363 0 0.15753273850871999 -0.06987388389974851 0 0.14629718449059681 -0.071664751209213534 0 0.15753273850871999 -0.06987388389974851 0 0.14958684726673199 -0.058790330169777562 0 0.15377246054442861 -0.082163642358413363 0 0.1490009127688473 -0.091597522042029395 0 0.1655725680057826 -0.086943659811186597 0 0.1386249938704012 -0.087284997952465637 0 0.14470669686999499 -0.082149991260826616 0 0.1490009127688473 -0.091597522042029395 0 0.14629718449059681 -0.071664751209213534 0 0.14470669686999499 -0.082149991260826616 0 0.15377246054442861 -0.082163642358413363 0 0.14470669686999499 -0.082149991260826616 0 0.15377246054442861 -0.082163642358413363 0 0.1490009127688473 -0.091597522042029395 0 0.1490009127688473 -0.091597522042029395 0 0.1655725680057826 -0.086943659811186597 0 0.1490009127688473 -0.091597522042029395 0 0.1655725680057826 -0.086943659811186597 0 0.1636049173413637 -0.098192852635782202 0 0.15377246054442861 -0.082163642358413363 0 0.16650424030671751 -0.081617225829752629 0 0.15377246054442861 -0.082163642358413363 0 0.16650424030671751 -0.081617225829752629 0 0.1655725680057826 -0.086943659811186597 0 0.16650424030671751 -0.081617225829752629 0 0.1655725680057826 -0.086943659811186597 0 0.16650424030671751 -0.081617225829752629 0 0.1655725680057826 -0.086943659811186597 0 0.17268024801618251 -0.084947591037346865 0 0.1655725680057826 -0.086943659811186597 0 0.17268024801618251 -0.084947591037346865 0 0.1655725680057826 -0.086943659811186597 0 0.1636049173413637 -0.098192852635782202 0 0.1678548007356202 -0.088203361809839065 0 0.1655725680057826 -0.086943659811186597 0 0.17268024801618251 -0.084947591037346865 0 0.17138149394628241 -0.089728955967318641 0 0.1678548007356202 -0.088203361809839065 0 0.17268024801618251 -0.084947591037346865 0 0.16815299016247601 -0.093333416464958061 0 0.1655725680057826 -0.086943659811186597 0 0.1636049173413637 -0.098192852635782202 0 0.1678548007356202 -0.088203361809839065 0 0.17268024801618251 -0.084947591037346865 0 0.17138149394628241 -0.089728955967318641 0 0.16815299016247601 -0.093333416464958061 0 0.1678548007356202 -0.088203361809839065 0 0.17138149394628241 -0.089728955967318641 0 0.16815299016247601 -0.093333416464958061 0 0.1732904517987654 -0.09321998968482359 0 0.16815299016247601 -0.093333416464958061 0 0.1678548007356202 -0.088203361809839065 0 0.1655725680057826 -0.086943659811186597 0 0.16650424030671751 -0.081617225829752629 0 0.15753273850871999 -0.06987388389974851 0 0.17108436860932599 -0.055432320465631797 0 0.16650424030671751 -0.081617225829752629 0 0.17108436860932599 -0.055432320465631797 0 0.15377246054442861 -0.082163642358413363 0 0.16650424030671751 -0.081617225829752629 0 0.15753273850871999 -0.06987388389974851 0 0.18203411317678009 -0.067344991410852789 0 0.1783710916695925 -0.081107929890862629 0 0.1956090323717305 -0.06947734307623879 0 0.1783710916695925 -0.081107929890862629 0 0.18779246048199341 -0.080703588020536399 0 0.1956090323717305 -0.06947734307623879 0 0.16650424030671751 -0.081617225829752629 0 0.18203411317678009 -0.067344991410852789 0 0.17108436860932599 -0.055432320465631797 0 0.1783710916695925 -0.081107929890862629 0 0.1956090323717305 -0.06947734307623879 0 0.16650424030671751 -0.081617225829752629 0 0.18203411317678009 -0.067344991410852789 0 0.1783710916695925 -0.081107929890862629 0 0.17575305540995401 -0.089556195223041285 0 0.17268024801618251 -0.084947591037346865 0 0.1812567459203302 -0.086459040229396059 0 0.17575305540995401 -0.089556195223041285 0 0.1812567459203302 -0.086459040229396059 0 0.1801563373682096 -0.093425399196321701 0 0.1732904517987654 -0.09321998968482359 0 0.17575305540995401 -0.089556195223041285 0 0.1801563373682096 -0.093425399196321701 0 0.17138149394628241 -0.089728955967318641 0 0.1732904517987654 -0.09321998968482359 0 0.17575305540995401 -0.089556195223041285 0 0.17138149394628241 -0.089728955967318641 0 0.17575305540995401 -0.089556195223041285 0 0.17268024801618251 -0.084947591037346865 0 0.17268024801618251 -0.084947591037346865 0 0.1783710916695925 -0.081107929890862629 0 0.18779246048199341 -0.080703588020536399 0 0.16650424030671751 -0.081617225829752629 0 0.17268024801618251 -0.084947591037346865 0 0.1783710916695925 -0.081107929890862629 0 0.17268024801618251 -0.084947591037346865 0 0.1783710916695925 -0.081107929890862629 0 0.16650424030671751 -0.081617225829752629 0 0.1783710916695925 -0.081107929890862629 0 0.17268024801618251 -0.084947591037346865 0 0.1812567459203302 -0.086459040229396059 0 0.18779246048199341 -0.080703588020536399 0 0.1812567459203302 -0.086459040229396059 0 0.1875477515547582 -0.088869463765440276 0 0.18779246048199341 -0.080703588020536399 0 0.1783710916695925 -0.081107929890862629 0 0.18779246048199341 -0.080703588020536399 0 0.17268024801618251 -0.084947591037346865 0 0.18779246048199341 -0.080703588020536399 0 0.1812567459203302 -0.086459040229396059 0 0.1801563373682096 -0.093425399196321701 0 0.1875477515547582 -0.088869463765440276 0 0.1801563373682096 -0.093425399196321701 0 0.18702247910602299 -0.096502477402935355 0 0.1875477515547582 -0.088869463765440276 0 0.1801563373682096 -0.093425399196321701 0 0.18702247910602299 -0.096502477402935355 0 0.18239069453864989 -0.1018640190701898 0 0.18702247910602299 -0.096502477402935355 0 0.18239069453864989 -0.1018640190701898 0 0.1901968454935998 -0.1033426155459593 0 0.1732904517987654 -0.09321998968482359 0 0.1801563373682096 -0.093425399196321701 0 0.17444414540812361 -0.099573421069813636 0 0.1801563373682096 -0.093425399196321701 0 0.17444414540812361 -0.099573421069813636 0 0.18239069453864989 -0.1018640190701898 0 0.1732904517987654 -0.09321998968482359 0 0.17444414540812361 -0.099573421069813636 0 0.1709922736988608 -0.0961496150246407 0 0.17444414540812361 -0.099573421069813636 0 0.1774918849909331 -0.10677147476361271 0 0.18239069453864989 -0.1018640190701898 0 0.17444414540812361 -0.099573421069813636 0 0.1774918849909331 -0.10677147476361271 0 0.16966025504635249 -0.10776247681944159 0 0.18239069453864989 -0.1018640190701898 0 0.18486311753051821 -0.1100898789186696 0 0.1901968454935998 -0.1033426155459593 0 0.1774918849909331 -0.10677147476361271 0 0.18239069453864989 -0.1018640190701898 0 0.18486311753051821 -0.1100898789186696 0 0.17573578035134779 -0.11677801007918361 0 0.1913900586767231 -0.1196309516087178 0 0.18188866173396051 -0.1297279587035613 0 0.18486311753051821 -0.1100898789186696 0 0.17573578035134779 -0.11677801007918361 0 0.1913900586767231 -0.1196309516087178 0 0.1774918849909331 -0.10677147476361271 0 0.17573578035134779 -0.11677801007918361 0 0.16966025504635249 -0.10776247681944159 0 0.1774918849909331 -0.10677147476361271 0 0.18486311753051821 -0.1100898789186696 0 0.17573578035134779 -0.11677801007918361 0 0.1636049173413637 -0.098192852635782202 0 0.1586032947602688 -0.12678746948929001 0 0.17573578035134779 -0.11677801007918361 0 0.1586032947602688 -0.12678746948929001 0 0.1728507704139213 -0.12952287417502389 0 0.1636049173413637 -0.098192852635782202 0 0.16966025504635249 -0.10776247681944159 0 0.1586032947602688 -0.12678746948929001 0 0.17573578035134779 -0.11677801007918361 0 0.16966025504635249 -0.10776247681944159 0 0.1586032947602688 -0.12678746948929001 0 0.1636049173413637 -0.098192852635782202 0 0.16808150742607841 -0.098471632878967499 0 0.16966025504635249 -0.10776247681944159 0 0.1636049173413637 -0.098192852635782202 0 0.16808150742607841 -0.098471632878967499 0 0.16815299016247601 -0.093333416464958061 0 0.1636049173413637 -0.098192852635782202 0 0.16808150742607841 -0.098471632878967499 0 0.16815299016247601 -0.093333416464958061 0 0.1732904517987654 -0.09321998968482359 0 0.1709922736988608 -0.0961496150246407 0 0.16815299016247601 -0.093333416464958061 0 0.1709922736988608 -0.0961496150246407 0 0.16808150742607841 -0.098471632878967499 0 0.17444414540812361 -0.099573421069813636 0 0.1709922736988608 -0.0961496150246407 0 0.16808150742607841 -0.098471632878967499 0 0.17444414540812361 -0.099573421069813636 0 0.16808150742607841 -0.098471632878967499 0 0.16966025504635249 -0.10776247681944159 0 0.14277623897451591 -0.0093992180521038568 0 0.14482582021368881 -0.02458352179445494 0 0.16518160430984419 -0.01252728159368852 0 0.15580959766538949 -0.00062738618753850292 0 0.14277623897451591 -0.0093992180521038568 0 0.16518160430984419 -0.01252728159368852 0 0.1445140487957588 0.0031503328159685892 0 0.15580959766538949 -0.00062738618753850292 0 0.14277623897451591 -0.0093992180521038568 0 0.1445140487957588 0.0031503328159685892 0 0.13257781506382421 0.00033959186381871809 0 0.14277623897451591 -0.0093992180521038568 0 0.13257781506382421 0.00033959186381871809 0 0.14277623897451591 -0.0093992180521038568 0 0.12776856080380361 -0.01029712178914983 0 0.13257781506382421 0.00033959186381871809 0 0.1226802507548381 -0.0019164014345253279 0 0.12776856080380361 -0.01029712178914983 0 0.14277623897451591 -0.0093992180521038568 0 0.12776856080380361 -0.01029712178914983 0 0.12875622596930211 -0.021249139679682501 0 0.14277623897451591 -0.0093992180521038568 0 0.12875622596930211 -0.021249139679682501 0 0.14482582021368881 -0.02458352179445494 0 0.12447003611753341 -0.036639761995221357 0 0.12875622596930211 -0.021249139679682501 0 0.14482582021368881 -0.02458352179445494 0 0.12447003611753341 -0.036639761995221357 0 0.14482582021368881 -0.02458352179445494 0 0.14482582021368881 -0.02458352179445494 0 0.1545074199623169 -0.039922290091712727 0 0.16046116271070321 -0.026819122972462941 0 0.14482582021368881 -0.02458352179445494 0 0.16518160430984419 -0.01252728159368852 0 0.14482582021368881 -0.02458352179445494 0 0.1545074199623169 -0.039922290091712727 0 0.14016306932351 -0.04416065191888608 0 0.12447003611753341 -0.036639761995221357 0 0.14016306932351 -0.04416065191888608 0 0.1283902630966447 -0.048264764658380317 0 0.12447003611753341 -0.036639761995221357 0 0.14482582021368881 -0.02458352179445494 0 0.14016306932351 -0.04416065191888608 0 0.14016306932351 -0.04416065191888608 0 0.1280893259241381 -0.062148339873924853 0 0.14958684726673199 -0.058790330169777562 0 0.1280893259241381 -0.062148339873924853 0 0.14958684726673199 -0.058790330169777562 0 0.14016306932351 -0.04416065191888608 0 0.1283902630966447 -0.048264764658380317 0 0.1280893259241381 -0.062148339873924853 0 0.1208386210213974 -0.050110304845489 0 0.1283902630966447 -0.048264764658380317 0 0.1280893259241381 -0.062148339873924853 0 0.1545074199623169 -0.039922290091712727 0 0.14016306932351 -0.04416065191888608 0 0.14958684726673199 -0.058790330169777562 0 0.1545074199623169 -0.039922290091712727 0 0.14958684726673199 -0.058790330169777562 0 0.16483542661822001 -0.04852636290263572 0 0.14958684726673199 -0.058790330169777562 0 0.16483542661822001 -0.04852636290263572 0 0.17108436860932599 -0.055432320465631797 0 0.15753273850871999 -0.06987388389974851 0 0.14958684726673199 -0.058790330169777562 0 0.17108436860932599 -0.055432320465631797 0 0.14958684726673199 -0.058790330169777562 0 0.17108436860932599 -0.055432320465631797 0 0.16483542661822001 -0.04852636290263572 0 0.1716240207951259 -0.047533477469042983 0 0.17108436860932599 -0.055432320465631797 0 0.17108436860932599 -0.055432320465631797 0 0.18036859593855001 -0.046944368732629242 0 0.200584641192667 -0.050824244956312173 0 0.17108436860932599 -0.055432320465631797 0 0.200584641192667 -0.050824244956312173 0 0.18203411317678009 -0.067344991410852789 0 0.17108436860932599 -0.055432320465631797 0 0.200584641192667 -0.050824244956312173 0 0.1716240207951259 -0.047533477469042983 0 0.17108436860932599 -0.055432320465631797 0 0.18036859593855001 -0.046944368732629242 0 0.18036859593855001 -0.046944368732629242 0 0.17362075075120059 -0.042035645344441097 0 0.18092660494925639 -0.036091629208484077 0 0.1716240207951259 -0.047533477469042983 0 0.18036859593855001 -0.046944368732629242 0 0.17362075075120059 -0.042035645344441097 0 0.18036859593855001 -0.046944368732629242 0 0.18092660494925639 -0.036091629208484077 0 0.19159491055872391 -0.03875498431373961 0 0.18092660494925639 -0.036091629208484077 0 0.1876264798780648 -0.029668928466030961 0 0.19159491055872391 -0.03875498431373961 0 0.17362075075120059 -0.042035645344441097 0 0.18092660494925639 -0.036091629208484077 0 0.1729267712494979 -0.032696099456064012 0 0.18092660494925639 -0.036091629208484077 0 0.1729267712494979 -0.032696099456064012 0 0.18027281942701909 -0.025629844073743031 0 0.1729267712494979 -0.032696099456064012 0 0.16620508502838841 -0.038863519617279123 0 0.16046116271070321 -0.026819122972462941 0 0.17362075075120059 -0.042035645344441097 0 0.1729267712494979 -0.032696099456064012 0 0.16620508502838841 -0.038863519617279123 0 0.16483542661822001 -0.04852636290263572 0 0.16620508502838841 -0.038863519617279123 0 0.16911276997273239 -0.044169635481428417 0 0.17362075075120059 -0.042035645344441097 0 0.16620508502838841 -0.038863519617279123 0 0.16911276997273239 -0.044169635481428417 0 0.16483542661822001 -0.04852636290263572 0 0.1716240207951259 -0.047533477469042983 0 0.16911276997273239 -0.044169635481428417 0 0.1716240207951259 -0.047533477469042983 0 0.17362075075120059 -0.042035645344441097 0 0.16911276997273239 -0.044169635481428417 0 0.1545074199623169 -0.039922290091712727 0 0.16483542661822001 -0.04852636290263572 0 0.16620508502838841 -0.038863519617279123 0 0.1545074199623169 -0.039922290091712727 0 0.16620508502838841 -0.038863519617279123 0 0.16046116271070321 -0.026819122972462941 0 0.14482582021368881 -0.02458352179445494 0 0.16046116271070321 -0.026819122972462941 0 0.16518160430984419 -0.01252728159368852 0 0.16046116271070321 -0.026819122972462941 0 0.17016573692434789 -0.023255308881485321 0 0.16518160430984419 -0.01252728159368852 0 0.1729267712494979 -0.032696099456064012 0 0.16046116271070321 -0.026819122972462941 0 0.17016573692434789 -0.023255308881485321 0 0.17016573692434789 -0.023255308881485321 0 0.18084889815504851 -0.012596131043622959 0 0.16518160430984419 -0.01252728159368852 0 0.1729267712494979 -0.032696099456064012 0 0.17016573692434789 -0.023255308881485321 0 0.18027281942701909 -0.025629844073743031 0 0.18092660494925639 -0.036091629208484077 0 0.18027281942701909 -0.025629844073743031 0 0.1876264798780648 -0.029668928466030961 0 0.18027281942701909 -0.025629844073743031 0 0.19015527787624181 -0.01967567019025683 0 0.1876264798780648 -0.029668928466030961 0 0.18027281942701909 -0.025629844073743031 0 0.18084889815504851 -0.012596131043622959 0 0.19015527787624181 -0.01967567019025683 0 0.17016573692434789 -0.023255308881485321 0 0.18027281942701909 -0.025629844073743031 0 0.18084889815504851 -0.012596131043622959 0 0.18909223906183151 0.002610795077842325 0 0.16614464497234349 0.0095767566573148177 0 0.18084889815504851 -0.012596131043622959 0 0.16614464497234349 0.0095767566573148177 0 0.18084889815504851 -0.012596131043622959 0 0.16614464497234349 0.0095767566573148177 0 0.15580959766538949 -0.00062738618753850292 0 0.16518160430984419 -0.01252728159368852 0 0.16614464497234349 0.0095767566573148177 0 0.18084889815504851 -0.012596131043622959 0 0.16518160430984419 -0.01252728159368852 0 0.20423515365630601 0.00091409910843910202 0 0.2173473683237315 -0.0071058875394326981 0 0.1993804068462588 -0.012465330975265809 0 0.2173473683237315 -0.0071058875394326981 0 0.1993804068462588 -0.012465330975265809 0 0.21734069203305759 -0.022325062590682919 0 0.18084889815504851 -0.012596131043622959 0 0.1993804068462588 -0.012465330975265809 0 0.19015527787624181 -0.01967567019025683 0 0.20423515365630601 0.00091409910843910202 0 0.18909223906183151 0.002610795077842325 0 0.1993804068462588 -0.012465330975265809 0 0.18909223906183151 0.002610795077842325 0 0.18084889815504851 -0.012596131043622959 0 0.1993804068462588 -0.012465330975265809 0 0.1993804068462588 -0.012465330975265809 0 0.19015527787624181 -0.01967567019025683 0 0.20259809342743951 -0.03071582182059867 0 0.19015527787624181 -0.01967567019025683 0 0.1876264798780648 -0.029668928466030961 0 0.20259809342743951 -0.03071582182059867 0 0.1993804068462588 -0.012465330975265809 0 0.20259809342743951 -0.03071582182059867 0 0.21734069203305759 -0.022325062590682919 0 0.20259809342743951 -0.03071582182059867 0 0.21734069203305759 -0.022325062590682919 0 0.21870684620504169 -0.036870078640602953 0 0.21870684620504169 -0.036870078640602953 0 0.200584641192667 -0.050824244956312173 0 0.23008491377600801 -0.046216169446993333 0 0.20259809342743951 -0.03071582182059867 0 0.21870684620504169 -0.036870078640602953 0 0.20259809342743951 -0.03071582182059867 0 0.21870684620504169 -0.036870078640602953 0 0.200584641192667 -0.050824244956312173 0 0.20259809342743951 -0.03071582182059867 0 0.19159491055872391 -0.03875498431373961 0 0.200584641192667 -0.050824244956312173 0 0.18036859593855001 -0.046944368732629242 0 0.19159491055872391 -0.03875498431373961 0 0.200584641192667 -0.050824244956312173 0 0.1876264798780648 -0.029668928466030961 0 0.20259809342743951 -0.03071582182059867 0 0.19159491055872391 -0.03875498431373961 0 0.200584641192667 -0.050824244956312173 0 0.2128469730738691 -0.057846756261615777 0 0.1956090323717305 -0.06947734307623879 0 0.200584641192667 -0.050824244956312173 0 0.23008491377600801 -0.046216169446993333 0 0.200584641192667 -0.050824244956312173 0 0.2128469730738691 -0.057846756261615777 0 0.23008491377600801 -0.046216169446993333 0 0.2128469730738691 -0.057846756261615777 0 0.22241163694599719 -0.061663740972524243 0 0.23008491377600801 -0.046216169446993333 0 0.22241163694599719 -0.061663740972524243 0 0.23008491377600801 -0.046216169446993333 0 0.2314391391128251 -0.06363062757686333 0 0.2128469730738691 -0.057846756261615777 0 0.23008491377600801 -0.046216169446993333 0 0.2385267664713856 -0.056263898818482719 0 0.23008491377600801 -0.046216169446993333 0 0.2314391391128251 -0.06363062757686333 0 0.2385267664713856 -0.056263898818482719 0 0.2314391391128251 -0.06363062757686333 0 0.24204552723570971 -0.066873896384500309 0 0.2385267664713856 -0.056263898818482719 0 0.24925446120544861 -0.060733060224481557 0 0.23937274748661089 -0.044765367969297351 0 0.2385267664713856 -0.056263898818482719 0 0.24925446120544861 -0.060733060224481557 0 0.24204552723570971 -0.066873896384500309 0 0.2385267664713856 -0.056263898818482719 0 0.23937274748661089 -0.044765367969297351 0 0.23008491377600801 -0.046216169446993333 0 0.23937274748661089 -0.044765367969297351 0 0.23008491377600801 -0.046216169446993333 0 0.2348155989826447 -0.043024335460605211 0 0.23937274748661089 -0.044765367969297351 0 0.2348155989826447 -0.043024335460605211 0 0.23937274748661089 -0.044765367969297351 0 0.23008491377600801 -0.046216169446993333 0 0.2348155989826447 -0.043024335460605211 0 0.23775462097972411 -0.041041352047574697 0 0.23937274748661089 -0.044765367969297351 0 0.2348155989826447 -0.043024335460605211 0 0.23775462097972411 -0.041041352047574697 0 0.23775462097972411 -0.041041352047574697 0 0.24121006979875681 -0.039954481952900522 0 0.23937274748661089 -0.044765367969297351 0 0.24121006979875681 -0.039954481952900522 0 0.23937274748661089 -0.044765367969297351 0 0.24664834374715339 -0.039194746680125493 0 0.24633316731565241 -0.034242092706566071 0 0.24106456698153891 -0.034816461114607192 0 0.24460146206402841 -0.026802372139960472 0 0.2530182964698886 -0.036154790891571142 0 0.24633316731565241 -0.034242092706566071 0 0.24460146206402841 -0.026802372139960472 0 0.2530182964698886 -0.036154790891571142 0 0.24664834374715339 -0.039194746680125493 0 0.24633316731565241 -0.034242092706566071 0 0.24664834374715339 -0.039194746680125493 0 0.24633316731565241 -0.034242092706566071 0 0.24106456698153891 -0.034816461114607192 0 0.24121006979875681 -0.039954481952900522 0 0.24664834374715339 -0.039194746680125493 0 0.24106456698153891 -0.034816461114607192 0 0.23775462097972411 -0.041041352047574697 0 0.24106456698153891 -0.034816461114607192 0 0.22969562209180111 -0.032266423253979083 0 0.24106456698153891 -0.034816461114607192 0 0.22969562209180111 -0.032266423253979083 0 0.24460146206402841 -0.026802372139960472 0 0.23775462097972411 -0.041041352047574697 0 0.24121006979875681 -0.039954481952900522 0 0.24106456698153891 -0.034816461114607192 0 0.2348155989826447 -0.043024335460605211 0 0.23775462097972411 -0.041041352047574697 0 0.22969562209180111 -0.032266423253979083 0 0.21870684620504169 -0.036870078640602953 0 0.2348155989826447 -0.043024335460605211 0 0.21870684620504169 -0.036870078640602953 0 0.2348155989826447 -0.043024335460605211 0 0.22969562209180111 -0.032266423253979083 0 0.21870684620504169 -0.036870078640602953 0 0.2348155989826447 -0.043024335460605211 0 0.23008491377600801 -0.046216169446993333 0 0.2348155989826447 -0.043024335460605211 0 0.23008491377600801 -0.046216169446993333 0 0.21734069203305759 -0.022325062590682919 0 0.22969562209180111 -0.032266423253979083 0 0.23174256585166531 -0.01642147471194589 0 0.21734069203305759 -0.022325062590682919 0 0.21870684620504169 -0.036870078640602953 0 0.22969562209180111 -0.032266423253979083 0 0.25252126317799439 -0.010205438598489529 0 0.23174256585166531 -0.01642147471194589 0 0.24460146206402841 -0.026802372139960472 0 0.22969562209180111 -0.032266423253979083 0 0.23174256585166531 -0.01642147471194589 0 0.24460146206402841 -0.026802372139960472 0 0.25252126317799439 -0.010205438598489529 0 0.23174256585166531 -0.01642147471194589 0 0.2307709394487055 -0.0025905816995888641 0 0.2173473683237315 -0.0071058875394326981 0 0.23174256585166531 -0.01642147471194589 0 0.2307709394487055 -0.0025905816995888641 0 0.2173473683237315 -0.0071058875394326981 0 0.21734069203305759 -0.022325062590682919 0 0.23174256585166531 -0.01642147471194589 0 0.21626581299006789 0.0074153659625795874 0 0.2173473683237315 -0.0071058875394326981 0 0.2307709394487055 -0.0025905816995888641 0 0.2039950239184273 -0.1013305746189842 0 0.21298988190846091 -0.10208783273798 0 0.20201757757646929 -0.10976608518251189 0 0.2039950239184273 -0.1013305746189842 0 0.20694644375984561 -0.096004200704962281 0 0.21298988190846091 -0.10208783273798 0 0.2039950239184273 -0.1013305746189842 0 0.20694644375984561 -0.096004200704962281 0 0.20017927905201011 -0.095692046628842814 0 0.20694644375984561 -0.096004200704962281 0 0.21298988190846091 -0.10208783273798 0 0.21077852755988211 -0.089461924916052982 0 0.20694644375984561 -0.096004200704962281 0 0.20017927905201011 -0.095692046628842814 0 0.20360114631028789 -0.089774586002305881 0 0.21298988190846091 -0.10208783273798 0 0.22188388430986061 -0.1016622448712805 0 0.2188571882349247 -0.1100362232936529 0 0.21298988190846091 -0.10208783273798 0 0.20608086447787671 -0.124850006479911 0 0.20201757757646929 -0.10976608518251189 0 0.21298988190846091 -0.10208783273798 0 0.20608086447787671 -0.124850006479911 0 0.2188571882349247 -0.1100362232936529 0 0.20608086447787671 -0.124850006479911 0 0.2188571882349247 -0.1100362232936529 0 0.22267235063313581 -0.12635056609532599 0 0.21298988190846091 -0.10208783273798 0 0.20608086447787671 -0.124850006479911 0 0.20201757757646929 -0.10976608518251189 0 0.1913900586767231 -0.1196309516087178 0 0.19317902856084021 -0.1091714991516974 0 0.20608086447787671 -0.124850006479911 0 0.20201757757646929 -0.10976608518251189 0 0.1913900586767231 -0.1196309516087178 0 0.18486311753051821 -0.1100898789186696 0 0.1913900586767231 -0.1196309516087178 0 0.19317902856084021 -0.1091714991516974 0 0.18486311753051821 -0.1100898789186696 0 0.1901968454935998 -0.1033426155459593 0 0.19317902856084021 -0.1091714991516974 0 0.1901968454935998 -0.1033426155459593 0 0.19317902856084021 -0.1091714991516974 0 0.19742754352689071 -0.10302796450262861 0 0.2039950239184273 -0.1013305746189842 0 0.20201757757646929 -0.10976608518251189 0 0.19742754352689071 -0.10302796450262861 0 0.20201757757646929 -0.10976608518251189 0 0.19317902856084021 -0.1091714991516974 0 0.19742754352689071 -0.10302796450262861 0 0.2039950239184273 -0.1013305746189842 0 0.19742754352689071 -0.10302796450262861 0 0.20017927905201011 -0.095692046628842814 0 0.19742754352689071 -0.10302796450262861 0 0.20017927905201011 -0.095692046628842814 0 0.1935160145181625 -0.098277650050800497 0 0.20017927905201011 -0.095692046628842814 0 0.1935160145181625 -0.098277650050800497 0 0.19275392541228861 -0.092823146173636378 0 0.1901968454935998 -0.1033426155459593 0 0.19742754352689071 -0.10302796450262861 0 0.1935160145181625 -0.098277650050800497 0 0.18702247910602299 -0.096502477402935355 0 0.1901968454935998 -0.1033426155459593 0 0.1935160145181625 -0.098277650050800497 0 0.18702247910602299 -0.096502477402935355 0 0.1935160145181625 -0.098277650050800497 0 0.19275392541228861 -0.092823146173636378 0 0.19275392541228861 -0.092823146173636378 0 0.1875477515547582 -0.088869463765440276 0 0.19625580126918171 -0.087700134253378054 0 0.18779246048199341 -0.080703588020536399 0 0.19625580126918171 -0.087700134253378054 0 0.20384567991051999 -0.080014623508293373 0 0.18702247910602299 -0.096502477402935355 0 0.19275392541228861 -0.092823146173636378 0 0.1875477515547582 -0.088869463765440276 0 0.18779246048199341 -0.080703588020536399 0 0.20384567991051999 -0.080014623508293373 0 0.1875477515547582 -0.088869463765440276 0 0.18779246048199341 -0.080703588020536399 0 0.19625580126918171 -0.087700134253378054 0 0.19625580126918171 -0.087700134253378054 0 0.20360114631028789 -0.089774586002305881 0 0.20384567991051999 -0.080014623508293373 0 0.20017927905201011 -0.095692046628842814 0 0.19275392541228861 -0.092823146173636378 0 0.19625580126918171 -0.087700134253378054 0 0.20017927905201011 -0.095692046628842814 0 0.19625580126918171 -0.087700134253378054 0 0.20360114631028789 -0.089774586002305881 0 0.18779246048199341 -0.080703588020536399 0 0.21565026046485011 -0.072880207596497062 0 0.18779246048199341 -0.080703588020536399 0 0.1956090323717305 -0.06947734307623879 0 0.21565026046485011 -0.072880207596497062 0 0.18779246048199341 -0.080703588020536399 0 0.21565026046485011 -0.072880207596497062 0 0.20384567991051999 -0.080014623508293373 0 0.18203411317678009 -0.067344991410852789 0 0.200584641192667 -0.050824244956312173 0 0.1956090323717305 -0.06947734307623879 0 0.2128469730738691 -0.057846756261615777 0 0.1956090323717305 -0.06947734307623879 0 0.21565026046485011 -0.072880207596497062 0 0.2128469730738691 -0.057846756261615777 0 0.1956090323717305 -0.06947734307623879 0 0.21565026046485011 -0.072880207596497062 0 0.20384567991051999 -0.080014623508293373 0 0.21989889933904661 -0.079325658996049431 0 0.2128469730738691 -0.057846756261615777 0 0.22241163694599719 -0.061663740972524243 0 0.21565026046485011 -0.072880207596497062 0 0.21298988190846091 -0.10208783273798 0 0.2219392505828994 -0.09035736683626662 0 0.21989889933904661 -0.079325658996049431 0 0.20384567991051999 -0.080014623508293373 0 0.21989889933904661 -0.079325658996049431 0 0.21298988190846091 -0.10208783273798 0 0.21077852755988211 -0.089461924916052982 0 0.21989889933904661 -0.079325658996049431 0 0.21298988190846091 -0.10208783273798 0 0.21989889933904661 -0.079325658996049431 0 0.21077852755988211 -0.089461924916052982 0 0.20384567991051999 -0.080014623508293373 0 0.21989889933904661 -0.079325658996049431 0 0.21077852755988211 -0.089461924916052982 0 0.20360114631028789 -0.089774586002305881 0 0.20384567991051999 -0.080014623508293373 0 0.20694644375984561 -0.096004200704962281 0 0.21077852755988211 -0.089461924916052982 0 0.20360114631028789 -0.089774586002305881 0 0.21989889933904661 -0.079325658996049431 0 0.22965077696722311 -0.085556924103861995 0 0.2398874890580327 -0.07846779811478008 0 0.21989889933904661 -0.079325658996049431 0 0.2398874890580327 -0.07846779811478008 0 0.2219392505828994 -0.09035736683626662 0 0.22965077696722311 -0.085556924103861995 0 0.22521744411686731 -0.094459051507175026 0 0.2219392505828994 -0.09035736683626662 0 0.21989889933904661 -0.079325658996049431 0 0.22965077696722311 -0.085556924103861995 0 0.22965077696722311 -0.085556924103861995 0 0.2380046280735868 -0.09899335848340364 0 0.22521744411686731 -0.094459051507175026 0 0.21989889933904661 -0.079325658996049431 0 0.22578041034547119 -0.070806101069808267 0 0.2398874890580327 -0.07846779811478008 0 0.22241163694599719 -0.061663740972524243 0 0.21565026046485011 -0.072880207596497062 0 0.22578041034547119 -0.070806101069808267 0 0.22241163694599719 -0.061663740972524243 0 0.22578041034547119 -0.070806101069808267 0 0.2314391391128251 -0.06363062757686333 0 0.21565026046485011 -0.072880207596497062 0 0.21989889933904661 -0.079325658996049431 0 0.22578041034547119 -0.070806101069808267 0 0.22578041034547119 -0.070806101069808267 0 0.2314391391128251 -0.06363062757686333 0 0.2398874890580327 -0.07846779811478008 0 0.2314391391128251 -0.06363062757686333 0 0.24204552723570971 -0.066873896384500309 0 0.2398874890580327 -0.07846779811478008 0 0.25228763128995813 -0.072878699196203128 0 0.24204552723570971 -0.066873896384500309 0 0.2398874890580327 -0.07846779811478008 0 0.25228763128995813 -0.072878699196203128 0 0.24925446120544861 -0.060733060224481557 0 0.24204552723570971 -0.066873896384500309 0 0.25715206791224893 -0.087950493673154384 0 0.2380046280735868 -0.09899335848340364 0 0.25715206791224893 -0.087950493673154384 0 0.25228763128995813 -0.072878699196203128 0 0.2398874890580327 -0.07846779811478008 0 0.22965077696722311 -0.085556924103861995 0 0.2398874890580327 -0.07846779811478008 0 0.2380046280735868 -0.09899335848340364 0 0.25715206791224893 -0.087950493673154384 0 0.2398874890580327 -0.07846779811478008 0 0.2380046280735868 -0.09899335848340364 0 0.25382345726124178 -0.10530698324834489 0 0.2380046280735868 -0.09899335848340364 0 0.23894516993861839 -0.1184104321833177 0 0.25382345726124178 -0.10530698324834489 0 0.25715206791224893 -0.087950493673154384 0 0.2380046280735868 -0.09899335848340364 0 0.2380046280735868 -0.09899335848340364 0 0.22188388430986061 -0.1016622448712805 0 0.2188571882349247 -0.1100362232936529 0 0.2380046280735868 -0.09899335848340364 0 0.2188571882349247 -0.1100362232936529 0 0.2380046280735868 -0.09899335848340364 0 0.22188388430986061 -0.1016622448712805 0 0.22521744411686731 -0.094459051507175026 0 0.2380046280735868 -0.09899335848340364 0 0.2188571882349247 -0.1100362232936529 0 0.23894516993861839 -0.1184104321833177 0 0.21298988190846091 -0.10208783273798 0 0.2219392505828994 -0.09035736683626662 0 0.22521744411686731 -0.094459051507175026 0 0.21298988190846091 -0.10208783273798 0 0.22188388430986061 -0.1016622448712805 0 0.22521744411686731 -0.094459051507175026 0 0.2188571882349247 -0.1100362232936529 0 0.23894516993861839 -0.1184104321833177 0 0.22267235063313581 -0.12635056609532599 0 0.25232014725039781 -0.13580108181409431 0 0.23894516993861839 -0.1184104321833177 0 0.23274861322059601 -0.13561890589621539 0 0.25232014725039781 -0.13580108181409431 0 0.25692694380362391 -0.15392462589169101 0 0.2385806431837928 -0.15047117154475301 0 0.25232014725039781 -0.13580108181409431 0 0.2385806431837928 -0.15047117154475301 0 0.23274861322059601 -0.13561890589621539 0 0.2385806431837928 -0.15047117154475301 0 0.2185787196098824 -0.1446467295094343 0 0.2260779937911831 -0.16466222701536121 0 0.2385806431837928 -0.15047117154475301 0 0.23274861322059601 -0.13561890589621539 0 0.2185787196098824 -0.1446467295094343 0 0.23274861322059601 -0.13561890589621539 0 0.22267235063313581 -0.12635056609532599 0 0.2185787196098824 -0.1446467295094343 0 0.23894516993861839 -0.1184104321833177 0 0.23274861322059601 -0.13561890589621539 0 0.22267235063313581 -0.12635056609532599 0 0.20608086447787671 -0.124850006479911 0 0.22267235063313581 -0.12635056609532599 0 0.2185787196098824 -0.1446467295094343 0 0.20608086447787671 -0.124850006479911 0 0.2185787196098824 -0.1446467295094343 0 0.1991718470472926 -0.14761218022184189 0 0.2185787196098824 -0.1446467295094343 0 0.1991718470472926 -0.14761218022184189 0 0.210183142393608 -0.16142518805850881 0 0.1991718470472926 -0.14761218022184189 0 0.19174739485994741 -0.16280864736683209 0 0.1751753448101083 -0.1447980584280609 0 0.1991718470472926 -0.14761218022184189 0 0.1938653442900406 -0.13382703263160059 0 0.1751753448101083 -0.1447980584280609 0 0.20608086447787671 -0.124850006479911 0 0.1991718470472926 -0.14761218022184189 0 0.1938653442900406 -0.13382703263160059 0 0.20608086447787671 -0.124850006479911 0 0.1991718470472926 -0.14761218022184189 0 0.1913900586767231 -0.1196309516087178 0 0.1938653442900406 -0.13382703263160059 0 0.18188866173396051 -0.1297279587035613 0 0.20608086447787671 -0.124850006479911 0 0.1913900586767231 -0.1196309516087178 0 0.1938653442900406 -0.13382703263160059 0 0.19657326284471979 -0.18292944567809399 0 0.19226282961670851 -0.1703743539637729 0 0.20370100659143431 -0.1728532534793332 0 0.19657326284471979 -0.18292944567809399 0 0.18403401180727341 -0.18922402103030669 0 0.18249655470734499 -0.17643108503344221 0 0.19657326284471979 -0.18292944567809399 0 0.19226282961670851 -0.1703743539637729 0 0.18249655470734499 -0.17643108503344221 0 0.1991718470472926 -0.14761218022184189 0 0.19226282961670851 -0.1703743539637729 0 0.20132970641226081 -0.16306624393086419 0 0.19226282961670851 -0.1703743539637729 0 0.19174739485994741 -0.16280864736683209 0 0.18201440916677861 -0.16727214503626411 0 0.1991718470472926 -0.14761218022184189 0 0.19226282961670851 -0.1703743539637729 0 0.1991718470472926 -0.14761218022184189 0 0.19226282961670851 -0.1703743539637729 0 0.19174739485994741 -0.16280864736683209 0 0.19226282961670851 -0.1703743539637729 0 0.20132970641226081 -0.16306624393086419 0 0.20370100659143431 -0.1728532534793332 0 0.210183142393608 -0.16142518805850881 0 0.2163485182453459 -0.17324122757836041 0 0.2260779937911831 -0.16466222701536121 0 0.210183142393608 -0.16142518805850881 0 0.2163485182453459 -0.17324122757836041 0 0.20370100659143431 -0.1728532534793332 0 0.20132970641226081 -0.16306624393086419 0 0.210183142393608 -0.16142518805850881 0 0.20370100659143431 -0.1728532534793332 0 0.2185787196098824 -0.1446467295094343 0 0.210183142393608 -0.16142518805850881 0 0.2260779937911831 -0.16466222701536121 0 0.1991718470472926 -0.14761218022184189 0 0.20132970641226081 -0.16306624393086419 0 0.210183142393608 -0.16142518805850881 0 0.2163485182453459 -0.17324122757836041 0 0.20370100659143431 -0.1728532534793332 0 0.21348190825711619 -0.18678662148927219 0 0.19657326284471979 -0.18292944567809399 0 0.20370100659143431 -0.1728532534793332 0 0.21348190825711619 -0.18678662148927219 0 0.2163485182453459 -0.17324122757836041 0 0.21348190825711619 -0.18678662148927219 0 0.23059545646417001 -0.1808068046600648 0 0.2163485182453459 -0.17324122757836041 0 0.23059545646417001 -0.1808068046600648 0 0.2260779937911831 -0.16466222701536121 0 0.23059545646417001 -0.1808068046600648 0 0.2260779937911831 -0.16466222701536121 0 0.2448314414270738 -0.1681734591417221 0 0.25692694380362391 -0.15392462589169101 0 0.2385806431837928 -0.15047117154475301 0 0.2448314414270738 -0.1681734591417221 0 0.2385806431837928 -0.15047117154475301 0 0.2260779937911831 -0.16466222701536121 0 0.2448314414270738 -0.1681734591417221 0 0.25391972478308661 -0.1877348298849853 0 0.23059545646417001 -0.1808068046600648 0 0.2448314414270738 -0.1681734591417221 0 0.25339984290733553 -0.22167452615853681 0 0.25391972478308661 -0.1877348298849853 0 0.23006161041660569 -0.20440644125605689 0 0.25391972478308661 -0.1877348298849853 0 0.23059545646417001 -0.1808068046600648 0 0.23006161041660569 -0.20440644125605689 0 0.25339984290733553 -0.22167452615853681 0 0.23006161041660569 -0.20440644125605689 0 0.23271765471591749 -0.2245237341595244 0 0.23006161041660569 -0.20440644125605689 0 0.23271765471591749 -0.2245237341595244 0 0.21312649596920241 -0.22564604764427551 0 0.21348190825711619 -0.18678662148927219 0 0.23059545646417001 -0.1808068046600648 0 0.23006161041660569 -0.20440644125605689 0 0.24538975261109239 -0.25339754837374329 0 0.24547495081528159 -0.23761622849674871 0 0.23057147674338649 -0.24153169701834079 0 0.24547495081528159 -0.23761622849674871 0 0.23271765471591749 -0.2245237341595244 0 0.23057147674338649 -0.24153169701834079 0 0.25339984290733553 -0.22167452615853681 0 0.24547495081528159 -0.23761622849674871 0 0.23271765471591749 -0.2245237341595244 0 0.23271765471591749 -0.2245237341595244 0 0.23057147674338649 -0.24153169701834079 0 0.21312649596920241 -0.22564604764427551 0 0.21843962320666521 -0.26013729322845769 0 0.23057147674338649 -0.24153169701834079 0 0.21573888824894441 -0.24358485532315791 0 0.23057147674338649 -0.24153169701834079 0 0.21573888824894441 -0.24358485532315791 0 0.21312649596920241 -0.22564604764427551 0 0.21573888824894441 -0.24358485532315791 0 0.21312649596920241 -0.22564604764427551 0 0.20081795707652339 -0.2470243834015575 0 0.21312649596920241 -0.22564604764427551 0 0.19412983575714651 -0.2296462573798117 0 0.20161181672313 -0.20196908299228319 0 0.21312649596920241 -0.22564604764427551 0 0.19412983575714651 -0.2296462573798117 0 0.20081795707652339 -0.2470243834015575 0 0.19412983575714651 -0.2296462573798117 0 0.20081795707652339 -0.2470243834015575 0 0.18524691204393889 -0.24695115827232009 0 0.19657326284471979 -0.18292944567809399 0 0.21348190825711619 -0.18678662148927219 0 0.20161181672313 -0.20196908299228319 0 0.21348190825711619 -0.18678662148927219 0 0.23006161041660569 -0.20440644125605689 0 0.20161181672313 -0.20196908299228319 0 0.23006161041660569 -0.20440644125605689 0 0.21312649596920241 -0.22564604764427551 0 0.20161181672313 -0.20196908299228319 0 0.19412983575714651 -0.2296462573798117 0 0.20161181672313 -0.20196908299228319 0 0.1830417698139177 -0.21903580995945879 0 0.19657326284471979 -0.18292944567809399 0 0.20161181672313 -0.20196908299228319 0 0.18403401180727341 -0.18922402103030669 0 0.18403401180727341 -0.18922402103030669 0 0.17286274525033549 -0.2024883834504389 0 0.16773188727574859 -0.18110659415470959 0 0.20161181672313 -0.20196908299228319 0 0.17286274525033549 -0.2024883834504389 0 0.20161181672313 -0.20196908299228319 0 0.18403401180727341 -0.18922402103030669 0 0.17286274525033549 -0.2024883834504389 0 0.20161181672313 -0.20196908299228319 0 0.17286274525033549 -0.2024883834504389 0 0.1830417698139177 -0.21903580995945879 0 0.17286274525033549 -0.2024883834504389 0 0.1830417698139177 -0.21903580995945879 0 0.1698779601495668 -0.2251855389737096 0 0.17286274525033549 -0.2024883834504389 0 0.1698779601495668 -0.2251855389737096 0 0.15329761658879759 -0.22718912439172109 0 0.17286274525033549 -0.2024883834504389 0 0.15329761658879759 -0.22718912439172109 0 0.14411367377754089 -0.20300768390859461 0 0.17286274525033549 -0.2024883834504389 0 0.14411367377754089 -0.20300768390859461 0 0.17286274525033549 -0.2024883834504389 0 0.1551911012347072 -0.18912585225033091 0 0.16773188727574859 -0.18110659415470959 0 0.17286274525033549 -0.2024883834504389 0 0.14411367377754089 -0.20300768390859461 0 0.1551911012347072 -0.18912585225033091 0 0.19412983575714651 -0.2296462573798117 0 0.18524691204393889 -0.24695115827232009 0 0.17672649118940981 -0.23588978700105051 0 0.17069787027827901 -0.25057456271484019 0 0.18524691204393889 -0.24695115827232009 0 0.17672649118940981 -0.23588978700105051 0 0.17672649118940981 -0.23588978700105051 0 0.1830417698139177 -0.21903580995945879 0 0.1698779601495668 -0.2251855389737096 0 0.19412983575714651 -0.2296462573798117 0 0.17672649118940981 -0.23588978700105051 0 0.1830417698139177 -0.21903580995945879 0 0.1698779601495668 -0.2251855389737096 0 0.16503686351310001 -0.23823967079046349 0 0.15329761658879759 -0.22718912439172109 0 0.17672649118940981 -0.23588978700105051 0 0.1698779601495668 -0.2251855389737096 0 0.16503686351310001 -0.23823967079046349 0 0.15727187409670301 -0.25178947245951722 0 0.16503686351310001 -0.23823967079046349 0 0.15329761658879759 -0.22718912439172109 0 0.17069787027827901 -0.25057456271484019 0 0.17672649118940981 -0.23588978700105051 0 0.16503686351310001 -0.23823967079046349 0 0.15727187409670301 -0.25178947245951722 0 0.17069787027827901 -0.25057456271484019 0 0.16503686351310001 -0.23823967079046349 0 0.14664725338266091 -0.2472495350296324 0 0.15329761658879759 -0.22718912439172109 0 0.14025647073933059 -0.2397386016179498 0 0.15727187409670301 -0.25178947245951722 0 0.14664725338266091 -0.2472495350296324 0 0.15329761658879759 -0.22718912439172109 0 0.15727187409670301 -0.25178947245951722 0 0.15329761658879759 -0.22718912439172109 0 0.15329761658879759 -0.22718912439172109 0 0.13773121394974219 -0.22477331698626921 0 0.14025647073933059 -0.2397386016179498 0 0.12392817470783039 -0.21827741454854449 0 0.1166162361214069 -0.23488389125594281 0 0.13773121394974219 -0.22477331698626921 0 0.1166162361214069 -0.23488389125594281 0 0.13773121394974219 -0.22477331698626921 0 0.14025647073933059 -0.2397386016179498 0 0.1166162361214069 -0.23488389125594281 0 0.1284525449190799 -0.24687969302089219 0 0.14025647073933059 -0.2397386016179498 0 0.1166162361214069 -0.23488389125594281 0 0.14025647073933059 -0.2397386016179498 0 0.14664725338266091 -0.2472495350296324 0 0.1284525449190799 -0.24687969302089219 0 0.14025647073933059 -0.2397386016179498 0 0.14411367377754089 -0.20300768390859461 0 0.1551911012347072 -0.18912585225033091 0 0.1367041680810932 -0.17776425729014109 0 0.15329761658879759 -0.22718912439172109 0 0.13773121394974219 -0.22477331698626921 0 0.14411367377754089 -0.20300768390859461 0 0.11536460230474629 -0.20352698436675029 0 0.14411367377754089 -0.20300768390859461 0 0.12392817470783039 -0.21827741454854449 0 0.13773121394974219 -0.22477331698626921 0 0.14411367377754089 -0.20300768390859461 0 0.11536460230474629 -0.20352698436675029 0 0.12392817470783039 -0.21827741454854449 0 0.14411367377754089 -0.20300768390859461 0 0.12454488208232919 -0.1889002379084101 0 0.14411367377754089 -0.20300768390859461 0 0.1367041680810932 -0.17776425729014109 0 0.12454488208232919 -0.1889002379084101 0 0.11536460230474629 -0.20352698436675029 0 0.14411367377754089 -0.20300768390859461 0 0.12454488208232919 -0.1889002379084101 0 0.119803416229997 -0.17584258034360181 0 0.1367041680810932 -0.17776425729014109 0 0.12444326469747551 -0.1648802859662053 0 0.119803416229997 -0.17584258034360181 0 0.1367041680810932 -0.17776425729014109 0 0.1551911012347072 -0.18912585225033091 0 0.1367041680810932 -0.17776425729014109 0 0.15422859387261581 -0.17594444981729951 0 0.1367041680810932 -0.17776425729014109 0 0.15422859387261581 -0.17594444981729951 0 0.14605628994121839 -0.1666087274837024 0 0.15329955327209149 -0.15710932070567379 0 0.14605628994121839 -0.1666087274837024 0 0.16010535583960481 -0.1662141022351136 0 0.15422859387261581 -0.17594444981729951 0 0.14605628994121839 -0.1666087274837024 0 0.16010535583960481 -0.1662141022351136 0 0.15329955327209149 -0.15710932070567379 0 0.14605628994121839 -0.1666087274837024 0 0.1435831055093183 -0.1525854765095753 0 0.14605628994121839 -0.1666087274837024 0 0.13575491332210571 -0.16359195615992991 0 0.1435831055093183 -0.1525854765095753 0 0.13575491332210571 -0.16359195615992991 0 0.1310829860613914 -0.15325061453786609 0 0.1435831055093183 -0.1525854765095753 0 0.1367041680810932 -0.17776425729014109 0 0.14605628994121839 -0.1666087274837024 0 0.13575491332210571 -0.16359195615992991 0 0.12444326469747551 -0.1648802859662053 0 0.1367041680810932 -0.17776425729014109 0 0.13575491332210571 -0.16359195615992991 0 0.1203722275254924 -0.1547889228157035 0 0.12444326469747551 -0.1648802859662053 0 0.1310829860613914 -0.15325061453786609 0 0.12444326469747551 -0.1648802859662053 0 0.13575491332210571 -0.16359195615992991 0 0.1310829860613914 -0.15325061453786609 0 0.1203722275254924 -0.1547889228157035 0 0.1310829860613914 -0.15325061453786609 0 0.1297954289867197 -0.13653009208207589 0 0.1310829860613914 -0.15325061453786609 0 0.1374994290964581 -0.14653325608611439 0 0.1297954289867197 -0.13653009208207589 0 0.1374994290964581 -0.14653325608611439 0 0.1297954289867197 -0.13653009208207589 0 0.14514931917218121 -0.13885552055666009 0 0.1310829860613914 -0.15325061453786609 0 0.1374994290964581 -0.14653325608611439 0 0.1435831055093183 -0.1525854765095753 0 0.12641353394554081 -0.1142415228691516 0 0.1297954289867197 -0.13653009208207589 0 0.140555953988212 -0.1253292230732434 0 0.1297954289867197 -0.13653009208207589 0 0.140555953988212 -0.1253292230732434 0 0.14514931917218121 -0.13885552055666009 0 0.140555953988212 -0.1253292230732434 0 0.14514931917218121 -0.13885552055666009 0 0.1586032947602688 -0.12678746948929001 0 0.14514931917218121 -0.13885552055666009 0 0.15595142401618009 -0.14194839509748189 0 0.1586032947602688 -0.12678746948929001 0 0.14514931917218121 -0.13885552055666009 0 0.1435831055093183 -0.1525854765095753 0 0.15595142401618009 -0.14194839509748189 0 0.1374994290964581 -0.14653325608611439 0 0.14514931917218121 -0.13885552055666009 0 0.1435831055093183 -0.1525854765095753 0 0.15329955327209149 -0.15710932070567379 0 0.1435831055093183 -0.1525854765095753 0 0.15595142401618009 -0.14194839509748189 0 0.15329955327209149 -0.15710932070567379 0 0.15595142401618009 -0.14194839509748189 0 0.15329955327209149 -0.15710932070567379 0 0.15595142401618009 -0.14194839509748189 0 0.16549729059625151 -0.15613604896372091 0 0.15595142401618009 -0.14194839509748189 0 0.16549729059625151 -0.15613604896372091 0 0.1751753448101083 -0.1447980584280609 0 0.1586032947602688 -0.12678746948929001 0 0.1751753448101083 -0.1447980584280609 0 0.15595142401618009 -0.14194839509748189 0 0.1586032947602688 -0.12678746948929001 0 0.1751753448101083 -0.1447980584280609 0 0.1586032947602688 -0.12678746948929001 0 0.1728507704139213 -0.12952287417502389 0 0.1751753448101083 -0.1447980584280609 0 0.15595142401618009 -0.14194839509748189 0 0.1586032947602688 -0.12678746948929001 0 0.1938653442900406 -0.13382703263160059 0 0.18188866173396051 -0.1297279587035613 0 0.1751753448101083 -0.1447980584280609 0 0.17573578035134779 -0.11677801007918361 0 0.1728507704139213 -0.12952287417502389 0 0.18188866173396051 -0.1297279587035613 0 0.1728507704139213 -0.12952287417502389 0 0.18188866173396051 -0.1297279587035613 0 0.1751753448101083 -0.1447980584280609 0 0.19174739485994741 -0.16280864736683209 0 0.1751753448101083 -0.1447980584280609 0 0.17699652045418479 -0.15954682629848041 0 0.19174739485994741 -0.16280864736683209 0 0.1751753448101083 -0.1447980584280609 0 0.16549729059625151 -0.15613604896372091 0 0.1751753448101083 -0.1447980584280609 0 0.17699652045418479 -0.15954682629848041 0 0.19174739485994741 -0.16280864736683209 0 0.17699652045418479 -0.15954682629848041 0 0.18201440916677861 -0.16727214503626411 0 0.17236292753284141 -0.16767995033750629 0 0.18201440916677861 -0.16727214503626411 0 0.18249655470734499 -0.17643108503344221 0 0.17699652045418479 -0.15954682629848041 0 0.17236292753284141 -0.16767995033750629 0 0.18201440916677861 -0.16727214503626411 0 0.19226282961670851 -0.1703743539637729 0 0.18201440916677861 -0.16727214503626411 0 0.18249655470734499 -0.17643108503344221 0 0.18403401180727341 -0.18922402103030669 0 0.18249655470734499 -0.17643108503344221 0 0.16773188727574859 -0.18110659415470959 0 0.17236292753284141 -0.16767995033750629 0 0.18249655470734499 -0.17643108503344221 0 0.16773188727574859 -0.18110659415470959 0 0.1551911012347072 -0.18912585225033091 0 0.15422859387261581 -0.17594444981729951 0 0.16773188727574859 -0.18110659415470959 0 0.15422859387261581 -0.17594444981729951 0 0.16773188727574859 -0.18110659415470959 0 0.16010535583960481 -0.1662141022351136 0 0.15329955327209149 -0.15710932070567379 0 0.16549729059625151 -0.15613604896372091 0 0.16010535583960481 -0.1662141022351136 0 0.16549729059625151 -0.15613604896372091 0 0.17699652045418479 -0.15954682629848041 0 0.17236292753284141 -0.16767995033750629 0 0.16549729059625151 -0.15613604896372091 0 0.17236292753284141 -0.16767995033750629 0 0.16010535583960481 -0.1662141022351136 0 0.17236292753284141 -0.16767995033750629 0 0.16773188727574859 -0.18110659415470959 0 0.16010535583960481 -0.1662141022351136 0 
</DataArray>
</Points>
<Cells>
<DataArray type="UInt32" Name="connectivity" format="ascii">
0 1 2 3 4 5 6 7 8 9 10 11 12 13 14 15 16 17 18 19 20 21 22 23 24 25 26 27 28 29 30 31 32 33 34 35 36 37 38 39 40 41 42 43 44 45 46 47 48 49 50 51 52 53 54 55 56 57 58 59 60 61 62 63 64 65 66 67 68 69 70 71 72 73 74 75 76 77 78 79 80 81 82 83 84 85 86 87 88 89 90 91 92 93 94 95 96 97 98 99 100 101 102 103 104 105 106 107 108 109 110 111 112 113 114 115 116 117 118 119 120 121 122 123 124 125 126 127 128 129 130 131 132 133 134 135 136 137 138 139 140 141 142 143 144 145 146 147 148 149 150 151 152 153 154 155 156 157 158 159 160 161 162 163 164 165 166 167 168 169 170 171 172 173 174 175 176 177 178 179 180 181 182 183 184 185 186 187 188 189 190 191 192 193 194 195 196 197 198 199 200 201 202 203 204 205 206 207 208 209 210 211 212 213 214 215 216 217 218 219 220 221 222 223 224 225 226 227 228 229 230 231 232 233 234 235 236 237 238 239 240 241 242 243 244 245 246 247 248 249 250 251 252 253 254 255 256 257 258 259 260 261 262 263 264 265 266 267 268 269 270 271 272 273 274 275 276 277 278 279 280 281 282 283 284 285 286 287 288 289 290 291 292 293 294 295 296 297 298 299 300 301 302 303 304 305 306 307 308 309 310 311 312 313 314 315 316 317 318 319 320 321 322 323 324 325 326 327 328 329 330 331 332 333 334 335 336 337 338 339 340 341 342 343 344 345 346 347 348 349 350 351 352 353 354 355 356 357 358 359 360 361 362 363 364 365 366 367 368 369 370 371 372 373 374 375 376 377 378 379 380 381 382 383 384 385 386 387 388 389 390 391 392 393 394 395 396 397 398 399 400 401 402 403 404 405 406 407 408 409 410 411 412 413 414 415 416 417 418 419 420 421 422 423 424 425 426 427 428 429 430 431 432 433 434 435 436 437 438 439 440 441 442 443 444 445 446 447 448 449 450 451 452 453 454 455 456 457 458 459 460 461 462 463 464 465 466 467 468 469 470 471 472 473 474 475 476 477 478 479 480 481 482 483 484 485 486 487 488 489 490 491 492 493 494 495 496 497 498 499 500 501 502 503 504 505 506 507 508 509 510 511 512 513 514 515 516 517 518 519 520 521 522 523 524 525 526 527 528 529 530 531 532 533 534 535 536 537 538 539 540 541 542 543 544 545 546 547 548 549 550 551 552 553 554 555 556 557 558 559 560 561 562 563 564 565 566 567 568 569 570 571 572 573 574 575 576 577 578 579 580 581 582 583 584 585 586 587 588 589 590 591 592 593 594 595 596 597 598 599 600 601 602 603 604 605 606 607 608 609 610 611 612 613 614 615 616 617 618 619 620 621 622 623 624 625 626 627 628 629 630 631 632 633 634 635 636 637 638 639 640 641 642 643 644 645 646 647 648 649 650 651 652 653 654 655 656 657 658 659 660 661 662 663 664 665 666 667 668 669 670 671 672 673 674 675 676 677 678 679 680 681 682 683 684 685 686 687 688 689 690 691 692 693 694 695 696 697 698 699 700 701 702 703 704 705 706 707 708 709 710 711 712 713 714 715 716 717 718 719 720 721 722 723 724 725 726 727 728 729 730 731 732 733 734 735 736 737 738 739 740 741 742 743 744 745 746 747 748 749 750 751 752 753 754 755 756 757 758 759 760 761 762 763 764 765 766 767 768 769 770 771 772 773 774 775 776 777 778 779 780 781 782 783 784 785 786 787 788 789 790 791 792 793 794 795 796 797 798 799 800 801 802 803 804 805 806 807 808 809 810 811 812 813 814 815 816 817 818 819 820 821 822 823 824 825 826 827 828 829 830 831 832 833 834 835 836 837 838 839 840 841 842 843 844 845 846 847 848 849 850 851 852 853 854 855 856 857 858 859 860 861 862 863 864 865 866 867 868 869 870 871 872 873 874 875 876 877 878 879 880 881 882 883 884 885 886 887 888 889 890 891 892 893 894 895 896 897 898 899 900 901 902 903 904 905 906 907 908 909 910 911 912 913 914 915 916 917 918 919 920 921 922 923 924 925 926 927 928 929 930 931 932 933 934 935 936 937 938 939 940 941 942 943 944 945 946 947 948 949 950 951 952 953 954 955 956 957 958 959 960 961 962 963 964 965 966 967 968 969 970 971 972 973 974 975 976 977 978 979 980 981 982 983 984 985 986 987 988 989 990 991 992 993 994 995 996 997 998 999 1000 1001 1002 1003 1004 1005 1006 1007 1008 1009 1010 1011 1012 1013 1014 1015 1016 1017 1018 1019 1020 1021 1022 1023 1024 1025 1026 1027 1028 1029 1030 1031 1032 1033 1034 1035 1036 1037 1038 1039 1040 1041 1042 1043 1044 1045 1046 1047 1048 1049 1050 1051 1052 1053 1054 1055 1056 1057 1058 1059 1060 1061 1062 1063 1064 1065 1066 1067 1068 1069 1070 1071 1072 1073 1074 1075 1076 1077 1078 1079 1080 1081 1082 1083 1084 1085 1086 1087 1088 1089 1090 1091 1092 1093 1094 1095 1096 1097 1098 1099 1100 1101 1102 1103 1104 1105 1106 1107 1108 1109 1110 1111 1112 1113 1114 1115 1116 1117 1118 1119 1120 1121 1122 1123 1124 1125 1126 1127 1128 1129 1130 1131 1132 1133 1134 1135 1136 1137 1138 1139 1140 1141 1142 1143 1144 1145 1146 1147 1148 1149 1150 1151 1152 1153 1154 1155 1156 1157 1158 1159 1160 1161 1162 1163 1164 1165 1166 1167 1168 1169 1170 1171 1172 1173 1174 1175 1176 1177 1178 1179 1180 1181 1182 1183 1184 1185 1186 1187 1188 1189 1190 1191 1192 1193 1194 1195 1196 1197 1198 1199 1200 1201 1202 1203 1204 1205 1206 1207 1208 1209 1210 1211 1212 1213 1214 1215 1216 1217 1218 1219 1220 1221 1222 1223 1224 1225 1226 1227 1228 1229 1230 1231 1232 1233 1234 1235 1236 1237 1238 1239 1240 1241 1242 1243 1244 1245 1246 1247 1248 1249 1250 1251 1252 1253 1254 1255 1256 1257 1258 1259 1260 1261 1262 1263 1264 1265 1266 1267 1268 1269 1270 1271 1272 1273 1274 1275 1276 1277 1278 1279 1280 1281 1282 1283 1284 1285 1286 1287 1288 1289 1290 1291 1292 1293 1294 1295 1296 1297 1298 1299 1300 1301 1302 1303 1304 1305 1306 1307 1308 1309 1310 1311 1312 1313 1314 1315 1316 1317 1318 1319 1320 1321 1322 1323 1324 1325 1326 1327 1328 1329 1330 1331 1332 1333 1334 1335 1336 1337 1338 1339 1340 1341 1342 1343 1344 1345 1346 1347 1348 1349 1350 1351 1352 1353 1354 1355 1356 1357 1358 1359 1360 1361 1362 1363 1364 1365 1366 1367 1368 1369 1370 1371 1372 1373 1374 1375 1376 1377 1378 1379 1380 1381 1382 1383 1384 1385 1386 1387 1388 1389 1390 1391 1392 1393 1394 1395 1396 1397 1398 1399 1400 1401 1402 1403 1404 1405 1406 1407 1408 1409 1410 1411 1412 1413 1414 1415 1416 1417 1418 1419 1420 1421 1422 1423 1424 1425 1426 1427 1428 1429 1430 1431 1432 1433 1434 1435 1436 1437 1438 1439 1440 1441 1442 1443 1444 1445 1446 1447 1448 1449 1450 1451 1452 1453 1454 1455 1456 1457 1458 1459 1460 1461 1462 1463 1464 1465 1466 1467 1468 1469 1470 1471 1472 1473 1474 1475 1476 1477 1478 1479 1480 1481 1482 1483 1484 1485 1486 1487 1488 1489 1490 1491 1492 1493 1494 1495 1496 1497 1498 1499 1500 1501 1502 1503 1504 1505 1506 1507 1508 1509 1510 1511 1512 1513 1514 1515 1516 1517 1518 1519 1520 1521 1522 1523 1524 1525 1526 1527 1528 1529 1530 1531 1532 1533 1534 1535 1536 1537 1538 1539 1540 1541 1542 1543 1544 1545 1546 1547 1548 1549 1550 1551 1552 1553 1554 1555 1556 1557 1558 1559 1560 1561 1562 1563 1564 1565 1566 1567 1568 1569 1570 1571 1572 1573 1574 1575 1576 1577 1578 1579 1580 1581 1582 1583 1584 1585 1586 1587 1588 1589 1590 1591 1592 1593 1594 1595 1596 1597 1598 1599 1600 1601 1602 1603 1604 1605 1606 1607 1608 1609 1610 1611 1612 1613 1614 1615 1616 1617 1618 1619 1620 1621 1622 1623 1624 1625 1626 1627 1628 1629 1630 1631 1632 1633 1634 1635 1636 1637 1638 1639 1640 1641 1642 1643 1644 1645 1646 1647 1648 1649 1650 1651 1652 1653 1654 1655 1656 1657 1658 1659 1660 1661 1662 1663 1664 1665 1666 1667 1668 1669 1670 1671 1672 1673 1674 1675 1676 1677 1678 1679 1680 1681 1682 1683 1684 1685 1686 1687 1688 1689 1690 1691 1692 1693 1694 1695 1696 1697 1698 1699 1700 1701 1702 1703 1704 1705 1706 1707 1708 1709 1710 1711 1712 1713 1714 1715 1716 1717 1718 1719 1720 1721 1722 1723 1724 1725 1726 1727 1728 1729 1730 1731 1732 1733 1734 1735 1736 1737 1738 1739 1740 1741 1742 1743 1744 1745 1746 1747 1748 1749 1750 1751 1752 1753 1754 1755 1756 1757 1758 1759 1760 1761 1762 1763 1764 1765 1766 1767 1768 1769 1770 1771 1772 1773 1774 1775 1776 1777 1778 1779 1780 1781 1782 1783 1784 1785 1786 1787 1788 1789 1790 1791 1792 1793 1794 1795 1796 1797 1798 1799 1800 1801 1802 1803 1804 1805 1806 1807 1808 1809 1810 1811 1812 1813 1814 1815 1816 1817 1818 1819 1820 1821 1822 1823 1824 1825 1826 1827 1828 1829 1830 1831 1832 1833 1834 1835 1836 1837 1838 1839 1840 1841 1842 1843 1844 1845 1846 1847 1848 1849 1850 1851 1852 1853 1854 1855 1856 1857 1858 1859 1860 1861 1862 1863 1864 1865 1866 1867 1868 1869 1870 1871 1872 1873 1874 1875 1876 1877 1878 1879 1880 1881 1882 1883 1884 1885 1886 1887 1888 1889 1890 1891 1892 1893 1894 1895 1896 1897 1898 1899 1900 1901 1902 1903 1904 1905 1906 1907 1908 1909 1910 1911 1912 1913 1914 1915 1916 1917 1918 1919 1920 1921 1922 1923 1924 1925 1926 1927 1928 1929 1930 1931 1932 1933 1934 1935 1936 1937 1938 1939 1940 1941 1942 1943 1944 1945 1946 1947 1948 1949 1950 1951 1952 1953 1954 1955 1956 1957 1958 1959 1960 1961 1962 1963 1964 1965 1966 1967 1968 1969 1970 1971 1972 1973 1974 1975 1976 1977 1978 1979 1980 1981 1982 1983 1984 1985 1986 1987 1988 1989 1990 1991 1992 1993 1994 1995 1996 1997 1998 1999 2000 2001 2002 2003 2004 2005 2006 2007 2008 2009 2010 2011 2012 2013 2014 2015 2016 2017 2018 2019 2020 2021 2022 2023 2024 2025 2026 2027 2028 2029 2030 2031 2032 2033 2034 2035 2036 2037 2038 2039 2040 2041 2042 2043 2044 2045 2046 2047 2048 2049 2050 2051 2052 2053 2054 2055 2056 2057 2058 2059 2060 2061 2062 2063 2064 2065 2066 2067 2068 2069 2070 2071 2072 2073 2074 2075 2076 2077 2078 2079 2080 2081 2082 2083 2084 2085 2086 2087 2088 2089 2090 2091 2092 2093 2094 2095 2096 2097 2098 2099 2100 2101 2102 2103 2104 2105 2106 2107 2108 2109 2110 2111 2112 2113 2114 2115 2116 2117 2118 2119 2120 2121 2122 2123 2124 2125 2126 2127 2128 2129 2130 2131 2132 2133 2134 2135 2136 2137 2138 2139 2140 2141 2142 2143 2144 2145 2146 2147 2148 2149 2150 2151 2152 2153 2154 2155 2156 2157 2158 2159 2160 2161 2162 2163 2164 2165 2166 2167 2168 2169 2170 2171 2172 2173 2174 2175 2176 2177 2178 2179 2180 2181 2182 2183 2184 2185 2186 2187 2188 2189 2190 2191 2192 2193 2194 2195 2196 2197 2198 2199 2200 2201 2202 2203 2204 2205 2206 2207 2208 2209 2210 2211 2212 2213 2214 2215 2216 2217 2218 2219 2220 2221 2222 2223 2224 2225 2226 2227 2228 2229 2230 2231 2232 2233 2234 2235 2236 2237 2238 2239 2240 2241 2242 2243 2244 2245 2246 2247 2248 2249 2250 2251 2252 2253 2254 2255 2256 2257 2258 2259 2260 2261 2262 2263 2264 2265 2266 2267 2268 2269 2270 2271 2272 2273 2274 2275 2276 2277 2278 2279 2280 2281 2282 2283 2284 2285 2286 2287 2288 2289 2290 2291 2292 2293 2294 2295 2296 2297 2298 2299 2300 2301 2302 2303 2304 2305 2306 2307 2308 2309 2310 2311 2312 2313 2314 2315 2316 2317 2318 2319 2320 2321 2322 2323 2324 2325 2326 2327 2328 2329 2330 2331 2332 2333 2334 2335 2336 2337 2338 2339 2340 2341 2342 2343 2344 2345 2346 2347 2348 2349 2350 2351 2352 2353 2354 2355 2356 2357 2358 2359 2360 2361 2362 2363 2364 2365 2366 2367 2368 2369 2370 2371 2372 2373 2374 2375 2376 2377 2378 2379 2380 2381 2382 2383 2384 2385 2386 2387 2388 2389 2390 2391 2392 2393 2394 2395 2396 2397 2398 2399 2400 2401 2402 2403 2404 2405 2406 2407 2408 2409 2410 2411 2412 2413 2414 2415 2416 2417 2418 2419 2420 2421 2422 2423 2424 2425 2426 2427 2428 2429 2430 2431 2432 2433 2434 2435 2436 2437 2438 2439 2440 2441 2442 2443 2444 2445 2446 2447 2448 2449 2450 2451 2452 2453 2454 2455 2456 2457 2458 2459 2460 2461 2462 2463 2464 2465 2466 2467 2468 2469 2470 2471 2472 2473 2474 2475 2476 2477 2478 2479 2480 2481 2482 2483 2484 2485 2486 2487 2488 2489 2490 2491 2492 2493 2494 2495 2496 2497 2498 2499 2500 2501 2502 2503 2504 2505 2506 2507 2508 2509 2510 2511 2512 2513 2514 2515 2516 2517 2518 2519 2520 2521 2522 2523 2524 2525 2526 2527 2528 2529 2530 2531 2532 2533 2534 2535 2536 2537 2538 2539 2540 2541 2542 2543 2544 2545 2546 2547 2548 2549 2550 2551 2552 2553 2554 2555 2556 2557 2558 2559 2560 2561 2562 2563 2564 2565 2566 2567 2568 2569 2570 2571 2572 2573 2574 2575 2576 2577 2578 2579 2580 2581 2582 2583 2584 2585 2586 2587 2588 2589 2590 2591 2592 2593 2594 2595 2596 2597 2598 2599 2600 2601 2602 2603 2604 2605 2606 2607 2608 2609 2610 2611 2612 2613 2614 2615 2616 2617 2618 2619 2620 2621 2622 2623 2624 2625 2626 2627 2628 2629 2630 2631 2632 2633 2634 2635 2636 2637 2638 2639 2640 2641 2642 2643 2644 2645 2646 2647 2648 2649 2650 2651 2652 2653 2654 2655 2656 2657 2658 2659 2660 2661 2662 2663 2664 2665 2666 2667 2668 2669 2670 2671 2672 2673 2674 2675 2676 2677 2678 2679 2680 2681 2682 2683 2684 2685 2686 2687 2688 2689 2690 2691 2692 2693 2694 2695 2696 2697 2698 2699 2700 2701 2702 2703 2704 2705 2706 2707 2708 2709 2710 2711 2712 2713 2714 2715 2716 2717 2718 2719 2720 2721 2722 2723 2724 2725 2726 2727 2728 2729 2730 2731 2732 2733 2734 2735 2736 2737 2738 2739 2740 2741 2742 2743 2744 2745 2746 2747 2748 2749 2750 2751 2752 2753 2754 2755 2756 2757 2758 2759 2760 2761 2762 2763 2764 2765 2766 2767 2768 2769 2770 2771 2772 2773 2774 2775 2776 2777 2778 2779 2780 2781 2782 2783 2784 2785 2786 2787 2788 2789 2790 2791 2792 2793 2794 2795 2796 2797 2798 2799 2800 2801 2802 2803 2804 2805 2806 2807 2808 2809 2810 2811 2812 2813 2814 2815 2816 2817 2818 2819 2820 2821 2822 2823 2824 2825 2826 2827 2828 2829 2830 2831 2832 2833 2834 2835 2836 2837 2838 2839 2840 2841 2842 2843 2844 2845 2846 2847 2848 2849 2850 2851 2852 2853 2854 2855 2856 2857 2858 2859 2860 2861 2862 2863 2864 2865 2866 2867 2868 2869 2870 2871 2872 2873 2874 2875 2876 2877 2878 2879 2880 2881 2882 2883 2884 2885 2886 2887 2888 2889 2890 2891 2892 2893 2894 2895 2896 2897 2898 2899 2900 2901 2902 2903 2904 2905 2906 2907 2908 2909 2910 2911 2912 2913 2914 2915 2916 2917 2918 2919 2920 2921 2922 2923 2924 2925 2926 2927 2928 2929 2930 2931 2932 2933 2934 2935 2936 2937 2938 2939 2940 2941 2942 2943 2944 2945 2946 2947 2948 2949 2950 2951 2952 2953 2954 2955 2956 2957 2958 2959 2960 2961 2962 2963 2964 2965 2966 2967 2968 2969 2970 2971 2972 2973 2974 2975 2976 2977 2978 2979 2980 2981 2982 2983 2984 2985 2986 2987 2988 2989 2990 2991 2992 2993 2994 2995 2996 2997 2998 2999 3000 3001 3002 3003 3004 3005 3006 3007 3008 3009 3010 3011 3012 3013 3014 3015 3016 3017 3018 3019 3020 3021 3022 3023 3024 3025 3026 3027 3028 3029 3030 3031 3032 3033 3034 3035 3036 3037 3038 3039 3040 3041 3042 3043 3044 3045 3046 3047 3048 3049 3050 3051 3052 3053 3054 3055 3056 3057 3058 3059 3060 3061 3062 3063 3064 3065 3066 3067 3068 3069 3070 3071 3072 3073 3074 3075 3076 3077 3078 3079 3080 3081 3082 3083 3084 3085 3086 3087 3088 3089 3090 3091 3092 3093 3094 3095 3096 3097 3098 3099 3100 3101 3102 3103 3104 3105 3106 3107 3108 3109 3110 3111 3112 3113 3114 3115 3116 3117 3118 3119 3120 3121 3122 3123 3124 3125 3126 3127 3128 3129 3130 3131 3132 3133 3134 3135 3136 3137 3138 3139 3140 3141 3142 3143 3144 3145 3146 3147 3148 3149 3150 3151 3152 3153 3154 3155 3156 3157 3158 3159 3160 3161 3162 3163 3164 3165 3166 3167 3168 3169 3170 3171 3172 3173 3174 3175 3176 3177 3178 3179 3180 3181 3182 3183 3184 3185 3186 3187 3188 3189 3190 3191 3192 3193 3194 3195 3196 3197 3198 3199 3200 3201 3202 3203 3204 3205 3206 3207 3208 3209 3210 3211 3212 3213 3214 3215 3216 3217 3218 3219 3220 3221 3222 3223 3224 3225 3226 3227 3228 3229 3230 3231 3232 3233 3234 3235 3236 3237 3238 3239 3240 3241 3242 3243 3244 3245 3246 3247 3248 3249 3250 3251 3252 3253 3254 3255 3256 3257 3258 3259 3260 3261 3262 3263 3264 3265 3266 3267 3268 3269 3270 3271 3272 3273 3274 3275 3276 3277 3278 3279 3280 3281 3282 3283 3284 3285 3286 3287 3288 3289 3290 3291 3292 3293 3294 3295 3296 3297 3298 3299 3300 3301 3302 3303 3304 3305 3306 3307 3308 3309 3310 3311 3312 3313 3314 3315 3316 3317 3318 3319 3320 3321 3322 3323 3324 3325 3326 3327 3328 3329 3330 3331 3332 3333 3334 3335 3336 3337 3338 3339 3340 3341 3342 3343 3344 3345 3346 3347 3348 3349 3350 3351 3352 3353 3354 3355 3356 3357 3358 3359 3360 3361 3362 3363 3364 3365 3366 3367 3368 3369 3370 3371 3372 3373 3374 3375 3376 3377 3378 3379 3380 3381 3382 3383 3384 3385 3386 3387 3388 3389 3390 3391 3392 3393 3394 3395 3396 3397 3398 3399 3400 3401 3402 3403 3404 3405 3406 3407 3408 3409 3410 3411 3412 3413 3414 3415 3416 3417 3418 3419 3420 3421 3422 3423 3424 3425 3426 3427 3428 3429 3430 3431 3432 3433 3434 3435 3436 3437 3438 3439 3440 3441 3442 3443 3444 3445 3446 3447 3448 3449 3450 3451 3452 3453 3454 3455 3456 3457 3458 3459 3460 3461 3462 3463 3464 3465 3466 3467 3468 3469 3470 3471 3472 3473 3474 3475 3476 3477 3478 3479 3480 3481 3482 3483 3484 3485 3486 3487 3488 3489 3490 3491 3492 3493 3494 3495 3496 3497 3498 3499 3500 3501 3502 3503 3504 3505 3506 3507 3508 3509 3510 3511 3512 3513 3514 3515 3516 3517 3518 3519 3520 3521 3522 3523 3524 3525 3526 3527 3528 3529 3530 3531 3532 3533 3534 3535 3536 3537 3538 3539 3540 3541 3542 3543 3544 3545 3546 3547 3548 3549 3550 3551 3552 3553 3554 3555 3556 3557 3558 3559 3560 3561 3562 3563 3564 3565 3566 3567 3568 3569 3570 3571 3572 3573 3574 3575 3576 3577 3578 3579 3580 3581 3582 3583 3584 3585 3586 3587 3588 3589 3590 3591 3592 3593 3594 3595 3596 3597 3598 3599 3600 3601 3602 3603 3604 3605 3606 3607 3608 3609 3610 3611 3612 3613 3614 3615 3616 3617 3618 3619 3620 3621 3622 3623 3624 3625 3626 3627 3628 3629 3630 3631 3632 3633 3634 3635 3636 3637 3638 3639 3640 3641 3642 3643 3644 3645 3646 3647 3648 3649 3650 3651 3652 3653 3654 3655 3656 3657 3658 3659 3660 3661 3662 3663 3664 3665 3666 3667 3668 3669 3670 3671 3672 3673 3674 3675 3676 3677 3678 3679 3680 3681 3682 3683 3684 3685 3686 3687 3688 3689 3690 3691 3692 3693 3694 3695 3696 3697 3698 3699 3700 3701 3702 3703 3704 3705 3706 3707 3708 3709 3710 3711 3712 3713 3714 3715 3716 3717 3718 3719 3720 3721 3722 3723 3724 3725 3726 3727 3728 3729 3730 3731 3732 3733 3734 3735 3736 3737 3738 3739 3740 3741 3742 3743 3744 3745 3746 3747 3748 3749 3750 3751 3752 3753 3754 3755 3756 3757 3758 3759 3760 3761 3762 3763 3764 3765 3766 3767 3768 3769 3770 3771 3772 3773 3774 3775 3776 3777 3778 3779 3780 3781 3782 3783 3784 3785 3786 3787 3788 3789 3790 3791 3792 3793 3794 3795 3796 3797 3798 3799 3800 3801 3802 3803 3804 3805 3806 3807 3808 3809 3810 3811 3812 3813 3814 3815 3816 3817 3818 3819 3820 3821 3822 3823 3824 3825 3826 3827 3828 3829 3830 3831 3832 3833 3834 3835 3836 3837 3838 3839 3840 3841 3842 3843 3844 3845 3846 3847 3848 3849 3850 3851 3852 3853 3854 3855 3856 3857 3858 3859 3860 3861 3862 3863 3864 3865 3866 3867 3868 3869 3870 3871 3872 3873 3874 3875 3876 3877 3878 3879 3880 3881 3882 3883 3884 3885 3886 3887 3888 3889 3890 3891 3892 3893 3894 3895 3896 3897 3898 3899 3900 3901 3902 3903 3904 3905 3906 3907 3908 3909 3910 3911 3912 3913 3914 3915 3916 3917 3918 3919 3920 3921 3922 3923 3924 3925 3926 3927 3928 3929 3930 3931 3932 3933 3934 3935 3936 3937 3938 3939 3940 3941 3942 3943 3944 3945 3946 3947 3948 3949 3950 3951 3952 3953 3954 3955 3956 3957 3958 3959 3960 3961 3962 3963 3964 3965 3966 3967 3968 3969 3970 3971 3972 3973 3974 3975 3976 3977 3978 3979 3980 3981 3982 3983 3984 3985 3986 3987 3988 3989 3990 3991 3992 3993 3994 3995 3996 3997 3998 3999 4000 4001 4002 4003 4004 4005 4006 4007 4008 4009 4010 4011 4012 4013 4014 4015 4016 4017 4018 4019 4020 4021 4022 4023 4024 4025 4026 4027 4028 4029 4030 4031 4032 4033 4034 4035 4036 4037 4038 4039 4040 4041 4042 4043 4044 4045 4046 4047 4048 4049 4050 4051 4052 4053 4054 4055 4056 4057 4058 4059 4060 4061 4062 4063 4064 4065 4066 4067 4068 4069 4070 4071 4072 4073 4074 4075 4076 4077 4078 4079 4080 4081 4082 4083 4084 4085 4086 4087 4088 4089 4090 4091 4092 4093 4094 4095 4096 4097 4098 4099 4100 4101 4102 4103 4104 4105 4106 4107 4108 4109 4110 4111 4112 4113 4114 4115 4116 4117 4118 4119 4120 4121 4122 4123 4124 4125 4126 4127 4128 4129 4130 4131 4132 4133 4134 4135 4136 4137 4138 4139 4140 4141 4142 4143 4144 4145 4146 4147 4148 4149 4150 4151 4152 4153 4154 4155 4156 4157 4158 4159 4160 4161 4162 4163 4164 4165 4166 4167 4168 4169 4170 4171 4172 4173 4174 4175 4176 4177 4178 4179 4180 4181 4182 4183 4184 4185 4186 4187 4188 4189 4190 4191 4192 4193 4194 4195 4196 4197 4198 4199 4200 4201 4202 4203 4204 4205 4206 4207 4208 4209 4210 4211 4212 4213 4214 4215 4216 4217 4218 4219 4220 4221 4222 4223 4224 4225 4226 4227 4228 4229 4230 4231 4232 4233 4234 4235 4236 4237 4238 4239 4240 4241 4242 4243 4244 4245 4246 4247 4248 4249 4250 4251 4252 4253 4254 4255 4256 4257 4258 4259 4260 4261 4262 4263 4264 4265 4266 4267 4268 4269 4270 4271 4272 4273 4274 4275 4276 4277 4278 4279 4280 4281 4282 4283 4284 4285 4286 4287 4288 4289 4290 4291 4292 4293 4294 4295 4296 4297 4298 4299 4300 4301 4302 4303 4304 4305 4306 4307 4308 4309 4310 4311 4312 4313 4314 4315 4316 4317 4318 4319 4320 4321 4322 4323 4324 4325 4326 4327 4328 4329 4330 4331 4332 4333 4334 4335 4336 4337 4338 4339 4340 4341 4342 4343 4344 4345 4346 4347 4348 4349 4350 4351 4352 4353 4354 4355 4356 4357 4358 4359 4360 4361 4362 4363 4364 4365 4366 4367 4368 4369 4370 4371 4372 4373 4374 4375 4376 4377 4378 4379 4380 4381 4382 4383 4384 4385 4386 4387 4388 4389 4390 4391 4392 4393 4394 4395 4396 4397 4398 4399 4400 4401 4402 4403 4404 4405 4406 4407 4408 4409 4410 4411 4412 4413 4414 4415 4416 4417 4418 4419 4420 4421 4422 4423 4424 4425 4426 4427 4428 4429 4430 4431 4432 4433 4434 4435 4436 4437 4438 4439 4440 4441 4442 4443 4444 4445 4446 4447 4448 4449 4450 4451 4452 4453 4454 4455 4456 4457 4458 4459 4460 4461 4462 4463 4464 4465 4466 4467 4468 4469 4470 4471 4472 4473 4474 4475 4476 4477 4478 4479 4480 4481 4482 4483 4484 4485 4486 4487 4488 4489 4490 4491 4492 4493 4494 4495 4496 4497 4498 4499 4500 4501 4502 4503 4504 4505 4506 4507 4508 4509 4510 4511 4512 4513 4514 4515 4516 4517 4518 4519 4520 4521 4522 4523 4524 4525 4526 4527 4528 4529 4530 4531 4532 4533 4534 4535 4536 4537 4538 4539 4540 4541 4542 4543 4544 4545 4546 4547 4548 4549 4550 4551 4552 4553 4554 4555 4556 4557 4558 4559 4560 4561 4562 4563 4564 4565 4566 4567 4568 4569 4570 4571 4572 4573 4574 4575 4576 4577 4578 4579 4580 4581 4582 4583 4584 4585 4586 4587 4588 4589 4590 4591 4592 4593 4594 4595 4596 4597 4598 4599 4600 4601 4602 4603 4604 4605 4606 4607 4608 4609 4610 4611 4612 4613 4614 4615 4616 4617 4618 4619 4620 4621 4622 4623 4624 4625 4626 4627 4628 4629 4630 4631 4632 4633 4634 4635 4636 4637 4638 4639 4640 4641 4642 4643 4644 4645 4646 4647 4648 4649 4650 4651 4652 4653 4654 4655 4656 4657 4658 4659 4660 4661 4662 4663 4664 4665 4666 4667 4668 4669 4670 4671 4672 4673 4674 4675 4676 4677 4678 4679 4680 4681 4682 4683 4684 4685 4686 4687 4688 4689 4690 4691 4692 4693 4694 4695 4696 4697 4698 4699 4700 4701 4702 4703 4704 4705 4706 4707 4708 4709 4710 4711 4712 4713 4714 4715 4716 4717 4718 4719 4720 4721 4722 4723 4724 4725 4726 4727 4728 4729 4730 4731 4732 4733 4734 4735 4736 4737 4738 4739 4740 4741 4742 4743 4744 4745 4746 4747 4748 4749 4750 4751 4752 4753 4754 4755 4756 4757 4758 4759 4760 4761 4762 4763 4764 4765 4766 4767 4768 4769 4770 4771 4772 4773 4774 4775 4776 4777 4778 4779 4780 4781 4782 4783 4784 4785 4786 4787 4788 4789 4790 4791 4792 4793 4794 4795 4796 4797 4798 4799 4800 4801 4802 4803 4804 4805 4806 4807 4808 4809 4810 4811 4812 4813 4814 4815 4816 4817 4818 4819 4820 4821 4822 4823 4824 4825 4826 4827 4828 4829 4830 4831 4832 4833 4834 4835 4836 4837 4838 4839 4840 4841 4842 4843 4844 4845 4846 4847 4848 4849 4850 4851 4852 4853 4854 4855 4856 4857 4858 4859 4860 4861 4862 4863 4864 4865 4866 4867 4868 4869 4870 4871 4872 4873 4874 4875 4876 4877 4878 4879 4880 4881 4882 4883 4884 4885 4886 4887 4888 4889 4890 4891 4892 4893 4894 4895 4896 4897 4898 4899 4900 4901 4902 4903 4904 4905 4906 4907 4908 4909 4910 4911 4912 4913 4914 4915 4916 4917 4918 4919 4920 4921 4922 4923 4924 4925 4926 4927 4928 4929 4930 4931 4932 4933 4934 4935 4936 4937 4938 4939 4940 4941 4942 4943 4944 4945 4946 4947 4948 4949 4950 4951 4952 4953 4954 4955 4956 4957 4958 4959 4960 4961 4962 4963 4964 4965 4966 4967 4968 4969 4970 4971 4972 4973 4974 4975 4976 4977 4978 4979 4980 4981 4982 4983 4984 4985 4986 4987 4988 4989 4990 4991 4992 4993 4994 4995 4996 4997 4998 4999 5000 5001 5002 5003 5004 5005 5006 5007 5008 5009 5010 5011 5012 5013 5014 5015 5016 5017 5018 5019 5020 5021 5022 5023 5024 5025 5026 5027 5028 5029 5030 5031 5032 5033 5034 5035 5036 5037 5038 5039 5040 5041 5042 5043 5044 5045 5046 5047 5048 5049 5050 5051 5052 5053 5054 5055 5056 5057 5058 5059 5060 5061 5062 5063 5064 5065 5066 5067 5068 5069 5070 5071 5072 5073 5074 5075 5076 5077 5078 5079 5080 5081 5082 5083 5084 5085 5086 5087 5088 5089 5090 5091 5092 5093 5094 5095 5096 5097 5098 5099 5100 5101 5102 5103 5104 5105 5106 5107 5108 5109 5110 5111 5112 5113 5114 5115 5116 5117 5118 5119 5120 5121 5122 5123 5124 5125 5126 5127 5128 5129 5130 5131 5132 5133 5134 5135 5136 5137 5138 5139 5140 5141 5142 5143 5144 5145 5146 5147 5148 5149 5150 5151 5152 5153 5154 5155 5156 5157 5158 5159 5160 5161 5162 5163 5164 5165 5166 5167 5168 5169 5170 5171 5172 5173 5174 5175 5176 5177 5178 5179 5180 5181 5182 5183 5184 5185 5186 5187 5188 5189 5190 5191 5192 5193 5194 5195 5196 5197 5198 5199 5200 5201 5202 5203 5204 5205 5206 5207 5208 5209 5210 5211 5212 5213 5214 5215 5216 5217 5218 5219 5220 5221 5222 5223 5224 5225 5226 5227 5228 5229 5230 5231 5232 5233 5234 5235 5236 5237 5238 5239 5240 5241 5242 5243 5244 5245 5246 5247 5248 5249 5250 5251 5252 5253 5254 5255 5256 5257 5258 5259 5260 5261 5262 5263 5264 5265 5266 5267 5268 5269 5270 5271 5272 5273 5274 5275 5276 5277 5278 5279 5280 5281 5282 5283 5284 5285 5286 5287 5288 5289 5290 5291 5292 5293 5294 5295 5296 5297 5298 5299 5300 5301 5302 5303 5304 5305 5306 5307 5308 5309 5310 5311 5312 5313 5314 5315 5316 5317 5318 5319 5320 5321 5322 5323 5324 5325 5326 5327 5328 5329 5330 5331 5332 5333 5334 5335 5336 5337 5338 5339 5340 5341 5342 5343 5344 5345 5346 5347 5348 5349 5350 5351 5352 5353 5354 5355 5356 5357 5358 5359 5360 5361 5362 5363 5364 5365 5366 5367 5368 5369 5370 5371 5372 5373 5374 5375 5376 5377 5378 5379 5380 5381 5382 5383 5384 5385 5386 5387 5388 5389 5390 5391 5392 5393 5394 5395 5396 5397 5398 5399 5400 5401 5402 5403 5404 5405 5406 5407 5408 5409 5410 5411 5412 5413 5414 5415 5416 5417 5418 5419 5420 5421 5422 5423 5424 5425 5426 5427 5428 5429 5430 5431 5432 5433 5434 5435 5436 5437 5438 5439 5440 5441 5442 5443 5444 5445 5446 5447 5448 5449 5450 5451 5452 5453 5454 5455 5456 5457 5458 5459 5460 5461 5462 5463 5464 5465 5466 5467 5468 5469 5470 5471 5472 5473 5474 5475 5476 5477 5478 5479 5480 5481 5482 5483 5484 5485 5486 5487 5488 5489 5490 5491 5492 5493 5494 5495 5496 5497 5498 5499 5500 5501 5502 5503 5504 5505 5506 5507 5508 5509 5510 5511 5512 5513 5514 5515 5516 5517 5518 5519 5520 5521 5522 5523 5524 5525 5526 5527 5528 5529 5530 5531 5532 5533 5534 5535 5536 5537 5538 5539 5540 5541 5542 5543 5544 5545 5546 5547 5548 5549 5550 5551 5552 5553 5554 5555 5556 5557 5558 5559 5560 5561 5562 5563 5564 5565 5566 5567 5568 5569 5570 5571 5572 5573 5574 5575 5576 5577 5578 5579 5580 5581 5582 5583 5584 5585 5586 5587 5588 5589 5590 5591 5592 5593 5594 5595 5596 5597 5598 5599 5600 5601 5602 5603 5604 5605 5606 5607 5608 5609 5610 5611 5612 5613 5614 5615 5616 5617 5618 5619 5620 5621 5622 5623 5624 5625 5626 5627 5628 5629 5630 5631 5632 5633 5634 5635 5636 5637 5638 5639 5640 5641 5642 5643 5644 5645 5646 5647 5648 5649 5650 5651 5652 5653 5654 5655 5656 5657 5658 5659 5660 5661 5662 5663 5664 5665 5666 5667 5668 5669 5670 5671 5672 5673 5674 5675 5676 5677 5678 5679 5680 5681 5682 5683 5684 5685 5686 5687 5688 5689 5690 5691 5692 5693 5694 5695 5696 5697 5698 5699 5700 5701 5702 5703 5704 5705 5706 5707 5708 5709 5710 5711 5712 5713 5714 5715 5716 5717 5718 5719 5720 5721 5722 5723 5724 5725 5726 5727 5728 5729 5730 5731 5732 5733 5734 5735 5736 5737 5738 5739 5740 5741 5742 5743 5744 5745 5746 5747 5748 5749 5750 5751 5752 5753 5754 5755 5756 5757 5758 5759 5760 5761 5762 5763 5764 5765 5766 5767 5768 5769 5770 5771 5772 5773 5774 5775 5776 5777 5778 5779 5780 5781 5782 5783 5784 5785 5786 5787 5788 5789 5790 5791 5792 5793 5794 5795 5796 5797 5798 5799 5800 5801 5802 5803 5804 5805 5806 5807 5808 5809 5810 5811 5812 5813 5814 5815 5816 5817 5818 5819 5820 5821 5822 5823 5824 5825 5826 5827 5828 5829 5830 5831 5832 5833 5834 5835 5836 5837 5838 5839 5840 5841 5842 5843 5844 5845 5846 5847 5848 5849 5850 5851 5852 5853 5854 5855 5856 5857 5858 5859 5860 5861 5862 5863 5864 5865 5866 5867 5868 5869 5870 5871 5872 5873 5874 5875 5876 5877 5878 5879 5880 5881 5882 5883 5884 5885 5886 5887 5888 5889 5890 5891 5892 5893 5894 5895 5896 5897 5898 5899 5900 5901 5902 5903 5904 5905 5906 5907 5908 5909 5910 5911 5912 5913 5914 5915 5916 5917 5918 5919 5920 5921 5922 5923 5924 5925 5926 5927 5928 5929 5930 5931 5932 5933 5934 5935 5936 5937 5938 5939 5940 5941 5942 5943 5944 5945 5946 5947 5948 5949 5950 5951 5952 5953 5954 5955 5956 5957 5958 5959 5960 5961 5962 5963 5964 5965 5966 5967 5968 5969 5970 5971 5972 5973 5974 5975 5976 5977 5978 5979 5980 5981 5982 5983 5984 5985 5986 5987 5988 5989 5990 5991 5992 5993 5994 5995 5996 5997 5998 5999 6000 6001 6002 6003 6004 6005 6006 6007 6008 6009 6010 6011 6012 6013 6014 6015 6016 6017 6018 6019 6020 6021 6022 6023 6024 6025 6026 6027 6028 6029 6030 6031 6032 6033 6034 6035 6036 6037 6038 6039 6040 6041 6042 6043 6044 6045 6046 6047 6048 6049 6050 6051 6052 6053 6054 6055 6056 6057 6058 6059 6060 6061 6062 6063 6064 6065 6066 6067 6068 6069 6070 6071 6072 6073 6074 6075 6076 6077 6078 6079 6080 6081 6082 6083 6084 6085 6086 6087 6088 6089 6090 6091 6092 6093 6094 6095 6096 6097 6098 6099 6100 6101 6102 6103 6104 6105 6106 6107 6108 6109 6110 6111 6112 6113 6114 6115 6116 6117 6118 6119 6120 6121 6122 6123 6124 6125 6126 6127 6128 6129 6130 6131 6132 6133 6134 6135 6136 6137 6138 6139 6140 6141 6142 6143 6144 6145 6146 6147 6148 6149 6150 6151 6152 6153 6154 6155 6156 6157 6158 6159 6160 6161 6162 6163 6164 6165 6166 6167 6168 6169 6170 6171 6172 6173 6174 6175 6176 6177 6178 6179 6180 6181 6182 6183 6184 6185 6186 6187 6188 6189 6190 6191 6192 6193 6194 6195 6196 6197 6198 6199 6200 6201 6202 6203 6204 6205 6206 6207 6208 6209 6210 6211 6212 6213 6214 6215 6216 6217 6218 6219 6220 6221 6222 6223 6224 6225 6226 6227 6228 6229 6230 6231 6232 6233 6234 6235 6236 6237 6238 6239 6240 6241 6242 6243 6244 6245 6246 6247 6248 6249 6250 6251 6252 6253 6254 6255 6256 6257 6258 6259 6260 6261 6262 6263 6264 6265 6266 6267 6268 6269 6270 6271 6272 6273 6274 6275 6276 6277 6278 6279 6280 6281 6282 6283 6284 6285 6286 6287 6288 6289 6290 6291 6292 6293 6294 6295 6296 6297 6298 6299 6300 6301 6302 6303 6304 6305 6306 6307 6308 6309 6310 6311 6312 6313 6314 6315 6316 6317 6318 6319 6320 6321 6322 6323 6324 6325 6326 6327 6328 6329 6330 6331 6332 6333 6334 6335 6336 6337 6338 6339 6340 6341 6342 6343 6344 6345 6346 6347 6348 6349 6350 6351 6352 6353 6354 6355 6356 6357 6358 6359 6360 6361 6362 6363 6364 6365 6366 6367 6368 6369 6370 6371 6372 6373 6374 6375 6376 6377 6378 6379 6380 6381 6382 6383 6384 6385 6386 6387 6388 6389 6390 6391 6392 6393 6394 6395 6396 6397 6398 6399 6400 6401 6402 6403 6404 6405 6406 6407 6408 6409 6410 6411 6412 6413 6414 6415 6416 6417 6418 6419 6420 6421 6422 6423 6424 6425 6426 6427 6428 6429 6430 6431 6432 6433 6434 6435 6436 6437 6438 6439 6440 6441 6442 6443 6444 6445 6446 6447 6448 6449 6450 6451 6452 6453 6454 6455 6456 6457 6458 6459 6460 6461 6462 6463 6464 6465 6466 6467 6468 6469 6470 6471 6472 6473 6474 6475 6476 6477 6478 6479 6480 6481 6482 6483 6484 6485 6486 6487 6488 6489 6490 6491 6492 6493 6494 6495 6496 6497 6498 6499 6500 6501 6502 6503 6504 6505 6506 6507 6508 6509 6510 6511 6512 6513 6514 6515 6516 6517 6518 6519 6520 6521 6522 6523 6524 6525 6526 6527 6528 6529 6530 6531 6532 6533 6534 6535 6536 6537 6538 6539 6540 6541 6542 6543 6544 6545 6546 6547 6548 6549 6550 6551 6552 6553 6554 6555 6556 6557 6558 6559 6560 6561 6562 6563 6564 6565 6566 6567 6568 6569 6570 6571 6572 6573 6574 6575 6576 6577 6578 6579 6580 6581 6582 6583 6584 6585 6586 6587 6588 6589 6590 6591 6592 6593 6594 6595 6596 6597 6598 6599 6600 6601 6602 6603 6604 6605 6606 6607 6608 6609 6610 6611 6612 6613 6614 6615 6616 6617 6618 6619 6620 6621 6622 6623 6624 6625 6626 6627 6628 6629 6630 6631 6632 6633 6634 6635 6636 6637 6638 6639 6640 6641 6642 6643 6644 6645 6646 6647 6648 6649 6650 6651 6652 6653 6654 6655 6656 6657 6658 6659 6660 6661 6662 6663 6664 6665 6666 6667 6668 6669 6670 6671 6672 6673 6674 6675 6676 6677 6678 6679 6680 6681 6682 6683 6684 6685 6686 6687 6688 6689 6690 6691 6692 6693 6694 6695 6696 6697 6698 6699 6700 6701 6702 6703 6704 6705 6706 6707 6708 6709 6710 6711 6712 6713 6714 6715 6716 6717 6718 6719 6720 6721 6722 6723 6724 6725 6726 6727 6728 6729 6730 6731 6732 6733 6734 6735 6736 6737 6738 6739 6740 6741 6742 6743 6744 6745 6746 6747 6748 6749 6750 6751 6752 6753 6754 6755 6756 6757 6758 6759 6760 6761 6762 6763 6764 6765 6766 6767 6768 6769 6770 6771 6772 6773 6774 6775 6776 6777 6778 6779 6780 6781 6782 6783 6784 6785 6786 6787 6788 6789 6790 6791 6792 6793 6794 6795 6796 6797 6798 6799 6800 6801 6802 6803 6804 6805 6806 6807 6808 6809 6810 6811 6812 6813 6814 6815 6816 6817 6818 6819 6820 6821 6822 6823 6824 6825 6826 6827 6828 6829 6830 6831 6832 6833 6834 6835 6836 6837 6838 6839 6840 6841 6842 6843 6844 6845 6846 6847 6848 6849 6850 6851 6852 6853 6854 6855 6856 6857 6858 6859 6860 6861 6862 6863 6864 6865 6866 6867 6868 6869 6870 6871 6872 6873 6874 6875 6876 6877 6878 6879 6880 6881 6882 6883 6884 6885 6886 6887 6888 6889 6890 6891 6892 6893 6894 6895 6896 6897 6898 6899 6900 6901 6902 6903 6904 6905 6906 6907 6908 6909 6910 6911 6912 6913 6914 6915 6916 6917 6918 6919 6920 6921 6922 6923 6924 6925 6926 6927 6928 6929 6930 6931 6932 6933 6934 6935 6936 6937 6938 6939 6940 6941 6942 6943 6944 6945 6946 6947 6948 6949 6950 6951 6952 6953 6954 6955 6956 6957 6958 6959 6960 6961 6962 6963 6964 6965 6966 6967 6968 6969 6970 6971 6972 6973 6974 6975 6976 6977 6978 6979 6980 6981 6982 6983 6984 6985 6986 6987 6988 6989 6990 6991 6992 6993 6994 6995 6996 6997 6998 6999 7000 7001 7002 7003 7004 7005 7006 7007 7008 7009 7010 7011 7012 7013 7014 7015 7016 7017 7018 7019 7020 7021 7022 7023 7024 7025 7026 7027 7028 7029 7030 7031 7032 7033 7034 7035 7036 7037 7038 7039 7040 7041 7042 7043 7044 7045 7046 7047 7048 7049 7050 7051 7052 7053 7054 7055 7056 7057 7058 7059 7060 7061 7062 7063 7064 7065 7066 7067 7068 7069 7070 7071 7072 7073 7074 7075 7076 7077 7078 7079 7080 7081 7082 7083 7084 7085 7086 7087 7088 7089 7090 7091 7092 7093 7094 7095 7096 7097 7098 7099 7100 7101 7102 7103 7104 7105 7106 7107 7108 7109 7110 7111 7112 7113 7114 7115 7116 7117 7118 7119 7120 7121 7122 7123 7124 7125 7126 7127 7128 7129 7130 7131 7132 7133 7134 7135 7136 7137 7138 7139 7140 7141 7142 7143 7144 7145 7146 7147 7148 7149 7150 7151 7152 7153 7154 7155 7156 7157 7158 7159 7160 7161 7162 7163 7164 7165 7166 7167 7168 7169 7170 7171 7172 7173 7174 7175 7176 7177 7178 7179 7180 7181 7182 7183 7184 7185 7186 7187 7188 7189 7190 7191 7192 7193 7194 7195 7196 7197 7198 7199 7200 7201 7202 7203 7204 7205 7206 7207 7208 7209 7210 7211 7212 7213 7214 7215 7216 7217 7218 7219 7220 7221 7222 7223 7224 7225 7226 7227 7228 7229 7230 7231 7232 7233 7234 7235 7236 7237 7238 7239 7240 7241 7242 7243 7244 7245 7246 7247 7248 7249 7250 7251 7252 7253 7254 7255 7256 7257 7258 7259 7260 7261 7262 7263 7264 7265 7266 7267 7268 7269 7270 7271 7272 7273 7274 7275 7276 7277 7278 7279 7280 7281 7282 7283 7284 7285 7286 7287 7288 7289 7290 7291 7292 7293 7294 7295 7296 7297 7298 7299 7300 7301 7302 7303 7304 7305 7306 7307 7308 7309 7310 7311 7312 7313 7314 7315 7316 7317 7318 7319 7320 7321 7322 7323 7324 7325 7326 7327 7328 7329 7330 7331 7332 7333 7334 7335 7336 7337 7338 7339 7340 7341 7342 7343 7344 7345 7346 7347 7348 7349 7350 7351 7352 7353 7354 7355 7356 7357 7358 7359 7360 7361 7362 7363 7364 7365 7366 7367 7368 7369 7370 7371 7372 7373 7374 7375 7376 7377 7378 7379 7380 7381 7382 7383 7384 7385 7386 7387 7388 7389 7390 7391 7392 7393 7394 7395 7396 7397 7398 7399 7400 7401 7402 7403 7404 7405 7406 7407 7408 7409 7410 7411 7412 7413 7414 7415 7416 7417 7418 7419 7420 7421 7422 7423 7424 7425 7426 7427 7428 7429 7430 7431 7432 7433 7434 7435 7436 7437 7438 7439 7440 7441 7442 7443 7444 7445 7446 7447 7448 7449 7450 7451 7452 7453 7454 7455 7456 7457 7458 7459 7460 7461 7462 7463 7464 7465 7466 7467 7468 7469 7470 7471 7472 7473 7474 7475 7476 7477 7478 7479 7480 7481 7482 7483 7484 7485 7486 7487 7488 7489 7490 7491 7492 7493 7494 7495 7496 7497 7498 7499 7500 7501 7502 7503 7504 7505 7506 7507 7508 7509 7510 7511 7512 7513 7514 7515 7516 7517 7518 7519 7520 7521 7522 7523 7524 7525 7526 7527 7528 7529 7530 7531 7532 7533 7534 7535 7536 7537 7538 7539 7540 7541 7542 7543 7544 7545 7546 7547 7548 7549 7550 7551 7552 7553 7554 7555 7556 7557 7558 7559 7560 7561 7562 7563 7564 7565 7566 7567 7568 7569 7570 7571 7572 7573 7574 7575 7576 7577 7578 7579 7580 7581 7582 7583 7584 7585 7586 7587 7588 7589 7590 7591 7592 7593 7594 7595 7596 7597 7598 7599 7600 7601 7602 7603 7604 7605 7606 7607 7608 7609 7610 7611 7612 7613 7614 7615 7616 7617 7618 7619 7620 7621 7622 7623 7624 7625 7626 7627 7628 7629 7630 7631 7632 7633 7634 7635 7636 7637 7638 7639 7640 7641 7642 7643 7644 7645 7646 7647 7648 7649 7650 7651 7652 7653 7654 7655 7656 7657 7658 7659 7660 7661 7662 7663 7664 7665 7666 7667 7668 7669 7670 7671 7672 7673 7674 7675 7676 7677 7678 7679 7680 7681 7682 7683 7684 7685 7686 7687 7688 7689 7690 7691 7692 7693 7694 7695 7696 7697 7698 7699 7700 7701 7702 7703 7704 7705 7706 7707 7708 7709 7710 7711 7712 7713 7714 7715 7716 7717 7718 7719 7720 7721 7722 7723 7724 7725 7726 7727 7728 7729 7730 7731 7732 7733 7734 7735 7736 7737 7738 7739 7740 7741 7742 7743 7744 7745 7746 7747 7748 7749 7750 7751 7752 7753 7754 7755 7756 7757 7758 7759 7760 7761 7762 7763 7764 7765 7766 7767 7768 7769 7770 7771 7772 7773 7774 7775 7776 7777 7778 7779 7780 7781 7782 7783 7784 7785 7786 7787 7788 7789 7790 7791 7792 7793 7794 7795 7796 7797 7798 7799 7800 7801 7802 7803 7804 7805 7806 7807 7808 7809 7810 7811 7812 7813 7814 7815 7816 7817 7818 7819 7820 7821 7822 7823 7824 7825 7826 7827 7828 7829 7830 7831 7832 7833 7834 7835 7836 7837 7838 7839 7840 7841 7842 7843 7844 7845 7846 7847 7848 7849 7850 7851 7852 7853 7854 7855 7856 7857 7858 7859 7860 7861 7862 7863 7864 7865 7866 7867 7868 7869 7870 7871 7872 7873 7874 7875 7876 7877 7878 7879 7880 7881 7882 7883 7884 7885 7886 7887 7888 7889 7890 7891 7892 7893 7894 7895 7896 7897 7898 7899 7900 7901 7902 7903 7904 7905 7906 7907 7908 7909 7910 7911 7912 7913 7914 7915 7916 7917 7918 7919 7920 7921 7922 7923 7924 7925 7926 7927 7928 7929 7930 7931 7932 7933 7934 7935 7936 7937 7938 7939 7940 7941 7942 7943 7944 7945 7946 7947 7948 7949 7950 7951 7952 7953 7954 7955 7956 7957 7958 7959 7960 7961 7962 7963 7964 7965 7966 7967 7968 7969 7970 7971 7972 7973 7974 7975 7976 7977 7978 7979 7980 7981 7982 7983 7984 7985 7986 7987 7988 7989 7990 7991 7992 7993 7994 7995 7996 7997 7998 7999 8000 8001 8002 8003 8004 8005 8006 8007 8008 8009 8010 8011 8012 8013 8014 8015 8016 8017 8018 8019 8020 8021 8022 8023 8024 8025 8026 8027 8028 8029 8030 8031 8032 8033 8034 8035 8036 8037 8038 8039 8040 8041 8042 8043 8044 8045 8046 8047 8048 8049 8050 8051 8052 8053 8054 8055 8056 8057 8058 8059 8060 8061 8062 8063 8064 8065 8066 8067 8068 8069 8070 8071 8072 8073 8074 8075 8076 8077 8078 8079 8080 8081 8082 8083 8084 8085 8086 8087 8088 8089 8090 8091 8092 8093 8094 8095 8096 8097 8098 8099 8100 8101 8102 8103 8104 8105 8106 8107 8108 8109 8110 8111 8112 8113 8114 8115 8116 8117 8118 8119 8120 8121 8122 8123 8124 8125 8126 8127 8128 8129 8130 8131 8132 8133 8134 8135 8136 8137 8138 8139 8140 8141 8142 8143 8144 8145 8146 8147 8148 8149 8150 8151 8152 8153 8154 8155 8156 8157 8158 8159 8160 8161 8162 8163 8164 8165 8166 8167 8168 8169 8170 8171 8172 8173 8174 8175 8176 8177 8178 8179 8180 8181 8182 8183 8184 8185 8186 8187 8188 8189 8190 8191 8192 8193 8194 8195 8196 8197 8198 8199 8200 8201 8202 8203 8204 8205 8206 8207 8208 8209 8210 8211 8212 8213 8214 8215 8216 8217 8218 8219 8220 8221 8222 8223 8224 8225 8226 8227 8228 8229 8230 8231 8232 8233 8234 8235 8236 8237 8238 8239 8240 8241 8242 8243 8244 8245 8246 8247 8248 8249 8250 8251 8252 8253 8254 8255 8256 8257 8258 8259 8260 8261 8262 8263 8264 8265 8266 8267 8268 8269 8270 8271 8272 8273 8274 8275 8276 8277 8278 8279 8280 8281 8282 8283 8284 8285 8286 8287 8288 8289 8290 8291 8292 8293 8294 8295 8296 8297 8298 8299 8300 8301 8302 8303 8304 8305 8306 8307 8308 8309 8310 8311 8312 8313 8314 8315 8316 8317 8318 8319 8320 8321 8322 8323 8324 8325 8326 8327 8328 8329 8330 8331 8332 8333 8334 8335 8336 8337 8338 8339 8340 8341 8342 8343 8344 8345 8346 8347 8348 8349 8350 8351 8352 8353 8354 8355 8356 8357 8358 8359 8360 8361 8362 8363 8364 8365 8366 8367 8368 8369 8370 8371 8372 8373 8374 8375 8376 8377 8378 8379 8380 8381 8382 8383 8384 8385 8386 8387 8388 8389 8390 8391 8392 8393 8394 8395 8396 8397 8398 8399 8400 8401 8402 8403 8404 8405 8406 8407 8408 8409 8410 8411 8412 8413 8414 8415 8416 8417 8418 8419 8420 8421 8422 8423 8424 8425 8426 8427 8428 8429 8430 8431 8432 8433 8434 8435 8436 8437 8438 8439 8440 8441 8442 8443 8444 8445 8446 8447 8448 8449 8450 8451 8452 8453 8454 8455 8456 8457 8458 8459 8460 8461 8462 8463 8464 8465 8466 8467 8468 8469 8470 8471 8472 8473 8474 8475 8476 8477 8478 8479 8480 8481 8482 8483 8484 8485 8486 8487 8488 8489 8490 8491 8492 8493 8494 8495 8496 8497 8498 8499 8500 8501 8502 8503 8504 8505 8506 8507 8508 8509 8510 8511 8512 8513 8514 8515 8516 8517 8518 8519 8520 8521 8522 8523 8524 8525 8526 8527 8528 8529 8530 8531 8532 8533 8534 8535 8536 8537 8538 8539 8540 8541 8542 8543 8544 8545 8546 8547 8548 8549 8550 8551 8552 8553 8554 8555 8556 8557 8558 8559 8560 8561 8562 8563 8564 8565 8566 8567 8568 8569 8570 8571 8572 8573 8574 8575 8576 8577 8578 8579 8580 8581 8582 8583 8584 8585 8586 8587 8588 8589 8590 8591 8592 8593 8594 8595 8596 8597 8598 8599 8600 8601 8602 8603 8604 8605 8606 8607 8608 8609 8610 8611 8612 8613 8614 8615 8616 8617 8618 8619 8620 8621 8622 8623 8624 8625 8626 8627 8628 8629 8630 8631 8632 8633 8634 8635 8636 8637 8638 8639 8640 8641 8642 8643 8644 8645 8646 8647 8648 8649 8650 8651 8652 8653 8654 8655 8656 8657 8658 8659 8660 8661 8662 8663 8664 8665 8666 8667 8668 8669 8670 8671 8672 8673 8674 8675 8676 8677 8678 8679 8680 8681 8682 8683 8684 8685 8686 8687 8688 8689 8690 8691 8692 8693 8694 8695 8696 8697 8698 8699 8700 8701 8702 8703 8704 8705 8706 8707 8708 8709 8710 8711 8712 8713 8714 8715 8716 8717 8718 8719 8720 8721 8722 8723 8724 8725 8726 8727 8728 8729 8730 8731 8732 8733 8734 8735 8736 8737 8738 8739 8740 8741 8742 8743 8744 8745 8746 8747 8748 8749 8750 8751 8752 8753 8754 8755 8756 8757 8758 8759 8760 8761 8762 8763 8764 8765 8766 8767 8768 8769 8770 8771 8772 8773 8774 8775 8776 8777 8778 8779 8780 8781 8782 8783 8784 8785 8786 8787 8788 8789 8790 8791 8792 8793 8794 8795 8796 8797 8798 8799 8800 8801 8802 8803 8804 8805 8806 8807 8808 8809 8810 8811 8812 8813 8814 8815 8816 8817 8818 8819 8820 8821 8822 8823 8824 8825 8826 8827 8828 8829 8830 8831 8832 8833 8834 8835 8836 8837 8838 8839 8840 8841 8842 8843 8844 8845 8846 8847 8848 8849 8850 8851 8852 8853 8854 8855 8856 8857 8858 8859 8860 8861 8862 8863 8864 8865 8866 8867 8868 8869 8870 8871 8872 8873 8874 8875 8876 8877 8878 8879 8880 8881 8882 8883 8884 8885 8886 8887 8888 8889 8890 8891 8892 8893 8894 8895 8896 8897 8898 8899 8900 8901 8902 8903 8904 8905 8906 8907 8908 8909 8910 8911 8912 8913 8914 8915 8916 8917 8918 8919 8920 8921 8922 8923 8924 8925 8926 8927 8928 8929 8930 8931 8932 8933 8934 8935 8936 8937 8938 8939 8940 8941 8942 8943 8944 8945 8946 8947 8948 8949 8950 8951 8952 8953 8954 8955 8956 8957 8958 8959 8960 8961 8962 8963 8964 8965 8966 8967 8968 8969 8970 8971 8972 8973 8974 8975 8976 8977 8978 8979 8980 8981 8982 8983 8984 8985 8986 8987 8988 8989 8990 8991 8992 8993 8994 8995 8996 8997 8998 8999 9000 9001 9002 9003 9004 9005 9006 9007 9008 9009 9010 9011 9012 9013 9014 9015 9016 9017 9018 9019 9020 9021 9022 9023 9024 9025 9026 9027 9028 9029 9030 9031 9032 9033 9034 9035 9036 9037 9038 9039 9040 9041 9042 9043 9044 9045 9046 9047 9048 9049 9050 9051 9052 9053 9054 9055 9056 9057 9058 9059 9060 9061 9062 9063 9064 9065 9066 9067 9068 9069 9070 9071 9072 9073 9074 9075 9076 9077 9078 9079 9080 9081 9082 9083 9084 9085 9086 9087 9088 9089 9090 9091 9092 9093 9094 9095 9096 9097 9098 9099 9100 9101 9102 9103 9104 9105 9106 9107 9108 9109 9110 9111 9112 9113 9114 9115 9116 9117 9118 9119 9120 9121 9122 9123 9124 9125 9126 9127 9128 9129 9130 9131 9132 9133 9134 9135 9136 9137 9138 9139 9140 9141 9142 9143 9144 9145 9146 9147 9148 9149 9150 9151 9152 9153 9154 9155 9156 9157 9158 9159 9160 9161 9162 9163 9164 9165 9166 9167 9168 9169 9170 9171 9172 9173 9174 9175 9176 9177 9178 9179 9180 9181 9182 9183 9184 9185 9186 9187 9188 9189 9190 9191 9192 9193 9194 9195 9196 9197 9198 9199 9200 9201 9202 9203 9204 9205 9206 9207 9208 9209 9210 9211 9212 9213 9214 9215 9216 9217 9218 9219 9220 9221 9222 9223 9224 9225 9226 9227 9228 9229 9230 9231 9232 9233 9234 9235 9236 9237 9238 9239 9240 9241 9242 9243 9244 9245 9246 9247 9248 9249 9250 9251 9252 9253 9254 9255 9256 9257 9258 9259 9260 9261 9262 9263 9264 9265 9266 9267 9268 9269 9270 9271 9272 9273 9274 9275 9276 9277 9278 9279 9280 9281 9282 9283 9284 9285 9286 9287 9288 9289 9290 9291 9292 9293 9294 9295 9296 9297 9298 9299 9300 9301 9302 9303 9304 9305 9306 9307 9308 9309 9310 9311 9312 9313 9314 9315 9316 9317 9318 9319 9320 9321 9322 9323 9324 9325 9326 9327 9328 9329 9330 9331 9332 9333 9334 9335 9336 9337 9338 9339 9340 9341 9342 9343 9344 9345 9346 9347 9348 9349 9350 9351 9352 9353 9354 9355 9356 9357 9358 9359 9360 9361 9362 9363 9364 9365 9366 9367 9368 9369 9370 9371 9372 9373 9374 9375 9376 9377 9378 9379 9380 9381 9382 9383 9384 9385 9386 9387 9388 9389 9390 9391 9392 9393 9394 9395 9396 9397 9398 9399 9400 9401 9402 9403 9404 9405 9406 9407 9408 9409 9410 9411 9412 9413 9414 9415 9416 9417 9418 9419 9420 9421 9422 9423 9424 9425 9426 9427 9428 9429 9430 9431 9432 9433 9434 9435 9436 9437 9438 9439 9440 9441 9442 9443 9444 9445 9446 9447 9448 9449 9450 9451 9452 9453 9454 9455 9456 9457 9458 9459 9460 9461 9462 9463 9464 9465 9466 9467 9468 9469 9470 9471 9472 9473 9474 9475 9476 9477 9478 9479 9480 9481 9482 9483 9484 9485 9486 9487 9488 9489 9490 9491 9492 9493 9494 9495 9496 9497 9498 9499 9500 9501 9502 9503 9504 9505 9506 9507 9508 9509 9510 9511 9512 9513 9514 9515 9516 9517 9518 9519 9520 9521 9522 9523 9524 9525 9526 9527 9528 9529 9530 9531 9532 9533 9534 9535 9536 9537 9538 9539 9540 9541 9542 9543 9544 9545 9546 9547 9548 9549 9550 9551 9552 9553 9554 9555 9556 9557 9558 9559 9560 9561 9562 9563 9564 9565 9566 9567 9568 9569 9570 9571 9572 9573 9574 9575 9576 9577 9578 9579 9580 9581 9582 9583 9584 9585 9586 9587 9588 9589 9590 9591 9592 9593 9594 9595 9596 9597 9598 9599 9600 9601 9602 9603 9604 9605 9606 9607 9608 9609 9610 9611 9612 9613 9614 9615 9616 9617 9618 9619 9620 9621 9622 9623 9624 9625 9626 9627 9628 9629 9630 9631 9632 9633 9634 9635 9636 9637 9638 9639 9640 9641 9642 9643 9644 9645 9646 9647 9648 9649 9650 9651 9652 9653 9654 9655 9656 9657 9658 9659 9660 9661 9662 9663 9664 9665 9666 9667 9668 9669 9670 9671 9672 9673 9674 9675 9676 9677 9678 9679 9680 9681 9682 9683 9684 9685 9686 9687 9688 9689 9690 9691 9692 9693 9694 9695 9696 9697 9698 9699 9700 9701 9702 9703 9704 9705 9706 9707 9708 9709 9710 9711 9712 9713 9714 9715 9716 9717 9718 9719 9720 9721 9722 9723 9724 9725 9726 9727 9728 9729 9730 9731 9732 9733 9734 9735 9736 9737 9738 9739 9740 9741 9742 9743 9744 9745 9746 9747 9748 9749 9750 9751 9752 9753 9754 9755 9756 9757 9758 9759 9760 9761 9762 9763 9764 9765 9766 9767 9768 9769 9770 9771 9772 9773 9774 9775 9776 9777 9778 9779 9780 9781 9782 9783 9784 9785 9786 9787 9788 9789 9790 9791 9792 9793 9794 9795 9796 9797 9798 9799 9800 9801 9802 9803 9804 9805 9806 9807 9808 9809 9810 9811 9812 9813 9814 9815 9816 9817 9818 9819 9820 9821 9822 9823 9824 9825 9826 9827 9828 9829 9830 9831 9832 9833 9834 9835 9836 9837 9838 9839 9840 9841 9842 9843 9844 9845 9846 9847 9848 9849 9850 9851 9852 9853 9854 9855 9856 9857 9858 9859 9860 9861 9862 9863 9864 9865 9866 9867 9868 9869 9870 9871 9872 9873 9874 9875 9876 9877 9878 9879 9880 9881 9882 9883 9884 9885 9886 9887 9888 9889 9890 9891 9892 9893 9894 9895 9896 9897 9898 9899 9900 9901 9902 9903 9904 9905 9906 9907 9908 9909 9910 9911 9912 9913 9914 9915 9916 9917 9918 9919 9920 9921 9922 9923 9924 9925 9926 9927 9928 9929 9930 9931 9932 9933 9934 9935 9936 9937 9938 9939 9940 9941 9942 9943 9944 9945 9946 9947 9948 9949 9950 9951 9952 9953 9954 9955 9956 9957 9958 9959 9960 9961 9962 9963 9964 9965 9966 9967 9968 9969 9970 9971 9972 9973 9974 9975 9976 9977 9978 9979 9980 9981 9982 9983 9984 9985 9986 9987 9988 9989 9990 9991 9992 9993 9994 9995 9996 9997 9998 9999 10000 10001 10002 10003 10004 10005 10006 10007 10008 10009 10010 10011 10012 10013 10014 10015 10016 10017 10018 10019 10020 10021 10022 10023 10024 10025 10026 10027 10028 10029 10030 10031 10032 10033 10034 10035 10036 10037 10038 10039 10040 10041 10042 10043 10044 10045 10046 10047 10048 10049 10050 10051 10052 10053 10054 10055 10056 10057 10058 10059 10060 10061 10062 10063 10064 10065 10066 10067 10068 10069 10070 10071 10072 10073 10074 10075 10076 10077 10078 10079 10080 10081 10082 10083 10084 10085 10086 10087 10088 10089 10090 10091 10092 10093 10094 10095 10096 10097 10098 10099 10100 10101 10102 10103 10104 10105 10106 10107 10108 10109 10110 10111 10112 10113 10114 10115 10116 10117 10118 10119 10120 10121 10122 10123 10124 10125 10126 10127 10128 10129 10130 10131 10132 10133 10134 10135 10136 10137 10138 10139 10140 10141 10142 10143 10144 10145 10146 10147 10148 10149 10150 10151 10152 10153 10154 10155 10156 10157 10158 10159 10160 10161 10162 10163 10164 10165 10166 10167 10168 10169 10170 10171 10172 10173 10174 10175 10176 10177 10178 10179 10180 10181 10182 10183 10184 10185 10186 10187 10188 10189 10190 10191 10192 10193 10194 10195 10196 10197 10198 10199 10200 10201 10202 10203 10204 10205 10206 10207 10208 10209 10210 10211 10212 10213 10214 10215 10216 10217 10218 10219 10220 10221 10222 10223 10224 10225 10226 10227 10228 10229 10230 10231 10232 10233 10234 10235 10236 10237 10238 10239 10240 10241 10242 10243 10244 10245 10246 10247 10248 10249 10250 10251 10252 10253 10254 10255 10256 10257 10258 10259 10260 10261 10262 10263 10264 10265 10266 10267 10268 10269 10270 10271 10272 10273 10274 10275 10276 10277 10278 10279 10280 10281 10282 10283 10284 10285 10286 10287 10288 10289 10290 10291 10292 10293 10294 10295 10296 10297 10298 10299 10300 10301 10302 10303 10304 10305 10306 10307 10308 10309 10310 10311 10312 10313 10314 10315 10316 10317 10318 10319 10320 10321 10322 10323 10324 10325 10326 10327 10328 10329 10330 10331 10332 10333 10334 10335 10336 10337 10338 10339 10340 10341 10342 10343 10344 10345 10346 10347 10348 10349 10350 10351 10352 10353 10354 10355 10356 10357 10358 10359 10360 10361 10362 10363 10364 10365 10366 10367 10368 10369 10370 10371 10372 10373 10374 10375 10376 10377 10378 10379 10380 10381 10382 10383 10384 10385 10386 10387 10388 10389 10390 10391 10392 10393 10394 10395 10396 10397 10398 10399 10400 10401 10402 10403 10404 10405 10406 10407 10408 10409 10410 10411 10412 10413 10414 10415 10416 10417 10418 10419 10420 10421 10422 10423 10424 10425 10426 10427 10428 10429 10430 10431 10432 10433 10434 10435 10436 10437 10438 10439 10440 10441 10442 10443 10444 10445 10446 10447 10448 10449 10450 10451 10452 10453 10454 10455 10456 10457 10458 10459 10460 10461 10462 10463 10464 10465 10466 10467 10468 10469 10470 10471 10472 10473 10474 10475 10476 10477 10478 10479 10480 10481 10482 10483 10484 10485 10486 10487 10488 10489 10490 10491 10492 10493 10494 10495 10496 10497 10498 10499 10500 10501 10502 10503 10504 10505 10506 10507 10508 10509 10510 10511 10512 10513 10514 10515 10516 10517 10518 10519 10520 10521 10522 10523 10524 10525 10526 10527 10528 10529 10530 10531 10532 10533 10534 10535 10536 10537 10538 10539 10540 10541 10542 10543 10544 10545 10546 10547 10548 10549 10550 10551 10552 10553 10554 10555 10556 10557 10558 10559 10560 10561 10562 10563 10564 10565 10566 10567 10568 10569 10570 10571 10572 10573 10574 10575 10576 10577 10578 10579 10580 10581 10582 10583 10584 10585 10586 10587 10588 10589 10590 10591 10592 10593 10594 10595 10596 10597 10598 10599 10600 10601 10602 10603 10604 10605 10606 10607 10608 10609 10610 10611 10612 10613 10614 10615 10616 10617 10618 10619 10620 10621 10622 10623 10624 10625 10626 10627 10628 10629 10630 10631 10632 10633 10634 10635 10636 10637 10638 10639 10640 10641 10642 10643 10644 10645 10646 10647 10648 10649 10650 10651 10652 10653 10654 10655 10656 10657 10658 10659 10660 10661 10662 10663 10664 10665 10666 10667 10668 10669 10670 10671 10672 10673 10674 10675 10676 10677 10678 10679 10680 10681 10682 10683 10684 10685 10686 10687 10688 10689 10690 10691 10692 10693 10694 10695 10696 10697 10698 10699 10700 10701 10702 10703 10704 10705 10706 10707 10708 10709 10710 10711 10712 10713 10714 10715 10716 10717 10718 10719 10720 10721 10722 10723 10724 10725 10726 10727 10728 10729 10730 10731 10732 10733 10734 10735 10736 10737 10738 10739 10740 10741 10742 10743 10744 10745 10746 10747 10748 10749 10750 10751 10752 10753 10754 10755 10756 10757 10758 10759 10760 10761 10762 10763 10764 10765 10766 10767 10768 10769 10770 10771 10772 10773 10774 10775 10776 10777 10778 10779 10780 10781 10782 10783 10784 10785 10786 10787 10788 10789 10790 10791 10792 10793 10794 10795 10796 10797 10798 10799 10800 10801 10802 10803 10804 10805 10806 10807 10808 10809 10810 10811 10812 10813 10814 10815 10816 10817 10818 10819 10820 10821 10822 10823 10824 10825 10826 10827 10828 10829 10830 10831 10832 10833 10834 10835 10836 10837 10838 10839 10840 10841 10842 10843 10844 10845 10846 10847 10848 10849 10850 10851 10852 10853 10854 10855 10856 10857 10858 10859 10860 10861 10862 10863 10864 10865 10866 10867 10868 10869 10870 10871 10872 10873 10874 10875 10876 10877 10878 10879 10880 10881 10882 10883 10884 10885 10886 10887 10888 10889 10890 10891 10892 10893 10894 10895 10896 10897 10898 10899 10900 10901 10902 10903 10904 10905 10906 10907 10908 10909 10910 10911 10912 10913 10914 10915 10916 10917 10918 10919 10920 10921 10922 10923 10924 10925 10926 10927 10928 10929 10930 10931 10932 10933 10934 10935 10936 10937 10938 10939 10940 10941 10942 10943 10944 10945 10946 10947 10948 10949 10950 10951 10952 10953 10954 10955 10956 10957 10958 10959 10960 10961 10962 10963 10964 10965 10966 10967 10968 10969 10970 10971 10972 10973 10974 10975 10976 10977 10978 10979 10980 10981 10982 10983 10984 10985 10986 10987 10988 10989 10990 10991 10992 10993 10994 10995 10996 10997 10998 10999 11000 11001 11002 11003 11004 11005 11006 11007 11008 11009 11010 11011 11012 11013 11014 11015 11016 11017 11018 11019 11020 11021 11022 11023 11024 11025 11026 11027 11028 11029 11030 11031 11032 11033 11034 11035 11036 11037 11038 11039 11040 11041 11042 11043 11044 11045 11046 11047 11048 11049 11050 11051 11052 11053 11054 11055 11056 11057 11058 11059 11060 11061 11062 11063 11064 11065 11066 11067 11068 11069 11070 11071 11072 11073 11074 11075 11076 11077 11078 11079 11080 11081 11082 11083 11084 11085 11086 11087 11088 11089 11090 11091 11092 11093 11094 11095 11096 11097 11098 11099 11100 11101 11102 11103 11104 11105 11106 11107 11108 11109 11110 11111 11112 11113 11114 11115 11116 11117 11118 11119 11120 11121 11122 11123 11124 11125 11126 11127 11128 11129 11130 11131 11132 11133 11134 11135 11136 11137 11138 11139 11140 11141 11142 11143 11144 11145 11146 11147 11148 11149 11150 11151 11152 11153 11154 11155 11156 11157 11158 11159 11160 11161 11162 11163 11164 11165 11166 11167 11168 11169 11170 11171 11172 11173 11174 11175 11176 11177 11178 11179 11180 11181 11182 11183 11184 11185 11186 11187 11188 11189 11190 11191 11192 11193 11194 11195 11196 11197 11198 11199 11200 11201 11202 11203 11204 11205 11206 11207 11208 11209 11210 11211 11212 11213 11214 11215 11216 11217 11218 11219 11220 11221 11222 11223 11224 11225 11226 11227 11228 11229 11230 11231 11232 11233 11234 11235 11236 11237 11238 11239 11240 11241 11242 11243 11244 11245 11246 11247 11248 11249 11250 11251 11252 11253 11254 11255 11256 11257 11258 11259 11260 11261 11262 11263 11264 11265 11266 11267 11268 11269 11270 11271 11272 11273 11274 11275 11276 11277 11278 11279 11280 11281 11282 11283 11284 11285 11286 11287 11288 11289 11290 11291 11292 11293 11294 11295 11296 11297 11298 11299 11300 11301 11302 11303 11304 11305 11306 11307 11308 11309 11310 11311 11312 11313 11314 11315 11316 11317 11318 11319 11320 11321 11322 11323 11324 11325 11326 11327 11328 11329 11330 11331 11332 11333 11334 11335 11336 11337 11338 11339 11340 11341 11342 11343 11344 11345 11346 11347 11348 11349 11350 11351 11352 11353 11354 11355 11356 11357 11358 11359 11360 11361 11362 11363 11364 11365 11366 11367 11368 11369 11370 11371 11372 11373 11374 11375 11376 11377 11378 11379 11380 11381 11382 11383 11384 11385 11386 11387 11388 11389 11390 11391 11392 11393 11394 11395 11396 11397 11398 11399 11400 11401 11402 11403 11404 11405 11406 11407 11408 11409 11410 11411 11412 11413 11414 11415 11416 11417 11418 11419 11420 11421 11422 11423 11424 11425 11426 11427 11428 11429 11430 11431 11432 11433 11434 11435 11436 11437 11438 11439 11440 11441 11442 11443 11444 11445 11446 11447 11448 11449 11450 11451 11452 11453 11454 11455 11456 11457 11458 11459 11460 11461 11462 11463 11464 11465 11466 11467 11468 11469 11470 11471 11472 11473 11474 11475 11476 11477 11478 11479 11480 11481 11482 11483 11484 11485 11486 11487 11488 11489 11490 11491 11492 11493 11494 11495 11496 11497 11498 11499 11500 11501 11502 11503 11504 11505 11506 11507 11508 11509 11510 11511 11512 11513 11514 11515 11516 11517 11518 11519 11520 11521 11522 11523 11524 11525 11526 11527 11528 11529 11530 11531 11532 11533 11534 11535 11536 11537 11538 11539 11540 11541 11542 11543 11544 11545 11546 11547 11548 11549 11550 11551 11552 11553 11554 11555 11556 11557 11558 11559 11560 11561 11562 11563 11564 11565 11566 11567 11568 11569 11570 11571 11572 11573 11574 11575 11576 11577 11578 11579 11580 11581 11582 11583 11584 11585 11586 11587 11588 11589 11590 11591 11592 11593 11594 11595 11596 11597 11598 11599 11600 11601 11602 11603 11604 11605 11606 11607 11608 11609 11610 11611 11612 11613 11614 11615 11616 11617 11618 11619 11620 11621 11622 11623 11624 11625 11626 11627 11628 11629 11630 11631 11632 11633 11634 11635 11636 11637 11638 11639 11640 11641 11642 11643 11644 11645 11646 11647 11648 11649 11650 11651 11652 11653 11654 11655 11656 11657 11658 11659 11660 11661 11662 11663 11664 11665 11666 11667 11668 11669 11670 11671 11672 11673 11674 11675 11676 11677 11678 11679 11680 11681 11682 11683 11684 11685 11686 11687 11688 11689 11690 11691 11692 11693 11694 11695 11696 11697 11698 11699 11700 11701 11702 11703 11704 11705 11706 11707 11708 11709 11710 11711 11712 11713 11714 11715 11716 11717 11718 11719 11720 11721 11722 11723 11724 11725 11726 11727 11728 11729 11730 11731 11732 11733 11734 11735 11736 11737 11738 11739 11740 11741 11742 11743 11744 11745 11746 11747 11748 11749 11750 11751 11752 11753 11754 11755 11756 11757 11758 11759 11760 11761 11762 11763 11764 11765 11766 11767 11768 11769 11770 11771 11772 11773 11774 11775 11776 11777 11778 11779 11780 11781 11782 11783 11784 11785 11786 11787 11788 11789 11790 11791 11792 11793 11794 11795 11796 11797 11798 11799 11800 11801 11802 11803 11804 11805 11806 11807 11808 11809 11810 11811 11812 11813 11814 11815 11816 11817 11818 11819 11820 11821 11822 11823 11824 11825 11826 11827 11828 11829 11830 11831 11832 11833 11834 11835 11836 11837 11838 11839 11840 11841 11842 11843 11844 11845 11846 11847 11848 11849 11850 11851 11852 11853 11854 11855 11856 11857 11858 11859 11860 11861 11862 11863 11864 11865 11866 11867 11868 11869 11870 11871 11872 11873 11874 11875 11876 11877 11878 11879 11880 11881 11882 11883 11884 11885 11886 11887 11888 11889 11890 11891 11892 11893 11894 11895 11896 11897 11898 11899 11900 11901 11902 11903 11904 11905 11906 11907 11908 11909 11910 11911 11912 11913 11914 11915 11916 11917 11918 11919 11920 11921 11922 11923 11924 11925 11926 11927 11928 11929 11930 11931 11932 11933 11934 11935 11936 11937 11938 11939 11940 11941 11942 11943 11944 11945 11946 11947 11948 11949 11950 11951 11952 11953 11954 11955 11956 11957 11958 11959 11960 11961 11962 11963 11964 11965 11966 11967 11968 11969 11970 11971 11972 11973 11974 11975 11976 11977 11978 11979 11980 11981 11982 11983 11984 11985 11986 11987 11988 11989 11990 11991 11992 11993 11994 11995 11996 11997 11998 11999 12000 12001 12002 12003 12004 12005 12006 12007 12008 12009 12010 12011 12012 12013 12014 12015 12016 12017 12018 12019 12020 12021 12022 12023 12024 12025 12026 12027 12028 12029 12030 12031 12032 12033 12034 12035 12036 12037 12038 12039 12040 12041 12042 12043 12044 12045 12046 12047 12048 12049 12050 12051 12052 12053 12054 12055 12056 12057 12058 12059 12060 12061 12062 12063 12064 12065 12066 12067 12068 12069 12070 12071 12072 12073 12074 12075 12076 12077 12078 12079 12080 12081 12082 12083 12084 12085 12086 12087 12088 12089 12090 12091 12092 12093 12094 12095 12096 12097 12098 12099 12100 12101 12102 12103 12104 12105 12106 12107 12108 12109 12110 12111 12112 12113 12114 12115 12116 12117 12118 12119 12120 12121 12122 12123 12124 12125 12126 12127 12128 12129 12130 12131 12132 12133 12134 12135 12136 12137 12138 12139 12140 12141 12142 12143 12144 12145 12146 12147 12148 12149 12150 12151 12152 12153 12154 12155 12156 12157 12158 12159 12160 12161 12162 12163 12164 12165 12166 12167 12168 12169 12170 12171 12172 12173 12174 12175 12176 12177 12178 12179 12180 12181 12182 12183 12184 12185 12186 12187 12188 12189 12190 12191 12192 12193 12194 12195 12196 12197 12198 12199 12200 12201 12202 12203 12204 12205 12206 12207 12208 12209 12210 12211 12212 12213 12214 12215 12216 12217 12218 12219 12220 12221 12222 12223 12224 12225 12226 12227 12228 12229 12230 12231 12232 12233 12234 12235 12236 12237 12238 12239 12240 12241 12242 12243 12244 12245 12246 12247 12248 12249 12250 12251 12252 12253 12254 12255 12256 12257 12258 12259 12260 12261 12262 12263 12264 12265 12266 12267 12268 12269 12270 12271 12272 12273 12274 12275 12276 12277 12278 12279 12280 12281 12282 12283 12284 12285 12286 12287 12288 12289 12290 12291 12292 12293 12294 12295 12296 12297 12298 12299 12300 12301 12302 12303 12304 12305 12306 12307 12308 12309 12310 12311 12312 12313 12314 12315 12316 12317 12318 12319 12320 12321 12322 12323 12324 12325 12326 12327 12328 12329 12330 12331 12332 12333 12334 12335 12336 12337 12338 12339 12340 12341 12342 12343 12344 12345 12346 12347 12348 12349 12350 12351 12352 12353 12354 12355 12356 12357 12358 12359 12360 12361 12362 12363 12364 12365 12366 12367 12368 12369 12370 12371 12372 12373 12374 12375 12376 12377 12378 12379 12380 12381 12382 12383 12384 12385 12386 12387 12388 12389 12390 12391 12392 12393 12394 12395 12396 12397 12398 12399 12400 12401 12402 12403 12404 12405 12406 12407 12408 12409 12410 12411 12412 12413 12414 12415 12416 12417 12418 12419 12420 12421 12422 12423 12424 12425 12426 12427 12428 12429 12430 12431 12432 12433 12434 12435 12436 12437 12438 12439 12440 12441 12442 12443 12444 12445 12446 12447 12448 12449 12450 12451 12452 12453 12454 12455 12456 12457 12458 12459 12460 12461 12462 12463 12464 12465 12466 12467 12468 12469 12470 12471 12472 12473 12474 12475 12476 12477 12478 12479 12480 12481 12482 12483 12484 12485 12486 12487 12488 12489 12490 12491 12492 12493 12494 12495 12496 12497 12498 12499 12500 12501 12502 12503 12504 12505 12506 12507 12508 12509 12510 12511 12512 12513 12514 12515 12516 12517 12518 12519 12520 12521 12522 12523 12524 12525 12526 12527 12528 12529 12530 12531 12532 12533 12534 12535 12536 12537 12538 12539 12540 12541 12542 12543 12544 12545 12546 12547 12548 12549 12550 12551 12552 12553 12554 12555 12556 12557 12558 12559 12560 12561 12562 12563 12564 12565 12566 12567 12568 12569 12570 12571 12572 12573 12574 12575 12576 12577 12578 12579 12580 12581 12582 12583 12584 12585 12586 12587 12588 12589 12590 12591 12592 12593 12594 12595 12596 12597 12598 12599 12600 12601 12602 12603 12604 12605 12606 12607 12608 12609 12610 12611 12612 12613 12614 12615 12616 12617 12618 12619 12620 12621 12622 12623 12624 12625 12626 12627 12628 12629 12630 12631 12632 12633 12634 12635 12636 12637 12638 12639 12640 12641 12642 12643 12644 12645 12646 12647 12648 12649 12650 12651 12652 12653 12654 12655 12656 12657 12658 12659 12660 12661 12662 12663 12664 12665 12666 12667 12668 12669 12670 12671 12672 12673 12674 12675 12676 12677 12678 12679 12680 12681 12682 12683 12684 12685 12686 12687 12688 12689 12690 12691 12692 12693 12694 12695 12696 12697 12698 12699 12700 12701 12702 12703 12704 12705 12706 12707 12708 12709 12710 12711 12712 12713 12714 12715 12716 12717 12718 12719 12720 12721 12722 12723 12724 12725 12726 12727 12728 12729 12730 12731 12732 12733 12734 12735 12736 12737 12738 12739 12740 12741 12742 12743 12744 12745 12746 12747 12748 12749 12750 12751 12752 12753 12754 12755 12756 12757 12758 12759 12760 12761 12762 12763 12764 12765 12766 12767 12768 12769 12770 12771 12772 12773 12774 12775 12776 12777 12778 12779 12780 12781 12782 12783 12784 12785 12786 12787 12788 12789 12790 12791 12792 12793 12794 12795 12796 12797 12798 12799 12800 12801 12802 12803 12804 12805 12806 12807 12808 12809 12810 12811 12812 12813 12814 12815 12816 12817 12818 12819 12820 12821 12822 12823 12824 12825 12826 12827 12828 12829 12830 12831 12832 12833 12834 12835 12836 12837 12838 12839 12840 12841 12842 12843 12844 12845 12846 12847 12848 12849 12850 12851 12852 12853 12854 12855 12856 12857 12858 12859 12860 12861 12862 12863 12864 12865 12866 12867 12868 12869 12870 12871 12872 12873 12874 12875 12876 12877 12878 12879 12880 12881 12882 12883 12884 12885 12886 12887 12888 12889 12890 12891 12892 12893 12894 12895 12896 12897 12898 12899 12900 12901 12902 12903 12904 12905 12906 12907 12908 12909 12910 12911 12912 12913 12914 12915 12916 12917 12918 12919 12920 12921 12922 12923 12924 12925 12926 12927 12928 12929 12930 12931 12932 12933 12934 12935 12936 12937 12938 12939 12940 12941 12942 12943 12944 12945 12946 12947 12948 12949 12950 12951 12952 12953 12954 12955 12956 12957 12958 12959 12960 12961 12962 12963 12964 12965 12966 12967 12968 12969 12970 12971 12972 12973 12974 12975 12976 12977 12978 12979 12980 12981 12982 12983 12984 12985 12986 12987 12988 12989 12990 12991 12992 12993 12994 12995 12996 12997 12998 12999 13000 13001 13002 13003 13004 13005 13006 13007 13008 13009 13010 13011 13012 13013 13014 13015 13016 13017 13018 13019 13020 13021 13022 13023 13024 13025 13026 13027 13028 13029 13030 13031 13032 13033 13034 13035 13036 13037 13038 13039 13040 13041 13042 13043 13044 13045 13046 13047 13048 13049 13050 13051 13052 13053 13054 13055 13056 13057 13058 13059 13060 13061 13062 13063 13064 13065 13066 13067 13068 13069 13070 13071 13072 13073 13074 13075 13076 13077 13078 13079 13080 13081 13082 13083 13084 13085 13086 13087 13088 13089 13090 13091 13092 13093 13094 13095 13096 13097 13098 13099 13100 13101 13102 13103 13104 13105 13106 13107 13108 13109 13110 13111 13112 13113 13114 13115 13116 13117 13118 13119 13120 13121 13122 13123 13124 13125 13126 13127 13128 13129 13130 13131 13132 13133 13134 13135 13136 13137 13138 13139 13140 13141 13142 13143 13144 13145 13146 13147 13148 13149 13150 13151 13152 13153 13154 13155 13156 13157 13158 13159 13160 13161 13162 13163 13164 13165 13166 13167 13168 13169 13170 13171 13172 13173 13174 13175 13176 13177 13178 13179 13180 13181 13182 13183 13184 13185 13186 13187 13188 13189 13190 13191 13192 13193 13194 13195 13196 13197 13198 13199 13200 13201 13202 13203 13204 13205 13206 13207 13208 13209 13210 13211 13212 13213 13214 13215 13216 13217 13218 13219 13220 13221 13222 13223 13224 13225 13226 13227 13228 13229 13230 13231 13232 13233 13234 13235 13236 13237 13238 13239 13240 13241 13242 13243 13244 13245 13246 13247 13248 13249 13250 13251 13252 13253 13254 13255 13256 13257 13258 13259 13260 13261 13262 13263 13264 13265 13266 13267 13268 13269 13270 13271 13272 13273 13274 13275 13276 13277 13278 13279 13280 13281 13282 13283 13284 13285 13286 13287 13288 13289 13290 13291 13292 13293 13294 13295 13296 13297 13298 13299 13300 13301 13302 13303 13304 13305 13306 13307 13308 13309 13310 13311 13312 13313 13314 13315 13316 13317 13318 13319 13320 13321 13322 13323 13324 13325 13326 13327 13328 13329 13330 13331 13332 13333 13334 13335 13336 13337 13338 13339 13340 13341 13342 13343 13344 13345 13346 13347 13348 13349 13350 13351 13352 13353 13354 13355 13356 13357 13358 13359 13360 13361 13362 13363 13364 13365 13366 13367 13368 13369 13370 13371 13372 13373 13374 13375 13376 13377 13378 13379 13380 13381 13382 13383 13384 13385 13386 13387 13388 13389 13390 13391 13392 13393 13394 13395 13396 13397 13398 13399 13400 13401 13402 13403 13404 13405 13406 13407 13408 13409 13410 13411 13412 13413 13414 13415 13416 13417 13418 13419 13420 13421 13422 13423 13424 13425 13426 13427 13428 13429 13430 13431 13432 13433 13434 13435 13436 13437 13438 13439 13440 13441 13442 13443 13444 13445 13446 13447 13448 13449 13450 13451 13452 13453 13454 13455 13456 13457 13458 13459 13460 13461 13462 13463 13464 13465 13466 13467 13468 13469 13470 13471 13472 13473 13474 13475 13476 13477 13478 13479 13480 13481 13482 13483 13484 13485 13486 13487 13488 13489 13490 13491 13492 13493 13494 13495 13496 13497 13498 13499 13500 13501 13502 13503 13504 13505 13506 13507 13508 13509 13510 13511 13512 13513 13514 13515 13516 13517 13518 13519 13520 13521 13522 13523 13524 13525 13526 13527 13528 13529 13530 13531 13532 13533 13534 13535 13536 13537 13538 13539 13540 13541 13542 13543 13544 13545 13546 13547 13548 13549 13550 13551 13552 13553 13554 13555 13556 13557 13558 13559 13560 13561 13562 13563 13564 13565 13566 13567 13568 13569 13570 13571 13572 13573 13574 13575 13576 13577 13578 13579 13580 13581 13582 13583 13584 13585 13586 13587 13588 13589 13590 13591 13592 13593 13594 13595 13596 13597 13598 13599 13600 13601 13602 13603 13604 13605 13606 13607 13608 13609 13610 13611 13612 13613 13614 13615 13616 13617 13618 13619 13620 13621 13622 13623 13624 13625 13626 13627 13628 13629 13630 13631 13632 13633 13634 13635 13636 13637 13638 13639 13640 13641 13642 13643 13644 13645 13646 13647 13648 13649 13650 13651 13652 13653 13654 13655 13656 13657 13658 13659 13660 13661 13662 13663 13664 13665 13666 13667 13668 13669 13670 13671 13672 13673 13674 13675 13676 13677 13678 13679 13680 13681 13682 13683 13684 13685 13686 13687 13688 13689 13690 13691 13692 13693 13694 13695 13696 13697 13698 13699 13700 13701 13702 13703 13704 13705 13706 13707 13708 13709 13710 13711 13712 13713 13714 13715 13716 13717 13718 13719 13720 13721 13722 13723 13724 13725 13726 13727 13728 13729 13730 13731 13732 13733 13734 13735 13736 13737 13738 13739 13740 13741 13742 13743 13744 13745 13746 13747 13748 13749 13750 13751 13752 13753 13754 13755 13756 13757 13758 13759 13760 13761 13762 13763 13764 13765 13766 13767 13768 13769 13770 13771 13772 13773 13774 13775 13776 13777 13778 13779 13780 13781 13782 13783 13784 13785 13786 13787 13788 13789 13790 13791 13792 13793 13794 13795 13796 13797 13798 13799 13800 13801 13802 13803 13804 13805 13806 13807 13808 13809 13810 13811 13812 13813 13814 13815 13816 13817 13818 13819 13820 13821 13822 13823 13824 13825 13826 13827 13828 13829 13830 13831 13832 13833 13834 13835 13836 13837 13838 13839 13840 13841 13842 13843 13844 13845 13846 13847 13848 13849 13850 13851 13852 13853 13854 13855 13856 13857 13858 13859 13860 13861 13862 13863 13864 13865 13866 13867 13868 13869 13870 13871 13872 13873 13874 13875 13876 13877 13878 13879 13880 13881 13882 13883 13884 13885 13886 13887 13888 13889 13890 13891 13892 13893 13894 13895 13896 13897 13898 13899 13900 13901 13902 13903 13904 13905 13906 13907 13908 13909 13910 13911 13912 13913 13914 13915 13916 13917 13918 13919 13920 13921 13922 13923 13924 13925 13926 13927 13928 13929 13930 13931 13932 13933 13934 13935 13936 13937 13938 13939 13940 13941 13942 13943 13944 13945 13946 13947 13948 13949 13950 13951 13952 13953 13954 13955 13956 13957 13958 13959 13960 13961 13962 13963 13964 13965 13966 13967 13968 13969 13970 13971 13972 13973 13974 13975 13976 13977 13978 13979 13980 13981 13982 13983 13984 13985 13986 13987 13988 13989 13990 13991 13992 13993 13994 13995 13996 13997 13998 13999 14000 14001 14002 14003 14004 14005 14006 14007 14008 14009 14010 14011 14012 14013 14014 14015 14016 14017 14018 14019 14020 14021 14022 14023 14024 14025 14026 14027 14028 14029 14030 14031 14032 14033 14034 14035 14036 14037 14038 14039 14040 14041 14042 14043 14044 14045 14046 14047 14048 14049 14050 14051 14052 14053 14054 14055 14056 14057 14058 14059 14060 14061 14062 14063 14064 14065 14066 14067 14068 14069 14070 14071 14072 14073 14074 14075 14076 14077 14078 14079 14080 14081 14082 14083 14084 14085 14086 14087 14088 14089 14090 14091 14092 14093 14094 14095 14096 14097 14098 14099 14100 14101 14102 14103 14104 14105 14106 14107 14108 14109 14110 14111 14112 14113 14114 14115 14116 14117 14118 14119 14120 14121 14122 14123 14124 14125 14126 14127 14128 14129 14130 14131 14132 14133 14134 14135 14136 14137 14138 14139 14140 14141 14142 14143 14144 14145 14146 14147 14148 14149 14150 14151 14152 14153 14154 14155 14156 14157 14158 14159 14160 14161 14162 14163 14164 14165 14166 14167 14168 14169 14170 14171 14172 14173 14174 14175 14176 14177 14178 14179 14180 14181 14182 14183 14184 14185 14186 14187 14188 14189 14190 14191 14192 14193 14194 14195 14196 14197 14198 14199 14200 14201 14202 14203 14204 14205 14206 14207 14208 14209 14210 14211 14212 14213 14214 14215 14216 14217 14218 14219 14220 14221 14222 14223 14224 14225 14226 14227 14228 14229 14230 14231 14232 14233 14234 14235 14236 14237 14238 14239 14240 14241 14242 14243 14244 14245 14246 14247 14248 14249 14250 14251 14252 14253 14254 14255 14256 14257 14258 14259 14260 14261 14262 14263 14264 14265 14266 14267 14268 14269 14270 14271 14272 14273 14274 14275 14276 14277 14278 14279 14280 14281 14282 14283 14284 14285 14286 14287 14288 14289 14290 14291 14292 14293 14294 14295 14296 14297 14298 14299 14300 14301 14302 14303 14304 14305 14306 14307 14308 14309 14310 14311 14312 14313 14314 14315 14316 14317 14318 14319 14320 14321 14322 14323 14324 14325 14326 14327 14328 14329 14330 14331 14332 14333 14334 14335 14336 14337 14338 14339 14340 14341 14342 14343 14344 14345 14346 14347 14348 14349 14350 14351 14352 14353 14354 14355 14356 14357 14358 14359 14360 14361 14362 14363 14364 14365 14366 14367 14368 14369 14370 14371 14372 14373 14374 14375 14376 14377 14378 14379 14380 14381 14382 14383 14384 14385 14386 14387 14388 14389 14390 14391 14392 14393 14394 14395 14396 14397 14398 14399 14400 14401 14402 14403 14404 14405 14406 14407 14408 14409 14410 14411 14412 14413 14414 14415 14416 14417 14418 14419 14420 14421 14422 14423 14424 14425 14426 14427 14428 14429 14430 14431 14432 14433 14434 14435 14436 14437 14438 14439 14440 14441 14442 14443 14444 14445 14446 14447 14448 14449 14450 14451 14452 14453 14454 14455 14456 14457 14458 14459 14460 14461 14462 14463 14464 14465 14466 14467 14468 14469 14470 14471 14472 14473 14474 14475 14476 14477 14478 14479 14480 14481 14482 14483 14484 14485 14486 14487 14488 14489 14490 14491 14492 14493 14494 14495 14496 14497 14498 14499 14500 14501 14502 14503 14504 14505 14506 14507 14508 14509 14510 14511 14512 14513 14514 14515 14516 14517 14518 14519 14520 14521 14522 14523 14524 14525 14526 14527 14528 14529 14530 14531 14532 14533 14534 14535 14536 14537 14538 14539 14540 14541 14542 14543 14544 14545 14546 14547 14548 14549 14550 14551 14552 14553 14554 14555 14556 14557 14558 14559 14560 14561 14562 14563 14564 14565 14566 14567 14568 14569 14570 14571 14572 14573 14574 14575 14576 14577 14578 14579 14580 14581 14582 14583 14584 14585 14586 14587 14588 14589 14590 14591 14592 14593 14594 14595 14596 14597 14598 14599 14600 14601 14602 14603 14604 14605 14606 14607 14608 14609 14610 14611 14612 14613 14614 14615 14616 14617 14618 14619 14620 14621 14622 14623 14624 14625 14626 14627 14628 14629 14630 14631 14632 14633 14634 14635 14636 14637 14638 14639 14640 14641 14642 14643 14644 14645 14646 14647 14648 14649 14650 14651 14652 14653 14654 14655 14656 14657 14658 14659 14660 14661 14662 14663 14664 14665 14666 14667 14668 14669 14670 14671 14672 14673 14674 14675 14676 14677 14678 14679 14680 14681 14682 14683 14684 14685 14686 14687 14688 14689 14690 14691 14692 14693 14694 14695 14696 14697 14698 14699 14700 14701 14702 14703 14704 14705 14706 14707 14708 14709 14710 14711 14712 14713 14714 14715 14716 14717 14718 14719 14720 14721 14722 14723 14724 14725 14726 14727 14728 14729 14730 14731 14732 14733 14734 14735 14736 14737 14738 14739 14740 14741 14742 14743 14744 14745 14746 14747 14748 14749 14750 14751 14752 14753 14754 14755 14756 14757 14758 14759 14760 14761 14762 14763 14764 14765 14766 14767 14768 14769 14770 14771 14772 14773 14774 14775 14776 14777 14778 14779 14780 14781 14782 14783 14784 14785 14786 14787 14788 14789 14790 14791 14792 14793 14794 14795 14796 14797 14798 14799 14800 14801 14802 14803 14804 14805 14806 14807 14808 14809 14810 14811 14812 14813 14814 14815 14816 14817 14818 14819 14820 14821 14822 14823 14824 14825 14826 14827 14828 14829 14830 14831 14832 14833 14834 14835 14836 14837 14838 14839 14840 14841 14842 14843 14844 14845 14846 14847 14848 14849 14850 14851 14852 14853 14854 14855 14856 14857 14858 14859 14860 14861 14862 14863 14864 14865 14866 14867 14868 14869 14870 14871 14872 14873 14874 14875 14876 14877 14878 14879 14880 14881 14882 14883 14884 14885 14886 14887 14888 14889 14890 14891 14892 14893 14894 14895 14896 14897 14898 14899 14900 14901 14902 14903 14904 14905 14906 14907 14908 14909 14910 14911 14912 14913 14914 14915 14916 14917 14918 14919 14920 14921 14922 14923 14924 14925 14926 14927 14928 14929 14930 14931 14932 14933 14934 14935 14936 14937 14938 14939 14940 14941 14942 14943 14944 14945 14946 14947 14948 14949 14950 14951 14952 14953 14954 14955 14956 14957 14958 14959 14960 14961 14962 14963 14964 14965 14966 14967 14968 14969 14970 14971 14972 14973 14974 14975 14976 14977 14978 14979 14980 14981 14982 14983 14984 14985 14986 14987 14988 14989 14990 14991 14992 14993 14994 14995 14996 14997 14998 14999 15000 15001 15002 15003 15004 15005 15006 15007 15008 15009 15010 15011 15012 15013 15014 15015 15016 15017 15018 15019 15020 15021 15022 15023 15024 15025 15026 15027 15028 15029 15030 15031 15032 15033 15034 15035 15036 15037 15038 15039 15040 15041 15042 15043 15044 15045 15046 15047 15048 15049 15050 15051 15052 15053 15054 15055 15056 15057 15058 15059 15060 15061 15062 15063 15064 15065 15066 15067 15068 15069 15070 15071 15072 15073 15074 15075 15076 15077 15078 15079 15080 15081 15082 15083 15084 15085 15086 15087 15088 15089 15090 15091 15092 15093 15094 15095 15096 15097 15098 15099 15100 15101 15102 15103 15104 15105 15106 15107 15108 15109 15110 15111 15112 15113 15114 15115 15116 15117 15118 15119 15120 15121 15122 15123 15124 15125 15126 15127 15128 15129 15130 15131 15132 15133 15134 15135 15136 15137 15138 15139 15140 15141 15142 15143 15144 15145 15146 15147 15148 15149 15150 15151 15152 15153 15154 15155 15156 15157 15158 15159 15160 15161 15162 15163 15164 15165 15166 15167 15168 15169 15170 15171 15172 15173 15174 15175 15176 15177 15178 15179 15180 15181 15182 15183 15184 15185 15186 15187 15188 15189 15190 15191 15192 15193 15194 15195 15196 15197 15198 15199 15200 15201 15202 15203 15204 15205 15206 15207 15208 15209 15210 15211 15212 15213 15214 15215 15216 15217 15218 15219 15220 15221 15222 15223 15224 15225 15226 15227 15228 15229 15230 15231 15232 15233 15234 15235 15236 15237 15238 15239 15240 15241 15242 15243 15244 15245 15246 15247 15248 15249 15250 15251 15252 15253 15254 15255 15256 15257 15258 15259 15260 15261 15262 15263 15264 15265 15266 15267 15268 15269 15270 15271 15272 15273 15274 15275 15276 15277 15278 15279 15280 15281 15282 15283 15284 15285 15286 15287 15288 15289 15290 15291 15292 15293 15294 15295 15296 15297 15298 15299 15300 15301 15302 15303 15304 15305 15306 15307 15308 15309 15310 15311 15312 15313 15314 15315 15316 15317 15318 15319 15320 15321 15322 15323 15324 15325 15326 15327 15328 15329 15330 15331 15332 15333 15334 15335 15336 15337 15338 15339 15340 15341 15342 15343 15344 15345 15346 15347 15348 15349 15350 15351 15352 15353 15354 15355 15356 15357 15358 15359 15360 15361 15362 15363 15364 15365 15366 15367 15368 15369 15370 15371 15372 15373 15374 15375 15376 15377 15378 15379 15380 15381 15382 15383 15384 15385 15386 15387 15388 15389 15390 15391 15392 15393 15394 15395 15396 15397 15398 15399 15400 15401 15402 15403 15404 15405 15406 15407 15408 15409 15410 15411 15412 15413 15414 15415 15416 15417 15418 15419 15420 15421 15422 15423 15424 15425 15426 15427 15428 15429 15430 15431 15432 15433 15434 15435 15436 15437 15438 15439 15440 15441 15442 15443 15444 15445 15446 15447 15448 15449 15450 15451 15452 15453 15454 15455 15456 15457 15458 15459 15460 15461 15462 15463 15464 15465 15466 15467 15468 15469 15470 15471 15472 15473 15474 15475 15476 15477 15478 15479 15480 15481 15482 15483 15484 15485 15486 15487 15488 15489 15490 15491 15492 15493 15494 15495 15496 15497 15498 15499 15500 15501 15502 15503 15504 15505 15506 15507 15508 15509 15510 15511 15512 15513 15514 15515 15516 15517 15518 15519 15520 15521 15522 15523 15524 15525 15526 15527 15528 15529 15530 15531 15532 15533 15534 15535 15536 15537 15538 15539 15540 15541 15542 15543 15544 15545 15546 15547 15548 15549 15550 15551 15552 15553 15554 15555 15556 15557 15558 15559 15560 15561 15562 15563 15564 15565 15566 15567 15568 15569 15570 15571 15572 15573 15574 15575 15576 15577 15578 15579 15580 15581 15582 15583 15584 15585 15586 15587 15588 15589 15590 15591 15592 15593 15594 15595 15596 15597 15598 15599 15600 15601 15602 15603 15604 15605 15606 15607 15608 15609 15610 15611 15612 15613 15614 15615 15616 15617 15618 15619 15620 15621 15622 15623 15624 15625 15626 15627 15628 15629 15630 15631 15632 15633 15634 15635 15636 15637 15638 15639 15640 15641 15642 15643 15644 15645 15646 15647 15648 15649 15650 15651 15652 15653 15654 15655 15656 15657 15658 15659 15660 15661 15662 15663 15664 15665 15666 15667 15668 15669 15670 15671 15672 15673 15674 15675 15676 15677 15678 15679 15680 15681 15682 15683 15684 15685 15686 15687 15688 15689 15690 15691 15692 15693 15694 15695 15696 15697 15698 15699 15700 15701 15702 15703 15704 15705 15706 15707 15708 15709 15710 15711 15712 15713 15714 15715 15716 15717 15718 15719 15720 15721 15722 15723 15724 15725 15726 15727 15728 15729 15730 15731 15732 15733 15734 15735 15736 15737 15738 15739 15740 15741 15742 15743 15744 15745 15746 15747 15748 15749 15750 15751 15752 15753 15754 15755 15756 15757 15758 15759 15760 15761 15762 15763 15764 15765 15766 15767 15768 15769 15770 15771 15772 15773 15774 15775 15776 15777 15778 15779 15780 15781 15782 15783 15784 15785 15786 15787 15788 15789 15790 15791 15792 15793 15794 15795 15796 15797 15798 15799 15800 15801 15802 15803 15804 15805 15806 15807 15808 15809 15810 15811 15812 15813 15814 15815 15816 15817 15818 15819 15820 15821 15822 15823 15824 15825 15826 15827 15828 15829 15830 15831 15832 15833 15834 15835 15836 15837 15838 15839 15840 15841 15842 15843 15844 15845 15846 15847 15848 15849 15850 15851 15852 15853 15854 15855 15856 15857 15858 15859 15860 15861 15862 15863 15864 15865 15866 15867 15868 15869 15870 15871 15872 15873 15874 15875 15876 15877 15878 15879 15880 15881 15882 15883 15884 15885 15886 15887 15888 15889 15890 15891 15892 15893 15894 15895 15896 15897 15898 15899 15900 15901 15902 15903 15904 15905 15906 15907 15908 15909 15910 15911 15912 15913 15914 15915 15916 15917 15918 15919 15920 15921 15922 15923 15924 15925 15926 15927 15928 15929 15930 15931 15932 15933 15934 15935 15936 15937 15938 15939 15940 15941 15942 15943 15944 15945 15946 15947 15948 15949 15950 15951 15952 15953 15954 15955 15956 15957 15958 15959 15960 15961 15962 15963 15964 15965 15966 15967 15968 15969 15970 15971 15972 15973 15974 15975 15976 15977 15978 15979 15980 15981 15982 15983 15984 15985 15986 15987 15988 15989 15990 15991 15992 15993 15994 15995 15996 15997 15998 15999 16000 16001 16002 16003 16004 16005 16006 16007 16008 16009 16010 16011 16012 16013 16014 16015 16016 16017 16018 16019 16020 16021 16022 16023 16024 16025 16026 16027 16028 16029 16030 16031 16032 16033 16034 16035 16036 16037 16038 16039 16040 16041 16042 16043 16044 16045 16046 16047 16048 16049 16050 16051 16052 16053 16054 16055 16056 16057 16058 16059 16060 16061 16062 16063 16064 16065 16066 16067 16068 16069 16070 16071 16072 16073 16074 16075 16076 16077 16078 16079 16080 16081 16082 16083 16084 16085 16086 16087 16088 16089 16090 16091 16092 16093 16094 16095 16096 16097 16098 16099 16100 16101 16102 16103 16104 16105 16106 16107 16108 16109 16110 16111 16112 16113 16114 16115 16116 16117 16118 16119 16120 16121 16122 16123 16124 16125 16126 16127 16128 16129 16130 16131 16132 16133 16134 16135 16136 16137 16138 16139 16140 16141 16142 16143 16144 16145 16146 16147 16148 16149 16150 16151 16152 16153 16154 16155 16156 16157 16158 16159 16160 16161 16162 16163 16164 16165 16166 16167 16168 16169 16170 16171 16172 16173 16174 16175 16176 16177 16178 16179 16180 16181 16182 16183 16184 16185 16186 16187 16188 16189 16190 16191 16192 16193 16194 16195 16196 16197 16198 16199 16200 16201 16202 16203 16204 16205 16206 16207 16208 16209 16210 16211 16212 16213 16214 16215 16216 16217 16218 16219 16220 16221 16222 16223 16224 16225 16226 16227 16228 16229 16230 16231 16232 16233 16234 16235 16236 16237 16238 16239 16240 16241 16242 16243 16244 16245 16246 16247 16248 16249 16250 16251 16252 16253 16254 16255 16256 16257 16258 16259 16260 16261 16262 16263 16264 16265 16266 16267 16268 16269 16270 16271 16272 16273 16274 16275 16276 16277 16278 16279 16280 16281 16282 16283 16284 16285 16286 16287 16288 16289 16290 16291 16292 16293 16294 16295 16296 16297 16298 16299 16300 16301 16302 16303 16304 16305 16306 16307 16308 16309 16310 16311 16312 16313 16314 16315 16316 16317 16318 16319 16320 16321 16322 16323 16324 16325 16326 16327 16328 16329 16330 16331 16332 16333 16334 16335 16336 16337 16338 16339 16340 16341 16342 16343 16344 16345 16346 16347 16348 16349 16350 16351 16352 16353 16354 16355 16356 16357 16358 16359 16360 16361 16362 16363 16364 16365 16366 16367 16368 16369 16370 16371 16372 16373 16374 16375 16376 16377 16378 16379 16380 16381 16382 16383 16384 16385 16386 16387 16388 16389 16390 16391 16392 16393 16394 16395 16396 16397 16398 16399 16400 16401 16402 16403 16404 16405 16406 16407 16408 16409 16410 16411 16412 16413 16414 16415 16416 16417 16418 16419 16420 16421 16422 16423 16424 16425 16426 16427 16428 16429 16430 16431 16432 16433 16434 16435 16436 16437 16438 16439 16440 16441 16442 16443 16444 16445 16446 16447 16448 16449 16450 16451 16452 16453 16454 16455 16456 16457 16458 16459 16460 16461 16462 16463 16464 16465 16466 16467 16468 16469 16470 16471 16472 16473 16474 16475 16476 16477 16478 16479 16480 16481 16482 16483 16484 16485 16486 16487 16488 16489 16490 16491 16492 16493 16494 16495 16496 16497 16498 16499 16500 16501 16502 16503 16504 16505 16506 16507 16508 16509 16510 16511 16512 16513 16514 16515 16516 16517 16518 16519 16520 16521 16522 16523 16524 16525 16526 16527 16528 16529 16530 16531 16532 16533 16534 16535 16536 16537 16538 16539 16540 16541 16542 16543 16544 16545 16546 16547 16548 16549 16550 16551 16552 16553 16554 16555 16556 16557 16558 16559 16560 16561 16562 16563 16564 16565 16566 16567 16568 16569 16570 16571 16572 16573 16574 16575 16576 16577 16578 16579 16580 16581 16582 16583 16584 16585 16586 16587 16588 16589 16590 16591 16592 16593 16594 16595 16596 16597 16598 16599 16600 16601 16602 16603 16604 16605 16606 16607 16608 16609 16610 16611 16612 16613 16614 16615 16616 16617 16618 16619 16620 16621 16622 16623 16624 16625 16626 16627 16628 16629 16630 16631 16632 16633 16634 16635 16636 16637 16638 16639 16640 16641 16642 16643 16644 16645 16646 16647 16648 16649 16650 16651 16652 16653 16654 16655 16656 16657 16658 16659 16660 16661 16662 16663 16664 16665 16666 16667 16668 16669 16670 16671 16672 16673 16674 16675 16676 16677 16678 16679 16680 16681 16682 16683 16684 16685 16686 16687 16688 16689 16690 16691 16692 16693 16694 16695 16696 16697 16698 16699 16700 16701 16702 16703 16704 16705 16706 16707 16708 16709 16710 16711 16712 16713 16714 16715 16716 16717 16718 16719 16720 16721 16722 16723 16724 16725 16726 16727 16728 16729 16730 16731 16732 16733 16734 16735 16736 16737 16738 16739 16740 16741 16742 16743 16744 16745 16746 16747 16748 16749 16750 16751 16752 16753 16754 16755 16756 16757 16758 16759 16760 16761 16762 16763 16764 16765 16766 16767 16768 16769 16770 16771 16772 16773 16774 16775 16776 16777 16778 16779 16780 16781 16782 16783 16784 16785 16786 16787 16788 16789 16790 16791 16792 16793 16794 16795 16796 16797 16798 16799 16800 16801 16802 16803 16804 16805 16806 16807 16808 16809 16810 16811 16812 16813 16814 16815 16816 16817 16818 16819 16820 16821 16822 16823 16824 16825 16826 16827 16828 16829 16830 16831 16832 16833 16834 16835 16836 16837 16838 16839 16840 16841 16842 16843 16844 16845 16846 16847 16848 16849 16850 16851 16852 16853 16854 16855 16856 16857 16858 16859 16860 16861 16862 16863 16864 16865 16866 16867 16868 16869 16870 16871 16872 16873 16874 16875 16876 16877 16878 16879 16880 16881 16882 16883 16884 16885 16886 16887 16888 16889 16890 16891 16892 16893 16894 16895 16896 16897 16898 16899 16900 16901 16902 16903 16904 16905 16906 16907 16908 16909 16910 16911 16912 16913 16914 16915 16916 16917 16918 16919 16920 16921 16922 16923 16924 16925 16926 16927 16928 16929 16930 16931 16932 16933 16934 16935 16936 16937 16938 16939 16940 16941 16942 16943 16944 16945 16946 16947 16948 16949 16950 16951 16952 16953 16954 16955 16956 16957 16958 16959 16960 16961 16962 16963 16964 16965 16966 16967 16968 16969 16970 16971 16972 16973 16974 16975 16976 16977 16978 16979 16980 16981 16982 16983 16984 16985 16986 16987 16988 16989 16990 16991 16992 16993 16994 16995 16996 16997 16998 16999 17000 17001 17002 17003 17004 17005 17006 17007 17008 17009 17010 17011 17012 17013 17014 17015 17016 17017 17018 17019 17020 17021 17022 17023 17024 17025 17026 17027 17028 17029 17030 17031 17032 17033 17034 17035 17036 17037 17038 17039 17040 17041 17042 17043 17044 17045 17046 17047 17048 17049 17050 17051 17052 17053 17054 17055 17056 17057 17058 17059 17060 17061 17062 17063 17064 17065 17066 17067 17068 17069 17070 17071 17072 17073 17074 17075 17076 17077 17078 17079 17080 17081 17082 17083 17084 17085 17086 17087 17088 17089 17090 17091 17092 17093 17094 17095 17096 17097 17098 17099 17100 17101 17102 17103 17104 17105 17106 17107 17108 17109 17110 17111 17112 17113 17114 17115 17116 17117 17118 17119 17120 17121 17122 17123 17124 17125 17126 17127 17128 17129 17130 17131 17132 17133 17134 17135 17136 17137 17138 17139 17140 17141 17142 17143 17144 17145 17146 17147 17148 17149 17150 17151 17152 17153 17154 17155 17156 17157 17158 17159 17160 17161 17162 17163 17164 17165 17166 17167 17168 17169 17170 17171 17172 17173 17174 17175 17176 17177 17178 17179 17180 17181 17182 17183 17184 17185 17186 17187 17188 17189 17190 17191 17192 17193 17194 17195 17196 17197 17198 17199 17200 17201 17202 17203 17204 17205 17206 17207 17208 17209 17210 17211 17212 17213 17214 17215 17216 17217 17218 17219 17220 17221 17222 17223 17224 17225 17226 17227 17228 17229 17230 17231 17232 17233 17234 17235 17236 17237 17238 17239 17240 17241 17242 17243 17244 17245 17246 17247 17248 17249 17250 17251 17252 17253 17254 17255 17256 17257 17258 17259 17260 17261 17262 17263 17264 17265 17266 17267 17268 17269 17270 17271 17272 17273 17274 17275 17276 17277 17278 17279 17280 17281 17282 17283 17284 17285 17286 17287 17288 17289 17290 17291 17292 17293 17294 17295 17296 17297 17298 17299 17300 17301 17302 17303 17304 17305 17306 17307 17308 17309 17310 17311 17312 17313 17314 17315 17316 17317 17318 17319 17320 17321 17322 17323 17324 17325 17326 17327 17328 17329 17330 17331 17332 17333 17334 17335 17336 17337 17338 17339 17340 17341 17342 17343 17344 17345 17346 17347 17348 17349 17350 17351 17352 17353 17354 17355 17356 17357 17358 17359 17360 17361 17362 17363 17364 17365 17366 17367 17368 17369 17370 17371 17372 17373 17374 17375 17376 17377 17378 17379 17380 17381 17382 17383 17384 17385 17386 17387 17388 17389 17390 17391 17392 17393 17394 17395 17396 17397 17398 17399 17400 17401 17402 17403 17404 17405 17406 17407 17408 17409 17410 17411 17412 17413 17414 17415 17416 17417 17418 17419 17420 17421 17422 17423 17424 17425 17426 17427 17428 17429 17430 17431 17432 17433 17434 17435 17436 17437 17438 17439 17440 17441 17442 17443 17444 17445 17446 17447 17448 17449 17450 17451 17452 17453 17454 17455 17456 17457 17458 17459 17460 17461 17462 17463 17464 17465 17466 17467 17468 17469 17470 17471 17472 17473 17474 17475 17476 17477 17478 17479 17480 17481 17482 17483 17484 17485 17486 17487 17488 17489 17490 17491 17492 17493 17494 17495 17496 17497 17498 17499 17500 17501 17502 17503 17504 17505 17506 17507 17508 17509 17510 17511 17512 17513 17514 17515 17516 17517 17518 17519 17520 17521 17522 17523 17524 17525 17526 17527 17528 17529 17530 17531 17532 17533 17534 17535 17536 17537 17538 17539 17540 17541 17542 17543 17544 17545 17546 17547 17548 17549 17550 17551 17552 17553 17554 17555 17556 17557 17558 17559 17560 17561 17562 17563 17564 17565 17566 17567 17568 17569 17570 17571 17572 17573 17574 17575 17576 17577 17578 17579 17580 17581 17582 17583 17584 17585 17586 17587 17588 17589 17590 17591 17592 17593 17594 17595 17596 17597 17598 17599 17600 17601 17602 17603 17604 17605 17606 17607 17608 17609 17610 17611 17612 17613 17614 17615 17616 17617 17618 17619 17620 17621 17622 17623 17624 17625 17626 17627 17628 17629 17630 17631 17632 17633 17634 17635 17636 17637 17638 17639 17640 17641 17642 17643 17644 17645 17646 17647 17648 17649 17650 17651 17652 17653 17654 17655 17656 17657 17658 17659 17660 17661 17662 17663 17664 17665 17666 17667 17668 17669 17670 17671 17672 17673 17674 17675 17676 17677 17678 17679 17680 17681 17682 17683 17684 17685 17686 17687 17688 17689 17690 17691 17692 17693 17694 17695 17696 17697 17698 17699 17700 17701 17702 17703 17704 17705 17706 17707 17708 17709 17710 17711 17712 17713 17714 17715 17716 17717 17718 17719 17720 17721 17722 17723 17724 17725 17726 17727 17728 17729 17730 17731 17732 17733 17734 17735 17736 17737 17738 17739 17740 17741 17742 17743 17744 17745 17746 17747 17748 17749 17750 17751 17752 17753 17754 17755 17756 17757 17758 17759 17760 17761 17762 17763 17764 17765 17766 17767 17768 17769 17770 17771 17772 17773 17774 17775 17776 17777 17778 17779 17780 17781 17782 17783 17784 17785 17786 17787 17788 17789 17790 17791 17792 17793 17794 17795 17796 17797 17798 17799 17800 17801 17802 17803 17804 17805 17806 17807 17808 17809 17810 17811 17812 17813 17814 17815 17816 17817 17818 17819 17820 17821 17822 17823 17824 17825 17826 17827 17828 17829 17830 17831 17832 17833 17834 17835 17836 17837 17838 17839 17840 17841 17842 17843 17844 17845 17846 17847 17848 17849 17850 17851 17852 17853 17854 17855 17856 17857 17858 17859 17860 17861 17862 17863 17864 17865 17866 17867 17868 17869 17870 17871 17872 17873 17874 17875 17876 17877 17878 17879 17880 17881 17882 17883 17884 17885 17886 17887 17888 17889 17890 17891 17892 17893 17894 17895 17896 17897 17898 17899 17900 17901 17902 17903 17904 17905 17906 17907 17908 17909 17910 17911 17912 17913 17914 17915 17916 17917 17918 17919 17920 17921 17922 17923 17924 17925 17926 17927 17928 17929 17930 17931 17932 17933 17934 17935 17936 17937 17938 17939 17940 17941 17942 17943 17944 17945 17946 17947 17948 17949 17950 17951 17952 17953 17954 17955 17956 17957 17958 17959 17960 17961 17962 17963 17964 17965 17966 17967 17968 17969 17970 17971 17972 17973 17974 17975 17976 17977 17978 17979 17980 17981 17982 17983 17984 17985 17986 17987 17988 17989 17990 17991 17992 17993 17994 17995 17996 17997 17998 17999 18000 18001 18002 18003 18004 18005 18006 18007 18008 18009 18010 18011 18012 18013 18014 18015 18016 18017 18018 18019 18020 18021 18022 18023 18024 18025 18026 18027 18028 18029 18030 18031 18032 18033 18034 18035 18036 18037 18038 18039 18040 18041 18042 18043 18044 18045 18046 18047 18048 18049 18050 18051 18052 18053 18054 18055 18056 18057 18058 18059 18060 18061 18062 18063 18064 18065 18066 18067 18068 18069 18070 18071 18072 18073 18074 18075 18076 18077 18078 18079 18080 18081 18082 18083 18084 18085 18086 18087 18088 18089 18090 18091 18092 18093 18094 18095 18096 18097 18098 18099 18100 18101 18102 18103 18104 18105 18106 18107 18108 18109 18110 18111 18112 18113 18114 18115 18116 18117 18118 18119 18120 18121 18122 18123 18124 18125 18126 18127 18128 18129 18130 18131 18132 18133 18134 18135 18136 18137 18138 18139 18140 18141 18142 18143 18144 18145 18146 18147 18148 18149 18150 18151 18152 18153 18154 18155 18156 18157 18158 18159 18160 18161 18162 18163 18164 18165 18166 18167 18168 18169 18170 18171 18172 18173 18174 18175 18176 18177 18178 18179 18180 18181 18182 18183 18184 18185 18186 18187 18188 18189 18190 18191 18192 18193 18194 18195 18196 18197 18198 18199 18200 18201 18202 18203 18204 18205 18206 18207 18208 18209 18210 18211 18212 18213 18214 18215 18216 18217 18218 18219 18220 18221 18222 18223 18224 18225 18226 18227 18228 18229 18230 18231 18232 18233 18234 18235 18236 18237 18238 18239 18240 18241 18242 18243 18244 18245 18246 18247 18248 18249 18250 18251 18252 18253 18254 18255 18256 18257 18258 18259 18260 18261 18262 18263 18264 18265 18266 18267 18268 18269 18270 18271 18272 18273 18274 18275 18276 18277 18278 18279 18280 18281 18282 18283 18284 18285 18286 18287 18288 18289 18290 18291 18292 18293 18294 18295 18296 18297 18298 18299 18300 18301 18302 18303 18304 18305 18306 18307 18308 18309 18310 18311 18312 18313 18314 18315 18316 18317 18318 18319 18320 18321 18322 18323 18324 18325 18326 18327 18328 18329 18330 18331 18332 18333 18334 18335 18336 18337 18338 18339 18340 18341 18342 18343 18344 18345 18346 18347 18348 18349 18350 18351 18352 18353 18354 18355 18356 18357 18358 18359 18360 18361 18362 18363 18364 18365 18366 18367 18368 18369 18370 18371 18372 18373 18374 18375 18376 18377 18378 18379 18380 18381 18382 18383 18384 18385 18386 18387 18388 18389 18390 18391 18392 18393 18394 18395 18396 18397 18398 18399 18400 18401 18402 18403 18404 18405 18406 18407 18408 18409 18410 18411 18412 18413 18414 18415 18416 18417 18418 18419 18420 18421 18422 18423 18424 18425 18426 18427 18428 18429 18430 18431 18432 18433 18434 18435 18436 18437 18438 18439 18440 18441 18442 18443 18444 18445 18446 18447 18448 18449 18450 18451 18452 18453 18454 18455 18456 18457 18458 18459 18460 18461 18462 18463 18464 18465 18466 18467 18468 18469 18470 18471 18472 18473 18474 18475 18476 18477 18478 18479 18480 18481 18482 18483 18484 18485 18486 18487 18488 18489 18490 18491 18492 18493 18494 18495 18496 18497 18498 18499 18500 18501 18502 18503 18504 18505 18506 18507 18508 18509 18510 18511 18512 18513 18514 18515 18516 18517 18518 18519 18520 18521 18522 18523 18524 18525 18526 18527 18528 18529 18530 18531 18532 18533 18534 18535 18536 18537 18538 18539 18540 18541 18542 18543 18544 18545 18546 18547 18548 18549 18550 18551 18552 18553 18554 18555 18556 18557 18558 18559 18560 18561 18562 18563 18564 18565 18566 18567 18568 18569 18570 18571 18572 18573 18574 18575 18576 18577 18578 18579 18580 18581 18582 18583 18584 18585 18586 18587 18588 18589 18590 18591 18592 18593 18594 18595 18596 18597 18598 18599 18600 18601 18602 18603 18604 18605 18606 18607 18608 18609 18610 18611 18612 18613 18614 18615 18616 18617 18618 18619 18620 18621 18622 18623 18624 18625 18626 18627 18628 18629 18630 18631 18632 18633 18634 18635 18636 18637 18638 18639 18640 18641 18642 18643 18644 18645 18646 18647 18648 18649 18650 18651 18652 18653 18654 18655 18656 18657 18658 18659 18660 18661 18662 18663 18664 18665 18666 18667 18668 18669 18670 18671 18672 18673 18674 18675 18676 18677 18678 18679 18680 18681 18682 18683 18684 18685 18686 18687 18688 18689 18690 18691 18692 18693 18694 18695 18696 18697 18698 18699 18700 18701 18702 18703 18704 18705 18706 18707 18708 18709 18710 18711 18712 18713 18714 18715 18716 18717 18718 18719 18720 18721 18722 18723 18724 18725 18726 18727 18728 18729 18730 18731 18732 18733 18734 18735 18736 18737 18738 18739 18740 18741 18742 18743 18744 18745 18746 18747 18748 18749 18750 18751 18752 18753 18754 18755 18756 18757 18758 18759 18760 18761 18762 18763 18764 18765 18766 18767 18768 18769 18770 18771 18772 18773 18774 18775 18776 18777 18778 18779 18780 18781 18782 18783 18784 18785 18786 18787 18788 18789 18790 18791 18792 18793 18794 18795 18796 18797 18798 18799 18800 18801 18802 18803 18804 18805 18806 18807 18808 18809 18810 18811 18812 18813 18814 18815 18816 18817 18818 18819 18820 18821 18822 18823 18824 18825 18826 18827 18828 18829 18830 18831 18832 18833 18834 18835 18836 18837 18838 18839 18840 18841 18842 18843 18844 18845 18846 18847 18848 18849 18850 18851 18852 18853 18854 18855 18856 18857 18858 18859 18860 18861 18862 18863 18864 18865 18866 18867 18868 18869 18870 18871 18872 18873 18874 18875 18876 18877 18878 18879 18880 18881 18882 18883 18884 18885 18886 18887 18888 18889 18890 18891 18892 18893 18894 18895 18896 18897 18898 18899 18900 18901 18902 18903 18904 18905 18906 18907 18908 18909 18910 18911 18912 18913 18914 18915 18916 18917 18918 18919 18920 18921 18922 18923 18924 18925 18926 18927 18928 18929 18930 18931 18932 18933 18934 18935 18936 18937 18938 18939 18940 18941 18942 18943 18944 18945 18946 18947 18948 18949 18950 18951 18952 18953 18954 18955 18956 18957 18958 18959 18960 18961 18962 18963 18964 18965 18966 18967 18968 18969 18970 18971 18972 18973 18974 18975 18976 18977 18978 18979 18980 18981 18982 18983 18984 18985 18986 18987 18988 18989 18990 18991 18992 18993 18994 18995 18996 18997 18998 18999 19000 19001 19002 19003 19004 19005 19006 19007 19008 19009 19010 19011 19012 19013 19014 19015 19016 19017 19018 19019 19020 19021 19022 19023 19024 19025 19026 19027 19028 19029 19030 19031 19032 19033 19034 19035 19036 19037 19038 19039 19040 19041 19042 19043 19044 19045 19046 19047 19048 19049 19050 19051 19052 19053 19054 19055 19056 19057 19058 19059 19060 19061 19062 19063 19064 19065 19066 19067 19068 19069 19070 19071 19072 19073 19074 19075 19076 19077 19078 19079 19080 19081 19082 19083 19084 19085 19086 19087 19088 19089 19090 19091 19092 19093 19094 19095 19096 19097 19098 19099 19100 19101 19102 19103 19104 19105 19106 19107 19108 19109 19110 19111 19112 19113 19114 19115 19116 19117 19118 19119 19120 19121 19122 19123 19124 19125 19126 19127 19128 19129 19130 19131 19132 19133 19134 19135 19136 19137 19138 19139 19140 19141 19142 19143 19144 19145 19146 19147 19148 19149 19150 19151 19152 19153 19154 19155 19156 19157 19158 19159 19160 19161 19162 19163 19164 19165 19166 19167 19168 19169 19170 19171 19172 19173 19174 19175 19176 19177 19178 19179 19180 19181 19182 19183 19184 19185 19186 19187 19188 19189 19190 19191 19192 19193 19194 19195 19196 19197 19198 19199 19200 19201 19202 19203 19204 19205 19206 19207 19208 19209 19210 19211 19212 19213 19214 19215 19216 19217 19218 19219 19220 19221 19222 19223 19224 19225 19226 19227 19228 19229 19230 19231 19232 19233 19234 19235 19236 19237 19238 19239 19240 19241 19242 19243 19244 19245 19246 19247 19248 19249 19250 19251 19252 19253 19254 19255 19256 19257 19258 19259 19260 19261 19262 19263 19264 19265 19266 19267 19268 19269 19270 19271 19272 19273 19274 19275 19276 19277 19278 19279 19280 19281 19282 19283 19284 19285 19286 19287 19288 19289 19290 19291 19292 19293 19294 19295 19296 19297 19298 19299 19300 19301 19302 19303 19304 19305 19306 19307 19308 19309 19310 19311 19312 19313 19314 19315 19316 19317 19318 19319 19320 19321 19322 19323 19324 19325 19326 19327 19328 19329 19330 19331 19332 19333 19334 19335 19336 19337 19338 19339 19340 19341 19342 19343 19344 19345 19346 19347 19348 19349 19350 19351 19352 19353 19354 19355 19356 19357 19358 19359 19360 19361 19362 19363 19364 19365 19366 19367 19368 19369 19370 19371 19372 19373 19374 19375 19376 19377 19378 19379 19380 19381 19382 19383 19384 19385 19386 19387 19388 19389 19390 19391 19392 19393 19394 19395 19396 19397 19398 19399 19400 19401 19402 19403 19404 19405 19406 19407 19408 19409 19410 19411 19412 19413 19414 19415 19416 19417 19418 19419 19420 19421 19422 19423 19424 19425 19426 19427 19428 19429 19430 19431 19432 19433 19434 19435 19436 19437 19438 19439 19440 19441 19442 19443 19444 19445 19446 19447 19448 19449 19450 19451 19452 19453 19454 19455 19456 19457 19458 19459 19460 19461 19462 19463 19464 19465 19466 19467 19468 19469 19470 19471 19472 19473 19474 19475 19476 19477 19478 19479 19480 19481 19482 19483 19484 19485 19486 19487 19488 19489 19490 19491 19492 19493 19494 19495 19496 19497 19498 19499 19500 19501 19502 19503 19504 19505 19506 19507 19508 19509 19510 19511 19512 19513 19514 19515 19516 19517 19518 19519 19520 19521 19522 19523 19524 19525 19526 19527 19528 19529 19530 19531 19532 19533 19534 19535 19536 19537 19538 19539 19540 19541 19542 19543 19544 19545 19546 19547 19548 19549 19550 19551 19552 19553 19554 19555 19556 19557 19558 19559 19560 19561 19562 19563 19564 19565 19566 19567 19568 19569 19570 19571 19572 19573 19574 19575 19576 19577 19578 19579 19580 19581 19582 19583 19584 19585 19586 19587 19588 19589 19590 19591 19592 19593 19594 19595 19596 19597 19598 19599 19600 19601 19602 19603 19604 19605 19606 19607 19608 19609 19610 19611 19612 19613 19614 19615 19616 19617 19618 19619 19620 19621 19622 19623 19624 19625 19626 19627 19628 19629 19630 19631 19632 19633 19634 19635 19636 19637 19638 19639 19640 19641 19642 19643 19644 19645 19646 19647 19648 19649 19650 19651 19652 19653 19654 19655 19656 19657 19658 19659 19660 19661 19662 19663 19664 19665 19666 19667 19668 19669 19670 19671 19672 19673 19674 19675 19676 19677 19678 19679 19680 19681 19682 19683 19684 19685 19686 19687 19688 19689 19690 19691 19692 19693 19694 19695 19696 19697 19698 19699 19700 19701 19702 19703 19704 19705 19706 19707 19708 19709 19710 19711 19712 19713 19714 19715 19716 19717 19718 19719 19720 19721 19722 19723 19724 19725 19726 19727 19728 19729 19730 19731 19732 19733 19734 19735 19736 19737 19738 19739 19740 19741 19742 19743 19744 19745 19746 19747 19748 19749 19750 19751 19752 19753 19754 19755 19756 19757 19758 19759 19760 19761 19762 19763 19764 19765 19766 19767 19768 19769 19770 19771 19772 19773 19774 19775 19776 19777 19778 19779 19780 19781 19782 19783 19784 19785 19786 19787 19788 19789 19790 19791 19792 19793 19794 19795 19796 19797 19798 19799 19800 19801 19802 19803 19804 19805 19806 19807 19808 19809 19810 19811 19812 19813 19814 19815 19816 19817 19818 19819 19820 19821 19822 19823 19824 19825 19826 19827 19828 19829 19830 19831 19832 19833 19834 19835 19836 19837 19838 19839 19840 19841 19842 19843 19844 19845 19846 19847 19848 19849 19850 19851 19852 19853 19854 19855 19856 19857 19858 19859 19860 19861 19862 19863 19864 19865 19866 19867 19868 19869 19870 19871 19872 19873 19874 19875 19876 19877 19878 19879 19880 19881 19882 19883 19884 19885 19886 19887 19888 19889 19890 19891 19892 19893 19894 19895 19896 19897 19898 19899 19900 19901 19902 19903 19904 19905 19906 19907 19908 19909 19910 19911 19912 19913 19914 19915 19916 19917 19918 19919 19920 19921 19922 19923 19924 19925 19926 19927 19928 19929 19930 19931 19932 19933 19934 19935 19936 19937 19938 19939 19940 19941 19942 19943 19944 19945 19946 19947 19948 19949 19950 19951 19952 19953 19954 19955 19956 19957 19958 19959 19960 19961 19962 19963 19964 19965 19966 19967 19968 19969 19970 19971 19972 19973 19974 19975 19976 19977 19978 19979 19980 19981 19982 19983 19984 19985 19986 19987 19988 19989 19990 19991 19992 19993 19994 19995 19996 19997 19998 19999 20000 20001 20002 20003 20004 20005 20006 20007 20008 20009 20010 20011 20012 20013 20014 20015 20016 20017 20018 20019 20020 20021 20022 20023 20024 20025 20026 20027 20028 20029 20030 20031 20032 20033 20034 20035 20036 20037 20038 20039 20040 20041 20042 20043 20044 20045 20046 20047 20048 20049 20050 20051 20052 20053 20054 20055 20056 20057 20058 20059 20060 20061 20062 20063 20064 20065 20066 20067 20068 20069 20070 20071 20072 20073 20074 20075 20076 20077 20078 20079 20080 20081 20082 20083 20084 20085 20086 20087 20088 20089 20090 20091 20092 20093 20094 20095 20096 20097 20098 20099 20100 20101 20102 20103 20104 20105 20106 20107 20108 20109 20110 20111 20112 20113 20114 20115 20116 20117 20118 20119 20120 20121 20122 20123 20124 20125 20126 20127 20128 20129 20130 20131 20132 20133 20134 20135 20136 20137 20138 20139 20140 20141 20142 20143 20144 20145 20146 20147 20148 20149 20150 20151 20152 20153 20154 20155 20156 20157 20158 20159 20160 20161 20162 20163 20164 20165 20166 20167 20168 20169 20170 20171 20172 20173 20174 20175 20176 20177 20178 20179 20180 20181 20182 20183 20184 20185 20186 20187 20188 20189 20190 20191 20192 20193 20194 20195 20196 20197 20198 20199 20200 20201 20202 20203 20204 20205 20206 20207 20208 20209 20210 20211 20212 20213 20214 20215 20216 20217 20218 20219 20220 20221 20222 20223 20224 20225 20226 20227 20228 20229 20230 20231 20232 20233 20234 20235 20236 20237 20238 20239 20240 20241 20242 20243 20244 20245 20246 20247 20248 20249 20250 20251 20252 20253 20254 20255 20256 20257 20258 20259 20260 20261 20262 20263 20264 20265 20266 20267 20268 20269 20270 20271 20272 20273 20274 20275 20276 20277 20278 20279 20280 20281 20282 20283 20284 20285 20286 20287 20288 20289 20290 20291 20292 20293 20294 20295 20296 20297 20298 20299 20300 20301 20302 20303 20304 20305 20306 20307 20308 20309 20310 20311 20312 20313 20314 20315 20316 20317 20318 20319 20320 20321 20322 20323 20324 20325 20326 20327 20328 20329 20330 20331 20332 20333 20334 20335 20336 20337 20338 20339 20340 20341 20342 20343 20344 20345 20346 20347 20348 20349 20350 20351 20352 20353 20354 20355 20356 20357 20358 20359 20360 20361 20362 20363 20364 20365 20366 20367 20368 20369 20370 20371 20372 20373 20374 20375 20376 20377 20378 20379 20380 20381 20382 20383 20384 20385 20386 20387 20388 20389 20390 20391 20392 20393 20394 20395 20396 20397 20398 20399 20400 20401 20402 20403 20404 20405 20406 20407 20408 20409 20410 20411 20412 20413 20414 20415 20416 20417 20418 20419 20420 20421 20422 20423 20424 20425 20426 20427 20428 20429 20430 20431 20432 20433 20434 20435 20436 20437 20438 20439 20440 20441 20442 20443 20444 20445 20446 20447 20448 20449 20450 20451 20452 20453 20454 20455 20456 20457 20458 20459 20460 20461 20462 20463 20464 20465 20466 20467 20468 20469 20470 20471 20472 20473 20474 20475 20476 20477 20478 20479 20480 20481 20482 20483 20484 20485 20486 20487 20488 20489 20490 20491 20492 20493 20494 20495 20496 20497 20498 20499 20500 20501 20502 20503 20504 20505 20506 20507 20508 20509 20510 20511 20512 20513 20514 20515 20516 20517 20518 20519 20520 20521 20522 20523 20524 20525 20526 20527 20528 20529 20530 20531 20532 20533 20534 20535 20536 20537 20538 20539 20540 20541 20542 20543 20544 20545 20546 20547 20548 20549 20550 20551 20552 20553 20554 20555 20556 20557 20558 20559 20560 20561 20562 20563 20564 20565 20566 20567 20568 20569 20570 20571 20572 20573 20574 20575 20576 20577 20578 20579 20580 20581 20582 20583 20584 20585 20586 20587 20588 20589 20590 20591 20592 20593 20594 20595 20596 20597 20598 20599 20600 20601 20602 20603 20604 20605 20606 20607 20608 20609 20610 20611 20612 20613 20614 20615 20616 20617 20618 20619 20620 20621 20622 20623 20624 20625 20626 20627 20628 20629 20630 20631 20632 20633 20634 20635 20636 20637 20638 20639 20640 20641 20642 20643 20644 20645 20646 20647 20648 20649 20650 20651 20652 20653 20654 20655 20656 20657 20658 20659 20660 20661 20662 20663 20664 20665 20666 20667 20668 20669 20670 20671 20672 20673 20674 20675 20676 20677 20678 20679 20680 20681 20682 20683 20684 20685 20686 20687 20688 20689 20690 20691 20692 20693 20694 20695 20696 20697 20698 20699 20700 20701 20702 20703 20704 20705 20706 20707 20708 20709 20710 20711 20712 20713 20714 20715 20716 20717 20718 20719 20720 20721 20722 20723 20724 20725 20726 20727 20728 20729 20730 20731 20732 20733 20734 20735 20736 20737 20738 20739 20740 20741 20742 20743 20744 20745 20746 20747 20748 20749 20750 20751 20752 20753 20754 20755 20756 20757 20758 20759 20760 20761 20762 20763 20764 20765 20766 20767 20768 20769 20770 20771 20772 20773 20774 20775 20776 20777 20778 20779 20780 20781 20782 20783 20784 20785 20786 20787 20788 20789 20790 20791 20792 20793 20794 20795 20796 20797 20798 20799 20800 20801 20802 20803 20804 20805 20806 20807 20808 20809 20810 20811 20812 20813 20814 20815 20816 20817 20818 20819 20820 20821 20822 20823 20824 20825 20826 20827 20828 20829 20830 20831 20832 20833 20834 20835 20836 20837 20838 20839 20840 20841 20842 20843 20844 20845 20846 20847 20848 20849 20850 20851 20852 20853 20854 20855 20856 20857 20858 20859 20860 20861 20862 20863 20864 20865 20866 20867 20868 20869 20870 20871 20872 20873 20874 20875 20876 20877 20878 20879 20880 20881 20882 20883 20884 20885 20886 20887 20888 20889 20890 20891 20892 20893 20894 20895 20896 20897 20898 20899 20900 20901 20902 20903 20904 20905 20906 20907 20908 20909 20910 20911 20912 20913 20914 20915 20916 20917 20918 20919 20920 20921 20922 20923 20924 20925 20926 20927 20928 20929 20930 20931 20932 20933 20934 20935 20936 20937 20938 20939 20940 20941 20942 20943 20944 20945 20946 20947 20948 20949 20950 20951 20952 20953 20954 20955 20956 20957 20958 20959 20960 20961 20962 20963 20964 20965 20966 20967 20968 20969 20970 20971 20972 20973 20974 20975 20976 20977 20978 20979 20980 20981 20982 20983 20984 20985 20986 20987 20988 20989 20990 20991 20992 20993 20994 20995 20996 20997 20998 20999 21000 21001 21002 21003 21004 21005 21006 21007 21008 21009 21010 21011 21012 21013 21014 21015 21016 21017 21018 21019 21020 21021 21022 21023 21024 21025 21026 21027 21028 21029 21030 21031 21032 21033 21034 21035 21036 21037 21038 21039 21040 21041 21042 21043 21044 21045 21046 21047 21048 21049 21050 21051 21052 21053 21054 21055 21056 21057 21058 21059 21060 21061 21062 21063 21064 21065 21066 21067 21068 21069 21070 21071 21072 21073 21074 21075 21076 21077 21078 21079 21080 21081 21082 21083 21084 21085 21086 21087 21088 21089 21090 21091 21092 21093 21094 21095 21096 21097 21098 21099 21100 21101 21102 21103 21104 21105 21106 21107 21108 21109 21110 21111 21112 21113 21114 21115 21116 21117 21118 21119 21120 21121 21122 21123 21124 21125 21126 21127 21128 21129 21130 21131 21132 21133 21134 21135 21136 21137 21138 21139 21140 21141 21142 21143 21144 21145 21146 21147 21148 21149 21150 21151 21152 21153 21154 21155 21156 21157 21158 21159 21160 21161 21162 21163 21164 21165 21166 21167 21168 21169 21170 21171 21172 21173 21174 21175 21176 21177 21178 21179 21180 21181 21182 21183 21184 21185 21186 21187 21188 21189 21190 21191 21192 21193 21194 21195 21196 21197 21198 21199 21200 21201 21202 21203 21204 21205 21206 21207 21208 21209 21210 21211 21212 21213 21214 21215 21216 21217 21218 21219 21220 21221 21222 21223 21224 21225 21226 21227 21228 21229 21230 21231 21232 21233 21234 21235 21236 21237 21238 21239 21240 21241 21242 21243 21244 21245 21246 21247 21248 21249 21250 21251 21252 21253 21254 21255 21256 21257 21258 21259 21260 21261 21262 21263 21264 21265 21266 21267 21268 21269 21270 21271 21272 21273 21274 21275 21276 21277 21278 21279 21280 21281 21282 21283 21284 21285 21286 21287 21288 21289 21290 21291 21292 21293 21294 21295 21296 21297 21298 21299 21300 21301 21302 21303 21304 21305 21306 21307 21308 21309 21310 21311 21312 21313 21314 21315 21316 21317 21318 21319 21320 21321 21322 21323 21324 21325 21326 21327 21328 21329 21330 21331 21332 21333 21334 21335 21336 21337 21338 21339 21340 21341 21342 21343 21344 21345 21346 21347 21348 21349 21350 21351 21352 21353 21354 21355 21356 21357 21358 21359 21360 21361 21362 21363 21364 21365 21366 21367 21368 21369 21370 21371 21372 21373 21374 21375 21376 21377 21378 21379 21380 21381 21382 21383 21384 21385 21386 21387 21388 21389 21390 21391 21392 21393 21394 21395 21396 21397 21398 21399 21400 21401 21402 21403 21404 21405 21406 21407 21408 21409 21410 21411 21412 21413 21414 21415 21416 21417 21418 21419 21420 21421 21422 21423 21424 21425 21426 21427 21428 21429 21430 21431 21432 21433 21434 21435 21436 21437 21438 21439 21440 21441 21442 21443 21444 21445 21446 21447 21448 21449 21450 21451 21452 21453 21454 21455 21456 21457 21458 21459 21460 21461 21462 21463 21464 21465 21466 21467 21468 21469 21470 21471 21472 21473 21474 21475 21476 21477 21478 21479 21480 21481 21482 21483 21484 21485 21486 21487 21488 21489 21490 21491 21492 21493 21494 21495 21496 21497 21498 21499 21500 21501 21502 21503 21504 21505 21506 21507 21508 21509 21510 21511 21512 21513 21514 21515 21516 21517 21518 21519 21520 21521 21522 21523 21524 21525 21526 21527 21528 21529 21530 21531 21532 21533 21534 21535 21536 21537 21538 21539 21540 21541 21542 21543 21544 21545 21546 21547 21548 21549 21550 21551 21552 21553 21554 21555 21556 21557 21558 21559 21560 21561 21562 21563 21564 21565 21566 21567 21568 21569 21570 21571 21572 21573 21574 21575 21576 21577 21578 21579 21580 21581 21582 21583 21584 21585 21586 21587 21588 21589 21590 21591 21592 21593 21594 21595 21596 21597 21598 21599 21600 21601 21602 21603 21604 21605 21606 21607 21608 21609 21610 21611 21612 21613 21614 21615 21616 21617 21618 21619 21620 21621 21622 21623 21624 21625 21626 21627 21628 21629 21630 21631 21632 21633 21634 21635 21636 21637 21638 21639 21640 21641 21642 21643 21644 21645 21646 21647 21648 21649 21650 21651 21652 21653 21654 21655 21656 21657 21658 21659 21660 21661 21662 21663 21664 21665 21666 21667 21668 21669 21670 21671 21672 21673 21674 21675 21676 21677 21678 21679 21680 21681 21682 21683 21684 21685 21686 21687 21688 21689 21690 21691 21692 21693 21694 21695 21696 21697 21698 21699 21700 21701 21702 21703 21704 21705 21706 21707 21708 21709 21710 21711 21712 21713 21714 21715 21716 21717 21718 21719 21720 21721 21722 21723 21724 21725 21726 21727 21728 21729 21730 21731 21732 21733 21734 21735 21736 21737 21738 21739 21740 21741 21742 21743 21744 21745 21746 21747 21748 21749 21750 21751 21752 21753 21754 21755 21756 21757 21758 21759 21760 21761 21762 21763 21764 21765 21766 21767 21768 21769 21770 21771 21772 21773 21774 21775 21776 21777 21778 21779 21780 21781 21782 21783 21784 21785 21786 21787 21788 21789 21790 21791 21792 21793 21794 21795 21796 21797 21798 21799 21800 21801 21802 21803 21804 21805 21806 21807 21808 21809 21810 21811 21812 21813 21814 21815 21816 21817 21818 21819 21820 21821 21822 21823 21824 21825 21826 21827 21828 21829 21830 21831 21832 21833 21834 21835 21836 21837 21838 21839 21840 21841 21842 21843 21844 21845 21846 21847 21848 21849 21850 21851 21852 21853 21854 21855 21856 21857 21858 21859 21860 21861 21862 21863 21864 21865 21866 21867 21868 21869 21870 21871 21872 21873 21874 21875 21876 21877 21878 21879 21880 21881 21882 21883 21884 21885 21886 21887 21888 21889 21890 21891 21892 21893 21894 21895 21896 21897 21898 21899 21900 21901 21902 21903 21904 21905 21906 21907 21908 21909 21910 21911 21912 21913 21914 21915 21916 21917 21918 21919 21920 21921 21922 21923 21924 21925 21926 21927 21928 21929 21930 21931 21932 21933 21934 21935 21936 21937 21938 21939 21940 21941 21942 21943 21944 21945 21946 21947 21948 21949 21950 21951 21952 21953 21954 21955 21956 21957 21958 21959 21960 21961 21962 21963 21964 21965 21966 21967 21968 21969 21970 21971 21972 21973 21974 21975 21976 21977 21978 21979 21980 21981 21982 21983 21984 21985 21986 21987 21988 21989 21990 21991 21992 21993 21994 21995 21996 21997 21998 21999 22000 22001 22002 22003 22004 22005 22006 22007 22008 22009 22010 22011 22012 22013 22014 22015 22016 22017 22018 22019 22020 22021 22022 22023 22024 22025 22026 22027 22028 22029 22030 22031 22032 22033 22034 22035 22036 22037 22038 22039 22040 22041 22042 22043 22044 22045 22046 22047 22048 22049 22050 22051 22052 22053 22054 22055 22056 22057 22058 22059 22060 22061 22062 22063 22064 22065 22066 22067 22068 22069 22070 22071 22072 22073 22074 22075 22076 22077 22078 22079 22080 22081 22082 22083 22084 22085 22086 22087 22088 22089 22090 22091 22092 22093 22094 22095 22096 22097 22098 22099 22100 22101 22102 22103 22104 22105 22106 22107 22108 22109 22110 22111 22112 22113 22114 22115 22116 22117 22118 22119 22120 22121 22122 22123 22124 22125 22126 22127 22128 22129 22130 22131 22132 22133 22134 22135 22136 22137 22138 22139 22140 22141 22142 22143 22144 22145 22146 22147 22148 22149 22150 22151 22152 22153 22154 22155 22156 22157 22158 22159 22160 22161 22162 22163 22164 22165 22166 22167 22168 22169 22170 22171 22172 22173 22174 22175 22176 22177 22178 22179 22180 22181 22182 22183 22184 22185 22186 22187 22188 22189 22190 22191 22192 22193 22194 22195 22196 22197 22198 22199 22200 22201 22202 22203 22204 22205 22206 22207 22208 22209 22210 22211 22212 22213 22214 22215 22216 22217 22218 22219 22220 22221 22222 22223 22224 22225 22226 22227 22228 22229 22230 22231 22232 22233 22234 22235 22236 22237 22238 22239 22240 22241 22242 22243 22244 22245 22246 22247 22248 22249 22250 22251 22252 22253 22254 22255 22256 22257 22258 22259 22260 22261 22262 22263 22264 22265 22266 22267 22268 22269 22270 22271 22272 22273 22274 22275 22276 22277 22278 22279 22280 22281 22282 22283 22284 22285 22286 22287 22288 22289 22290 22291 22292 22293 22294 22295 22296 22297 22298 22299 22300 22301 22302 22303 22304 22305 22306 22307 22308 22309 22310 22311 22312 22313 22314 22315 22316 22317 22318 22319 22320 22321 22322 22323 22324 22325 22326 22327 22328 22329 22330 22331 22332 22333 22334 22335 22336 22337 22338 22339 22340 22341 22342 22343 22344 22345 22346 22347 22348 22349 22350 22351 22352 22353 22354 22355 22356 22357 22358 22359 22360 22361 22362 22363 22364 22365 22366 22367 22368 22369 22370 22371 22372 22373 22374 22375 22376 22377 22378 22379 22380 22381 22382 22383 22384 22385 22386 22387 22388 22389 22390 22391 22392 22393 22394 22395 22396 22397 22398 22399 22400 22401 22402 22403 22404 22405 22406 22407 22408 22409 22410 22411 22412 22413 22414 22415 22416 22417 22418 22419 22420 22421 22422 22423 22424 22425 22426 22427 22428 22429 22430 22431 22432 22433 22434 22435 22436 22437 22438 22439 22440 22441 22442 22443 22444 22445 22446 22447 22448 22449 22450 22451 22452 22453 22454 22455 22456 22457 22458 22459 22460 22461 22462 22463 22464 22465 22466 22467 22468 22469 22470 22471 22472 22473 22474 22475 22476 22477 22478 22479 22480 22481 22482 22483 22484 22485 22486 22487 22488 22489 22490 22491 22492 22493 22494 22495 22496 22497 22498 22499 22500 22501 22502 22503 22504 22505 22506 22507 22508 22509 22510 22511 22512 22513 22514 22515 22516 22517 22518 22519 22520 22521 22522 22523 22524 22525 22526 22527 22528 22529 22530 22531 22532 22533 22534 22535 22536 22537 22538 22539 22540 22541 22542 22543 22544 22545 22546 22547 22548 22549 22550 22551 22552 22553 22554 22555 22556 22557 22558 22559 22560 22561 22562 22563 22564 22565 22566 22567 22568 22569 22570 22571 22572 22573 22574 22575 22576 22577 22578 22579 22580 22581 22582 22583 22584 22585 22586 22587 22588 22589 22590 22591 22592 22593 22594 22595 22596 22597 22598 22599 22600 22601 22602 22603 22604 22605 22606 22607 22608 22609 22610 22611 22612 22613 22614 22615 22616 22617 22618 22619 22620 22621 22622 22623 22624 22625 22626 22627 22628 22629 22630 22631 22632 22633 22634 22635 22636 22637 22638 22639 22640 22641 22642 22643 22644 22645 22646 22647 22648 22649 22650 22651 22652 22653 22654 22655 22656 22657 22658 22659 22660 22661 22662 22663 22664 22665 22666 22667 22668 22669 22670 22671 22672 22673 22674 22675 22676 22677 22678 22679 22680 22681 22682 22683 22684 22685 22686 22687 22688 22689 22690 22691 22692 22693 22694 22695 22696 22697 22698 22699 22700 22701 22702 22703 22704 22705 22706 22707 22708 22709 22710 22711 22712 22713 22714 22715 22716 22717 22718 22719 22720 22721 22722 22723 22724 22725 22726 22727 22728 22729 22730 22731 22732 22733 22734 22735 22736 22737 22738 22739 22740 22741 22742 22743 22744 22745 22746 22747 22748 22749 22750 22751 22752 22753 22754 22755 22756 22757 22758 22759 22760 22761 22762 22763 22764 22765 22766 22767 22768 22769 22770 22771 22772 22773 22774 22775 22776 22777 22778 22779 22780 22781 22782 22783 22784 22785 22786 22787 22788 22789 22790 22791 22792 22793 22794 22795 22796 22797 22798 22799 22800 22801 22802 22803 22804 22805 22806 22807 22808 22809 22810 22811 22812 22813 22814 22815 22816 22817 22818 22819 22820 22821 22822 22823 22824 22825 22826 22827 22828 22829 22830 22831 22832 22833 22834 22835 22836 22837 22838 22839 22840 22841 22842 22843 22844 22845 22846 22847 22848 22849 22850 22851 22852 22853 22854 22855 22856 22857 22858 22859 22860 22861 22862 22863 22864 22865 22866 22867 22868 22869 22870 22871 22872 22873 22874 22875 22876 22877 22878 22879 22880 22881 22882 22883 22884 22885 22886 22887 22888 22889 22890 22891 22892 22893 22894 22895 22896 22897 22898 22899 22900 22901 22902 22903 22904 22905 22906 22907 22908 22909 22910 22911 22912 22913 22914 22915 22916 22917 22918 22919 22920 22921 22922 22923 22924 22925 22926 22927 22928 22929 22930 22931 22932 22933 22934 22935 22936 22937 22938 22939 22940 22941 22942 22943 22944 22945 22946 22947 22948 22949 22950 22951 22952 22953 22954 22955 22956 22957 22958 22959 22960 22961 22962 22963 22964 22965 22966 22967 22968 22969 22970 22971 22972 22973 22974 22975 22976 22977 22978 22979 22980 22981 22982 22983 22984 22985 22986 22987 22988 22989 22990 22991 22992 22993 22994 22995 22996 22997 22998 22999 23000 23001 23002 23003 23004 23005 23006 23007 23008 23009 23010 23011 23012 23013 23014 23015 23016 23017 23018 23019 23020 23021 23022 23023 23024 23025 23026 23027 23028 23029 23030 23031 23032 23033 23034 23035 23036 23037 23038 23039 23040 23041 23042 23043 23044 23045 23046 23047 23048 23049 23050 23051 23052 23053 23054 23055 23056 23057 23058 23059 23060 23061 23062 23063 23064 23065 23066 23067 23068 23069 23070 23071 23072 23073 23074 23075 23076 23077 23078 23079 23080 23081 23082 23083 23084 23085 23086 23087 23088 23089 23090 23091 23092 23093 23094 23095 23096 23097 23098 23099 23100 23101 23102 23103 23104 23105 23106 23107 23108 23109 23110 23111 23112 23113 23114 23115 23116 23117 23118 23119 23120 23121 23122 23123 23124 23125 23126 23127 23128 23129 23130 23131 23132 23133 23134 23135 23136 23137 23138 23139 23140 23141 23142 23143 23144 23145 23146 23147 23148 23149 23150 23151 23152 23153 23154 23155 23156 23157 23158 23159 23160 23161 23162 23163 23164 23165 23166 23167 23168 23169 23170 23171 23172 23173 23174 23175 23176 23177 23178 23179 23180 23181 23182 23183 23184 23185 23186 23187 23188 23189 23190 23191 23192 23193 23194 23195 23196 23197 23198 23199 23200 23201 23202 23203 23204 23205 23206 23207 23208 23209 23210 23211 23212 23213 23214 23215 23216 23217 23218 23219 23220 23221 23222 23223 23224 23225 23226 23227 23228 23229 23230 23231 23232 23233 23234 23235 23236 23237 23238 23239 23240 23241 23242 23243 23244 23245 23246 23247 23248 23249 23250 23251 23252 23253 23254 23255 23256 23257 23258 23259 23260 23261 23262 23263 23264 23265 23266 23267 23268 23269 23270 23271 23272 23273 23274 23275 23276 23277 23278 23279 23280 23281 23282 23283 23284 23285 23286 23287 23288 23289 23290 23291 23292 23293 23294 23295 23296 23297 23298 23299 23300 23301 23302 23303 23304 23305 23306 23307 23308 23309 23310 23311 23312 23313 23314 23315 23316 23317 23318 23319 23320 23321 23322 23323 23324 23325 23326 23327 23328 23329 23330 23331 23332 23333 23334 23335 23336 23337 23338 23339 23340 23341 23342 23343 23344 23345 23346 23347 23348 23349 23350 23351 23352 23353 23354 23355 23356 23357 23358 23359 23360 23361 23362 23363 23364 23365 23366 23367 23368 23369 23370 23371 23372 23373 23374 23375 23376 23377 23378 23379 23380 23381 23382 23383 23384 23385 23386 23387 23388 23389 23390 23391 23392 23393 23394 23395 23396 23397 23398 23399 23400 23401 23402 23403 23404 23405 23406 23407 23408 23409 23410 23411 23412 23413 23414 23415 23416 23417 23418 23419 23420 23421 23422 23423 23424 23425 23426 23427 23428 23429 23430 23431 23432 23433 23434 23435 23436 23437 23438 23439 23440 23441 23442 23443 23444 23445 23446 23447 23448 23449 23450 23451 23452 23453 23454 23455 23456 23457 23458 23459 23460 23461 23462 23463 23464 23465 23466 23467 23468 23469 23470 23471 23472 23473 23474 23475 23476 23477 23478 23479 23480 23481 23482 23483 23484 23485 23486 23487 23488 23489 23490 23491 23492 23493 23494 23495 23496 23497 23498 23499 23500 23501 23502 23503 23504 23505 23506 23507 23508 23509 23510 23511 23512 23513 23514 23515 23516 23517 23518 23519 23520 23521 23522 23523 23524 23525 23526 23527 23528 23529 23530 23531 23532 23533 23534 23535 23536 23537 23538 23539 23540 23541 23542 23543 23544 23545 23546 23547 23548 23549 23550 23551 23552 23553 23554 23555 23556 23557 23558 23559 23560 23561 23562 23563 23564 23565 23566 23567 23568 23569 23570 23571 23572 23573 23574 23575 23576 23577 23578 23579 23580 23581 23582 23583 23584 23585 23586 23587 23588 23589 23590 23591 23592 23593 23594 23595 23596 23597 23598 23599 23600 23601 23602 23603 23604 23605 23606 23607 23608 23609 23610 23611 23612 23613 23614 23615 23616 23617 23618 23619 23620 23621 23622 23623 23624 23625 23626 23627 23628 23629 23630 23631 23632 23633 23634 23635 23636 23637 23638 23639 23640 23641 23642 23643 23644 23645 23646 23647 23648 23649 23650 23651 23652 23653 23654 23655 23656 23657 23658 23659 23660 23661 23662 23663 23664 23665 23666 23667 23668 23669 23670 23671 23672 23673 23674 23675 23676 23677 23678 23679 23680 23681 23682 23683 23684 23685 23686 23687 23688 23689 23690 23691 23692 23693 23694 23695 23696 23697 23698 23699 23700 23701 23702 23703 23704 23705 23706 23707 23708 23709 23710 23711 23712 23713 23714 23715 23716 23717 23718 23719 23720 23721 23722 23723 23724 23725 23726 23727 23728 23729 23730 23731 23732 23733 23734 23735 23736 23737 23738 23739 23740 23741 23742 23743 23744 23745 23746 23747 23748 23749 23750 23751 23752 23753 23754 23755 23756 23757 23758 23759 23760 23761 23762 23763 23764 23765 23766 23767 23768 23769 23770 23771 23772 23773 23774 23775 23776 23777 23778 23779 23780 23781 23782 23783 23784 23785 23786 23787 23788 23789 23790 23791 23792 23793 23794 23795 23796 23797 23798 23799 23800 23801 23802 23803 23804 23805 23806 23807 23808 23809 23810 23811 23812 23813 23814 23815 23816 23817 23818 23819 23820 23821 23822 23823 23824 23825 23826 23827 23828 23829 23830 23831 23832 23833 23834 23835 23836 23837 23838 23839 23840 23841 23842 23843 23844 23845 23846 23847 23848 23849 23850 23851 23852 23853 23854 23855 23856 23857 23858 23859 23860 23861 23862 23863 23864 23865 23866 23867 23868 23869 23870 23871 23872 23873 23874 23875 23876 23877 23878 23879 23880 23881 23882 23883 23884 23885 23886 23887 23888 23889 23890 23891 23892 23893 23894 23895 23896 23897 23898 23899 23900 23901 23902 23903 23904 23905 23906 23907 23908 23909 23910 23911 23912 23913 23914 23915 23916 23917 23918 23919 23920 23921 23922 23923 23924 23925 23926 23927 23928 23929 23930 23931 23932 23933 23934 23935 23936 23937 23938 23939 23940 23941 23942 23943 23944 23945 23946 23947 23948 23949 23950 23951 23952 23953 23954 23955 23956 23957 23958 23959 23960 23961 23962 23963 23964 23965 23966 23967 23968 23969 23970 23971 23972 23973 23974 23975 23976 23977 23978 23979 23980 23981 23982 23983 23984 23985 23986 23987 23988 23989 23990 23991 23992 23993 23994 23995 23996 23997 23998 23999 24000 24001 24002 24003 24004 24005 24006 24007 24008 24009 24010 24011 24012 24013 24014 24015 24016 24017 24018 24019 24020 24021 24022 24023 24024 24025 24026 24027 24028 24029 24030 24031 24032 24033 24034 24035 24036 24037 24038 24039 24040 24041 24042 24043 24044 24045 24046 24047 24048 24049 24050 24051 24052 24053 24054 24055 24056 24057 24058 24059 24060 24061 24062 24063 24064 24065 24066 24067 24068 24069 24070 24071 24072 24073 24074 24075 24076 24077 24078 24079 24080 24081 24082 24083 24084 24085 24086 24087 24088 24089 24090 24091 24092 24093 24094 24095 24096 24097 24098 24099 24100 24101 24102 24103 24104 24105 24106 24107 24108 24109 24110 24111 24112 24113 24114 24115 24116 24117 24118 24119 24120 24121 24122 24123 24124 24125 24126 24127 24128 24129 24130 24131 24132 24133 24134 24135 24136 24137 24138 24139 24140 24141 24142 24143 24144 24145 24146 24147 24148 24149 24150 24151 24152 24153 24154 24155 24156 24157 24158 24159 24160 24161 24162 24163 24164 24165 24166 24167 24168 24169 24170 24171 24172 24173 24174 24175 24176 24177 24178 24179 24180 24181 24182 24183 24184 24185 24186 24187 24188 24189 24190 24191 24192 24193 24194 24195 24196 24197 24198 24199 24200 24201 24202 24203 24204 24205 24206 24207 24208 24209 24210 24211 24212 24213 24214 24215 24216 24217 24218 24219 24220 24221 24222 24223 24224 24225 24226 24227 24228 24229 24230 24231 24232 24233 24234 24235 24236 24237 24238 24239 24240 24241 24242 24243 24244 24245 24246 24247 24248 24249 24250 24251 24252 24253 24254 24255 24256 24257 24258 24259 24260 24261 24262 24263 24264 24265 24266 24267 24268 24269 24270 24271 24272 24273 24274 24275 24276 24277 24278 24279 24280 24281 24282 24283 24284 24285 24286 24287 24288 24289 24290 24291 24292 24293 24294 24295 24296 24297 24298 24299 24300 24301 24302 24303 24304 24305 24306 24307 24308 24309 24310 24311 24312 24313 24314 24315 24316 24317 24318 24319 24320 24321 24322 24323 24324 24325 24326 24327 24328 24329 24330 24331 24332 24333 24334 24335 24336 24337 24338 24339 24340 24341 24342 24343 24344 24345 24346 24347 24348 24349 24350 24351 24352 24353 24354 24355 24356 24357 24358 24359 24360 24361 24362 24363 24364 24365 24366 24367 24368 24369 24370 24371 24372 24373 24374 24375 24376 24377 24378 24379 24380 24381 24382 24383 24384 24385 24386 24387 24388 24389 24390 24391 24392 24393 24394 24395 24396 24397 24398 24399 24400 24401 24402 24403 24404 24405 24406 24407 24408 24409 24410 24411 24412 24413 24414 24415 24416 24417 24418 24419 24420 24421 24422 24423 24424 24425 24426 24427 24428 24429 24430 24431 24432 24433 24434 24435 24436 24437 24438 24439 24440 24441 24442 24443 24444 24445 24446 24447 24448 24449 24450 24451 24452 24453 24454 24455 24456 24457 24458 24459 24460 24461 24462 24463 24464 24465 24466 24467 24468 24469 24470 24471 24472 24473 24474 24475 24476 24477 24478 24479 24480 24481 24482 24483 24484 24485 24486 24487 24488 24489 24490 24491 24492 24493 24494 24495 24496 24497 24498 24499 24500 24501 24502 24503 24504 24505 24506 24507 24508 24509 24510 24511 24512 24513 24514 24515 24516 24517 24518 24519 24520 24521 24522 24523 24524 24525 24526 24527 24528 24529 24530 24531 24532 24533 24534 24535 24536 24537 24538 24539 24540 24541 24542 24543 24544 24545 24546 24547 24548 24549 24550 24551 24552 24553 24554 24555 24556 24557 24558 24559 24560 24561 24562 24563 24564 24565 24566 24567 24568 24569 24570 24571 24572 24573 24574 24575 24576 24577 24578 24579 24580 24581 24582 24583 24584 24585 24586 24587 24588 24589 24590 24591 24592 24593 24594 24595 24596 24597 24598 24599 24600 24601 24602 24603 24604 24605 24606 24607 24608 24609 24610 24611 24612 24613 24614 24615 24616 24617 24618 24619 24620 24621 24622 24623 24624 24625 24626 24627 24628 24629 24630 24631 24632 24633 24634 24635 24636 24637 24638 24639 24640 24641 24642 24643 24644 24645 24646 24647 24648 24649 24650 24651 24652 24653 24654 24655 24656 24657 24658 24659 24660 24661 24662 24663 24664 24665 24666 24667 24668 24669 24670 24671 24672 24673 24674 24675 24676 24677 24678 24679 24680 24681 24682 24683 24684 24685 24686 24687 24688 24689 24690 24691 24692 24693 24694 24695 24696 24697 24698 24699 24700 24701 24702 24703 24704 24705 24706 24707 24708 24709 24710 24711 24712 24713 24714 24715 24716 24717 24718 24719 24720 24721 24722 24723 24724 24725 24726 24727 24728 24729 24730 24731 24732 24733 24734 24735 24736 24737 24738 24739 24740 24741 24742 24743 24744 24745 24746 24747 24748 24749 24750 24751 24752 24753 24754 24755 24756 24757 24758 24759 24760 24761 24762 24763 24764 24765 24766 24767 24768 24769 24770 24771 24772 24773 24774 24775 24776 24777 24778 24779 24780 24781 24782 24783 24784 24785 24786 24787 24788 24789 24790 24791 24792 24793 24794 24795 24796 24797 24798 24799 24800 24801 24802 24803 24804 24805 24806 24807 24808 24809 24810 24811 24812 24813 24814 24815 24816 24817 24818 24819 24820 24821 24822 24823 24824 24825 24826 24827 24828 24829 24830 24831 24832 24833 24834 24835 24836 24837 24838 24839 24840 24841 24842 24843 24844 24845 24846 24847 24848 24849 24850 24851 24852 24853 24854 24855 24856 24857 24858 24859 24860 24861 24862 24863 24864 24865 24866 24867 24868 24869 24870 24871 24872 24873 24874 24875 24876 24877 24878 24879 24880 24881 24882 24883 24884 24885 24886 24887 24888 24889 24890 24891 24892 24893 24894 24895 24896 24897 24898 24899 24900 24901 24902 24903 24904 24905 24906 24907 24908 24909 24910 24911 24912 24913 24914 24915 24916 24917 24918 24919 24920 24921 24922 24923 24924 24925 24926 24927 24928 24929 24930 24931 24932 24933 24934 24935 24936 24937 24938 24939 24940 24941 24942 24943 24944 24945 24946 24947 24948 24949 24950 24951 24952 24953 24954 24955 24956 24957 24958 24959 24960 24961 24962 24963 24964 24965 24966 24967 24968 24969 24970 24971 24972 24973 24974 24975 24976 24977 24978 24979 24980 24981 24982 24983 24984 24985 24986 24987 24988 24989 24990 24991 24992 24993 24994 24995 24996 24997 24998 24999 25000 25001 25002 25003 25004 25005 25006 25007 25008 25009 25010 25011 25012 25013 25014 25015 25016 25017 25018 25019 25020 25021 25022 25023 25024 25025 25026 25027 25028 25029 25030 25031 25032 25033 25034 25035 25036 25037 25038 25039 25040 25041 25042 25043 25044 25045 25046 25047 25048 25049 25050 25051 25052 25053 25054 25055 25056 25057 25058 25059 25060 25061 25062 25063 25064 25065 25066 25067 25068 25069 25070 25071 25072 25073 25074 25075 25076 25077 25078 25079 25080 25081 25082 25083 25084 25085 25086 25087 25088 25089 25090 25091 25092 25093 25094 25095 25096 25097 25098 25099 25100 25101 25102 25103 25104 25105 25106 25107 25108 25109 25110 25111 25112 25113 25114 25115 25116 25117 25118 25119 25120 25121 25122 25123 25124 25125 25126 25127 25128 25129 25130 25131 25132 25133 25134 25135 25136 25137 25138 25139 25140 25141 25142 25143 25144 25145 25146 25147 25148 25149 25150 25151 25152 25153 25154 25155 25156 25157 25158 25159 25160 25161 25162 25163 25164 25165 25166 25167 25168 25169 25170 25171 25172 25173 25174 25175 25176 25177 25178 25179 25180 25181 25182 25183 25184 25185 25186 25187 25188 25189 25190 25191 25192 25193 25194 25195 25196 25197 25198 25199 25200 25201 25202 25203 25204 25205 25206 25207 25208 25209 25210 25211 25212 25213 25214 25215 25216 25217 25218 25219 25220 25221 25222 25223 25224 25225 25226 25227 25228 25229 25230 25231 25232 25233 25234 25235 25236 25237 25238 25239 25240 25241 25242 25243 25244 25245 25246 25247 25248 25249 25250 25251 25252 25253 25254 25255 25256 25257 25258 25259 25260 25261 25262 25263 25264 25265 25266 25267 25268 25269 25270 25271 25272 25273 25274 25275 25276 25277 25278 25279 25280 25281 25282 25283 25284 25285 25286 25287 25288 25289 25290 25291 25292 25293 25294 25295 25296 25297 25298 25299 25300 25301 25302 25303 25304 25305 25306 25307 25308 25309 25310 25311 25312 25313 25314 25315 25316 25317 25318 25319 25320 25321 25322 25323 25324 25325 25326 25327 25328 25329 25330 25331 25332 25333 25334 25335 25336 25337 25338 25339 25340 25341 25342 25343 25344 25345 25346 25347 25348 25349 25350 25351 25352 25353 25354 25355 25356 25357 25358 25359 25360 25361 25362 25363 25364 25365 25366 25367 25368 25369 25370 25371 25372 25373 25374 25375 25376 25377 25378 25379 25380 25381 25382 25383 25384 25385 25386 25387 25388 25389 25390 25391 25392 25393 25394 25395 25396 25397 25398 25399 25400 25401 25402 25403 25404 25405 25406 25407 25408 25409 25410 25411 25412 25413 25414 25415 25416 25417 25418 25419 25420 25421 25422 25423 25424 25425 25426 25427 25428 25429 25430 25431 25432 25433 25434 25435 25436 25437 25438 25439 25440 25441 25442 25443 25444 25445 25446 25447 25448 25449 25450 25451 25452 25453 25454 25455 25456 25457 25458 25459 25460 25461 25462 25463 25464 25465 25466 25467 25468 25469 25470 25471 25472 25473 25474 25475 25476 25477 25478 25479 25480 25481 25482 25483 25484 25485 25486 25487 25488 25489 25490 25491 25492 25493 25494 25495 25496 25497 25498 25499 25500 25501 25502 25503 25504 25505 25506 25507 25508 25509 25510 25511 25512 25513 25514 25515 25516 25517 25518 25519 25520 25521 25522 25523 25524 25525 25526 25527 25528 25529 25530 25531 25532 25533 25534 25535 25536 25537 25538 25539 25540 25541 25542 25543 25544 25545 25546 25547 25548 25549 25550 25551 25552 25553 25554 25555 25556 25557 25558 25559 25560 25561 25562 25563 25564 25565 25566 25567 25568 25569 25570 25571 25572 25573 25574 25575 25576 25577 25578 25579 25580 25581 25582 25583 25584 25585 25586 25587 25588 25589 25590 25591 25592 25593 25594 25595 25596 25597 25598 25599 25600 25601 25602 25603 25604 25605 25606 25607 25608 25609 25610 25611 25612 25613 25614 25615 25616 25617 25618 25619 25620 25621 25622 25623 25624 25625 25626 25627 25628 25629 25630 25631 25632 25633 25634 25635 25636 25637 25638 25639 25640 25641 25642 25643 25644 25645 25646 25647 25648 25649 25650 25651 25652 25653 25654 25655 25656 25657 25658 25659 25660 25661 25662 25663 25664 25665 25666 25667 25668 25669 25670 25671 25672 25673 25674 25675 25676 25677 25678 25679 25680 25681 25682 25683 25684 25685 25686 25687 25688 25689 25690 25691 25692 25693 25694 25695 25696 25697 25698 25699 25700 25701 25702 25703 25704 25705 25706 25707 25708 25709 25710 25711 25712 25713 25714 25715 25716 25717 25718 25719 25720 25721 25722 25723 25724 25725 25726 25727 25728 25729 25730 25731 25732 25733 25734 25735 25736 25737 25738 25739 25740 25741 25742 25743 25744 25745 25746 25747 25748 25749 25750 25751 25752 25753 25754 25755 25756 25757 25758 25759 25760 25761 25762 25763 25764 25765 25766 25767 25768 25769 25770 25771 25772 25773 25774 25775 25776 25777 25778 25779 25780 25781 25782 25783 25784 25785 25786 25787 25788 25789 25790 25791 25792 25793 25794 25795 25796 25797 25798 25799 25800 25801 25802 25803 25804 25805 25806 25807 25808 25809 25810 25811 25812 25813 25814 25815 25816 25817 25818 25819 25820 25821 25822 25823 25824 25825 25826 25827 25828 25829 25830 25831 25832 25833 25834 25835 25836 25837 25838 25839 25840 25841 25842 25843 25844 25845 25846 25847 25848 25849 25850 25851 25852 25853 25854 25855 25856 25857 25858 25859 25860 25861 25862 25863 25864 25865 25866 25867 25868 25869 25870 25871 25872 25873 25874 25875 25876 25877 25878 25879 25880 25881 25882 25883 25884 25885 25886 25887 25888 25889 25890 25891 25892 25893 25894 25895 25896 25897 25898 25899 25900 25901 25902 25903 25904 25905 25906 25907 25908 25909 25910 25911 25912 25913 25914 25915 25916 25917 25918 25919 25920 25921 25922 25923 25924 25925 25926 25927 25928 25929 25930 25931 25932 25933 25934 25935 25936 25937 25938 25939 25940 25941 25942 25943 25944 25945 25946 25947 25948 25949 25950 25951 25952 25953 25954 25955 25956 25957 25958 25959 25960 25961 25962 25963 25964 25965 25966 25967 25968 25969 25970 25971 25972 25973 25974 25975 25976 25977 25978 25979 25980 25981 25982 25983 25984 25985 25986 25987 25988 25989 25990 25991 25992 25993 25994 25995 25996 25997 25998 25999 26000 26001 26002 26003 26004 26005 26006 26007 26008 26009 26010 26011 26012 26013 26014 26015 26016 26017 26018 26019 26020 26021 26022 26023 26024 26025 26026 26027 26028 26029 26030 26031 26032 26033 26034 26035 26036 26037 26038 26039 26040 26041 26042 26043 26044 26045 26046 26047 26048 26049 26050 26051 26052 26053 26054 26055 26056 26057 26058 26059 26060 26061 26062 26063 26064 26065 26066 26067 26068 26069 26070 26071 26072 26073 26074 26075 26076 26077 26078 26079 26080 26081 26082 26083 26084 26085 26086 26087 26088 26089 26090 26091 26092 26093 26094 26095 26096 26097 26098 26099 26100 26101 26102 26103 26104 26105 26106 26107 26108 26109 26110 26111 26112 26113 26114 26115 26116 26117 26118 26119 26120 26121 26122 26123 26124 26125 26126 26127 26128 26129 26130 26131 26132 26133 26134 26135 26136 26137 26138 26139 26140 26141 26142 26143 26144 26145 26146 26147 26148 26149 26150 26151 26152 26153 26154 26155 26156 26157 26158 26159 26160 26161 26162 26163 26164 26165 26166 26167 26168 26169 26170 26171 26172 26173 26174 26175 26176 26177 26178 26179 26180 26181 26182 26183 26184 26185 26186 26187 26188 26189 26190 26191 26192 26193 26194 26195 26196 26197 26198 26199 26200 26201 26202 26203 26204 26205 26206 26207 26208 26209 26210 26211 26212 26213 26214 26215 26216 26217 26218 26219 26220 26221 26222 26223 26224 26225 26226 26227 26228 26229 26230 26231 26232 26233 26234 26235 26236 26237 26238 26239 26240 26241 26242 26243 26244 26245 26246 26247 26248 26249 26250 26251 26252 26253 26254 26255 26256 26257 26258 26259 26260 26261 26262 26263 26264 26265 26266 26267 26268 26269 26270 26271 26272 26273 26274 26275 26276 26277 26278 26279 26280 26281 26282 26283 26284 26285 26286 26287 26288 26289 26290 26291 26292 26293 26294 26295 26296 26297 26298 26299 26300 26301 26302 26303 26304 26305 26306 26307 26308 26309 26310 26311 26312 26313 26314 26315 26316 26317 26318 26319 26320 26321 26322 26323 26324 26325 26326 26327 26328 26329 26330 26331 26332 26333 26334 26335 26336 26337 26338 26339 26340 26341 26342 26343 26344 26345 26346 26347 26348 26349 26350 26351 26352 26353 26354 26355 26356 26357 26358 26359 26360 26361 26362 26363 26364 26365 26366 26367 26368 26369 26370 26371 26372 26373 26374 26375 26376 26377 26378 26379 26380 26381 26382 26383 26384 26385 26386 26387 26388 26389 26390 26391 26392 26393 26394 26395 26396 26397 26398 26399 26400 26401 26402 26403 26404 26405 26406 26407 26408 26409 26410 26411 26412 26413 26414 26415 26416 26417 26418 26419 26420 26421 26422 26423 26424 26425 26426 26427 26428 26429 26430 26431 26432 26433 26434 26435 26436 26437 26438 26439 26440 26441 26442 26443 26444 26445 26446 26447 26448 26449 26450 26451 26452 26453 26454 26455 26456 26457 26458 26459 26460 26461 26462 26463 26464 26465 26466 26467 26468 26469 26470 26471 26472 26473 26474 26475 26476 26477 26478 26479 26480 26481 26482 26483 26484 26485 26486 26487 26488 26489 26490 26491 26492 26493 26494 26495 26496 26497 26498 26499 26500 26501 26502 26503 26504 26505 26506 26507 26508 26509 26510 26511 26512 26513 26514 26515 26516 26517 26518 26519 26520 26521 26522 26523 26524 26525 26526 26527 26528 26529 26530 26531 26532 26533 26534 26535 26536 26537 26538 26539 26540 26541 26542 26543 26544 26545 26546 26547 26548 26549 26550 26551 26552 26553 26554 26555 26556 26557 26558 26559 26560 26561 26562 26563 26564 26565 26566 26567 26568 26569 26570 26571 26572 26573 26574 26575 26576 26577 26578 26579 26580 26581 26582 26583 26584 26585 26586 26587 26588 26589 26590 26591 26592 26593 26594 26595 26596 26597 26598 26599 26600 26601 26602 26603 26604 26605 26606 26607 26608 26609 26610 26611 26612 26613 26614 26615 26616 26617 26618 26619 26620 26621 26622 26623 26624 26625 26626 26627 26628 26629 26630 26631 26632 26633 26634 26635 26636 26637 26638 26639 26640 26641 26642 26643 26644 26645 26646 26647 26648 26649 26650 26651 26652 26653 26654 26655 26656 26657 26658 26659 26660 26661 26662 26663 26664 26665 26666 26667 26668 26669 26670 26671 26672 26673 26674 26675 26676 26677 26678 26679 26680 26681 26682 26683 26684 26685 26686 26687 26688 26689 26690 26691 26692 26693 26694 26695 26696 26697 26698 26699 26700 26701 26702 26703 26704 26705 26706 26707 26708 26709 26710 26711 26712 26713 26714 26715 26716 26717 26718 26719 26720 26721 26722 26723 26724 26725 26726 26727 26728 26729 26730 26731 26732 26733 26734 26735 26736 26737 26738 26739 26740 26741 26742 26743 26744 26745 26746 26747 26748 26749 26750 26751 26752 26753 26754 26755 26756 26757 26758 26759 26760 26761 26762 26763 26764 26765 26766 26767 26768 26769 26770 26771 26772 26773 26774 26775 26776 26777 26778 26779 26780 26781 26782 26783 26784 26785 26786 26787 26788 26789 26790 26791 26792 26793 26794 26795 26796 26797 26798 26799 26800 26801 26802 26803 26804 26805 26806 26807 26808 26809 26810 26811 26812 26813 26814 26815 26816 26817 26818 26819 26820 26821 26822 26823 26824 26825 26826 26827 26828 26829 26830 26831 26832 26833 26834 26835 26836 26837 26838 26839 26840 26841 26842 26843 26844 26845 26846 26847 26848 26849 26850 26851 26852 26853 26854 26855 26856 26857 26858 26859 26860 26861 26862 26863 26864 26865 26866 26867 26868 26869 26870 26871 26872 26873 26874 26875 26876 26877 26878 26879 26880 26881 26882 26883 26884 26885 26886 26887 26888 26889 26890 26891 26892 26893 26894 26895 26896 26897 26898 26899 26900 26901 26902 26903 26904 26905 26906 26907 26908 26909 26910 26911 26912 26913 26914 26915 26916 26917 26918 26919 26920 26921 26922 26923 26924 26925 26926 26927 26928 26929 26930 26931 26932 26933 26934 26935 26936 26937 26938 26939 26940 26941 26942 26943 26944 26945 26946 26947 26948 26949 26950 26951 26952 26953 26954 26955 26956 26957 26958 26959 26960 26961 26962 26963 26964 26965 26966 26967 26968 26969 26970 26971 26972 26973 26974 26975 26976 26977 26978 26979 26980 26981 26982 26983 26984 26985 26986 26987 26988 26989 26990 26991 26992 26993 26994 26995 26996 26997 26998 26999 27000 27001 27002 27003 27004 27005 27006 27007 27008 27009 27010 27011 27012 27013 27014 27015 27016 27017 27018 27019 27020 27021 27022 27023 27024 27025 27026 27027 27028 27029 27030 27031 27032 27033 27034 27035 27036 27037 27038 27039 27040 27041 27042 27043 27044 27045 27046 27047 27048 27049 27050 27051 27052 27053 27054 27055 27056 27057 27058 27059 27060 27061 27062 27063 27064 27065 27066 27067 27068 27069 27070 27071 27072 27073 27074 27075 27076 27077 27078 27079 27080 27081 27082 27083 27084 27085 27086 27087 27088 27089 27090 27091 27092 27093 27094 27095 27096 27097 27098 27099 27100 27101 27102 27103 27104 27105 27106 27107 27108 27109 27110 27111 27112 27113 27114 27115 27116 27117 27118 27119 27120 27121 27122 27123 27124 27125 27126 27127 27128 27129 27130 27131 27132 27133 27134 27135 27136 27137 27138 27139 27140 27141 27142 27143 27144 27145 27146 27147 27148 27149 27150 27151 27152 27153 27154 27155 27156 27157 27158 27159 27160 27161 27162 27163 27164 27165 27166 27167 27168 27169 27170 27171 27172 27173 27174 27175 27176 27177 27178 27179 27180 27181 27182 27183 27184 27185 27186 27187 27188 27189 27190 27191 27192 27193 27194 27195 27196 27197 27198 27199 27200 27201 27202 27203 27204 27205 27206 27207 27208 27209 27210 27211 27212 27213 27214 27215 27216 27217 27218 27219 27220 27221 27222 27223 27224 27225 27226 27227 27228 27229 27230 27231 27232 27233 27234 27235 27236 27237 27238 27239 27240 27241 27242 27243 27244 27245 27246 27247 27248 27249 27250 27251 27252 27253 27254 27255 27256 27257 27258 27259 27260 27261 27262 27263 27264 27265 27266 27267 27268 27269 27270 27271 27272 27273 27274 27275 27276 27277 27278 27279 27280 27281 27282 27283 27284 27285 27286 27287 27288 27289 27290 27291 27292 27293 27294 27295 27296 27297 27298 27299 27300 27301 27302 27303 27304 27305 27306 27307 27308 27309 27310 27311 27312 27313 27314 27315 27316 27317 27318 27319 27320 27321 27322 27323 27324 27325 27326 27327 27328 27329 27330 27331 27332 27333 27334 27335 27336 27337 27338 27339 27340 27341 27342 27343 27344 27345 27346 27347 27348 27349 27350 27351 27352 27353 27354 27355 27356 27357 27358 27359 27360 27361 27362 27363 27364 27365 27366 27367 27368 27369 27370 27371 27372 27373 27374 27375 27376 27377 27378 27379 27380 27381 27382 27383 27384 27385 27386 27387 27388 27389 27390 27391 27392 27393 27394 27395 27396 27397 27398 27399 27400 27401 27402 27403 27404 27405 27406 27407 27408 27409 27410 27411 27412 27413 27414 27415 27416 27417 27418 27419 27420 27421 27422 27423 27424 27425 27426 27427 27428 27429 27430 27431 27432 27433 27434 27435 27436 27437 27438 27439 27440 27441 27442 27443 27444 27445 27446 27447 27448 27449 27450 27451 27452 27453 27454 27455 27456 27457 27458 27459 27460 27461 27462 27463 27464 27465 27466 27467 27468 27469 27470 27471 27472 27473 27474 27475 27476 27477 27478 27479 27480 27481 27482 27483 27484 27485 27486 27487 27488 27489 27490 27491 27492 27493 27494 27495 27496 27497 27498 27499 27500 27501 27502 27503 27504 27505 27506 27507 27508 27509 27510 27511 27512 27513 27514 27515 27516 27517 27518 27519 27520 27521 27522 27523 27524 27525 27526 27527 27528 27529 27530 27531 27532 27533 27534 27535 27536 27537 27538 27539 27540 27541 27542 27543 27544 27545 27546 27547 27548 27549 27550 27551 27552 27553 27554 27555 27556 27557 27558 27559 27560 27561 27562 27563 27564 27565 27566 27567 27568 27569 27570 27571 27572 27573 27574 27575 27576 27577 27578 27579 27580 27581 27582 27583 27584 27585 27586 27587 27588 27589 27590 27591 27592 27593 27594 27595 27596 27597 27598 27599 27600 27601 27602 27603 27604 27605 27606 27607 27608 27609 27610 27611 27612 27613 27614 27615 27616 27617 27618 27619 27620 27621 27622 27623 27624 27625 27626 27627 27628 27629 27630 27631 27632 27633 27634 27635 27636 27637 27638 27639 27640 27641 27642 27643 27644 27645 27646 27647 27648 27649 27650 27651 27652 27653 27654 27655 27656 27657 27658 27659 27660 27661 27662 27663 27664 27665 27666 27667 27668 27669 27670 27671 27672 27673 27674 27675 27676 27677 27678 27679 27680 27681 27682 27683 27684 27685 27686 27687 27688 27689 27690 27691 27692 27693 27694 27695 27696 27697 27698 27699 27700 27701 27702 27703 27704 27705 27706 27707 27708 27709 27710 27711 27712 27713 27714 27715 27716 27717 27718 27719 27720 27721 27722 27723 27724 27725 27726 27727 27728 27729 27730 27731 27732 27733 27734 27735 27736 27737 27738 27739 27740 27741 27742 27743 27744 27745 27746 27747 27748 27749 27750 27751 27752 27753 27754 27755 27756 27757 27758 27759 27760 27761 27762 27763 27764 27765 27766 27767 27768 27769 27770 27771 27772 27773 27774 27775 27776 27777 27778 27779 27780 27781 27782 27783 27784 27785 27786 27787 27788 27789 27790 27791 27792 27793 27794 27795 27796 27797 27798 27799 27800 27801 27802 27803 27804 27805 27806 27807 27808 27809 27810 27811 27812 27813 27814 27815 27816 27817 27818 27819 27820 27821 27822 27823 27824 27825 27826 27827 27828 27829 27830 27831 27832 27833 27834 27835 27836 27837 27838 27839 27840 27841 27842 27843 27844 27845 27846 27847 27848 27849 27850 27851 27852 27853 27854 27855 27856 27857 27858 27859 27860 27861 27862 27863 27864 27865 27866 27867 27868 27869 27870 27871 27872 27873 27874 27875 27876 27877 27878 27879 27880 27881 27882 27883 27884 27885 27886 27887 27888 27889 27890 27891 27892 27893 27894 27895 27896 27897 27898 27899 27900 27901 27902 27903 27904 27905 27906 27907 27908 27909 27910 27911 27912 27913 27914 27915 27916 27917 27918 27919 27920 27921 27922 27923 27924 27925 27926 27927 27928 27929 27930 27931 27932 27933 27934 27935 27936 27937 27938 27939 27940 27941 27942 27943 27944 27945 27946 27947 27948 27949 27950 27951 27952 27953 27954 27955 27956 27957 27958 27959 27960 27961 27962 27963 27964 27965 27966 27967 27968 27969 27970 27971 27972 27973 27974 27975 27976 27977 27978 27979 27980 27981 27982 27983 27984 27985 27986 27987 27988 27989 27990 27991 27992 27993 27994 27995 27996 27997 27998 27999 28000 28001 28002 28003 28004 28005 28006 28007 28008 28009 28010 28011 28012 28013 28014 28015 28016 28017 28018 28019 28020 28021 28022 28023 28024 28025 28026 28027 28028 28029 28030 28031 28032 28033 28034 28035 28036 28037 28038 28039 28040 28041 28042 28043 28044 28045 28046 28047 28048 28049 28050 28051 28052 28053 28054 28055 28056 28057 28058 28059 28060 28061 28062 28063 28064 28065 28066 28067 28068 28069 28070 28071 28072 28073 28074 28075 28076 28077 28078 28079 28080 28081 28082 28083 28084 28085 28086 28087 28088 28089 28090 28091 28092 28093 28094 28095 28096 28097 28098 28099 28100 28101 28102 28103 28104 28105 28106 28107 28108 28109 28110 28111 28112 28113 28114 28115 28116 28117 28118 28119 28120 28121 28122 28123 28124 28125 28126 28127 28128 28129 28130 28131 28132 28133 28134 28135 28136 28137 28138 28139 28140 28141 28142 28143 28144 28145 28146 28147 28148 28149 28150 28151 28152 28153 28154 28155 28156 28157 28158 28159 28160 28161 28162 28163 28164 28165 28166 28167 28168 28169 28170 28171 28172 28173 28174 28175 28176 28177 28178 28179 28180 28181 28182 28183 28184 28185 28186 28187 28188 28189 28190 28191 28192 28193 28194 28195 28196 28197 28198 28199 28200 28201 28202 28203 28204 28205 28206 28207 28208 28209 28210 28211 28212 28213 28214 28215 28216 28217 28218 28219 28220 28221 28222 28223 28224 28225 28226 28227 28228 28229 28230 28231 28232 28233 28234 28235 28236 28237 28238 28239 28240 28241 28242 28243 28244 28245 28246 28247 28248 28249 28250 28251 28252 28253 28254 28255 28256 28257 28258 28259 28260 28261 28262 28263 28264 28265 28266 28267 28268 28269 28270 28271 28272 28273 28274 28275 28276 28277 28278 28279 28280 28281 28282 28283 28284 28285 28286 28287 28288 28289 28290 28291 28292 28293 28294 28295 28296 28297 28298 28299 28300 28301 28302 28303 28304 28305 28306 28307 28308 28309 28310 28311 28312 28313 28314 28315 28316 28317 28318 28319 28320 28321 28322 28323 28324 28325 28326 28327 28328 28329 28330 28331 28332 28333 28334 28335 28336 28337 28338 28339 28340 28341 28342 28343 28344 28345 28346 28347 28348 28349 28350 28351 28352 28353 28354 28355 28356 28357 28358 28359 28360 28361 28362 28363 28364 28365 28366 28367 28368 28369 28370 28371 28372 28373 28374 28375 28376 28377 28378 28379 28380 28381 28382 28383 28384 28385 28386 28387 28388 28389 28390 28391 28392 28393 28394 28395 28396 28397 28398 28399 28400 28401 28402 28403 28404 28405 28406 28407 28408 28409 28410 28411 28412 28413 28414 28415 28416 28417 28418 28419 28420 28421 28422 28423 28424 28425 28426 28427 28428 28429 28430 28431 28432 28433 28434 28435 28436 28437 28438 28439 28440 28441 28442 28443 28444 28445 28446 28447 28448 28449 28450 28451 28452 28453 28454 28455 28456 28457 28458 28459 28460 28461 28462 28463 28464 28465 28466 28467 28468 28469 28470 28471 28472 28473 28474 28475 28476 28477 28478 28479 28480 28481 28482 28483 28484 28485 28486 28487 28488 28489 28490 28491 28492 28493 28494 28495 28496 28497 28498 28499 28500 28501 28502 28503 28504 28505 28506 28507 28508 28509 28510 28511 28512 28513 28514 28515 28516 28517 28518 28519 28520 28521 28522 28523 28524 28525 28526 28527 28528 28529 28530 28531 28532 28533 28534 28535 28536 28537 28538 28539 28540 28541 28542 28543 28544 28545 28546 28547 28548 28549 28550 28551 28552 28553 28554 28555 28556 28557 28558 28559 28560 28561 28562 28563 28564 28565 28566 28567 28568 28569 28570 28571 28572 28573 28574 28575 28576 28577 28578 28579 28580 28581 28582 28583 28584 28585 28586 28587 28588 28589 28590 28591 28592 28593 28594 28595 28596 28597 28598 28599 28600 28601 28602 28603 28604 28605 28606 28607 28608 28609 28610 28611 28612 28613 28614 28615 28616 28617 28618 28619 28620 28621 28622 28623 28624 28625 28626 28627 28628 28629 28630 28631 28632 28633 28634 28635 28636 28637 28638 28639 28640 28641 28642 28643 28644 28645 28646 28647 28648 28649 28650 28651 28652 28653 28654 28655 28656 28657 28658 28659 28660 28661 28662 28663 28664 28665 28666 28667 28668 28669 28670 28671 28672 28673 28674 28675 28676 28677 28678 28679 28680 28681 28682 28683 28684 28685 28686 28687 28688 28689 28690 28691 28692 28693 28694 28695 28696 28697 28698 28699 28700 28701 28702 28703 28704 28705 28706 28707 28708 28709 28710 28711 28712 28713 28714 28715 28716 28717 28718 28719 28720 28721 28722 28723 28724 28725 28726 28727 28728 28729 28730 28731 28732 28733 28734 28735 28736 28737 28738 28739 28740 28741 28742 28743 28744 28745 28746 28747 28748 28749 28750 28751 28752 28753 28754 28755 28756 28757 28758 28759 28760 28761 28762 28763 28764 28765 28766 28767 28768 28769 28770 28771 28772 28773 28774 28775 28776 28777 28778 28779 28780 28781 28782 28783 28784 28785 28786 28787 28788 28789 28790 28791 28792 28793 28794 28795 28796 28797 28798 28799 28800 28801 28802 28803 28804 28805 28806 28807 28808 28809 28810 28811 28812 28813 28814 28815 28816 28817 28818 28819 28820 28821 28822 28823 28824 28825 28826 28827 28828 28829 28830 28831 28832 28833 28834 28835 28836 28837 28838 28839 28840 28841 28842 28843 28844 28845 28846 28847 28848 28849 28850 28851 28852 28853 28854 28855 28856 28857 28858 28859 28860 28861 28862 28863 28864 28865 28866 28867 28868 28869 28870 28871 28872 28873 28874 28875 28876 28877 28878 28879 28880 28881 28882 28883 28884 28885 28886 28887 28888 28889 28890 28891 28892 28893 28894 28895 28896 28897 28898 28899 28900 28901 28902 28903 28904 28905 28906 28907 28908 28909 28910 28911 28912 28913 28914 28915 28916 28917 28918 28919 28920 28921 28922 28923 28924 28925 28926 28927 28928 28929 28930 28931 28932 28933 28934 28935 28936 28937 28938 28939 28940 28941 28942 28943 28944 28945 28946 28947 28948 28949 28950 28951 28952 28953 28954 28955 28956 28957 28958 28959 28960 28961 28962 28963 28964 28965 28966 28967 28968 28969 28970 28971 28972 28973 28974 28975 28976 28977 28978 28979 28980 28981 28982 28983 28984 28985 28986 28987 28988 28989 28990 28991 28992 28993 28994 28995 28996 28997 28998 28999 29000 29001 29002 29003 29004 29005 29006 29007 29008 29009 29010 29011 29012 29013 29014 29015 29016 29017 29018 29019 29020 29021 29022 29023 29024 29025 29026 29027 29028 29029 29030 29031 29032 29033 29034 29035 29036 29037 29038 29039 29040 29041 29042 29043 29044 29045 29046 29047 29048 29049 29050 29051 29052 29053 29054 29055 29056 29057 29058 29059 29060 29061 29062 29063 29064 29065 29066 29067 29068 29069 29070 29071 29072 29073 29074 29075 29076 29077 29078 29079 29080 29081 29082 29083 29084 29085 29086 29087 29088 29089 29090 29091 29092 29093 29094 29095 29096 29097 29098 29099 29100 29101 29102 29103 29104 29105 29106 29107 29108 29109 29110 29111 29112 29113 29114 29115 29116 29117 29118 29119 29120 29121 29122 29123 29124 29125 29126 29127 29128 29129 29130 29131 29132 29133 29134 29135 29136 29137 29138 29139 29140 29141 29142 29143 29144 29145 29146 29147 29148 29149 29150 29151 29152 29153 29154 29155 29156 29157 29158 29159 29160 29161 29162 29163 29164 29165 29166 29167 29168 29169 29170 29171 29172 29173 29174 29175 29176 29177 29178 29179 29180 29181 29182 29183 29184 29185 29186 29187 29188 29189 29190 29191 29192 29193 29194 29195 29196 29197 29198 29199 29200 29201 29202 29203 29204 29205 29206 29207 29208 29209 29210 29211 29212 29213 29214 29215 29216 29217 29218 29219 29220 29221 29222 29223 29224 29225 29226 29227 29228 29229 29230 29231 29232 29233 29234 29235 29236 29237 29238 29239 29240 29241 29242 29243 29244 29245 29246 29247 29248 29249 29250 29251 29252 29253 29254 29255 29256 29257 29258 29259 29260 29261 29262 29263 29264 29265 29266 29267 29268 29269 29270 29271 29272 29273 29274 29275 29276 29277 29278 29279 29280 29281 29282 29283 29284 29285 29286 29287 29288 29289 29290 29291 29292 29293 29294 29295 29296 29297 29298 29299 29300 29301 29302 29303 29304 29305 29306 29307 29308 29309 29310 29311 29312 29313 29314 29315 29316 29317 29318 29319 29320 29321 29322 29323 29324 29325 29326 29327 29328 29329 29330 29331 29332 29333 29334 29335 29336 29337 29338 29339 29340 29341 29342 29343 29344 29345 29346 29347 29348 29349 29350 29351 29352 29353 29354 29355 29356 29357 29358 29359 29360 29361 29362 29363 29364 29365 29366 29367 29368 29369 29370 29371 29372 29373 29374 29375 29376 29377 29378 29379 29380 29381 29382 29383 29384 29385 29386 29387 29388 29389 29390 29391 29392 29393 29394 29395 29396 29397 29398 29399 29400 29401 29402 29403 29404 29405 29406 29407 29408 29409 29410 29411 29412 29413 29414 29415 29416 29417 29418 29419 29420 29421 29422 29423 29424 29425 29426 29427 29428 29429 29430 29431 29432 29433 29434 29435 29436 29437 29438 29439 29440 29441 29442 29443 29444 29445 29446 29447 29448 29449 29450 29451 29452 29453 29454 29455 29456 29457 29458 29459 29460 29461 29462 29463 29464 29465 29466 29467 29468 29469 29470 29471 29472 29473 29474 29475 29476 29477 29478 29479 29480 29481 29482 29483 29484 29485 29486 29487 29488 29489 29490 29491 29492 29493 29494 29495 29496 29497 29498 29499 29500 29501 29502 29503 29504 29505 29506 29507 29508 29509 29510 29511 29512 29513 29514 29515 29516 29517 29518 29519 29520 29521 29522 29523 29524 29525 29526 29527 29528 29529 29530 29531 29532 29533 29534 29535 29536 29537 29538 29539 29540 29541 29542 29543 29544 29545 29546 29547 29548 29549 29550 29551 29552 29553 29554 29555 29556 29557 29558 29559 29560 29561 29562 29563 29564 29565 29566 29567 29568 29569 29570 29571 29572 29573 29574 29575 29576 29577 29578 29579 29580 29581 29582 29583 29584 29585 29586 29587 29588 29589 29590 29591 29592 29593 29594 29595 29596 29597 29598 29599 29600 29601 29602 29603 29604 29605 29606 29607 29608 29609 29610 29611 29612 29613 29614 29615 29616 29617 29618 29619 29620 29621 29622 29623 29624 29625 29626 29627 29628 29629 29630 29631 29632 29633 29634 29635 29636 29637 29638 29639 29640 29641 29642 29643 29644 29645 29646 29647 29648 29649 29650 29651 29652 29653 29654 29655 29656 29657 29658 29659 29660 29661 29662 29663 29664 29665 29666 29667 29668 29669 29670 29671 29672 29673 29674 29675 29676 29677 29678 29679 29680 29681 29682 29683 29684 29685 29686 29687 29688 29689 29690 29691 29692 29693 29694 29695 29696 29697 29698 29699 29700 29701 29702 29703 29704 29705 29706 29707 29708 29709 29710 29711 29712 29713 29714 29715 29716 29717 29718 29719 29720 29721 29722 29723 29724 29725 29726 29727 29728 29729 29730 29731 29732 29733 29734 29735 29736 29737 29738 29739 29740 29741 29742 29743 29744 29745 29746 29747 29748 29749 29750 29751 29752 29753 29754 29755 29756 29757 29758 29759 29760 29761 29762 29763 29764 29765 29766 29767 29768 29769 29770 29771 29772 29773 29774 29775 29776 29777 29778 29779 29780 29781 29782 29783 29784 29785 29786 29787 29788 29789 29790 29791 29792 29793 29794 29795 29796 29797 29798 29799 29800 29801 29802 29803 29804 29805 29806 29807 29808 29809 29810 29811 29812 29813 29814 29815 29816 29817 29818 29819 29820 29821 29822 29823 29824 29825 29826 29827 29828 29829 29830 29831 29832 29833 29834 29835 29836 29837 29838 29839 29840 29841 29842 29843 29844 29845 29846 29847 29848 29849 29850 29851 29852 29853 29854 29855 29856 29857 29858 29859 29860 29861 29862 29863 29864 29865 29866 29867 29868 29869 29870 29871 29872 29873 29874 29875 29876 29877 29878 29879 29880 29881 29882 29883 29884 29885 29886 29887 29888 29889 29890 29891 29892 29893 29894 29895 29896 29897 29898 29899 29900 29901 29902 29903 29904 29905 29906 29907 29908 29909 29910 29911 29912 29913 29914 29915 29916 29917 29918 29919 29920 29921 29922 29923 29924 29925 29926 29927 29928 29929 29930 29931 29932 29933 29934 29935 29936 29937 29938 29939 29940 29941 29942 29943 29944 29945 29946 29947 29948 29949 29950 29951 29952 29953 29954 29955 29956 29957 29958 29959 29960 29961 29962 29963 29964 29965 29966 29967 29968 29969 29970 
</DataArray>
<DataArray type="UInt32" Name="offsets" format="ascii">
3 6 9 12 15 17 20 23 26 29 32 35 37 40 43 46 48 51 54 57 60 62 65 68 71 74 77 79 82 84 87 90 93 96 98 101 104 107 110 113 116 119 122 124 127 130 133 135 138 140 143 146 149 151 153 156 159 162 165 168 170 173 176 179 182 185 188 191 194 197 199 201 204 207 210 213 216 218 221 223 226 228 231 234 237 240 243 245 248 251 254 256 259 262 264 267 270 272 275 278 280 283 286 289 292 295 298 301 304 307 310 312 314 317 320 323 326 329 332 335 338 341 344 346 349 351 354 357 359 362 364 367 370 372 375 378 381 384 387 390 393 396 399 402 405 408 411 414 417 419 422 425 428 430 433 436 439 441 444 447 450 453 455 458 461 463 465 468 471 474 476 479 482 485 488 491 494 496 499 502 505 508 511 514 517 520 523 526 529 532 534 537 540 543 546 549 552 555 558 561 564 567 570 573 576 579 582 585 587 589 592 595 598 600 603 606 609 612 615 618 620 623 626 629 632 634 637 639 641 644 647 649 652 655 658 661 664 667 670 673 676 679 682 685 688 691 694 697 700 703 706 708 711 714 717 720 723 725 728 731 734 737 740 743 746 749 751 754 757 760 763 765 768 770 773 775 778 781 784 787 790 793 796 798 801 804 807 809 812 815 818 821 824 827 830 833 836 839 842 845 848 851 854 857 860 862 865 868 870 872 875 878 881 884 887 890 893 896 899 902 905 908 911 914 917 920 922 925 928 931 934 936 938 941 944 947 950 953 955 958 960 963 966 969 972 975 978 980 982 985 988 991 994 997 1000 1003 1006 1009 1012 1014 1017 1020 1023 1026 1029 1032 1035 1038 1041 1044 1047 1050 1053 1056 1059 1062 1065 1068 1071 1074 1077 1079 1082 1085 1088 1090 1093 1096 1099 1102 1104 1107 1110 1113 1116 1119 1122 1125 1128 1131 1134 1137 1140 1143 1146 1149 1152 1155 1158 1161 1164 1167 1170 1173 1176 1178 1181 1184 1186 1189 1192 1195 1198 1200 1203 1206 1209 1212 1215 1218 1221 1224 1227 1230 1233 1236 1239 1242 1245 1248 1251 1254 1257 1260 1263 1266 1269 1272 1275 1278 1281 1283 1286 1289 1291 1294 1297 1299 1302 1305 1308 1311 1314 1317 1320 1323 1326 1329 1331 1334 1337 1340 1343 1345 1348 1350 1353 1356 1359 1361 1364 1367 1370 1373 1375 1378 1381 1384 1387 1389 1392 1394 1397 1399 1402 1405 1408 1410 1413 1416 1419 1422 1425 1428 1431 1434 1437 1440 1442 1445 1448 1450 1453 1455 1458 1461 1463 1466 1468 1471 1474 1477 1480 1483 1486 1488 1491 1494 1497 1500 1502 1505 1507 1509 1512 1515 1518 1520 1523 1526 1529 1532 1535 1538 1541 1544 1547 1550 1553 1556 1559 1562 1565 1568 1571 1574 1577 1580 1583 1586 1589 1592 1595 1598 1601 1604 1607 1610 1613 1616 1619 1622 1625 1627 1630 1633 1635 1638 1641 1644 1647 1650 1652 1655 1658 1661 1664 1667 1670 1673 1676 1679 1682 1685 1688 1691 1694 1697 1700 1702 1705 1708 1711 1714 1717 1720 1722 1725 1728 1731 1734 1737 1740 1743 1746 1749 1752 1755 1758 1761 1764 1766 1769 1772 1775 1778 1781 1784 1787 1790 1793 1796 1799 1802 1804 1807 1810 1813 1816 1819 1822 1825 1828 1831 1834 1836 1839 1842 1845 1848 1851 1854 1857 1860 1863 1866 1869 1871 1874 1877 1880 1883 1885 1888 1891 1894 1897 1899 1902 1905 1908 1911 1914 1917 1920 1922 1925 1927 1930 1933 1935 1938 1940 1943 1946 1949 1951 1954 1957 1960 1963 1966 1969 1972 1975 1978 1981 1984 1987 1990 1993 1996 1999 2002 2005 2008 2011 2013 2016 2019 2022 2025 2028 2030 2033 2036 2039 2042 2045 2047 2050 2053 2056 2059 2062 2065 2068 2071 2074 2077 2080 2083 2086 2089 2092 2095 2098 2101 2104 2107 2110 2113 2116 2119 2122 2125 2128 2131 2134 2137 2140 2143 2146 2149 2152 2155 2158 2161 2164 2167 2170 2173 2176 2178 2181 2184 2187 2190 2193 2196 2199 2202 2205 2208 2211 2214 2217 2220 2223 2226 2229 2232 2235 2238 2241 2244 2247 2250 2253 2256 2259 2262 2265 2268 2271 2274 2277 2280 2283 2286 2289 2292 2295 2298 2301 2304 2307 2310 2313 2316 2319 2322 2324 2327 2330 2333 2335 2338 2340 2343 2345 2348 2351 2354 2357 2360 2363 2366 2369 2372 2375 2377 2380 2383 2386 2389 2391 2394 2397 2400 2403 2406 2409 2412 2415 2418 2421 2423 2426 2429 2432 2435 2437 2440 2443 2446 2449 2452 2455 2458 2460 2463 2466 2469 2472 2475 2478 2481 2484 2487 2490 2493 2495 2498 2501 2504 2507 2510 2513 2515 2518 2521 2524 2527 2530 2533 2536 2539 2542 2545 2548 2551 2554 2557 2560 2563 2565 2568 2571 2574 2576 2579 2582 2585 2588 2591 2594 2597 2600 2603 2606 2609 2612 2615 2618 2621 2623 2626 2629 2632 2634 2637 2640 2642 2644 2647 2649 2652 2655 2658 2661 2664 2667 2669 2672 2675 2678 2681 2684 2687 2690 2692 2695 2698 2701 2704 2707 2710 2713 2716 2719 2722 2725 2728 2731 2734 2737 2740 2743 2746 2749 2752 2755 2758 2761 2764 2767 2770 2773 2776 2779 2782 2785 2788 2791 2794 2797 2799 2802 2805 2808 2811 2814 2817 2820 2822 2825 2827 2830 2833 2836 2838 2841 2844 2847 2850 2853 2856 2859 2862 2864 2867 2870 2872 2875 2878 2880 2883 2885 2888 2891 2893 2896 2899 2902 2905 2908 2911 2914 2917 2919 2922 2924 2926 2929 2932 2935 2937 2940 2943 2946 2948 2951 2953 2956 2959 2961 2963 2966 2969 2971 2974 2977 2980 2983 2986 2989 2992 2994 2997 3000 3002 3005 3007 3010 3013 3015 3018 3021 3024 3027 3030 3032 3035 3038 3041 3044 3046 3049 3051 3054 3057 3059 3061 3064 3067 3070 3073 3076 3078 3081 3084 3087 3090 3093 3096 3099 3102 3105 3107 3110 3113 3116 3119 3122 3125 3128 3131 3134 3137 3140 3143 3146 3149 3152 3155 3158 3161 3164 3167 3170 3173 3176 3179 3182 3185 3188 3190 3193 3196 3199 3202 3205 3208 3211 3214 3217 3220 3223 3225 3228 3230 3233 3236 3239 3242 3245 3248 3251 3254 3257 3260 3263 3266 3269 3272 3275 3278 3281 3284 3287 3289 3292 3294 3297 3299 3302 3305 3308 3311 3314 3316 3319 3322 3324 3327 3330 3333 3336 3339 3342 3345 3348 3351 3354 3357 3360 3363 3366 3368 3371 3374 3377 3380 3383 3386 3389 3392 3395 3398 3401 3403 3406 3409 3412 3415 3417 3420 3423 3426 3429 3432 3435 3437 3440 3443 3446 3449 3452 3455 3457 3460 3463 3466 3469 3472 3475 3478 3481 3484 3487 3490 3493 3496 3499 3502 3505 3508 3511 3514 3516 3519 3522 3525 3527 3530 3533 3536 3539 3542 3545 3548 3551 3554 3557 3559 3562 3565 3568 3571 3574 3577 3579 3581 3584 3587 3590 3593 3596 3599 3602 3605 3608 3611 3614 3617 3620 3623 3626 3629 3631 3634 3637 3639 3642 3645 3648 3651 3653 3655 3658 3661 3664 3667 3670 3673 3676 3679 3682 3685 3688 3691 3694 3697 3700 3703 3706 3709 3712 3715 3718 3721 3724 3727 3730 3733 3736 3739 3742 3745 3748 3751 3754 3757 3760 3763 3766 3769 3772 3775 3778 3781 3783 3786 3789 3792 3795 3798 3801 3804 3807 3810 3813 3816 3819 3822 3824 3827 3830 3833 3836 3839 3842 3845 3847 3850 3853 3856 3859 3862 3865 3868 3871 3874 3877 3879 3882 3885 3887 3890 3893 3895 3898 3901 3904 3907 3910 3913 3916 3919 3922 3925 3928 3930 3933 3935 3938 3940 3943 3946 3949 3951 3954 3957 3960 3963 3966 3969 3972 3975 3978 3981 3984 3987 3990 3993 3996 3998 4001 4003 4006 4009 4011 4014 4017 4019 4022 4025 4028 4031 4033 4036 4039 4042 4045 4048 4051 4054 4057 4060 4063 4065 4068 4071 4074 4077 4080 4083 4086 4089 4092 4095 4098 4101 4103 4106 4109 4112 4115 4118 4121 4124 4127 4130 4133 4136 4139 4142 4145 4148 4150 4153 4156 4159 4162 4165 4168 4171 4173 4176 4179 4182 4185 4188 4191 4193 4196 4199 4202 4204 4206 4208 4210 4213 4216 4219 4222 4225 4228 4231 4234 4237 4240 4243 4246 4249 4252 4255 4258 4260 4263 4266 4269 4272 4275 4278 4280 4283 4285 4288 4291 4293 4296 4299 4302 4304 4306 4309 4312 4315 4317 4320 4323 4326 4329 4331 4334 4337 4340 4343 4346 4349 4352 4355 4358 4361 4364 4367 4370 4373 4376 4379 4382 4385 4388 4391 4394 4397 4400 4403 4406 4409 4412 4415 4418 4421 4424 4427 4430 4433 4436 4439 4442 4445 4448 4451 4454 4457 4460 4463 4465 4468 4470 4473 4476 4479 4482 4485 4488 4491 4494 4497 4500 4503 4506 4509 4512 4515 4518 4521 4524 4527 4530 4533 4536 4538 4541 4544 4547 4550 4553 4556 4559 4562 4565 4568 4571 4574 4577 4580 4583 4585 4588 4591 4594 4597 4600 4602 4605 4608 4611 4614 4617 4620 4623 4626 4629 4632 4635 4638 4641 4644 4647 4650 4653 4656 4659 4662 4665 4668 4671 4674 4676 4678 4681 4684 4687 4690 4693 4696 4699 4702 4705 4708 4711 4714 4717 4720 4723 4726 4729 4731 4734 4737 4740 4743 4746 4749 4752 4754 4756 4759 4762 4765 4768 4771 4774 4777 4780 4783 4786 4789 4792 4795 4798 4801 4804 4807 4810 4812 4814 4817 4820 4823 4826 4829 4832 4835 4838 4841 4844 4847 4850 4853 4856 4859 4862 4865 4868 4871 4874 4877 4880 4883 4886 4889 4892 4895 4898 4901 4904 4906 4909 4912 4914 4917 4920 4923 4925 4928 4931 4934 4937 4940 4943 4946 4949 4952 4955 4958 4961 4964 4967 4970 4973 4976 4979 4982 4985 4988 4991 4994 4997 4999 5002 5005 5008 5011 5014 5017 5020 5023 5026 5028 5031 5033 5035 5037 5040 5043 5046 5048 5051 5053 5056 5059 5062 5065 5067 5070 5073 5076 5079 5082 5085 5088 5091 5094 5097 5100 5103 5106 5109 5112 5115 5118 5121 5124 5127 5130 5133 5136 5139 5141 5144 5147 5150 5153 5155 5158 5160 5163 5166 5169 5172 5175 5178 5181 5184 5187 5190 5193 5196 5199 5202 5205 5208 5211 5214 5217 5220 5223 5226 5228 5231 5233 5236 5239 5242 5245 5248 5250 5252 5255 5258 5261 5263 5266 5268 5271 5274 5277 5280 5283 5286 5289 5292 5295 5298 5301 5304 5306 5309 5312 5315 5318 5321 5324 5327 5329 5332 5335 5338 5341 5344 5346 5349 5352 5355 5358 5360 5363 5366 5368 5371 5374 5376 5379 5382 5385 5388 5391 5394 5397 5400 5403 5405 5408 5411 5414 5417 5420 5423 5426 5429 5432 5435 5438 5441 5444 5446 5449 5452 5455 5457 5460 5463 5466 5469 5472 5475 5478 5481 5483 5486 5489 5491 5494 5497 5500 5503 5506 5508 5511 5514 5516 5519 5521 5524 5526 5529 5532 5534 5537 5540 5542 5545 5548 5551 5553 5556 5559 5562 5564 5566 5569 5571 5574 5577 5579 5582 5585 5588 5590 5593 5596 5599 5602 5605 5608 5610 5613 5616 5619 5622 5625 5628 5631 5634 5637 5639 5642 5645 5647 5650 5653 5655 5658 5660 5663 5666 5669 5672 5675 5678 5680 5682 5685 5688 5691 5694 5697 5700 5703 5706 5709 5712 5715 5718 5720 5723 5726 5729 5732 5735 5737 5740 5743 5746 5748 5750 5752 5755 5758 5761 5764 5767 5770 5773 5776 5778 5781 5784 5787 5790 5793 5796 5799 5802 5805 5808 5811 5814 5817 5820 5823 5825 5828 5831 5833 5836 5839 5842 5845 5848 5850 5853 5856 5859 5862 5864 5867 5870 5873 5876 5879 5881 5883 5886 5889 5892 5895 5898 5901 5904 5907 5910 5912 5915 5918 5920 5923 5926 5929 5931 5933 5935 5938 5941 5944 5946 5948 5951 5954 5957 5960 5963 5966 5968 5971 5974 5977 5980 5983 5985 5988 5991 5994 5996 5999 6002 6005 6008 6010 6013 6016 6018 6021 6024 6027 6029 6032 6034 6036 6039 6042 6045 6048 6050 6053 6055 6058 6061 6064 6067 6070 6073 6076 6079 6082 6085 6088 6091 6094 6097 6100 6103 6106 6109 6112 6115 6117 6120 6123 6126 6128 6131 6134 6137 6140 6143 6145 6148 6151 6154 6157 6160 6163 6166 6169 6172 6175 6178 6181 6184 6187 6190 6193 6196 6199 6202 6205 6208 6211 6214 6217 6220 6223 6226 6229 6232 6235 6238 6241 6244 6247 6250 6253 6256 6258 6261 6263 6266 6269 6272 6275 6278 6281 6284 6287 6290 6293 6296 6299 6302 6305 6307 6310 6312 6315 6318 6321 6324 6326 6329 6332 6334 6336 6339 6342 6345 6348 6351 6353 6356 6359 6362 6365 6368 6371 6374 6377 6380 6383 6386 6389 6392 6395 6398 6401 6404 6407 6410 6413 6416 6419 6422 6425 6428 6431 6434 6437 6440 6443 6446 6449 6451 6454 6457 6460 6463 6466 6469 6472 6475 6478 6481 6484 6487 6490 6493 6496 6499 6502 6505 6508 6511 6514 6517 6520 6522 6525 6527 6530 6533 6536 6539 6542 6545 6548 6551 6554 6557 6560 6563 6566 6569 6572 6575 6578 6581 6584 6586 6588 6591 6594 6597 6600 6603 6606 6609 6612 6615 6618 6621 6623 6626 6629 6632 6635 6638 6641 6644 6647 6650 6653 6656 6658 6661 6663 6666 6669 6672 6674 6677 6680 6683 6686 6689 6692 6695 6698 6701 6704 6707 6710 6713 6716 6719 6722 6725 6728 6731 6734 6737 6740 6743 6746 6749 6752 6755 6758 6761 6764 6767 6770 6773 6776 6779 6782 6784 6787 6789 6792 6795 6798 6801 6804 6807 6810 6813 6816 6819 6821 6824 6827 6830 6833 6836 6839 6841 6844 6847 6850 6853 6856 6859 6862 6865 6868 6871 6874 6877 6880 6883 6886 6889 6892 6894 6896 6899 6902 6905 6908 6911 6914 6917 6920 6923 6926 6929 6932 6935 6938 6941 6944 6947 6950 6952 6955 6958 6961 6964 6967 6970 6973 6976 6978 6981 6984 6987 6990 6993 6996 6999 7002 7005 7008 7011 7014 7017 7020 7023 7026 7029 7032 7035 7038 7041 7043 7046 7049 7052 7055 7058 7061 7064 7067 7070 7073 7076 7079 7082 7085 7088 7091 7094 7097 7100 7103 7106 7108 7111 7113 7116 7119 7122 7125 7127 7130 7133 7136 7139 7142 7145 7148 7151 7154 7157 7160 7163 7166 7169 7172 7175 7178 7181 7184 7187 7190 7193 7196 7199 7202 7205 7208 7211 7214 7217 7219 7221 7224 7227 7229 7232 7235 7238 7241 7244 7247 7250 7253 7256 7259 7262 7265 7268 7271 7273 7276 7278 7281 7284 7287 7290 7292 7295 7298 7301 7304 7307 7310 7313 7316 7319 7322 7325 7328 7331 7334 7337 7340 7343 7346 7349 7352 7355 7358 7361 7364 7367 7370 7373 7376 7379 7382 7385 7388 7391 7394 7396 7399 7402 7404 7406 7409 7412 7415 7418 7421 7424 7427 7430 7433 7436 7439 7442 7445 7448 7450 7452 7455 7458 7461 7464 7466 7469 7471 7473 7476 7479 7482 7485 7488 7491 7494 7497 7500 7502 7505 7508 7511 7514 7517 7520 7523 7526 7529 7532 7535 7537 7540 7543 7546 7549 7552 7554 7557 7560 7562 7565 7567 7570 7573 7576 7579 7581 7584 7586 7589 7592 7594 7597 7600 7603 7606 7609 7611 7614 7616 7619 7622 7625 7628 7630 7633 7636 7639 7642 7644 7647 7649 7652 7655 7658 7661 7664 7667 7670 7672 7675 7677 7680 7683 7686 7688 7690 7693 7696 7699 7701 7703 7706 7709 7712 7715 7718 7721 7724 7727 7730 7733 7736 7738 7741 7744 7747 7750 7753 7756 7759 7762 7764 7767 7770 7772 7775 7778 7781 7783 7786 7789 7792 7794 7797 7800 7803 7806 7809 7812 7815 7818 7821 7824 7827 7829 7832 7835 7838 7841 7844 7847 7850 7853 7856 7858 7861 7864 7867 7870 7873 7876 7878 7881 7884 7887 7890 7892 7895 7898 7901 7904 7907 7910 7913 7916 7919 7922 7925 7928 7931 7934 7937 7939 7942 7945 7948 7951 7954 7957 7960 7963 7966 7969 7972 7975 7978 7981 7984 7987 7990 7993 7996 7999 8001 8003 8006 8009 8012 8015 8018 8021 8023 8026 8028 8031 8034 8037 8040 8042 8045 8048 8051 8054 8057 8059 8062 8065 8068 8070 8073 8075 8077 8080 8083 8086 8089 8092 8094 8097 8100 8103 8106 8109 8112 8115 8118 8121 8124 8126 8129 8131 8134 8137 8140 8142 8145 8148 8151 8154 8157 8159 8162 8164 8167 8170 8173 8176 8179 8181 8184 8187 8190 8193 8196 8199 8202 8205 8207 8210 8213 8216 8219 8222 8224 8227 8230 8233 8236 8239 8242 8245 8248 8251 8254 8257 8260 8263 8265 8268 8271 8274 8277 8280 8283 8286 8289 8292 8295 8298 8301 8304 8307 8310 8313 8315 8318 8321 8324 8326 8329 8331 8334 8337 8339 8342 8345 8348 8351 8354 8357 8360 8362 8365 8367 8370 8373 8376 8379 8381 8384 8387 8390 8392 8395 8398 8401 8404 8406 8409 8412 8414 8417 8420 8423 8426 8428 8431 8434 8437 8440 8443 8446 8449 8452 8455 8457 8460 8463 8465 8468 8471 8474 8477 8480 8482 8484 8487 8490 8492 8495 8498 8500 8503 8506 8509 8512 8515 8518 8521 8524 8527 8530 8533 8536 8539 8542 8545 8548 8551 8554 8557 8560 8562 8565 8568 8571 8574 8577 8579 8582 8584 8587 8590 8592 8595 8597 8600 8603 8606 8609 8611 8614 8617 8620 8623 8625 8628 8631 8634 8637 8640 8643 8646 8649 8651 8654 8657 8659 8662 8665 8668 8670 8672 8675 8678 8680 8683 8686 8689 8691 8694 8696 8699 8702 8705 8708 8711 8714 8717 8720 8723 8726 8729 8732 8735 8738 8740 8743 8746 8749 8751 8754 8757 8760 8763 8765 8768 8771 8774 8777 8780 8783 8786 8789 8792 8795 8798 8801 8803 8806 8809 8811 8814 8817 8819 8822 8825 8828 8830 8833 8836 8839 8841 8843 8846 8849 8852 8855 8858 8861 8864 8867 8870 8873 8876 8879 8881 8884 8886 8889 8892 8894 8897 8900 8902 8905 8908 8911 8914 8917 8920 8923 8925 8927 8929 8931 8934 8937 8939 8942 8945 8948 8951 8953 8956 8958 8961 8964 8966 8969 8972 8975 8978 8981 8984 8987 8989 8992 8994 8997 9000 9003 9006 9009 9012 9015 9018 9020 9023 9026 9029 9032 9034 9037 9040 9042 9044 9047 9049 9052 9055 9058 9061 9063 9066 9069 9072 9074 9077 9080 9082 9085 9088 9090 9093 9095 9098 9100 9103 9106 9108 9111 9113 9116 9119 9122 9125 9128 9130 9133 9136 9139 9141 9144 9146 9149 9152 9155 9157 9160 9163 9166 9169 9172 9175 9178 9181 9184 9187 9190 9193 9196 9198 9201 9204 9206 9209 9212 9214 9217 9220 9223 9226 9228 9231 9234 9237 9239 9242 9245 9248 9251 9254 9257 9259 9262 9264 9267 9270 9273 9276 9279 9281 9284 9287 9290 9293 9295 9298 9301 9304 9307 9310 9313 9316 9319 9322 9325 9327 9330 9332 9335 9338 9341 9343 9346 9349 9351 9354 9357 9359 9362 9365 9368 9371 9373 9376 9379 9381 9384 9387 9390 9392 9395 9398 9401 9404 9406 9409 9412 9415 9418 9421 9424 9427 9429 9432 9434 9437 9440 9442 9445 9448 9451 9454 9457 9460 9463 9465 9468 9471 9474 9477 9479 9482 9485 9488 9491 9494 9497 9500 9502 9504 9507 9509 9512 9515 9518 9520 9523 9526 9529 9532 9535 9537 9540 9543 9546 9549 9552 9555 9558 9561 9564 9567 9569 9572 9575 9578 9581 9584 9587 9590 9592 9595 9598 9601 9604 9607 9610 9613 9615 9618 9621 9624 9627 9630 9633 9635 9638 9641 9644 9647 9650 9653 9656 9659 9662 9665 9668 9671 9674 9677 9680 9683 9686 9689 9692 9695 9698 9701 9704 9707 9710 9713 9716 9719 9722 9725 9728 9731 9734 9737 9740 9743 9746 9749 9752 9755 9758 9761 9764 9767 9770 9773 9776 9779 9782 9785 9788 9791 9794 9797 9800 9803 9806 9809 9812 9815 9818 9821 9823 9826 9828 9831 9833 9836 9839 9842 9845 9848 9851 9854 9857 9860 9863 9865 9868 9870 9872 9875 9877 9880 9883 9886 9889 9891 9894 9897 9900 9903 9905 9908 9911 9914 9917 9920 9923 9926 9929 9932 9935 9938 9940 9943 9946 9949 9952 9955 9958 9961 9964 9967 9970 9973 9976 9979 9982 9985 9988 9991 9993 9996 9999 10002 10005 10008 10011 10013 10016 10019 10022 10025 10028 10030 10033 10036 10039 10042 10045 10048 10050 10053 10056 10059 10062 10065 10068 10071 10074 10077 10080 10083 10086 10089 10092 10094 10097 10099 10102 10105 10108 10111 10113 10116 10119 10122 10124 10127 10130 10133 10136 10138 10140 10143 10145 10148 10151 10153 10156 10159 10162 10165 10168 10171 10174 10177 10180 10183 10186 10189 10192 10195 10198 10200 10203 10206 10208 10211 10214 10217 10219 10222 10225 10228 10231 10233 10236 10239 10242 10245 10248 10251 10254 10257 10259 10262 10265 10268 10271 10274 10277 10280 10283 10286 10289 10291 10294 10297 10300 10302 10305 10308 10311 10314 10317 10320 10323 10326 10329 10332 10335 10338 10341 10344 10347 10349 10352 10355 10358 10360 10363 10366 10368 10371 10373 10376 10379 10381 10383 10385 10388 10391 10394 10397 10399 10402 10405 10408 10411 10414 10416 10419 10422 10424 10427 10430 10433 10436 10439 10442 10445 10448 10451 10454 10457 10460 10462 10465 10468 10471 10474 10477 10479 10482 10485 10488 10491 10493 10495 10498 10501 10504 10507 10509 10512 10515 10518 10521 10524 10527 10530 10533 10536 10539 10542 10544 10547 10550 10553 10556 10559 10562 10565 10567 10570 10573 10575 10578 10581 10583 10586 10589 10592 10594 10597 10599 10602 10605 10608 10610 10612 10615 10617 10620 10623 10626 10629 10632 10635 10638 10641 10644 10647 10650 10653 10656 10659 10662 10665 10668 10671 10674 10677 10680 10683 10686 10688 10691 10694 10696 10699 10702 10705 10708 10711 10714 10717 10720 10723 10726 10729 10732 10735 10738 10741 10744 10747 10750 10753 10756 10759 10762 10765 10768 10771 10774 10777 10780 10783 10786 10789 10791 10794 10797 10800 10803 10805 10808 10811 10814 10817 10820 10823 10826 10828 10831 10834 10837 10840 10843 10845 10848 10850 10852 10855 10858 10861 10864 10867 10870 10873 10876 10879 10882 10885 10887 10890 10893 10896 10898 10901 10904 10907 10910 10913 10916 10919 10922 10925 10928 10931 10934 10937 10940 10943 10946 10949 10952 10955 10958 10961 10964 10967 10970 10973 10976 10979 10982 10985 10988 10991 10994 10996 10999 11002 11005 11008 11011 11013 11016 11018 11021 11024 11027 11030 11032 11035 11038 11041 11044 11047 11050 11053 11056 11059 11062 11065 11068 11071 11074 11077 11080 11083 11086 11088 11091 11094 11097 11100 11103 11106 11108 11110 11113 11116 11119 11122 11125 11128 11131 11134 11137 11140 11142 11144 11147 11150 11153 11156 11158 11161 11164 11166 11169 11172 11175 11178 11181 11184 11187 11190 11193 11196 11198 11201 11203 11206 11208 11211 11214 11217 11220 11223 11225 11228 11231 11234 11237 11240 11242 11245 11248 11251 11254 11257 11260 11263 11266 11269 11272 11275 11278 11281 11284 11287 11289 11292 11294 11297 11300 11303 11306 11309 11312 11315 11318 11321 11324 11327 11330 11333 11336 11339 11341 11344 11347 11350 11353 11356 11359 11362 11365 11368 11371 11374 11376 11379 11382 11385 11388 11391 11394 11397 11400 11403 11406 11409 11412 11415 11418 11421 11424 11427 11430 11433 11436 11439 11441 11444 11447 11450 11453 11456 11459 11462 11465 11468 11471 11474 11477 11480 11483 11485 11488 11491 11494 11497 11500 11503 11506 11509 11512 11515 11518 11521 11524 11527 11530 11533 11536 11539 11542 11545 11548 11551 11554 11557 11560 11563 11566 11569 11572 11575 11578 11581 11584 11587 11590 11593 11596 11599 11602 11605 11608 11610 11613 11616 11619 11622 11625 11628 11631 11634 11636 11639 11642 11645 11648 11651 11654 11657 11660 11663 11666 11669 11672 11675 11678 11680 11683 11686 11688 11691 11694 11697 11700 11703 11706 11709 11712 11715 11717 11720 11723 11726 11729 11732 11735 11738 11740 11742 11745 11748 11751 11754 11757 11760 11763 11766 11769 11772 11775 11778 11780 11783 11786 11789 11791 11794 11797 11800 11803 11806 11809 11812 11814 11817 11820 11822 11825 11828 11831 11834 11837 11840 11843 11846 11849 11852 11855 11858 11861 11863 11866 11869 11872 11874 11877 11880 11883 11886 11889 11891 11894 11897 11899 11901 11904 11907 11910 11912 11915 11918 11921 11923 11926 11929 11932 11934 11937 11940 11943 11946 11949 11952 11955 11958 11961 11964 11967 11970 11973 11975 11978 11981 11984 11987 11989 11992 11995 11998 12001 12004 12006 12009 12012 12015 12018 12021 12024 12026 12029 12032 12035 12038 12041 12044 12047 12050 12053 12056 12059 12062 12065 12068 12071 12074 12077 12080 12083 12086 12089 12092 12095 12098 12101 12104 12107 12110 12113 12116 12119 12122 12125 12128 12131 12134 12137 12140 12143 12146 12149 12152 12155 12158 12161 12163 12166 12169 12172 12175 12178 12181 12184 12187 12190 12193 12196 12199 12202 12204 12207 12210 12213 12216 12219 12221 12224 12227 12230 12233 12235 12238 12241 12244 12247 12249 12252 12255 12258 12260 12262 12265 12268 12270 12273 12275 12277 12280 12283 12286 12288 12291 12294 12297 12300 12303 12306 12309 12311 12314 12317 12320 12323 12325 12328 12331 12334 12337 12340 12343 12346 12349 12351 12354 12356 12359 12362 12364 12367 12370 12373 12376 12379 12382 12385 12388 12391 12394 12397 12399 12402 12404 12407 12410 12413 12416 12419 12422 12425 12427 12430 12433 12436 12439 12442 12444 12447 12450 12453 12456 12459 12462 12465 12468 12471 12473 12476 12479 12482 12485 12488 12491 12494 12497 12500 12503 12506 12509 12512 12515 12518 12521 12524 12527 12530 12533 12536 12539 12542 12545 12548 12551 12554 12557 12560 12563 12566 12569 12572 12575 12578 12581 12584 12587 12590 12593 12596 12598 12601 12604 12607 12610 12613 12616 12619 12622 12625 12628 12631 12634 12637 12640 12643 12646 12648 12651 12654 12657 12660 12663 12666 12669 12672 12675 12678 12681 12684 12687 12690 12693 12696 12699 12702 12705 12708 12711 12714 12717 12720 12723 12726 12729 12732 12735 12738 12741 12744 12747 12750 12753 12756 12759 12762 12765 12768 12771 12774 12777 12780 12783 12786 12789 12792 12795 12798 12801 12804 12807 12810 12813 12816 12819 12822 12825 12828 12831 12834 12837 12840 12843 12846 12849 12852 12855 12858 12861 12864 12867 12870 12873 12876 12879 12882 12885 12888 12891 12894 12897 12900 12903 12906 12909 12912 12915 12918 12921 12924 12927 12930 12933 12936 12939 12942 12945 12948 12951 12954 12957 12959 12962 12965 12968 12971 12974 12977 12980 12983 12986 12989 12992 12995 12998 13000 13003 13006 13009 13012 13015 13018 13021 13024 13027 13030 13032 13035 13038 13041 13044 13047 13050 13053 13056 13059 13062 13065 13068 13071 13074 13077 13080 13083 13086 13089 13092 13095 13098 13101 13104 13107 13110 13113 13115 13118 13121 13124 13127 13130 13133 13136 13139 13141 13144 13147 13150 13153 13156 13159 13162 13165 13168 13171 13174 13177 13180 13183 13186 13188 13191 13194 13197 13200 13203 13206 13209 13212 13215 13218 13221 13224 13226 13229 13232 13235 13238 13241 13244 13247 13250 13253 13256 13259 13262 13265 13268 13271 13274 13277 13280 13283 13286 13289 13292 13295 13298 13301 13304 13306 13308 13311 13314 13317 13320 13323 13326 13329 13331 13334 13337 13340 13343 13345 13348 13350 13353 13356 13359 13362 13364 13367 13370 13372 13375 13378 13380 13383 13386 13389 13392 13395 13398 13401 13404 13407 13410 13413 13416 13419 13422 13425 13428 13431 13434 13437 13440 13443 13446 13449 13452 13455 13458 13461 13464 13467 13470 13473 13476 13479 13482 13485 13488 13491 13494 13497 13500 13502 13505 13508 13511 13513 13516 13519 13522 13525 13528 13531 13534 13537 13540 13542 13545 13548 13551 13554 13557 13560 13562 13565 13568 13571 13573 13576 13579 13582 13584 13587 13590 13593 13596 13599 13602 13605 13607 13609 13611 13614 13616 13618 13621 13624 13626 13628 13631 13634 13637 13640 13643 13646 13649 13652 13655 13658 13661 13664 13667 13670 13673 13676 13679 13682 13685 13688 13691 13694 13697 13700 13703 13706 13708 13710 13713 13716 13719 13721 13723 13726 13728 13731 13733 13736 13738 13740 13743 13746 13749 13752 13755 13757 13760 13763 13766 13769 13771 13774 13777 13780 13783 13786 13789 13792 13794 13797 13799 13802 13805 13807 13810 13813 13816 13819 13821 13824 13827 13830 13833 13836 13839 13842 13845 13848 13851 13854 13857 13860 13863 13866 13869 13872 13874 13877 13880 13882 13885 13888 13890 13893 13896 13899 13902 13904 13907 13910 13913 13916 13919 13921 13924 13927 13930 13932 13935 13937 13940 13943 13946 13949 13952 13954 13956 13959 13961 13964 13967 13969 13972 13975 13978 13981 13984 13986 13989 13992 13995 13998 14001 14004 14007 14010 14012 14015 14018 14021 14024 14027 14030 14033 14036 14039 14041 14044 14047 14050 14053 14056 14059 14062 14065 14068 14071 14074 14077 14080 14083 14086 14089 14092 14095 14098 14101 14104 14107 14110 14113 14116 14119 14122 14125 14128 14131 14134 14137 14140 14143 14146 14149 14152 14155 14158 14161 14164 14167 14170 14173 14176 14179 14182 14185 14188 14191 14194 14197 14200 14203 14206 14209 14212 14215 14218 14221 14224 14227 14230 14233 14236 14239 14242 14245 14248 14251 14254 14257 14260 14263 14266 14269 14272 14274 14276 14279 14282 14284 14287 14290 14293 14296 14299 14302 14305 14307 14310 14313 14316 14319 14322 14325 14328 14331 14333 14336 14339 14342 14345 14348 14351 14354 14357 14359 14362 14365 14368 14371 14374 14377 14380 14383 14386 14389 14392 14395 14398 14401 14404 14407 14410 14413 14416 14419 14422 14425 14428 14431 14434 14437 14440 14442 14445 14448 14451 14453 14456 14459 14462 14464 14466 14469 14472 14474 14476 14479 14482 14484 14486 14489 14492 14495 14498 14501 14504 14507 14510 14513 14516 14519 14522 14525 14528 14531 14534 14537 14540 14543 14545 14548 14551 14554 14557 14559 14562 14565 14568 14571 14574 14577 14580 14583 14586 14589 14592 14595 14598 14600 14603 14606 14609 14612 14615 14618 14621 14624 14627 14630 14633 14635 14638 14641 14644 14646 14649 14652 14654 14656 14659 14662 14665 14668 14671 14674 14677 14680 14682 14685 14688 14691 14694 14697 14699 14702 14705 14708 14711 14714 14717 14720 14723 14726 14729 14732 14735 14738 14741 14743 14746 14748 14750 14753 14756 14759 14762 14765 14767 14770 14773 14776 14778 14781 14783 14786 14789 14791 14794 14797 14800 14803 14805 14808 14811 14814 14816 14819 14822 14825 14828 14830 14833 14836 14838 14841 14844 14846 14849 14852 14855 14858 14861 14864 14867 14870 14873 14876 14879 14882 14885 14888 14891 14894 14897 14900 14903 14906 14909 14912 14915 14918 14921 14924 14927 14930 14933 14936 14939 14942 14945 14948 14951 14954 14957 14960 14963 14966 14969 14972 14975 14978 14981 14984 14987 14990 14993 14996 14999 15002 15005 15008 15011 15014 15017 15020 15023 15026 15029 15032 15035 15038 15041 15044 15047 15050 15053 15056 15059 15062 15065 15068 15071 15074 15077 15080 15083 15086 15089 15092 15095 15098 15101 15104 15107 15110 15113 15116 15119 15122 15125 15128 15131 15134 15137 15140 15143 15146 15149 15152 15155 15158 15161 15164 15167 15170 15173 15176 15179 15182 15185 15188 15191 15194 15197 15200 15203 15206 15209 15212 15215 15218 15221 15224 15227 15230 15233 15236 15239 15242 15245 15248 15251 15254 15257 15260 15263 15266 15269 15272 15275 15278 15281 15284 15287 15290 15293 15296 15299 15302 15305 15308 15311 15314 15317 15320 15323 15326 15328 15331 15334 15337 15340 15343 15346 15349 15352 15355 15357 15359 15362 15365 15367 15370 15372 15375 15377 15380 15383 15386 15389 15392 15395 15398 15401 15404 15407 15410 15413 15416 15419 15422 15425 15428 15431 15434 15437 15440 15443 15446 15449 15452 15455 15458 15461 15464 15467 15470 15473 15476 15479 15482 15485 15488 15491 15494 15497 15500 15503 15506 15509 15512 15515 15518 15521 15524 15527 15530 15533 15536 15539 15542 15545 15548 15551 15554 15557 15560 15563 15566 15569 15572 15575 15578 15581 15584 15586 15589 15592 15595 15598 15601 15604 15607 15610 15613 15616 15619 15622 15625 15628 15631 15634 15637 15640 15643 15646 15649 15652 15655 15658 15661 15664 15667 15670 15673 15676 15679 15682 15685 15688 15691 15694 15697 15700 15703 15706 15709 15712 15715 15718 15720 15723 15726 15729 15732 15735 15738 15741 15744 15747 15750 15752 15755 15758 15761 15764 15767 15770 15773 15776 15779 15782 15784 15787 15790 15793 15796 15799 15802 15805 15808 15811 15814 15817 15820 15823 15826 15829 15832 15835 15837 15840 15843 15845 15848 15851 15854 15857 15860 15863 15866 15869 15872 15874 15877 15879 15882 15884 15887 15890 15893 15896 15899 15902 15905 15908 15910 15913 15916 15918 15921 15924 15927 15930 15933 15936 15939 15942 15944 15947 15950 15953 15956 15959 15962 15965 15968 15971 15974 15977 15980 15983 15986 15989 15992 15995 15998 16001 16004 16007 16010 16013 16016 16019 16022 16025 16028 16031 16033 16035 16038 16040 16043 16046 16049 16052 16054 16057 16060 16063 16066 16068 16070 16073 16076 16079 16082 16085 16088 16091 16094 16097 16100 16103 16106 16109 16112 16114 16117 16119 16121 16124 16127 16130 16132 16135 16138 16141 16144 16147 16150 16153 16156 16159 16162 16165 16168 16171 16174 16177 16180 16183 16186 16189 16191 16194 16197 16200 16203 16206 16209 16212 16215 16218 16221 16224 16227 16230 16233 16236 16239 16242 16245 16248 16251 16253 16256 16259 16262 16265 16268 16271 16274 16277 16280 16282 16285 16288 16290 16293 16296 16299 16302 16305 16308 16311 16313 16316 16319 16322 16325 16328 16331 16334 16337 16340 16343 16346 16349 16352 16355 16358 16361 16364 16367 16370 16373 16375 16378 16380 16382 16385 16387 16390 16393 16396 16399 16402 16405 16408 16411 16414 16417 16420 16423 16426 16429 16432 16435 16438 16441 16444 16447 16449 16452 16454 16457 16460 16463 16466 16469 16472 16475 16478 16481 16484 16487 16490 16492 16495 16498 16501 16504 16507 16510 16513 16516 16519 16522 16525 16527 16530 16533 16536 16539 16542 16545 16548 16551 16554 16557 16560 16563 16566 16569 16572 16575 16578 16581 16584 16587 16590 16593 16596 16598 16601 16604 16607 16610 16613 16616 16619 16622 16625 16628 16631 16634 16637 16640 16643 16646 16649 16652 16655 16657 16660 16663 16666 16669 16672 16674 16677 16680 16682 16685 16688 16690 16693 16696 16699 16702 16705 16708 16711 16714 16717 16720 16723 16726 16728 16731 16734 16736 16739 16742 16745 16748 16751 16754 16757 16760 16763 16766 16769 16772 16775 16778 16781 16784 16787 16790 16793 16796 16799 16802 16804 16807 16810 16813 16816 16818 16821 16823 16826 16829 16832 16835 16838 16841 16844 16847 16850 16853 16856 16859 16862 16864 16867 16869 16871 16874 16876 16879 16881 16884 16887 16890 16893 16896 16899 16901 16904 16907 16910 16913 16916 16919 16922 16925 16928 16931 16934 16937 16940 16943 16945 16948 16951 16954 16956 16959 16962 16965 16968 16971 16974 16976 16979 16982 16984 16987 16990 16993 16996 16999 17002 17005 17007 17010 17013 17016 17019 17022 17025 17028 17031 17034 17037 17040 17043 17046 17049 17052 17055 17058 17061 17064 17067 17070 17073 17075 17078 17080 17083 17086 17089 17092 17095 17098 17101 17103 17106 17109 17112 17115 17118 17121 17124 17127 17130 17132 17135 17138 17141 17144 17147 17150 17153 17156 17159 17162 17165 17168 17171 17174 17177 17180 17183 17186 17188 17191 17193 17196 17199 17202 17204 17207 17209 17212 17215 17218 17221 17224 17227 17229 17232 17235 17238 17241 17244 17247 17250 17253 17256 17259 17262 17264 17267 17270 17272 17275 17278 17281 17284 17287 17289 17291 17294 17296 17299 17302 17304 17306 17309 17311 17314 17317 17320 17323 17326 17329 17332 17335 17338 17341 17344 17347 17350 17353 17356 17359 17362 17365 17368 17371 17374 17377 17380 17383 17386 17389 17392 17394 17397 17400 17403 17405 17408 17411 17414 17417 17420 17423 17426 17429 17432 17435 17438 17441 17444 17447 17450 17452 17455 17458 17461 17464 17467 17470 17472 17475 17478 17481 17484 17487 17490 17492 17495 17498 17501 17504 17507 17510 17513 17516 17519 17522 17524 17526 17529 17532 17535 17538 17541 17544 17547 17550 17553 17556 17559 17562 17565 17568 17571 17573 17576 17579 17582 17584 17586 17589 17592 17595 17598 17601 17604 17607 17610 17613 17616 17619 17621 17624 17627 17630 17633 17636 17639 17642 17645 17648 17651 17654 17657 17660 17663 17666 17669 17672 17675 17678 17681 17684 17687 17690 17693 17696 17699 17702 17705 17708 17711 17714 17717 17720 17723 17726 17729 17732 17735 17738 17741 17744 17746 17749 17751 17754 17757 17760 17763 17766 17769 17772 17774 17777 17780 17783 17786 17789 17791 17794 17797 17800 17802 17805 17808 17811 17814 17817 17820 17823 17826 17829 17832 17835 17837 17839 17842 17844 17846 17849 17852 17854 17857 17860 17863 17865 17868 17871 17874 17877 17879 17882 17885 17888 17891 17894 17897 17900 17902 17905 17908 17911 17914 17917 17920 17923 17926 17929 17932 17935 17938 17941 17944 17947 17949 17952 17955 17958 17961 17964 17967 17970 17973 17975 17978 17981 17984 17986 17988 17990 17993 17996 17999 18001 18004 18007 18010 18012 18015 18018 18021 18024 18026 18028 18031 18033 18036 18039 18042 18044 18047 18050 18053 18056 18059 18061 18064 18067 18070 18073 18075 18078 18081 18084 18087 18089 18092 18095 18098 18101 18104 18107 18110 18113 18116 18119 18122 18125 18128 18131 18134 18137 18139 18142 18145 18148 18151 18153 18156 18158 18161 18164 18167 18170 18173 18176 18179 18182 18185 18188 18191 18194 18196 18199 18202 18205 18208 18211 18214 18217 18220 18223 18226 18229 18231 18234 18237 18240 18243 18246 18249 18252 18255 18257 18260 18263 18266 18268 18271 18273 18276 18279 18282 18285 18288 18291 18294 18297 18300 18303 18306 18309 18312 18315 18318 18321 18324 18327 18330 18333 18336 18339 18342 18345 18348 18351 18354 18357 18360 18363 18366 18369 18371 18374 18377 18380 18383 18386 18389 18392 18395 18398 18401 18404 18407 18410 18413 18416 18419 18422 18425 18428 18431 18434 18437 18440 18443 18446 18449 18452 18455 18458 18461 18464 18467 18470 18472 18475 18477 18480 18482 18485 18488 18491 18494 18497 18500 18503 18506 18509 18512 18515 18518 18521 18524 18526 18529 18532 18535 18537 18540 18543 18546 18549 18552 18555 18558 18561 18564 18567 18570 18572 18575 18578 18581 18584 18587 18590 18593 18596 18599 18602 18605 18608 18610 18613 18616 18619 18621 18624 18627 18630 18633 18636 18639 18642 18645 18648 18651 18654 18657 18660 18663 18666 18668 18671 18673 18676 18679 18682 18685 18688 18690 18693 18696 18699 18702 18705 18708 18711 18714 18717 18720 18723 18726 18729 18732 18735 18738 18741 18744 18747 18750 18753 18756 18759 18762 18765 18768 18771 18774 18777 18780 18783 18786 18789 18792 18795 18798 18801 18804 18807 18810 18813 18816 18819 18822 18825 18828 18831 18834 18837 18840 18843 18846 18849 18852 18855 18857 18859 18862 18865 18868 18871 18874 18877 18880 18883 18886 18888 18891 18894 18897 18900 18903 18906 18909 18912 18915 18917 18920 18923 18926 18928 18931 18934 18937 18940 18943 18946 18949 18952 18954 18957 18960 18963 18965 18968 18971 18974 18976 18979 18982 18985 18988 18991 18994 18997 19000 19003 19006 19009 19012 19015 19018 19021 19024 19027 19030 19033 19036 19039 19042 19045 19048 19051 19053 19056 19059 19062 19064 19067 19070 19073 19076 19079 19082 19085 19088 19091 19094 19097 19100 19103 19106 19109 19111 19114 19116 19119 19122 19125 19128 19131 19134 19136 19139 19142 19145 19148 19151 19154 19157 19159 19162 19165 19168 19170 19173 19176 19179 19182 19184 19187 19190 19192 19195 19198 19201 19204 19206 19209 19212 19215 19218 19221 19224 19226 19229 19232 19235 19238 19241 19244 19247 19250 19253 19256 19259 19262 19265 19268 19271 19274 19277 19280 19283 19286 19289 19292 19295 19298 19301 19304 19307 19309 19312 19315 19318 19320 19323 19326 19329 19332 19335 19338 19341 19344 19346 19348 19351 19354 19357 19360 19363 19366 19369 19371 19374 19377 19379 19382 19385 19388 19390 19393 19396 19398 19401 19404 19407 19409 19412 19414 19416 19419 19421 19423 19426 19429 19432 19434 19436 19439 19442 19445 19447 19450 19453 19456 19458 19461 19464 19467 19470 19473 19476 19479 19482 19485 19488 19491 19494 19497 19500 19503 19506 19509 19512 19515 19518 19520 19523 19526 19529 19532 19534 19537 19540 19543 19546 19549 19552 19555 19557 19560 19563 19565 19568 19571 19574 19577 19580 19582 19584 19587 19590 19592 19594 19597 19600 19603 19606 19609 19612 19615 19618 19620 19622 19625 19627 19630 19633 19636 19639 19641 19644 19647 19649 19652 19655 19658 19661 19664 19667 19670 19673 19676 19679 19682 19685 19687 19690 19693 19695 19698 19701 19704 19707 19710 19713 19716 19719 19722 19725 19728 19730 19733 19736 19739 19742 19745 19748 19751 19754 19757 19760 19763 19766 19769 19772 19775 19778 19781 19784 19787 19790 19793 19796 19799 19802 19805 19807 19810 19812 19815 19818 19821 19824 19827 19830 19832 19835 19838 19841 19844 19847 19850 19853 19856 19859 19862 19865 19868 19871 19874 19877 19880 19883 19886 19889 19892 19895 19898 19901 19904 19907 19910 19912 19915 19918 19921 19923 19926 19929 19932 19935 19938 19941 19943 19946 19949 19952 19954 19957 19960 19963 19966 19968 19971 19974 19977 19980 19983 19986 19989 19992 19995 19997 20000 20003 20006 20009 20012 20015 20018 20021 20024 20027 20030 20033 20036 20039 20042 20045 20048 20051 20054 20057 20060 20063 20065 20068 20071 20074 20077 20079 20082 20085 20088 20091 20094 20097 20100 20103 20106 20109 20112 20115 20118 20121 20124 20126 20129 20132 20135 20138 20141 20143 20146 20149 20152 20155 20158 20161 20163 20166 20169 20171 20174 20177 20180 20183 20186 20188 20191 20194 20197 20200 20203 20205 20208 20211 20214 20217 20220 20223 20226 20228 20231 20233 20236 20239 20242 20245 20247 20250 20253 20256 20258 20261 20264 20266 20269 20272 20275 20277 20280 20283 20286 20289 20291 20293 20296 20299 20302 20305 20308 20311 20313 20316 20319 20322 20324 20326 20329 20332 20335 20338 20341 20344 20347 20350 20353 20356 20359 20362 20365 20368 20371 20374 20377 20380 20383 20386 20389 20392 20395 20398 20401 20404 20407 20410 20412 20415 20418 20421 20424 20427 20430 20433 20436 20438 20441 20444 20447 20450 20452 20455 20458 20461 20464 20467 20470 20473 20476 20479 20482 20485 20488 20491 20493 20496 20498 20501 20504 20507 20510 20512 20515 20518 20521 20524 20527 20530 20533 20536 20539 20542 20545 20548 20551 20554 20557 20560 20563 20566 20569 20571 20574 20577 20580 20583 20586 20589 20592 20595 20598 20601 20604 20607 20609 20612 20614 20617 20620 20623 20625 20628 20631 20634 20637 20640 20643 20646 20649 20652 20655 20658 20661 20664 20667 20670 20673 20676 20679 20681 20684 20687 20690 20693 20696 20699 20701 20704 20707 20710 20713 20716 20719 20722 20724 20727 20730 20732 20735 20738 20741 20744 20747 20750 20753 20756 20759 20762 20765 20768 20771 20774 20777 20780 20783 20786 20788 20791 20794 20797 20800 20802 20805 20808 20811 20814 20817 20820 20823 20825 20827 20830 20833 20836 20838 20841 20844 20847 20850 20852 20855 20858 20861 20864 20867 20870 20873 20876 20878 20881 20884 20887 20890 20893 20896 20899 20902 20905 20907 20910 20913 20916 20919 20921 20924 20927 20930 20933 20936 20939 20941 20944 20947 20950 20953 20956 20959 20962 20965 20968 20970 20973 20976 20979 20982 20985 20988 20991 20994 20997 21000 21003 21006 21009 21011 21014 21017 21020 21022 21025 21027 21030 21033 21036 21038 21041 21044 21047 21050 21052 21055 21058 21061 21063 21066 21069 21072 21075 21077 21080 21083 21086 21089 21092 21095 21098 21101 21104 21106 21109 21112 21115 21118 21121 21124 21127 21130 21133 21136 21138 21141 21144 21147 21150 21152 21155 21158 21161 21164 21167 21170 21173 21176 21179 21182 21185 21188 21191 21194 21197 21200 21203 21206 21209 21212 21215 21218 21221 21223 21226 21228 21230 21233 21236 21239 21242 21245 21248 21250 21253 21256 21259 21261 21263 21266 21268 21270 21273 21275 21278 21281 21284 21287 21290 21292 21295 21298 21301 21304 21307 21310 21313 21315 21318 21321 21323 21326 21329 21332 21335 21338 21340 21342 21345 21348 21350 21352 21355 21358 21361 21364 21367 21370 21372 21375 21378 21380 21383 21385 21388 21391 21394 21397 21400 21403 21405 21408 21410 21413 21416 21419 21422 21425 21428 21431 21434 21437 21440 21443 21446 21448 21451 21454 21457 21460 21463 21466 21468 21471 21473 21476 21478 21481 21484 21487 21490 21493 21496 21499 21502 21505 21508 21511 21514 21517 21520 21523 21525 21528 21531 21534 21537 21539 21542 21545 21548 21550 21553 21556 21559 21562 21565 21568 21571 21573 21576 21579 21582 21585 21588 21590 21592 21595 21598 21601 21604 21606 21609 21612 21615 21618 21621 21624 21627 21629 21631 21634 21637 21640 21643 21646 21649 21651 21654 21656 21659 21662 21665 21668 21671 21674 21677 21680 21682 21685 21688 21691 21694 21697 21699 21702 21705 21707 21710 21713 21715 21718 21720 21723 21726 21729 21731 21733 21736 21739 21742 21745 21748 21751 21753 21756 21758 21761 21764 21767 21769 21772 21775 21777 21780 21783 21786 21789 21792 21795 21798 21801 21804 21807 21810 21813 21816 21819 21822 21825 21828 21830 21833 21836 21839 21841 21844 21846 21849 21852 21855 21858 21861 21863 21865 21868 21871 21874 21876 21879 21882 21885 21888 21891 21893 21896 21899 21902 21905 21908 21911 21914 21916 21919 21922 21925 21928 21931 21934 21937 21940 21943 21946 21948 21951 21953 21956 21959 21962 21965 21968 21971 21974 21977 21979 21982 21985 21987 21989 21992 21994 21997 22000 22002 22005 22008 22011 22014 22016 22019 22021 22024 22027 22030 22033 22035 22038 22041 22044 22047 22049 22052 22055 22058 22061 22063 22065 22068 22071 22074 22077 22080 22083 22086 22089 22091 22094 22097 22100 22103 22106 22108 22111 22114 22117 22120 22123 22126 22129 22132 22135 22138 22141 22144 22147 22150 22152 22155 22158 22160 22163 22166 22169 22172 22175 22177 22180 22183 22185 22188 22191 22194 22197 22199 22202 22205 22207 22209 22211 22214 22217 22220 22223 22225 22228 22230 22233 22236 22239 22241 22244 22247 22249 22252 22255 22258 22261 22264 22267 22270 22273 22276 22279 22282 22285 22288 22291 22294 22297 22300 22303 22306 22309 22312 22315 22318 22321 22324 22326 22329 22332 22335 22338 22341 22344 22347 22350 22352 22355 22358 22361 22364 22367 22370 22373 22376 22379 22382 22385 22388 22391 22394 22397 22400 22403 22405 22408 22411 22414 22417 22420 22423 22425 22427 22430 22432 22435 22438 22441 22443 22445 22448 22451 22454 22457 22460 22463 22466 22469 22472 22475 22478 22481 22484 22487 22489 22492 22494 22497 22500 22503 22506 22509 22512 22515 22518 22521 22524 22527 22530 22533 22536 22539 22542 22545 22548 22551 22554 22557 22560 22563 22566 22569 22572 22575 22578 22581 22584 22587 22590 22593 22596 22599 22602 22605 22608 22611 22614 22617 22620 22623 22626 22629 22632 22635 22638 22641 22643 22646 22649 22651 22654 22657 22660 22663 22666 22669 22672 22674 22677 22679 22682 22685 22688 22691 22694 22697 22700 22703 22706 22708 22711 22714 22717 22720 22722 22725 22728 22731 22734 22737 22739 22742 22745 22748 22751 22754 22757 22760 22763 22766 22769 22772 22775 22778 22781 22784 22787 22790 22793 22796 22799 22802 22805 22808 22811 22814 22817 22820 22822 22825 22828 22831 22834 22837 22840 22843 22845 22848 22851 22854 22857 22859 22862 22864 22867 22870 22873 22876 22878 22881 22884 22887 22889 22892 22895 22898 22901 22904 22907 22910 22913 22915 22918 22921 22924 22927 22930 22933 22936 22939 22942 22945 22948 22951 22954 22957 22960 22963 22966 22969 22972 22975 22978 22980 22983 22986 22989 22992 22995 22997 23000 23003 23006 23009 23011 23014 23017 23020 23023 23026 23028 23031 23034 23037 23040 23043 23045 23048 23051 23054 23057 23060 23063 23066 23069 23072 23075 23077 23080 23083 23086 23089 23092 23095 23098 23101 23104 23107 23110 23112 23115 23118 23121 23124 23127 23129 23132 23135 23138 23141 23144 23147 23150 23153 23156 23159 23162 23164 23167 23170 23173 23176 23179 23182 23185 23188 23191 23194 23197 23200 23203 23206 23209 23212 23215 23218 23221 23224 23227 23230 23233 23236 23239 23242 23245 23248 23251 23254 23257 23260 23263 23266 23269 23272 23275 23278 23281 23283 23286 23289 23291 23294 23297 23300 23303 23306 23309 23312 23315 23318 23321 23324 23327 23330 23333 23336 23339 23342 23345 23348 23351 23354 23357 23360 23363 23366 23369 23372 23375 23378 23381 23384 23387 23390 23392 23395 23398 23401 23404 23406 23409 23412 23415 23418 23421 23423 23426 23429 23432 23435 23437 23440 23443 23445 23448 23451 23454 23457 23460 23463 23466 23468 23470 23473 23476 23479 23482 23485 23487 23490 23492 23495 23498 23500 23503 23506 23508 23511 23514 23517 23520 23523 23526 23529 23532 23535 23538 23541 23544 23547 23550 23553 23556 23559 23562 23565 23568 23571 23574 23577 23580 23583 23586 23589 23592 23595 23598 23601 23604 23607 23610 23613 23616 23619 23622 23625 23628 23631 23634 23637 23640 23643 23646 23649 23652 23655 23658 23660 23663 23666 23669 23672 23675 23678 23681 23684 23687 23690 23693 23696 23699 23702 23705 23708 23710 23713 23715 23718 23721 23724 23727 23729 23732 23735 23737 23740 23742 23745 23747 23750 23753 23756 23759 23761 23764 23767 23770 23773 23776 23779 23782 23785 23788 23791 23794 23797 23800 23803 23806 23808 23811 23814 23817 23820 23823 23826 23829 23831 23834 23837 23840 23842 23845 23848 23851 23854 23857 23860 23863 23866 23868 23871 23873 23876 23879 23882 23884 23887 23890 23893 23896 23899 23901 23904 23907 23910 23913 23916 23919 23922 23925 23928 23931 23934 23937 23940 23943 23946 23949 23951 23954 23957 23959 23962 23965 23968 23971 23974 23977 23980 23983 23986 23989 23991 23994 23997 24000 24003 24006 24009 24012 24015 24017 24020 24022 24025 24028 24031 24034 24037 24040 24043 24046 24049 24052 24055 24057 24059 24062 24065 24068 24071 24074 24076 24079 24081 24084 24087 24090 24092 24095 24097 24100 24103 24106 24109 24112 24115 24118 24121 24123 24126 24129 24132 24134 24137 24140 24143 24146 24149 24152 24155 24158 24161 24164 24167 24170 24173 24176 24179 24182 24185 24188 24191 24194 24197 24200 24203 24206 24209 24212 24215 24218 24221 24224 24227 24230 24233 24236 24239 24241 24244 24247 24250 24253 24256 24259 24262 24265 24268 24271 24274 24277 24280 24283 24286 24289 24292 24295 24298 24301 24304 24307 24310 24312 24315 24318 24321 24324 24327 24330 24332 24335 24337 24340 24343 24345 24348 24351 24354 24357 24359 24362 24364 24367 24370 24373 24376 24379 24382 24385 24387 24390 24393 24396 24399 24402 24405 24408 24411 24414 24417 24420 24423 24426 24429 24432 24435 24438 24441 24444 24447 24450 24453 24455 24458 24461 24463 24466 24469 24472 24474 24477 24480 24483 24486 24489 24492 24495 24498 24501 24504 24507 24510 24513 24516 24519 24521 24524 24527 24530 24533 24536 24539 24542 24545 24547 24550 24553 24556 24559 24561 24564 24567 24570 24573 24576 24579 24582 24585 24587 24590 24593 24595 24597 24600 24603 24606 24609 24612 24615 24618 24621 24624 24627 24630 24633 24635 24638 24641 24643 24646 24649 24651 24654 24657 24660 24662 24665 24668 24671 24674 24677 24680 24683 24686 24689 24692 24694 24697 24700 24703 24706 24709 24712 24715 24718 24721 24724 24727 24730 24733 24736 24738 24740 24743 24746 24749 24752 24755 24758 24761 24764 24767 24770 24773 24776 24779 24782 24785 24788 24791 24794 24797 24800 24803 24806 24809 24812 24815 24818 24821 24824 24827 24830 24833 24836 24838 24841 24844 24846 24849 24852 24855 24858 24861 24864 24867 24870 24873 24876 24879 24882 24885 24887 24890 24893 24896 24899 24902 24905 24908 24911 24913 24916 24919 24922 24925 24928 24931 24934 24937 24939 24942 24945 24948 24951 24954 24957 24960 24963 24966 24969 24972 24975 24978 24981 24984 24987 24990 24993 24996 24999 25002 25005 25008 25011 25014 25017 25020 25023 25026 25029 25032 25035 25038 25041 25044 25047 25050 25053 25056 25058 25061 25064 25067 25070 25072 25075 25078 25081 25084 25087 25090 25093 25096 25099 25102 25105 25108 25111 25113 25116 25119 25122 25124 25127 25130 25133 25136 25139 25142 25144 25147 25150 25153 25156 25159 25161 25164 25167 25170 25172 25175 25178 25181 25184 25187 25189 25192 25195 25197 25200 25203 25206 25209 25212 25215 25218 25221 25224 25227 25230 25233 25236 25239 25242 25245 25248 25251 25254 25257 25260 25262 25265 25268 25271 25274 25277 25279 25282 25285 25288 25291 25294 25297 25300 25303 25306 25308 25311 25314 25317 25320 25323 25326 25329 25332 25335 25338 25341 25344 25347 25350 25353 25356 25359 25362 25365 25368 25371 25374 25377 25380 25383 25386 25388 25391 25394 25397 25400 25403 25405 25408 25411 25414 25417 25420 25423 25425 25428 25431 25434 25437 25440 25443 25445 25448 25451 25453 25456 25459 25462 25465 25468 25471 25474 25476 25478 25481 25483 25486 25488 25491 25494 25497 25499 25501 25504 25506 25508 25511 25514 25517 25520 25523 25526 25529 25532 25535 25538 25541 25544 25547 25550 25553 25556 25559 25562 25565 25568 25571 25574 25577 25580 25583 25586 25589 25592 25595 25598 25601 25603 25606 25609 25612 25615 25617 25620 25623 25625 25628 25630 25633 25636 25639 25641 25644 25647 25649 25652 25655 25657 25659 25662 25665 25668 25671 25674 25677 25680 25683 25686 25689 25692 25695 25698 25701 25703 25706 25708 25711 25714 25717 25720 25722 25725 25728 25731 25733 25736 25739 25742 25744 25746 25749 25752 25755 25758 25761 25764 25767 25770 25773 25776 25779 25782 25785 25787 25790 25793 25796 25799 25802 25805 25807 25809 25812 25815 25818 25820 25823 25826 25828 25831 25834 25837 25840 25842 25845 25848 25850 25853 25856 25858 25861 25864 25866 25868 25871 25873 25876 25878 25881 25883 25886 25888 25891 25894 25897 25899 25902 25904 25907 25909 25912 25915 25917 25920 25923 25926 25929 25931 25934 25937 25940 25943 25946 25949 25952 25955 25958 25961 25964 25967 25970 25973 25975 25978 25981 25984 25987 25990 25992 25995 25998 26001 26004 26007 26010 26012 26015 26018 26020 26023 26026 26029 26031 26034 26037 26039 26042 26044 26047 26050 26053 26056 26059 26062 26065 26068 26071 26074 26077 26080 26083 26086 26089 26092 26095 26097 26100 26103 26105 26108 26111 26114 26117 26119 26121 26124 26127 26130 26133 26136 26139 26142 26145 26148 26151 26154 26157 26160 26163 26166 26168 26171 26174 26177 26180 26183 26186 26189 26192 26195 26197 26200 26203 26206 26209 26212 26214 26217 26220 26223 26226 26229 26232 26235 26238 26241 26244 26246 26248 26251 26254 26257 26260 26263 26266 26269 26272 26275 26277 26280 26283 26286 26289 26292 26295 26298 26301 26304 26307 26310 26313 26316 26319 26321 26324 26327 26330 26332 26334 26337 26340 26342 26345 26348 26351 26353 26356 26359 26362 26364 26367 26370 26373 26376 26379 26381 26384 26387 26390 26393 26396 26399 26401 26404 26407 26410 26413 26415 26418 26421 26424 26427 26430 26433 26436 26439 26442 26444 26447 26450 26453 26456 26459 26461 26464 26467 26469 26472 26475 26478 26481 26484 26487 26490 26493 26496 26499 26502 26505 26508 26511 26514 26517 26520 26523 26526 26529 26531 26534 26537 26540 26543 26546 26549 26551 26554 26557 26560 26563 26566 26569 26572 26575 26578 26581 26584 26587 26590 26593 26596 26599 26602 26605 26608 26610 26613 26616 26619 26621 26624 26626 26629 26632 26635 26638 26641 26644 26646 26649 26651 26654 26657 26660 26663 26665 26668 26671 26674 26677 26680 26683 26686 26689 26692 26694 26697 26700 26703 26706 26709 26712 26715 26718 26721 26724 26727 26729 26732 26734 26736 26739 26742 26744 26747 26749 26752 26755 26758 26760 26763 26766 26769 26772 26775 26778 26781 26783 26786 26789 26792 26794 26797 26800 26803 26806 26809 26812 26815 26818 26821 26824 26827 26830 26833 26836 26839 26842 26845 26848 26851 26853 26856 26859 26861 26864 26867 26869 26872 26875 26878 26881 26883 26886 26889 26892 26894 26896 26899 26902 26905 26907 26910 26913 26916 26919 26921 26924 26926 26928 26931 26934 26936 26939 26942 26945 26948 26950 26953 26955 26958 26961 26964 26967 26970 26973 26975 26978 26981 26983 26986 26989 26992 26995 26998 27001 27003 27006 27009 27012 27014 27017 27020 27023 27025 27028 27031 27034 27037 27040 27043 27046 27049 27052 27055 27058 27061 27064 27067 27069 27072 27075 27078 27081 27083 27086 27089 27092 27094 27097 27100 27103 27105 27108 27111 27114 27117 27120 27123 27126 27128 27131 27134 27136 27139 27142 27145 27148 27150 27153 27156 27159 27161 27164 27167 27170 27173 27176 27179 27182 27185 27188 27191 27194 27197 27200 27203 27206 27209 27212 27215 27218 27221 27224 27227 27230 27233 27236 27239 27242 27245 27248 27251 27254 27257 27260 27263 27266 27269 27272 27275 27278 27281 27284 27286 27289 27292 27295 27298 27301 27304 27306 27309 27311 27314 27317 27319 27322 27325 27328 27331 27334 27337 27340 27343 27346 27349 27352 27355 27357 27359 27362 27365 27367 27370 27373 27376 27378 27381 27384 27387 27390 27392 27395 27398 27401 27404 27406 27409 27411 27414 27417 27420 27423 27426 27429 27431 27433 27436 27438 27440 27443 27446 27449 27451 27453 27456 27458 27460 27463 27466 27469 27471 27474 27477 27480 27483 27486 27488 27490 27492 27495 27498 27501 27504 27506 27509 27512 27515 27517 27520 27523 27526 27528 27531 27534 27536 27539 27542 27545 27547 27550 27553 27555 27558 27560 27562 27565 27567 27570 27573 27576 27578 27580 27583 27586 27589 27592 27594 27597 27599 27601 27604 27606 27609 27612 27615 27618 27621 27624 27627 27630 27632 27635 27638 27641 27644 27647 27650 27653 27656 27659 27662 27665 27667 27670 27673 27676 27678 27680 27683 27685 27688 27690 27693 27696 27698 27700 27703 27705 27707 27710 27713 27715 27718 27721 27724 27727 27729 27731 27734 27737 27739 27742 27745 27747 27750 27753 27755 27758 27760 27763 27765 27768 27770 27773 27776 27778 27781 27784 27787 27789 27792 27794 27796 27799 27802 27804 27807 27810 27813 27816 27819 27822 27825 27827 27830 27833 27836 27839 27842 27845 27847 27850 27853 27856 27858 27861 27864 27867 27870 27873 27875 27878 27881 27884 27886 27889 27892 27895 27897 27899 27902 27905 27908 27910 27913 27916 27919 27922 27924 27927 27930 27933 27936 27939 27942 27944 27947 27950 27953 27956 27959 27961 27964 27967 27970 27973 27976 27979 27982 27985 27988 27991 27993 27996 27999 28002 28005 28008 28011 28014 28017 28020 28023 28026 28029 28032 28035 28037 28040 28043 28046 28049 28052 28054 28057 28060 28063 28066 28069 28072 28075 28078 28081 28084 28087 28090 28093 28096 28099 28102 28105 28108 28111 28114 28117 28120 28123 28126 28129 28132 28135 28138 28141 28144 28147 28150 28153 28156 28159 28162 28165 28168 28171 28174 28177 28180 28183 28186 28189 28192 28195 28198 28201 28204 28206 28209 28212 28215 28217 28220 28223 28226 28229 28231 28234 28237 28240 28242 28245 28248 28251 28254 28257 28260 28263 28266 28269 28272 28275 28278 28281 28284 28286 28289 28292 28295 28297 28299 28302 28305 28308 28310 28313 28316 28318 28321 28324 28326 28329 28332 28335 28337 28340 28343 28346 28349 28352 28355 28358 28360 28362 28365 28368 28371 28373 28376 28379 28382 28385 28388 28390 28393 28396 28399 28402 28404 28407 28410 28413 28416 28419 28421 28424 28427 28430 28433 28435 28438 28441 28444 28447 28450 28453 28455 28458 28461 28463 28466 28469 28472 28475 28478 28481 28484 28487 28489 28492 28495 28498 28501 28504 28507 28510 28513 28516 28519 28522 28525 28528 28531 28534 28537 28539 28542 28545 28547 28550 28553 28556 28558 28561 28564 28567 28570 28572 28575 28578 28581 28583 28586 28589 28592 28595 28598 28600 28602 28605 28608 28611 28614 28617 28620 28623 28626 28629 28632 28635 28638 28641 28644 28647 28650 28653 28656 28659 28662 28665 28667 28670 28673 28676 28679 28682 28684 28686 28689 28692 28695 28698 28700 28703 28706 28709 28711 28714 28716 28719 28722 28724 28727 28730 28733 28736 28738 28741 28744 28747 28749 28751 28754 28756 28758 28761 28764 28766 28769 28772 28775 28777 28780 28783 28786 28788 28791 28793 28796 28798 28801 28804 28807 28809 28812 28814 28816 28819 28822 28825 28828 28831 28834 28837 28840 28843 28846 28849 28852 28855 28858 28861 28864 28866 28869 28871 28874 28876 28879 28881 28883 28886 28889 28892 28894 28897 28900 28903 28906 28908 28911 28914 28917 28920 28922 28925 28928 28931 28934 28937 28940 28943 28946 28948 28950 28953 28956 28958 28960 28963 28966 28969 28972 28975 28978 28981 28984 28987 28990 28993 28996 28999 29002 29005 29007 29010 29013 29016 29019 29021 29024 29027 29030 29033 29036 29039 29042 29045 29048 29051 29054 29057 29060 29063 29065 29068 29070 29073 29076 29079 29082 29084 29087 29090 29093 29096 29099 29102 29104 29107 29110 29112 29115 29118 29121 29124 29127 29130 29133 29136 29139 29142 29145 29148 29151 29154 29157 29160 29163 29166 29169 29172 29175 29178 29181 29184 29187 29190 29192 29195 29198 29201 29204 29207 29210 29213 29216 29219 29222 29225 29228 29230 29233 29236 29239 29242 29245 29247 29250 29253 29256 29258 29261 29264 29267 29270 29273 29275 29277 29280 29283 29285 29288 29291 29294 29297 29300 29303 29306 29309 29312 29315 29318 29320 29323 29326 29328 29331 29334 29337 29340 29343 29346 29349 29352 29355 29358 29361 29364 29367 29370 29373 29376 29379 29381 29384 29387 29390 29393 29396 29399 29402 29405 29408 29411 29414 29417 29420 29423 29426 29429 29431 29434 29437 29440 29443 29445 29448 29451 29454 29457 29459 29462 29465 29468 29470 29473 29475 29478 29481 29484 29487 29489 29492 29495 29498 29501 29504 29507 29510 29513 29516 29519 29522 29524 29527 29530 29533 29536 29539 29542 29544 29547 29550 29553 29556 29559 29562 29565 29568 29571 29574 29577 29580 29583 29586 29589 29592 29595 29598 29600 29603 29606 29609 29612 29615 29618 29621 29623 29626 29629 29632 29635 29638 29641 29644 29647 29650 29653 29656 29659 29662 29665 29668 29671 29674 29677 29680 29683 29686 29689 29692 29695 29698 29701 29704 29707 29710 29713 29716 29719 29722 29725 29728 29731 29733 29736 29739 29742 29745 29748 29750 29753 29756 29759 29762 29765 29768 29771 29774 29777 29780 29783 29786 29789 29791 29794 29797 29800 29803 29805 29808 29811 29814 29816 29819 29822 29825 29828 29831 29834 29837 29840 29843 29846 29849 29852 29855 29858 29861 29864 29867 29870 29873 29876 29879 29882 29885 29888 29891 29894 29897 29900 29902 29905 29908 29910 29913 29916 29918 29921 29924 29927 29930 29932 29935 29938 29941 29944 29947 29950 29953 29956 29959 29962 29965 29968 29971 
</DataArray>
<DataArray type="UInt32" Name="types" format="ascii">
5 5 5 5 5 3 5 5 5 5 5 5 3 5 5 5 3 5 5 5 5 3 5 5 5 5 5 3 5 3 5 5 5 5 3 5 5 5 5 5 5 5 5 3 5 5 5 3 5 3 5 5 5 3 3 5 5 5 5 5 3 5 5 5 5 5 5 5 5 5 3 3 5 5 5 5 5 3 5 3 5 3 5 5 5 5 5 3 5 5 5 3 5 5 3 5 5 3 5 5 3 5 5 5 5 5 5 5 5 5 5 3 3 5 5 5 5 5 5 5 5 5 5 3 5 3 5 5 3 5 3 5 5 3 5 5 5 5 5 5 5 5 5 5 5 5 5 5 5 3 5 5 5 3 5 5 5 3 5 5 5 5 3 5 5 3 3 5 5 5 3 5 5 5 5 5 5 3 5 5 5 5 5 5 5 5 5 5 5 5 3 5 5 5 5 5 5 5 5 5 5 5 5 5 5 5 5 5 3 3 5 5 5 3 5 5 5 5 5 5 3 5 5 5 5 3 5 3 3 5 5 3 5 5 5 5 5 5 5 5 5 5 5 5 5 5 5 5 5 5 5 3 5 5 5 5 5 3 5 5 5 5 5 5 5 5 3 5 5 5 5 3 5 3 5 3 5 5 5 5 5 5 5 3 5 5 5 3 5 5 5 5 5 5 5 5 5 5 5 5 5 5 5 5 5 3 5 5 3 3 5 5 5 5 5 5 5 5 5 5 5 5 5 5 5 5 3 5 5 5 5 3 3 5 5 5 5 5 3 5 3 5 5 5 5 5 5 3 3 5 5 5 5 5 5 5 5 5 5 3 5 5 5 5 5 5 5 5 5 5 5 5 5 5 5 5 5 5 5 5 5 3 5 5 5 3 5 5 5 5 3 5 5 5 5 5 5 5 5 5 5 5 5 5 5 5 5 5 5 5 5 5 5 5 5 3 5 5 3 5 5 5 5 3 5 5 5 5 5 5 5 5 5 5 5 5 5 5 5 5 5 5 5 5 5 5 5 5 5 5 5 3 5 5 3 5 5 3 5 5 5 5 5 5 5 5 5 5 3 5 5 5 5 3 5 3 5 5 5 3 5 5 5 5 3 5 5 5 5 3 5 3 5 3 5 5 5 3 5 5 5 5 5 5 5 5 5 5 3 5 5 3 5 3 5 5 3 5 3 5 5 5 5 5 5 3 5 5 5 5 3 5 3 3 5 5 5 3 5 5 5 5 5 5 5 5 5 5 5 5 5 5 5 5 5 5 5 5 5 5 5 5 5 5 5 5 5 5 5 5 5 5 5 3 5 5 3 5 5 5 5 5 3 5 5 5 5 5 5 5 5 5 5 5 5 5 5 5 5 3 5 5 5 5 5 5 3 5 5 5 5 5 5 5 5 5 5 5 5 5 5 3 5 5 5 5 5 5 5 5 5 5 5 5 3 5 5 5 5 5 5 5 5 5 5 3 5 5 5 5 5 5 5 5 5 5 5 3 5 5 5 5 3 5 5 5 5 3 5 5 5 5 5 5 5 3 5 3 5 5 3 5 3 5 5 5 3 5 5 5 5 5 5 5 5 5 5 5 5 5 5 5 5 5 5 5 5 3 5 5 5 5 5 3 5 5 5 5 5 3 5 5 5 5 5 5 5 5 5 5 5 5 5 5 5 5 5 5 5 5 5 5 5 5 5 5 5 5 5 5 5 5 5 5 5 5 5 5 5 5 5 5 5 3 5 5 5 5 5 5 5 5 5 5 5 5 5 5 5 5 5 5 5 5 5 5 5 5 5 5 5 5 5 5 5 5 5 5 5 5 5 5 5 5 5 5 5 5 5 5 5 5 3 5 5 5 3 5 3 5 3 5 5 5 5 5 5 5 5 5 5 3 5 5 5 5 3 5 5 5 5 5 5 5 5 5 5 3 5 5 5 5 3 5 5 5 5 5 5 5 3 5 5 5 5 5 5 5 5 5 5 5 3 5 5 5 5 5 5 3 5 5 5 5 5 5 5 5 5 5 5 5 5 5 5 5 3 5 5 5 3 5 5 5 5 5 5 5 5 5 5 5 5 5 5 5 3 5 5 5 3 5 5 3 3 5 3 5 5 5 5 5 5 3 5 5 5 5 5 5 5 3 5 5 5 5 5 5 5 5 5 5 5 5 5 5 5 5 5 5 5 5 5 5 5 5 5 5 5 5 5 5 5 5 5 5 5 3 5 5 5 5 5 5 5 3 5 3 5 5 5 3 5 5 5 5 5 5 5 5 3 5 5 3 5 5 3 5 3 5 5 3 5 5 5 5 5 5 5 5 3 5 3 3 5 5 5 3 5 5 5 3 5 3 5 5 3 3 5 5 3 5 5 5 5 5 5 5 3 5 5 3 5 3 5 5 3 5 5 5 5 5 3 5 5 5 5 3 5 3 5 5 3 3 5 5 5 5 5 3 5 5 5 5 5 5 5 5 5 3 5 5 5 5 5 5 5 5 5 5 5 5 5 5 5 5 5 5 5 5 5 5 5 5 5 5 5 3 5 5 5 5 5 5 5 5 5 5 5 3 5 3 5 5 5 5 5 5 5 5 5 5 5 5 5 5 5 5 5 5 5 3 5 3 5 3 5 5 5 5 5 3 5 5 3 5 5 5 5 5 5 5 5 5 5 5 5 5 5 3 5 5 5 5 5 5 5 5 5 5 5 3 5 5 5 5 3 5 5 5 5 5 5 3 5 5 5 5 5 5 3 5 5 5 5 5 5 5 5 5 5 5 5 5 5 5 5 5 5 5 3 5 5 5 3 5 5 5 5 5 5 5 5 5 5 3 5 5 5 5 5 5 3 3 5 5 5 5 5 5 5 5 5 5 5 5 5 5 5 5 3 5 5 3 5 5 5 5 3 3 5 5 5 5 5 5 5 5 5 5 5 5 5 5 5 5 5 5 5 5 5 5 5 5 5 5 5 5 5 5 5 5 5 5 5 5 5 5 5 5 5 5 3 5 5 5 5 5 5 5 5 5 5 5 5 5 3 5 5 5 5 5 5 5 3 5 5 5 5 5 5 5 5 5 5 3 5 5 3 5 5 3 5 5 5 5 5 5 5 5 5 5 5 3 5 3 5 3 5 5 5 3 5 5 5 5 5 5 5 5 5 5 5 5 5 5 5 3 5 3 5 5 3 5 5 3 5 5 5 5 3 5 5 5 5 5 5 5 5 5 5 3 5 5 5 5 5 5 5 5 5 5 5 5 3 5 5 5 5 5 5 5 5 5 5 5 5 5 5 5 3 5 5 5 5 5 5 5 3 5 5 5 5 5 5 3 5 5 5 3 3 3 3 5 5 5 5 5 5 5 5 5 5 5 5 5 5 5 5 3 5 5 5 5 5 5 3 5 3 5 5 3 5 5 5 3 3 5 5 5 3 5 5 5 5 3 5 5 5 5 5 5 5 5 5 5 5 5 5 5 5 5 5 5 5 5 5 5 5 5 5 5 5 5 5 5 5 5 5 5 5 5 5 5 5 5 5 5 5 5 3 5 3 5 5 5 5 5 5 5 5 5 5 5 5 5 5 5 5 5 5 5 5 5 5 3 5 5 5 5 5 5 5 5 5 5 5 5 5 5 5 3 5 5 5 5 5 3 5 5 5 5 5 5 5 5 5 5 5 5 5 5 5 5 5 5 5 5 5 5 5 5 3 3 5 5 5 5 5 5 5 5 5 5 5 5 5 5 5 5 5 3 5 5 5 5 5 5 5 3 3 5 5 5 5 5 5 5 5 5 5 5 5 5 5 5 5 5 5 3 3 5 5 5 5 5 5 5 5 5 5 5 5 5 5 5 5 5 5 5 5 5 5 5 5 5 5 5 5 5 5 3 5 5 3 5 5 5 3 5 5 5 5 5 5 5 5 5 5 5 5 5 5 5 5 5 5 5 5 5 5 5 5 3 5 5 5 5 5 5 5 5 5 3 5 3 3 3 5 5 5 3 5 3 5 5 5 5 3 5 5 5 5 5 5 5 5 5 5 5 5 5 5 5 5 5 5 5 5 5 5 5 5 3 5 5 5 5 3 5 3 5 5 5 5 5 5 5 5 5 5 5 5 5 5 5 5 5 5 5 5 5 5 3 5 3 5 5 5 5 5 3 3 5 5 5 3 5 3 5 5 5 5 5 5 5 5 5 5 5 5 3 5 5 5 5 5 5 5 3 5 5 5 5 5 3 5 5 5 5 3 5 5 3 5 5 3 5 5 5 5 5 5 5 5 5 3 5 5 5 5 5 5 5 5 5 5 5 5 5 3 5 5 5 3 5 5 5 5 5 5 5 5 3 5 5 3 5 5 5 5 5 3 5 5 3 5 3 5 3 5 5 3 5 5 3 5 5 5 3 5 5 5 3 3 5 3 5 5 3 5 5 5 3 5 5 5 5 5 5 3 5 5 5 5 5 5 5 5 5 3 5 5 3 5 5 3 5 3 5 5 5 5 5 5 3 3 5 5 5 5 5 5 5 5 5 5 5 5 3 5 5 5 5 5 3 5 5 5 3 3 3 5 5 5 5 5 5 5 5 3 5 5 5 5 5 5 5 5 5 5 5 5 5 5 5 3 5 5 3 5 5 5 5 5 3 5 5 5 5 3 5 5 5 5 5 3 3 5 5 5 5 5 5 5 5 5 3 5 5 3 5 5 5 3 3 3 5 5 5 3 3 5 5 5 5 5 5 3 5 5 5 5 5 3 5 5 5 3 5 5 5 5 3 5 5 3 5 5 5 3 5 3 3 5 5 5 5 3 5 3 5 5 5 5 5 5 5 5 5 5 5 5 5 5 5 5 5 5 5 5 3 5 5 5 3 5 5 5 5 5 3 5 5 5 5 5 5 5 5 5 5 5 5 5 5 5 5 5 5 5 5 5 5 5 5 5 5 5 5 5 5 5 5 5 5 5 5 5 3 5 3 5 5 5 5 5 5 5 5 5 5 5 5 5 5 3 5 3 5 5 5 5 3 5 5 3 3 5 5 5 5 5 3 5 5 5 5 5 5 5 5 5 5 5 5 5 5 5 5 5 5 5 5 5 5 5 5 5 5 5 5 5 5 5 5 3 5 5 5 5 5 5 5 5 5 5 5 5 5 5 5 5 5 5 5 5 5 5 5 3 5 3 5 5 5 5 5 5 5 5 5 5 5 5 5 5 5 5 5 5 5 3 3 5 5 5 5 5 5 5 5 5 5 5 3 5 5 5 5 5 5 5 5 5 5 5 3 5 3 5 5 5 3 5 5 5 5 5 5 5 5 5 5 5 5 5 5 5 5 5 5 5 5 5 5 5 5 5 5 5 5 5 5 5 5 5 5 5 5 3 5 3 5 5 5 5 5 5 5 5 5 5 3 5 5 5 5 5 5 3 5 5 5 5 5 5 5 5 5 5 5 5 5 5 5 5 5 3 3 5 5 5 5 5 5 5 5 5 5 5 5 5 5 5 5 5 5 3 5 5 5 5 5 5 5 5 3 5 5 5 5 5 5 5 5 5 5 5 5 5 5 5 5 5 5 5 5 5 3 5 5 5 5 5 5 5 5 5 5 5 5 5 5 5 5 5 5 5 5 5 3 5 3 5 5 5 5 3 5 5 5 5 5 5 5 5 5 5 5 5 5 5 5 5 5 5 5 5 5 5 5 5 5 5 5 5 5 5 3 3 5 5 3 5 5 5 5 5 5 5 5 5 5 5 5 5 5 3 5 3 5 5 5 5 3 5 5 5 5 5 5 5 5 5 5 5 5 5 5 5 5 5 5 5 5 5 5 5 5 5 5 5 5 5 5 5 5 5 5 3 5 5 3 3 5 5 5 5 5 5 5 5 5 5 5 5 5 5 3 3 5 5 5 5 3 5 3 3 5 5 5 5 5 5 5 5 5 3 5 5 5 5 5 5 5 5 5 5 5 3 5 5 5 5 5 3 5 5 3 5 3 5 5 5 5 3 5 3 5 5 3 5 5 5 5 5 3 5 3 5 5 5 5 3 5 5 5 5 3 5 3 5 5 5 5 5 5 5 3 5 3 5 5 5 3 3 5 5 5 3 3 5 5 5 5 5 5 5 5 5 5 5 3 5 5 5 5 5 5 5 5 3 5 5 3 5 5 5 3 5 5 5 3 5 5 5 5 5 5 5 5 5 5 5 3 5 5 5 5 5 5 5 5 5 3 5 5 5 5 5 5 3 5 5 5 5 3 5 5 5 5 5 5 5 5 5 5 5 5 5 5 5 3 5 5 5 5 5 5 5 5 5 5 5 5 5 5 5 5 5 5 5 5 3 3 5 5 5 5 5 5 3 5 3 5 5 5 5 3 5 5 5 5 5 3 5 5 5 3 5 3 3 5 5 5 5 5 3 5 5 5 5 5 5 5 5 5 5 3 5 3 5 5 5 3 5 5 5 5 5 3 5 3 5 5 5 5 5 3 5 5 5 5 5 5 5 5 3 5 5 5 5 5 3 5 5 5 5 5 5 5 5 5 5 5 5 5 3 5 5 5 5 5 5 5 5 5 5 5 5 5 5 5 5 3 5 5 5 3 5 3 5 5 3 5 5 5 5 5 5 5 3 5 3 5 5 5 5 3 5 5 5 3 5 5 5 5 3 5 5 3 5 5 5 5 3 5 5 5 5 5 5 5 5 5 3 5 5 3 5 5 5 5 5 3 3 5 5 3 5 5 3 5 5 5 5 5 5 5 5 5 5 5 5 5 5 5 5 5 5 5 5 3 5 5 5 5 5 3 5 3 5 5 3 5 3 5 5 5 5 3 5 5 5 5 3 5 5 5 5 5 5 5 5 3 5 5 3 5 5 5 3 3 5 5 3 5 5 5 3 5 3 5 5 5 5 5 5 5 5 5 5 5 5 5 5 3 5 5 5 3 5 5 5 5 3 5 5 5 5 5 5 5 5 5 5 5 5 3 5 5 3 5 5 3 5 5 5 3 5 5 5 3 3 5 5 5 5 5 5 5 5 5 5 5 5 3 5 3 5 5 3 5 5 3 5 5 5 5 5 5 5 3 3 3 3 5 5 3 5 5 5 5 3 5 3 5 5 3 5 5 5 5 5 5 5 3 5 3 5 5 5 5 5 5 5 5 3 5 5 5 5 3 5 5 3 3 5 3 5 5 5 5 3 5 5 5 3 5 5 3 5 5 3 5 3 5 3 5 5 3 5 3 5 5 5 5 5 3 5 5 5 3 5 3 5 5 5 3 5 5 5 5 5 5 5 5 5 5 5 5 5 3 5 5 3 5 5 3 5 5 5 5 3 5 5 5 3 5 5 5 5 5 5 3 5 3 5 5 5 5 5 3 5 5 5 5 3 5 5 5 5 5 5 5 5 5 5 3 5 3 5 5 5 3 5 5 3 5 5 3 5 5 5 5 3 5 5 3 5 5 5 3 5 5 5 5 3 5 5 5 5 5 5 5 3 5 3 5 5 3 5 5 5 5 5 5 5 3 5 5 5 5 3 5 5 5 5 5 5 5 3 3 5 3 5 5 5 3 5 5 5 5 5 3 5 5 5 5 5 5 5 5 5 5 3 5 5 5 5 5 5 5 3 5 5 5 5 5 5 5 3 5 5 5 5 5 5 3 5 5 5 5 5 5 5 5 5 5 5 5 5 5 5 5 5 5 5 5 5 5 5 5 5 5 5 5 5 5 5 5 5 5 5 5 5 5 5 5 5 5 5 5 5 5 5 5 5 5 5 5 5 5 5 5 5 5 5 5 5 5 3 5 3 5 3 5 5 5 5 5 5 5 5 5 5 3 5 3 3 5 3 5 5 5 5 3 5 5 5 5 3 5 5 5 5 5 5 5 5 5 5 5 3 5 5 5 5 5 5 5 5 5 5 5 5 5 5 5 5 5 3 5 5 5 5 5 5 3 5 5 5 5 5 3 5 5 5 5 5 5 3 5 5 5 5 5 5 5 5 5 5 5 5 5 5 3 5 3 5 5 5 5 3 5 5 5 3 5 5 5 5 3 3 5 3 5 5 3 5 5 5 5 5 5 5 5 5 5 5 5 5 5 5 3 5 5 3 5 5 5 3 5 5 5 5 3 5 5 5 5 5 5 5 5 3 5 5 5 5 5 5 5 5 5 5 3 5 5 5 3 5 5 5 5 5 5 5 5 5 5 5 5 5 5 5 3 5 5 5 3 5 5 3 5 3 5 5 3 3 3 5 5 5 5 3 5 5 5 5 5 3 5 5 3 5 5 5 5 5 5 5 5 5 5 5 5 3 5 5 5 5 5 3 5 5 5 5 3 3 5 5 5 5 3 5 5 5 5 5 5 5 5 5 5 5 3 5 5 5 5 5 5 5 3 5 5 3 5 5 3 5 5 5 3 5 3 5 5 5 3 3 5 3 5 5 5 5 5 5 5 5 5 5 5 5 5 5 5 5 5 5 5 5 5 5 5 3 5 5 3 5 5 5 5 5 5 5 5 5 5 5 5 5 5 5 5 5 5 5 5 5 5 5 5 5 5 5 5 5 5 5 3 5 5 5 5 3 5 5 5 5 5 5 5 3 5 5 5 5 5 3 5 3 3 5 5 5 5 5 5 5 5 5 5 5 3 5 5 5 3 5 5 5 5 5 5 5 5 5 5 5 5 5 5 5 5 5 5 5 5 5 5 5 5 5 5 5 5 5 5 5 5 3 5 5 5 5 5 3 5 3 5 5 5 5 3 5 5 5 5 5 5 5 5 5 5 5 5 5 5 5 5 5 5 3 5 5 5 5 5 5 3 3 5 5 5 5 5 5 5 5 5 5 3 3 5 5 5 5 3 5 5 3 5 5 5 5 5 5 5 5 5 5 3 5 3 5 3 5 5 5 5 5 3 5 5 5 5 5 3 5 5 5 5 5 5 5 5 5 5 5 5 5 5 5 3 5 3 5 5 5 5 5 5 5 5 5 5 5 5 5 5 5 3 5 5 5 5 5 5 5 5 5 5 5 3 5 5 5 5 5 5 5 5 5 5 5 5 5 5 5 5 5 5 5 5 5 3 5 5 5 5 5 5 5 5 5 5 5 5 5 5 3 5 5 5 5 5 5 5 5 5 5 5 5 5 5 5 5 5 5 5 5 5 5 5 5 5 5 5 5 5 5 5 5 5 5 5 5 5 5 5 5 5 3 5 5 5 5 5 5 5 5 3 5 5 5 5 5 5 5 5 5 5 5 5 5 5 3 5 5 3 5 5 5 5 5 5 5 5 5 3 5 5 5 5 5 5 5 3 3 5 5 5 5 5 5 5 5 5 5 5 5 3 5 5 5 3 5 5 5 5 5 5 5 3 5 5 3 5 5 5 5 5 5 5 5 5 5 5 5 5 3 5 5 5 3 5 5 5 5 5 3 5 5 3 3 5 5 5 3 5 5 5 3 5 5 5 3 5 5 5 5 5 5 5 5 5 5 5 5 5 3 5 5 5 5 3 5 5 5 5 5 3 5 5 5 5 5 5 3 5 5 5 5 5 5 5 5 5 5 5 5 5 5 5 5 5 5 5 5 5 5 5 5 5 5 5 5 5 5 5 5 5 5 5 5 5 5 5 5 5 5 5 5 5 3 5 5 5 5 5 5 5 5 5 5 5 5 5 3 5 5 5 5 5 3 5 5 5 5 3 5 5 5 5 3 5 5 5 3 3 5 5 3 5 3 3 5 5 5 3 5 5 5 5 5 5 5 3 5 5 5 5 3 5 5 5 5 5 5 5 5 3 5 3 5 5 3 5 5 5 5 5 5 5 5 5 5 5 3 5 3 5 5 5 5 5 5 5 3 5 5 5 5 5 3 5 5 5 5 5 5 5 5 5 3 5 5 5 5 5 5 5 5 5 5 5 5 5 5 5 5 5 5 5 5 5 5 5 5 5 5 5 5 5 5 5 5 5 5 5 5 5 5 5 5 5 3 5 5 5 5 5 5 5 5 5 5 5 5 5 5 5 5 3 5 5 5 5 5 5 5 5 5 5 5 5 5 5 5 5 5 5 5 5 5 5 5 5 5 5 5 5 5 5 5 5 5 5 5 5 5 5 5 5 5 5 5 5 5 5 5 5 5 5 5 5 5 5 5 5 5 5 5 5 5 5 5 5 5 5 5 5 5 5 5 5 5 5 5 5 5 5 5 5 5 5 5 5 5 5 5 5 5 5 5 5 5 5 5 5 5 5 5 5 5 5 5 3 5 5 5 5 5 5 5 5 5 5 5 5 5 3 5 5 5 5 5 5 5 5 5 5 3 5 5 5 5 5 5 5 5 5 5 5 5 5 5 5 5 5 5 5 5 5 5 5 5 5 5 5 3 5 5 5 5 5 5 5 5 3 5 5 5 5 5 5 5 5 5 5 5 5 5 5 5 3 5 5 5 5 5 5 5 5 5 5 5 5 3 5 5 5 5 5 5 5 5 5 5 5 5 5 5 5 5 5 5 5 5 5 5 5 5 5 5 3 3 5 5 5 5 5 5 5 3 5 5 5 5 3 5 3 5 5 5 5 3 5 5 3 5 5 3 5 5 5 5 5 5 5 5 5 5 5 5 5 5 5 5 5 5 5 5 5 5 5 5 5 5 5 5 5 5 5 5 5 5 5 5 5 5 5 5 3 5 5 5 3 5 5 5 5 5 5 5 5 5 3 5 5 5 5 5 5 3 5 5 5 3 5 5 5 3 5 5 5 5 5 5 5 3 3 3 5 3 3 5 5 3 3 5 5 5 5 5 5 5 5 5 5 5 5 5 5 5 5 5 5 5 5 5 5 5 5 5 5 3 3 5 5 5 3 3 5 3 5 3 5 3 3 5 5 5 5 5 3 5 5 5 5 3 5 5 5 5 5 5 5 3 5 3 5 5 3 5 5 5 5 3 5 5 5 5 5 5 5 5 5 5 5 5 5 5 5 5 5 3 5 5 3 5 5 3 5 5 5 5 3 5 5 5 5 5 3 5 5 5 3 5 3 5 5 5 5 5 3 3 5 3 5 5 3 5 5 5 5 5 3 5 5 5 5 5 5 5 5 3 5 5 5 5 5 5 5 5 5 3 5 5 5 5 5 5 5 5 5 5 5 5 5 5 5 5 5 5 5 5 5 5 5 5 5 5 5 5 5 5 5 5 5 5 5 5 5 5 5 5 5 5 5 5 5 5 5 5 5 5 5 5 5 5 5 5 5 5 5 5 5 5 5 5 5 5 5 5 5 5 5 5 5 5 5 5 5 3 3 5 5 3 5 5 5 5 5 5 5 3 5 5 5 5 5 5 5 5 3 5 5 5 5 5 5 5 5 3 5 5 5 5 5 5 5 5 5 5 5 5 5 5 5 5 5 5 5 5 5 5 5 5 5 5 5 3 5 5 5 3 5 5 5 3 3 5 5 3 3 5 5 3 3 5 5 5 5 5 5 5 5 5 5 5 5 5 5 5 5 5 5 5 3 5 5 5 5 3 5 5 5 5 5 5 5 5 5 5 5 5 5 3 5 5 5 5 5 5 5 5 5 5 5 3 5 5 5 3 5 5 3 3 5 5 5 5 5 5 5 5 3 5 5 5 5 5 3 5 5 5 5 5 5 5 5 5 5 5 5 5 5 3 5 3 3 5 5 5 5 5 3 5 5 5 3 5 3 5 5 3 5 5 5 5 3 5 5 5 3 5 5 5 5 3 5 5 3 5 5 3 5 5 5 5 5 5 5 5 5 5 5 5 5 5 5 5 5 5 5 5 5 5 5 5 5 5 5 5 5 5 5 5 5 5 5 5 5 5 5 5 5 5 5 5 5 5 5 5 5 5 5 5 5 5 5 5 5 5 5 5 5 5 5 5 5 5 5 5 5 5 5 5 5 5 5 5 5 5 5 5 5 5 5 5 5 5 5 5 5 5 5 5 5 5 5 5 5 5 5 5 5 5 5 5 5 5 5 5 5 5 5 5 5 5 5 5 5 5 5 5 5 5 5 5 5 5 5 5 5 5 5 5 5 5 5 5 5 5 5 5 5 5 5 5 5 5 5 5 5 5 5 5 5 5 5 5 5 5 5 5 3 5 5 5 5 5 5 5 5 5 3 3 5 5 3 5 3 5 3 5 5 5 5 5 5 5 5 5 5 5 5 5 5 5 5 5 5 5 5 5 5 5 5 5 5 5 5 5 5 5 5 5 5 5 5 5 5 5 5 5 5 5 5 5 5 5 5 5 5 5 5 5 5 5 5 5 5 5 5 5 5 5 5 5 5 5 5 5 3 5 5 5 5 5 5 5 5 5 5 5 5 5 5 5 5 5 5 5 5 5 5 5 5 5 5 5 5 5 5 5 5 5 5 5 5 5 5 5 5 5 5 5 5 3 5 5 5 5 5 5 5 5 5 5 3 5 5 5 5 5 5 5 5 5 5 3 5 5 5 5 5 5 5 5 5 5 5 5 5 5 5 5 5 3 5 5 3 5 5 5 5 5 5 5 5 5 3 5 3 5 3 5 5 5 5 5 5 5 5 3 5 5 3 5 5 5 5 5 5 5 5 3 5 5 5 5 5 5 5 5 5 5 5 5 5 5 5 5 5 5 5 5 5 5 5 5 5 5 5 5 5 3 3 5 3 5 5 5 5 3 5 5 5 5 3 3 5 5 5 5 5 5 5 5 5 5 5 5 5 5 3 5 3 3 5 5 5 3 5 5 5 5 5 5 5 5 5 5 5 5 5 5 5 5 5 5 5 3 5 5 5 5 5 5 5 5 5 5 5 5 5 5 5 5 5 5 5 5 3 5 5 5 5 5 5 5 5 5 3 5 5 3 5 5 5 5 5 5 5 3 5 5 5 5 5 5 5 5 5 5 5 5 5 5 5 5 5 5 5 5 3 5 3 3 5 3 5 5 5 5 5 5 5 5 5 5 5 5 5 5 5 5 5 5 5 5 3 5 3 5 5 5 5 5 5 5 5 5 5 5 5 3 5 5 5 5 5 5 5 5 5 5 5 3 5 5 5 5 5 5 5 5 5 5 5 5 5 5 5 5 5 5 5 5 5 5 5 3 5 5 5 5 5 5 5 5 5 5 5 5 5 5 5 5 5 5 5 3 5 5 5 5 5 3 5 5 3 5 5 3 5 5 5 5 5 5 5 5 5 5 5 5 3 5 5 3 5 5 5 5 5 5 5 5 5 5 5 5 5 5 5 5 5 5 5 5 5 5 3 5 5 5 5 3 5 3 5 5 5 5 5 5 5 5 5 5 5 5 5 3 5 3 3 5 3 5 3 5 5 5 5 5 5 3 5 5 5 5 5 5 5 5 5 5 5 5 5 5 3 5 5 5 3 5 5 5 5 5 5 3 5 5 3 5 5 5 5 5 5 5 3 5 5 5 5 5 5 5 5 5 5 5 5 5 5 5 5 5 5 5 5 5 5 3 5 3 5 5 5 5 5 5 5 3 5 5 5 5 5 5 5 5 5 3 5 5 5 5 5 5 5 5 5 5 5 5 5 5 5 5 5 5 3 5 3 5 5 5 3 5 3 5 5 5 5 5 5 3 5 5 5 5 5 5 5 5 5 5 5 3 5 5 3 5 5 5 5 5 3 3 5 3 5 5 3 3 5 3 5 5 5 5 5 5 5 5 5 5 5 5 5 5 5 5 5 5 5 5 5 5 5 5 5 5 5 3 5 5 5 3 5 5 5 5 5 5 5 5 5 5 5 5 5 5 5 3 5 5 5 5 5 5 3 5 5 5 5 5 5 3 5 5 5 5 5 5 5 5 5 5 3 3 5 5 5 5 5 5 5 5 5 5 5 5 5 5 5 3 5 5 5 3 3 5 5 5 5 5 5 5 5 5 5 5 3 5 5 5 5 5 5 5 5 5 5 5 5 5 5 5 5 5 5 5 5 5 5 5 5 5 5 5 5 5 5 5 5 5 5 5 5 5 5 5 5 5 3 5 3 5 5 5 5 5 5 5 3 5 5 5 5 5 3 5 5 5 3 5 5 5 5 5 5 5 5 5 5 5 3 3 5 3 3 5 5 3 5 5 5 3 5 5 5 5 3 5 5 5 5 5 5 5 3 5 5 5 5 5 5 5 5 5 5 5 5 5 5 5 3 5 5 5 5 5 5 5 5 3 5 5 5 3 3 3 5 5 5 3 5 5 5 3 5 5 5 5 3 3 5 3 5 5 5 3 5 5 5 5 5 3 5 5 5 5 3 5 5 5 5 3 5 5 5 5 5 5 5 5 5 5 5 5 5 5 5 5 3 5 5 5 5 3 5 3 5 5 5 5 5 5 5 5 5 5 5 5 3 5 5 5 5 5 5 5 5 5 5 5 3 5 5 5 5 5 5 5 5 3 5 5 5 3 5 3 5 5 5 5 5 5 5 5 5 5 5 5 5 5 5 5 5 5 5 5 5 5 5 5 5 5 5 5 5 5 5 5 3 5 5 5 5 5 5 5 5 5 5 5 5 5 5 5 5 5 5 5 5 5 5 5 5 5 5 5 5 5 5 5 5 5 3 5 3 5 3 5 5 5 5 5 5 5 5 5 5 5 5 5 5 3 5 5 5 3 5 5 5 5 5 5 5 5 5 5 5 3 5 5 5 5 5 5 5 5 5 5 5 5 3 5 5 5 3 5 5 5 5 5 5 5 5 5 5 5 5 5 5 5 3 5 3 5 5 5 5 5 3 5 5 5 5 5 5 5 5 5 5 5 5 5 5 5 5 5 5 5 5 5 5 5 5 5 5 5 5 5 5 5 5 5 5 5 5 5 5 5 5 5 5 5 5 5 5 5 5 5 5 5 5 5 5 5 3 3 5 5 5 5 5 5 5 5 5 3 5 5 5 5 5 5 5 5 5 3 5 5 5 3 5 5 5 5 5 5 5 5 3 5 5 5 3 5 5 5 3 5 5 5 5 5 5 5 5 5 5 5 5 5 5 5 5 5 5 5 5 5 5 5 5 5 3 5 5 5 3 5 5 5 5 5 5 5 5 5 5 5 5 5 5 5 3 5 3 5 5 5 5 5 5 3 5 5 5 5 5 5 5 3 5 5 5 3 5 5 5 5 3 5 5 3 5 5 5 5 3 5 5 5 5 5 5 3 5 5 5 5 5 5 5 5 5 5 5 5 5 5 5 5 5 5 5 5 5 5 5 5 5 5 5 3 5 5 5 3 5 5 5 5 5 5 5 5 3 3 5 5 5 5 5 5 5 3 5 5 3 5 5 5 3 5 5 3 5 5 5 3 5 3 3 5 3 3 5 5 5 3 3 5 5 5 3 5 5 5 3 5 5 5 5 5 5 5 5 5 5 5 5 5 5 5 5 5 5 5 5 3 5 5 5 5 3 5 5 5 5 5 5 5 3 5 5 3 5 5 5 5 5 3 3 5 5 3 3 5 5 5 5 5 5 5 5 3 3 5 3 5 5 5 5 3 5 5 3 5 5 5 5 5 5 5 5 5 5 5 5 3 5 5 3 5 5 5 5 5 5 5 5 5 5 5 3 5 5 5 5 5 5 5 5 5 5 5 5 5 5 5 5 5 5 5 5 5 5 5 5 5 3 5 3 5 5 5 5 5 5 3 5 5 5 5 5 5 5 5 5 5 5 5 5 5 5 5 5 5 5 5 5 5 5 5 5 5 3 5 5 5 3 5 5 5 5 5 5 3 5 5 5 3 5 5 5 5 3 5 5 5 5 5 5 5 5 5 3 5 5 5 5 5 5 5 5 5 5 5 5 5 5 5 5 5 5 5 5 5 5 3 5 5 5 5 3 5 5 5 5 5 5 5 5 5 5 5 5 5 5 5 3 5 5 5 5 5 3 5 5 5 5 5 5 3 5 5 3 5 5 5 5 5 3 5 5 5 5 5 3 5 5 5 5 5 5 5 3 5 3 5 5 5 5 3 5 5 5 3 5 5 3 5 5 5 3 5 5 5 5 3 3 5 5 5 5 5 5 3 5 5 5 3 3 5 5 5 5 5 5 5 5 5 5 5 5 5 5 5 5 5 5 5 5 5 5 5 5 5 5 5 5 3 5 5 5 5 5 5 5 5 3 5 5 5 5 3 5 5 5 5 5 5 5 5 5 5 5 5 5 3 5 3 5 5 5 5 3 5 5 5 5 5 5 5 5 5 5 5 5 5 5 5 5 5 5 5 3 5 5 5 5 5 5 5 5 5 5 5 5 3 5 3 5 5 5 3 5 5 5 5 5 5 5 5 5 5 5 5 5 5 5 5 5 5 3 5 5 5 5 5 5 3 5 5 5 5 5 5 5 3 5 5 3 5 5 5 5 5 5 5 5 5 5 5 5 5 5 5 5 5 5 3 5 5 5 5 3 5 5 5 5 5 5 5 3 3 5 5 5 3 5 5 5 5 3 5 5 5 5 5 5 5 5 3 5 5 5 5 5 5 5 5 5 3 5 5 5 5 3 5 5 5 5 5 5 3 5 5 5 5 5 5 5 5 5 3 5 5 5 5 5 5 5 5 5 5 5 5 5 3 5 5 5 3 5 3 5 5 5 3 5 5 5 5 3 5 5 5 3 5 5 5 5 3 5 5 5 5 5 5 5 5 5 3 5 5 5 5 5 5 5 5 5 5 3 5 5 5 5 3 5 5 5 5 5 5 5 5 5 5 5 5 5 5 5 5 5 5 5 5 5 5 5 3 5 3 3 5 5 5 5 5 5 3 5 5 5 3 3 5 3 3 5 3 5 5 5 5 5 3 5 5 5 5 5 5 5 3 5 5 3 5 5 5 5 5 3 3 5 5 3 3 5 5 5 5 5 5 3 5 5 3 5 3 5 5 5 5 5 5 3 5 3 5 5 5 5 5 5 5 5 5 5 5 5 3 5 5 5 5 5 5 3 5 3 5 3 5 5 5 5 5 5 5 5 5 5 5 5 5 5 5 3 5 5 5 5 3 5 5 5 3 5 5 5 5 5 5 5 3 5 5 5 5 5 3 3 5 5 5 5 3 5 5 5 5 5 5 5 3 3 5 5 5 5 5 5 3 5 3 5 5 5 5 5 5 5 5 3 5 5 5 5 5 3 5 5 3 5 5 3 5 3 5 5 5 3 3 5 5 5 5 5 5 3 5 3 5 5 5 3 5 5 3 5 5 5 5 5 5 5 5 5 5 5 5 5 5 5 5 5 3 5 5 5 3 5 3 5 5 5 5 5 3 3 5 5 5 3 5 5 5 5 5 3 5 5 5 5 5 5 5 3 5 5 5 5 5 5 5 5 5 5 3 5 3 5 5 5 5 5 5 5 5 3 5 5 3 3 5 3 5 5 3 5 5 5 5 3 5 3 5 5 5 5 3 5 5 5 5 3 5 5 5 5 3 3 5 5 5 5 5 5 5 5 3 5 5 5 5 5 3 5 5 5 5 5 5 5 5 5 5 5 5 5 5 3 5 5 3 5 5 5 5 5 3 5 5 3 5 5 5 5 3 5 5 3 3 3 5 5 5 5 3 5 3 5 5 5 3 5 5 3 5 5 5 5 5 5 5 5 5 5 5 5 5 5 5 5 5 5 5 5 5 5 5 5 5 3 5 5 5 5 5 5 5 5 3 5 5 5 5 5 5 5 5 5 5 5 5 5 5 5 5 5 3 5 5 5 5 5 5 3 3 5 3 5 5 5 3 3 5 5 5 5 5 5 5 5 5 5 5 5 5 5 3 5 3 5 5 5 5 5 5 5 5 5 5 5 5 5 5 5 5 5 5 5 5 5 5 5 5 5 5 5 5 5 5 5 5 5 5 5 5 5 5 5 5 5 5 5 5 5 5 5 5 5 3 5 5 3 5 5 5 5 5 5 5 3 5 3 5 5 5 5 5 5 5 5 5 3 5 5 5 5 3 5 5 5 5 5 3 5 5 5 5 5 5 5 5 5 5 5 5 5 5 5 5 5 5 5 5 5 5 5 5 5 5 5 3 5 5 5 5 5 5 5 3 5 5 5 5 3 5 3 5 5 5 5 3 5 5 5 3 5 5 5 5 5 5 5 5 3 5 5 5 5 5 5 5 5 5 5 5 5 5 5 5 5 5 5 5 5 5 3 5 5 5 5 5 3 5 5 5 5 3 5 5 5 5 5 3 5 5 5 5 5 3 5 5 5 5 5 5 5 5 5 5 3 5 5 5 5 5 5 5 5 5 5 5 3 5 5 5 5 5 3 5 5 5 5 5 5 5 5 5 5 5 3 5 5 5 5 5 5 5 5 5 5 5 5 5 5 5 5 5 5 5 5 5 5 5 5 5 5 5 5 5 5 5 5 5 5 5 5 5 5 5 3 5 5 3 5 5 5 5 5 5 5 5 5 5 5 5 5 5 5 5 5 5 5 5 5 5 5 5 5 5 5 5 5 5 5 5 5 3 5 5 5 5 3 5 5 5 5 5 3 5 5 5 5 3 5 5 3 5 5 5 5 5 5 5 3 3 5 5 5 5 5 3 5 3 5 5 3 5 5 3 5 5 5 5 5 5 5 5 5 5 5 5 5 5 5 5 5 5 5 5 5 5 5 5 5 5 5 5 5 5 5 5 5 5 5 5 5 5 5 5 5 5 5 5 5 5 5 5 5 5 3 5 5 5 5 5 5 5 5 5 5 5 5 5 5 5 5 3 5 3 5 5 5 5 3 5 5 3 5 3 5 3 5 5 5 5 3 5 5 5 5 5 5 5 5 5 5 5 5 5 5 5 3 5 5 5 5 5 5 5 3 5 5 5 3 5 5 5 5 5 5 5 5 3 5 3 5 5 5 3 5 5 5 5 5 3 5 5 5 5 5 5 5 5 5 5 5 5 5 5 5 5 3 5 5 3 5 5 5 5 5 5 5 5 5 5 3 5 5 5 5 5 5 5 5 3 5 3 5 5 5 5 5 5 5 5 5 5 5 3 3 5 5 5 5 5 3 5 3 5 5 5 3 5 3 5 5 5 5 5 5 5 5 3 5 5 5 3 5 5 5 5 5 5 5 5 5 5 5 5 5 5 5 5 5 5 5 5 5 5 5 5 5 5 5 5 5 5 5 5 5 5 5 3 5 5 5 5 5 5 5 5 5 5 5 5 5 5 5 5 5 5 5 5 5 5 5 3 5 5 5 5 5 5 3 5 3 5 5 3 5 5 5 5 3 5 3 5 5 5 5 5 5 5 3 5 5 5 5 5 5 5 5 5 5 5 5 5 5 5 5 5 5 5 5 5 5 3 5 5 3 5 5 5 3 5 5 5 5 5 5 5 5 5 5 5 5 5 5 5 3 5 5 5 5 5 5 5 5 3 5 5 5 5 3 5 5 5 5 5 5 5 5 3 5 5 3 3 5 5 5 5 5 5 5 5 5 5 5 5 3 5 5 3 5 5 3 5 5 5 3 5 5 5 5 5 5 5 5 5 5 3 5 5 5 5 5 5 5 5 5 5 5 5 5 5 3 3 5 5 5 5 5 5 5 5 5 5 5 5 5 5 5 5 5 5 5 5 5 5 5 5 5 5 5 5 5 5 5 5 3 5 5 3 5 5 5 5 5 5 5 5 5 5 5 5 5 3 5 5 5 5 5 5 5 5 3 5 5 5 5 5 5 5 5 3 5 5 5 5 5 5 5 5 5 5 5 5 5 5 5 5 5 5 5 5 5 5 5 5 5 5 5 5 5 5 5 5 5 5 5 5 5 5 5 3 5 5 5 5 3 5 5 5 5 5 5 5 5 5 5 5 5 5 3 5 5 5 3 5 5 5 5 5 5 3 5 5 5 5 5 3 5 5 5 3 5 5 5 5 5 3 5 5 3 5 5 5 5 5 5 5 5 5 5 5 5 5 5 5 5 5 5 5 5 5 3 5 5 5 5 5 3 5 5 5 5 5 5 5 5 5 3 5 5 5 5 5 5 5 5 5 5 5 5 5 5 5 5 5 5 5 5 5 5 5 5 5 5 3 5 5 5 5 5 3 5 5 5 5 5 5 3 5 5 5 5 5 5 3 5 5 3 5 5 5 5 5 5 5 3 3 5 3 5 3 5 5 5 3 3 5 3 3 5 5 5 5 5 5 5 5 5 5 5 5 5 5 5 5 5 5 5 5 5 5 5 5 5 5 5 5 5 5 5 3 5 5 5 5 3 5 5 3 5 3 5 5 5 3 5 5 3 5 5 3 3 5 5 5 5 5 5 5 5 5 5 5 5 5 5 3 5 3 5 5 5 5 3 5 5 5 3 5 5 5 3 3 5 5 5 5 5 5 5 5 5 5 5 5 5 3 5 5 5 5 5 5 3 3 5 5 5 3 5 5 3 5 5 5 5 3 5 5 3 5 5 3 5 5 3 3 5 3 5 3 5 3 5 3 5 5 5 3 5 3 5 3 5 5 3 5 5 5 5 3 5 5 5 5 5 5 5 5 5 5 5 5 5 5 3 5 5 5 5 5 3 5 5 5 5 5 5 3 5 5 3 5 5 5 3 5 5 3 5 3 5 5 5 5 5 5 5 5 5 5 5 5 5 5 5 5 5 3 5 5 3 5 5 5 5 3 3 5 5 5 5 5 5 5 5 5 5 5 5 5 5 5 3 5 5 5 5 5 5 5 5 5 3 5 5 5 5 5 3 5 5 5 5 5 5 5 5 5 5 3 3 5 5 5 5 5 5 5 5 5 3 5 5 5 5 5 5 5 5 5 5 5 5 5 5 3 5 5 5 3 3 5 5 3 5 5 5 3 5 5 5 3 5 5 5 5 5 3 5 5 5 5 5 5 3 5 5 5 5 3 5 5 5 5 5 5 5 5 5 3 5 5 5 5 5 3 5 5 3 5 5 5 5 5 5 5 5 5 5 5 5 5 5 5 5 5 5 5 5 3 5 5 5 5 5 5 3 5 5 5 5 5 5 5 5 5 5 5 5 5 5 5 5 5 5 5 3 5 5 5 3 5 3 5 5 5 5 5 5 3 5 3 5 5 5 5 3 5 5 5 5 5 5 5 5 5 3 5 5 5 5 5 5 5 5 5 5 5 3 5 3 3 5 5 3 5 3 5 5 5 3 5 5 5 5 5 5 5 3 5 5 5 3 5 5 5 5 5 5 5 5 5 5 5 5 5 5 5 5 5 5 5 3 5 5 3 5 5 3 5 5 5 5 3 5 5 5 3 3 5 5 5 3 5 5 5 5 3 5 3 3 5 5 3 5 5 5 5 3 5 3 5 5 5 5 5 5 3 5 5 3 5 5 5 5 5 5 3 5 5 5 3 5 5 5 3 5 5 5 5 5 5 5 5 5 5 5 5 5 5 3 5 5 5 5 3 5 5 5 3 5 5 5 3 5 5 5 5 5 5 5 3 5 5 3 5 5 5 5 3 5 5 5 3 5 5 5 5 5 5 5 5 5 5 5 5 5 5 5 5 5 5 5 5 5 5 5 5 5 5 5 5 5 5 5 5 5 5 5 5 5 5 5 5 5 3 5 5 5 5 5 5 3 5 3 5 5 3 5 5 5 5 5 5 5 5 5 5 5 5 3 3 5 5 3 5 5 5 3 5 5 5 5 3 5 5 5 5 3 5 3 5 5 5 5 5 5 3 3 5 3 3 5 5 5 3 3 5 3 3 5 5 5 3 5 5 5 5 5 3 3 3 5 5 5 5 3 5 5 5 3 5 5 5 3 5 5 3 5 5 5 3 5 5 3 5 3 3 5 3 5 5 5 3 3 5 5 5 5 3 5 3 3 5 3 5 5 5 5 5 5 5 5 3 5 5 5 5 5 5 5 5 5 5 5 3 5 5 5 3 3 5 3 5 3 5 5 3 3 5 3 3 5 5 3 5 5 5 5 3 3 5 5 3 5 5 3 5 5 3 5 3 5 3 5 3 5 5 3 5 5 5 3 5 3 3 5 5 3 5 5 5 5 5 5 5 3 5 5 5 5 5 5 3 5 5 5 3 5 5 5 5 5 3 5 5 5 3 5 5 5 3 3 5 5 5 3 5 5 5 5 3 5 5 5 5 5 5 3 5 5 5 5 5 3 5 5 5 5 5 5 5 5 5 5 3 5 5 5 5 5 5 5 5 5 5 5 5 5 5 3 5 5 5 5 5 3 5 5 5 5 5 5 5 5 5 5 5 5 5 5 5 5 5 5 5 5 5 5 5 5 5 5 5 5 5 5 5 5 5 5 5 5 5 5 5 5 5 5 5 5 5 5 5 5 5 5 3 5 5 5 3 5 5 5 5 3 5 5 5 3 5 5 5 5 5 5 5 5 5 5 5 5 5 5 3 5 5 5 3 3 5 5 5 3 5 5 3 5 5 3 5 5 5 3 5 5 5 5 5 5 5 3 3 5 5 5 3 5 5 5 5 5 3 5 5 5 5 3 5 5 5 5 5 3 5 5 5 5 3 5 5 5 5 5 5 3 5 5 3 5 5 5 5 5 5 5 5 3 5 5 5 5 5 5 5 5 5 5 5 5 5 5 5 5 3 5 5 3 5 5 5 3 5 5 5 5 3 5 5 5 3 5 5 5 5 5 3 3 5 5 5 5 5 5 5 5 5 5 5 5 5 5 5 5 5 5 5 5 5 3 5 5 5 5 5 3 3 5 5 5 5 3 5 5 5 3 5 3 5 5 3 5 5 5 5 3 5 5 5 3 3 5 3 3 5 5 3 5 5 5 3 5 5 5 3 5 3 5 3 5 5 5 3 5 3 3 5 5 5 5 5 5 5 5 5 5 5 5 5 5 5 5 3 5 3 5 3 5 3 3 5 5 5 3 5 5 5 5 3 5 5 5 5 3 5 5 5 5 5 5 5 5 3 3 5 5 3 3 5 5 5 5 5 5 5 5 5 5 5 5 5 5 5 3 5 5 5 5 3 5 5 5 5 5 5 5 5 5 5 5 5 5 5 3 5 3 5 5 5 5 3 5 5 5 5 5 5 3 5 5 3 5 5 5 5 5 5 5 5 5 5 5 5 5 5 5 5 5 5 5 5 5 5 5 5 5 5 3 5 5 5 5 5 5 5 5 5 5 5 5 3 5 5 5 5 5 3 5 5 5 3 5 5 5 5 5 3 3 5 5 3 5 5 5 5 5 5 5 5 5 5 5 3 5 5 3 5 5 5 5 5 5 5 5 5 5 5 5 5 5 5 5 5 3 5 5 5 5 5 5 5 5 5 5 5 5 5 5 5 5 3 5 5 5 5 3 5 5 5 5 3 5 5 5 3 5 3 5 5 5 5 3 5 5 5 5 5 5 5 5 5 5 5 3 5 5 5 5 5 5 3 5 5 5 5 5 5 5 5 5 5 5 5 5 5 5 5 5 5 3 5 5 5 5 5 5 5 3 5 5 5 5 5 5 5 5 5 5 5 5 5 5 5 5 5 5 5 5 5 5 5 5 5 5 5 5 5 5 5 5 5 5 5 5 3 5 5 5 5 5 3 5 5 5 5 5 5 5 5 5 5 5 5 5 3 5 5 5 5 3 5 5 5 3 5 5 5 5 5 5 5 5 5 5 5 5 5 5 5 5 5 5 5 5 5 5 5 5 5 5 5 5 3 5 5 3 5 5 3 5 5 5 5 3 5 5 5 5 5 5 5 5 5 5 5 5 5 
</DataArray>
</Cells>
<PointData Scalars="" Vectors="displacement," Tensors="">
<DataArray type="Float64" Name="displacement" NumberOfComponents="3" format="ascii">
0.054994828405595074 -9.4573474707075631e-07 0 0.052567053946916249 -0.0002914104190773384 0 0.054999274128242209 4.869852413599261e-07 0 0.054994828405595074 -9.4573474707075631e-07 0 0.052567053946916249 -0.0002914104190773384 0 0.048253302158163099 1.2144538706211965e-06 0 0.048253302158163099 1.2144538706211965e-06 0 0.048965351589884062 0.00060763750721339375 0 0.047078325918811233 0.0005152700708446372 0 0.052567053946916249 -0.0002914104190773384 0 0.048253302158163099 1.2144538706211965e-06 0 0.048965351589884062 0.00060763750721339375 0 0.046910275315295138 0.00037594720974000272 0 0.045982979938984953 0.00098389469101759419 0 0.045496851547756081 0.0012032125142545432 0 0.046820799366601731 0.00033679186428196687 0 0.046663206014132604 0.00097356934333565415 0 0.048965351589884062 0.00060763750721339375 0 0.046910275315295138 0.00037594720974000272 0 0.047968401636241512 0.0008897389641024648 0 0.048965351589884062 0.00060763750721339375 0 0.047774392981467226 -0.00033680083896972171 0 0.048526363856292269 -0.00114629901027534 0 0.052567053946916249 -0.0002914104190773384 0 0.048965351589884062 0.00060763750721339375 0 0.048526363856292269 -0.00114629901027534 0 0.048965351589884062 0.00060763750721339375 0 0.047774392981467226 -0.00033680083896972171 0 0.046910275315295138 0.00037594720974000272 0 0.047774392981467226 -0.00033680083896972171 0 0.046950518710050321 -0.00079955854770476491 0 0.046910275315295138 0.00037594720974000272 0 0.048526363856292269 -0.00114629901027534 0 0.046950518710050321 -0.00079955854770476491 0 0.046552794094837403 -0.0009936129403848369 0 0.051406482869257468 -0.00079397935900874417 0 0.050428543394034381 -0.00075059443207807952 0 0.047774392981467226 -0.00033680083896972171 0 0.048526363856292269 -0.00114629901027534 0 0.046950518710050321 -0.00079955854770476491 0 0.054122995205428182 -0.00064913608020411031 0 0.054999274128242209 4.869852413599261e-07 0 0.054909331459922751 -0.00035916529158787824 0 0.052567053946916249 -0.0002914104190773384 0 0.054122995205428182 -0.00064913608020411031 0 0.054999274128242209 4.869852413599261e-07 0 0.052411450725212159 -0.0004339251350809166 0 0.051406482869257468 -0.00079397935900874417 0 0.054999274128242209 4.869852413599261e-07 0 0.05495728360332755 -0.00017385724700399273 0 0.054999694267975692 -4.8116167251075984e-07 0 0.054999274128242209 4.869852413599261e-07 0 0.05495728360332755 -0.00017385724700399273 0 0.054909331459922751 -0.00035916529158787824 0 0.046552794094837403 -0.0009936129403848369 0 0.04592451299317709 -0.00088435654947727942 0 0.046265401523946606 -0.00073208439511909123 0 0.05495728360332755 -0.00017385724700399273 0 0.054909331459922751 -0.00035916529158787824 0 0.054954974552999941 -0.00018313502490261717 0 0.050428543394034381 -0.00075059443207807952 0 0.051812727822327952 5.6257999397250117e-05 0 0.046950518710050321 -0.00079955854770476491 0 0.046552794094837403 -0.0009936129403848369 0 0.046265401523946606 -0.00073208439511909123 0 0.054999694267975692 -4.8116167251075984e-07 0 0.054826355814975171 -0.00014820054102799939 0 0.054956423083852311 -0.00010253188074488692 0 0.05495728360332755 -0.00017385724700399273 0 0.054999694267975692 -4.8116167251075984e-07 0 0.054826355814975171 -0.00014820054102799939 0 0.05490167590514046 -9.6013537382363262e-05 0 0.054826355814975171 -0.00014820054102799939 0 0.054628362496791795 -0.00021521339010540183 0 0.053292486959864972 -0.0001084236722354198 0 0.054628362496791795 -0.00021521339010540183 0 0.054037236236171828 -0.00056544372244598433 0 0.051812727822327952 5.6257999397250117e-05 0 0.055328157583893853 -0.00020735654322837313 0 0.05495728360332755 -0.00017385724700399273 0 0.05490167590514046 -9.6013537382363262e-05 0 0.054826355814975171 -0.00014820054102799939 0 0.05350904468558023 -0.00076612573959916131 0 0.051812727822327952 5.6257999397250117e-05 0 0.054826355814975171 -0.00014820054102799939 0 0.054628362496791795 -0.00021521339010540183 0 0.054956423083852311 -0.00010253188074488692 0 0.054628362496791795 -0.00021521339010540183 0 0.054708675568350011 -0.00063173416966469647 0 0.054917555027380438 -0.00033277082836311375 0 0.054628362496791795 -0.00021521339010540183 0 0.054956423083852311 -0.00010253188074488692 0 0.054917555027380438 -0.00033277082836311375 0 0.054554655391261288 -0.0011432511894587827 0 0.054708675568350011 -0.00063173416966469647 0 0.054951432140004183 -0.0008779261786957945 0 0.054352594838513173 -0.0015440601484187685 0 0.050047098728381076 -0.0021009727632151968 0 0.054554655391261288 -0.0011432511894587827 0 0.054708675568350011 -0.00063173416966469647 0 0.054356311022188374 -0.00072945165930465015 0 0.054628362496791795 -0.00021521339010540183 0 0.054356311022188374 -0.00072945165930465015 0 0.054037236236171828 -0.00056544372244598433 0 0.054628362496791795 -0.00021521339010540183 0 0.054708675568350011 -0.00063173416966469647 0 0.054356311022188374 -0.00072945165930465015 0 0.054554655391261288 -0.0011432511894587827 0 0.053850490936455976 -0.0011002978579503491 0 0.054099946691042067 -0.0020149041530889418 0 0.054554655391261288 -0.0011432511894587827 0 0.054356311022188374 -0.00072945165930465015 0 0.053850490936455976 -0.0011002978579503491 0 0.053292486959864972 -0.0001084236722354198 0 0.053850490936455976 -0.0011002978579503491 0 0.054037236236171828 -0.00056544372244598433 0 0.054356311022188374 -0.00072945165930465015 0 0.053850490936455976 -0.0011002978579503491 0 0.054037236236171828 -0.00056544372244598433 0 0.04592451299317709 -0.00088435654947727942 0 0.045720690057186202 -0.00050540862309833014 0 0.045986079943535985 -0.00054233297378683803 0 0.051812727822327952 5.6257999397250117e-05 0 0.049835321457112489 -0.00093874574963107363 0 0.045720690057186202 -0.00050540862309833014 0 0.045836027438105838 -0.00028908590090882509 0 0.045986079943535985 -0.00054233297378683803 0 0.045836027438105838 -0.00028908590090882509 0 0.046214200430533883 -0.00030410871403393033 0 0.045768761703017885 0.00010387404742658226 0 0.045836027438105838 -0.00028908590090882509 0 0.045525683183205844 -0.00015908027913955465 0 0.045768761703017885 0.00010387404742658226 0 0.045549321086035759 -0.0018152869903360624 0 0.042778803517054036 -0.00038548953273431693 0 0.045720690057186202 -0.00050540862309833014 0 0.045836027438105838 -0.00028908590090882509 0 0.045525683183205844 -0.00015908027913955465 0 0.049835321457112489 -0.00093874574963107363 0 0.045549321086035759 -0.0018152869903360624 0 0.042062926799601726 -0.0030217321567804533 0 0.041451593493892359 -0.0031503752890688105 0 0.041530353843171094 -0.0031614351029044018 0 0.042062926799601726 -0.0030217321567804533 0 0.041773202492439626 -0.002466642832181465 0 0.041530353843171094 -0.0031614351029044018 0 0.054554655391261288 -0.0011432511894587827 0 0.054099946691042067 -0.0020149041530889418 0 0.05492057237418943 -0.0011829758754565026 0 0.045549321086035759 -0.0018152869903360624 0 0.050047098728381076 -0.0021009727632151968 0 0.046739338717840972 -0.00072540846434906634 0 0.046453801702744393 0.00010676238125187143 0 0.046950518710050321 -0.00079955854770476491 0 0.046265401523946606 -0.00073208439511909123 0 0.046214200430533883 -0.00030410871403393033 0 0.046950518710050321 -0.00079955854770476491 0 0.046910275315295138 0.00037594720974000272 0 0.045711186646768619 0.0005377553437155905 0 0.045836027438105838 -0.00028908590090882509 0 0.045986079943535985 -0.00054233297378683803 0 0.046214200430533883 -0.00030410871403393033 0 0.04592451299317709 -0.00088435654947727942 0 0.046265401523946606 -0.00073208439511909123 0 0.045986079943535985 -0.00054233297378683803 0 0.046265401523946606 -0.00073208439511909123 0 0.045986079943535985 -0.00054233297378683803 0 0.046214200430533883 -0.00030410871403393033 0 0.046453801702744393 0.00010676238125187143 0 0.042778803517054036 -0.00038548953273431693 0 0.045711186646768619 0.0005377553437155905 0 0.045725332092499169 0.00087024017652167129 0 0.045473421326408171 0.00094968685043667295 0 0.045711186646768619 0.0005377553437155905 0 0.045982979938984953 0.00098389469101759419 0 0.045725332092499169 0.00087024017652167129 0 0.046910275315295138 0.00037594720974000272 0 0.045711186646768619 0.0005377553437155905 0 0.045982979938984953 0.00098389469101759419 0 0.045982979938984953 0.00098389469101759419 0 0.045745459512637372 0.0010150618696456754 0 0.04563002933057516 0.0010059602521432288 0 0.045725332092499169 0.00087024017652167129 0 0.045683638388659881 0.00096680908965364291 0 0.045745459512637372 0.0010150618696456754 0 0.045982979938984953 0.00098389469101759419 0 0.045725332092499169 0.00087024017652167129 0 0.045745459512637372 0.0010150618696456754 0 0.045725332092499169 0.00087024017652167129 0 0.045683638388659881 0.00096680908965364291 0 0.045473421326408171 0.00094968685043667295 0 0.045686391761312922 0.0010177681272957549 0 0.045704880546248598 0.0010205711426157103 0 0.045745459512637372 0.0010150618696456754 0 0.045683638388659881 0.00096680908965364291 0 0.045686391761312922 0.0010177681272957549 0 0.045745459512637372 0.0010150618696456754 0 0.040056953153777365 0.00010317945170523338 0 0.039824000306128468 0.00019423128370749085 0 0.039824000306128468 0.00019423128370749085 0 0.040068860608120607 0.00014297941797484129 0 0.045704880546248598 0.0010205711426157103 0 0.045745459512637372 0.0010150618696456754 0 0.045684937269855064 0.00073115961518677326 0 0.034747148413202866 -0.00015152595221944182 0 0.034895845568432705 -0.00068055641710795833 0 0.034326730315584093 -0.00055272513072991366 0 0.045745459512637372 0.0010150618696456754 0 0.04563002933057516 0.0010059602521432288 0 0.045684937269855064 0.00073115961518677326 0 0.04563002933057516 0.0010059602521432288 0 0.045684937269855064 0.00073115961518677326 0 0.045005177115391586 0.000730822774988331 0 0.039800001899470056 -0.0017965639622191125 0 0.039531572898045333 -0.0013896514895959913 0 0.039750598447095366 -0.0013079084274090122 0 0.045549321086035759 -0.0018152869903360624 0 0.040451854555931699 -0.0017884634499602048 0 0.039800001899470056 -0.0017965639622191125 0 0.040029222932792555 -0.0015490777602457015 0 0.039750598447095366 -0.0013079084274090122 0 0.042778803517054036 -0.00038548953273431693 0 0.039483659466683502 -0.00097713409276344227 0 0.039346228811465531 -0.00098314243048563629 0 0.039349800746409466 -0.0010681747578353061 0 0.039408524388370919 -0.0010767197779278355 0 0.039824000306128468 0.00019423128370749085 0 0.042778803517054036 -0.00038548953273431693 0 0.039266699537603485 -0.0010538656325319656 0 0.039346228811465531 -0.00098314243048563629 0 0.039349800746409466 -0.0010681747578353061 0 0.045683638388659881 0.00096680908965364291 0 0.045686391761312922 0.0010177681272957549 0 0.045473421326408171 0.00094968685043667295 0 0.045686391761312922 0.0010177681272957549 0 0.045673225038853585 0.0010425354165579952 0 0.045473421326408171 0.00094968685043667295 0 0.039266699537603485 -0.0010538656325319656 0 0.039377342663763526 -0.0011615112931140459 0 0.039310407909377079 -0.0012454056895737199 0 0.039266699537603485 -0.0010538656325319656 0 0.039377342663763526 -0.0011615112931140459 0 0.039349800746409466 -0.0010681747578353061 0 0.039824000306128468 0.00019423128370749085 0 0.037012737151555786 -0.0010399201262024618 0 0.039377342663763526 -0.0011615112931140459 0 0.039349800746409466 -0.0010681747578353061 0 0.039408524388370919 -0.0010767197779278355 0 0.039531572898045333 -0.0013896514895959913 0 0.039750598447095366 -0.0013079084274090122 0 0.039489077396423523 -0.0011884411606191418 0 0.039377342663763526 -0.0011615112931140459 0 0.039408524388370919 -0.0010767197779278355 0 0.039489077396423523 -0.0011884411606191418 0 0.039483659466683502 -0.00097713409276344227 0 0.039568264997781169 -0.0012338119675063164 0 0.039377342663763526 -0.0011615112931140459 0 0.039310407909377079 -0.0012454056895737199 0 0.03943996626383469 -0.0012999080471754864 0 0.039377342663763526 -0.0011615112931140459 0 0.039489077396423523 -0.0011884411606191418 0 0.03943996626383469 -0.0012999080471754864 0 0.037012737151555786 -0.0010399201262024618 0 0.03514706311608809 -0.0016175995541429066 0 0.034895845568432705 -0.00068055641710795833 0 0.034680216863434851 -0.0010658977057056544 0 0.035079775567486038 -0.0012053331254354466 0 0.039310407909377079 -0.0012454056895737199 0 0.03943996626383469 -0.0012999080471754864 0 0.039329304714966193 -0.0014277806435609227 0 0.035646567184032765 -0.0020149533218806926 0 0.03514706311608809 -0.0016175995541429066 0 0.032108160080846333 -0.0025407423635149442 0 0.032056497605221349 -0.0023259438427907374 0 0.032214080382356729 -0.0023277141026065763 0 0.034326730315584093 -0.00055272513072991366 0 0.034358683215302943 -0.00090788107640252756 0 0.034041104208376832 -0.0010058520842561713 0 0.040068860608120607 0.00014297941797484129 0 0.039422219039290211 -0.00047320577305118723 0 0.034895845568432705 -0.00068055641710795833 0 0.034326730315584093 -0.00055272513072991366 0 0.034358683215302943 -0.00090788107640252756 0 0.034895845568432705 -0.00068055641710795833 0 0.034680216863434851 -0.0010658977057056544 0 0.034358683215302943 -0.00090788107640252756 0 0.034680216863434851 -0.0010658977057056544 0 0.034358683215302943 -0.00090788107640252756 0 0.034444363789731668 -0.0011735054479282095 0 0.034358683215302943 -0.00090788107640252756 0 0.03406542254434413 -0.001094466919999566 0 0.034444363789731668 -0.0011735054479282095 0 0.034358683215302943 -0.00090788107640252756 0 0.034041104208376832 -0.0010058520842561713 0 0.03406542254434413 -0.001094466919999566 0 0.034041104208376832 -0.0010058520842561713 0 0.034099572405720528 -0.00099788372340968456 0 0.03406542254434413 -0.001094466919999566 0 0.044802042230080122 1.512600656191304e-05 0 0.045005177115391586 0.000730822774988331 0 0.043741932041099323 8.4784558599011265e-05 0 0.045684937269855064 0.00073115961518677326 0 0.044802042230080122 1.512600656191304e-05 0 0.045005177115391586 0.000730822774988331 0 0.045005177115391586 0.000730822774988331 0 0.044024481352233275 0.00073344185752995941 0 0.043741932041099323 8.4784558599011265e-05 0 0.044802042230080122 1.512600656191304e-05 0 0.043741932041099323 8.4784558599011265e-05 0 0.043257351862351072 -0.00048292038115999345 0 0.039422219039290211 -0.00047320577305118723 0 0.038812962980212459 -0.00067356630843802535 0 0.045068748927040679 0.00049235374718997825 0 0.043145255275143721 -0.00014302499689609403 0 0.046209683159270411 9.3673276300682213e-05 0 0.043100970472134729 1.1108970295275719e-06 0 0.047078325918811233 0.0005152700708446372 0 0.044024481352233275 0.00073344185752995941 0 0.043741932041099323 8.4784558599011265e-05 0 0.042820271513295614 -0.00017040077349051729 0 0.046209683159270411 9.3673276300682213e-05 0 0.043100970472134729 1.1108970295275719e-06 0 0.042820271513295614 -0.00017040077349051729 0 0.043741932041099323 8.4784558599011265e-05 0 0.042820271513295614 -0.00017040077349051729 0 0.043257351862351072 -0.00048292038115999345 0 0.048253302158163099 1.2144538706211965e-06 0 0.043100970472134729 1.1108970295275719e-06 0 0.047078325918811233 0.0005152700708446372 0 0.048965351589884062 0.00060763750721339375 0 0.047078325918811233 0.0005152700708446372 0 0.047968401636241512 0.0008897389641024648 0 0.045982979938984953 0.00098389469101759419 0 0.04563002933057516 0.0010059602521432288 0 0.045496851547756081 0.0012032125142545432 0 0.04563002933057516 0.0010059602521432288 0 0.045005177115391586 0.000730822774988331 0 0.045496851547756081 0.0012032125142545432 0 0.046209683159270411 9.3673276300682213e-05 0 0.047078325918811233 0.0005152700708446372 0 0.047968401636241512 0.0008897389641024648 0 0.045005177115391586 0.000730822774988331 0 0.044024481352233275 0.00073344185752995941 0 0.045496851547756081 0.0012032125142545432 0 0.045068748927040679 0.00049235374718997825 0 0.046663206014132604 0.00097356934333565415 0 0.05491191684198328 0.00032514882814252644 0 0.054898220739590539 6.42478079697953e-05 0 0.054857100497224261 0.00022364347475309189 0 0.050334728321546916 -0.00077952970977386202 0 0.055406757700919386 0.00011000944869602448 0 0.054516175024930107 -0.0017274168896955966 0 0.054414870640144476 -0.00079654319159570017 0 0.053473392344317458 -0.00052543251849490407 0 0.054516175024930107 -0.0017274168896955966 0 0.054414870640144476 -0.00079654319159570017 0 0.055074938091849761 -0.00026074634823441121 0 0.050334728321546916 -0.00077952970977386202 0 0.050128646517896648 -0.0013621032701117009 0 0.054516175024930107 -0.0017274168896955966 0 0.053473392344317458 -0.00052543251849490407 0 0.05264538876263343 -0.0016541320810676294 0 0.054598441000039091 8.7600123595789949e-05 0 0.054568375388041941 -0.00071599303839673723 0 0.054896833322034065 -8.0328366332630538e-05 0 0.054942397703584889 -4.0073163272285653e-05 0 0.054974353234673388 -1.0542675916634439e-05 0 0.053473392344317458 -0.00052543251849490407 0 0.054896833322034065 -8.0328366332630538e-05 0 0.052968009112194583 -4.5228618681290153e-05 0 0.053426319803968558 -0.00012266218319108602 0 0.054568375388041941 -0.00071599303839673723 0 0.054414870640144476 -0.00079654319159570017 0 0.053473392344317458 -0.00052543251849490407 0 0.054896833322034065 -8.0328366332630538e-05 0 0.054414870640144476 -0.00079654319159570017 0 0.055074938091849761 -0.00026074634823441121 0 0.054896833322034065 -8.0328366332630538e-05 0 0.054896833322034065 -8.0328366332630538e-05 0 0.054948446955604018 -2.6781714957800767e-05 0 0.055030735311970336 1.2705501679080768e-05 0 0.054948446955604018 -2.6781714957800767e-05 0 0.054985670880688897 5.9661942785290034e-07 0 0.055030735311970336 1.2705501679080768e-05 0 0.054896833322034065 -8.0328366332630538e-05 0 0.054948446955604018 -2.6781714957800767e-05 0 0.054942397703584889 -4.0073163272285653e-05 0 0.054948446955604018 -2.6781714957800767e-05 0 0.05496469868009915 -2.0521170008840168e-05 0 0.054942397703584889 -4.0073163272285653e-05 0 0.054948446955604018 -2.6781714957800767e-05 0 0.054985670880688897 5.9661942785290034e-07 0 0.05496469868009915 -2.0521170008840168e-05 0 0.054985670880688897 5.9661942785290034e-07 0 0.05499994052943287 -1.4326278104076094e-08 0 0.055000027093548752 2.1164586611255607e-08 0 0.054985670880688897 5.9661942785290034e-07 0 0.05499994052943287 -1.4326278104076094e-08 0 0.05496469868009915 -2.0521170008840168e-05 0 0.05499994052943287 -1.4326278104076094e-08 0 0.05496469868009915 -2.0521170008840168e-05 0 0.054981028693637947 -2.0187793801301775e-05 0 0.054963263946052922 -2.7201542064971464e-05 0 0.054981028693637947 -2.0187793801301775e-05 0 0.054974353234673388 -1.0542675916634439e-05 0 0.05496469868009915 -2.0521170008840168e-05 0 0.054963263946052922 -2.7201542064971464e-05 0 0.054981028693637947 -2.0187793801301775e-05 0 0.05496469868009915 -2.0521170008840168e-05 0 0.054942397703584889 -4.0073163272285653e-05 0 0.054963263946052922 -2.7201542064971464e-05 0 0.054942397703584889 -4.0073163272285653e-05 0 0.054963263946052922 -2.7201542064971464e-05 0 0.054974353234673388 -1.0542675916634439e-05 0 0.054981028693637947 -2.0187793801301775e-05 0 0.054997248574901528 -1.526649765783698e-05 0 0.054974353234673388 -1.0542675916634439e-05 0 0.055818137180161445 -0.0006306438866122494 0 0.054568375388041941 -0.00071599303839673723 0 0.054981028693637947 -2.0187793801301775e-05 0 0.05499999640068081 -2.0739323808787482e-08 0 0.054997248574901528 -1.526649765783698e-05 0 0.05499994052943287 -1.4326278104076094e-08 0 0.054981028693637947 -2.0187793801301775e-05 0 0.05499999640068081 -2.0739323808787482e-08 0 0.05499999640068081 -2.0739323808787482e-08 0 0.054997248574901528 -1.526649765783698e-05 0 0.054999994309302351 3.9716352866567523e-09 0 0.055818137180161445 -0.0006306438866122494 0 0.054999728421331065 1.7450985927739422e-07 0 0.056095564131710664 -0.0010104808990983041 0 0.055316839611017063 -0.0015793626230581714 0 0.055416575582984844 -0.00091452277782814485 0 0.056095564131710664 -0.0010104808990983041 0 0.055957431669888508 -0.0021311097659753092 0 0.055316839611017063 -0.0015793626230581714 0 0.056095564131710664 -0.0010104808990983041 0 0.055957431669888508 -0.0021311097659753092 0 0.057152385596622071 -0.002035599527438833 0 0.054006727823953785 -0.0011388858116922525 0 0.054568375388041941 -0.00071599303839673723 0 0.051177901106815527 -0.0001183294342049818 0 0.052137912283973298 -0.00074846020927202565 0 0.052937336038258502 -2.344416414615316e-05 0 0.053473392344317458 -0.00052543251849490407 0 0.052137912283973298 -0.00074846020927202565 0 0.052937336038258502 -2.344416414615316e-05 0 0.052137912283973298 -0.00074846020927202565 0 0.05264538876263343 -0.0016541320810676294 0 0.050679070952928902 -0.0015268217636434523 0 0.053473392344317458 -0.00052543251849490407 0 0.052137912283973298 -0.00074846020927202565 0 0.05264538876263343 -0.0016541320810676294 0 0.050128646517896648 -0.0013621032701117009 0 0.045289516760998898 -0.0023567990336492333 0 0.051177901106815527 -0.0001183294342049818 0 0.052137912283973298 -0.00074846020927202565 0 0.050679070952928902 -0.0015268217636434523 0 0.047171372612503426 -0.0042799243187137334 0 0.044152764787185522 -0.0040631417855749559 0 0.045154879110123773 -0.0021532133334341286 0 0.045289516760998898 -0.0023567990336492333 0 0.05021240006024226 -0.0013742978909280269 0 0.045289516760998898 -0.0023567990336492333 0 0.041440171693774813 -0.0038859016516240401 0 0.039115989941561062 -0.0034130229817392263 0 0.039587642356631904 -0.0035587196809519889 0 0.039302656804044545 -0.0032177153637522049 0 0.044152764787185522 -0.0040631417855749559 0 0.045154879110123773 -0.0021532133334341286 0 0.042163235220219544 -0.0025040120265006106 0 0.053942423313853231 -0.0021061341227189764 0 0.054570394777795204 -0.00236965024694452 0 0.052794957010134341 -0.0026490429511546541 0 0.05021240006024226 -0.0013742978909280269 0 0.046675386284350341 -0.0027600505279953072 0 0.053942423313853231 -0.0021061341227189764 0 0.053649826899599261 -0.0017683937440953509 0 0.052794957010134341 -0.0026490429511546541 0 0.053942423313853231 -0.0021061341227189764 0 0.054179732073404895 -0.0017348196670158404 0 0.053649826899599261 -0.0017683937440953509 0 0.053942423313853231 -0.0021061341227189764 0 0.054444256723358883 -0.0019948772239924083 0 0.054570394777795204 -0.00236965024694452 0 0.053942423313853231 -0.0021061341227189764 0 0.054444256723358883 -0.0019948772239924083 0 0.054179732073404895 -0.0017348196670158404 0 0.051177901106815527 -0.0001183294342049818 0 0.050679070952928902 -0.0015268217636434523 0 0.049426248748368887 -0.00022756133431913044 0 0.054444256723358883 -0.0019948772239924083 0 0.054714892077333335 -0.0018672756889016526 0 0.054554148464503883 -0.0015722129438595601 0 0.054006727823953785 -0.0011388858116922525 0 0.05021240006024226 -0.0013742978909280269 0 0.055957431669888508 -0.0021311097659753092 0 0.054570394777795204 -0.00236965024694452 0 0.055316839611017063 -0.0015793626230581714 0 0.054714892077333335 -0.0018672756889016526 0 0.054570394777795204 -0.00236965024694452 0 0.055316839611017063 -0.0015793626230581714 0 0.054444256723358883 -0.0019948772239924083 0 0.054714892077333335 -0.0018672756889016526 0 0.054570394777795204 -0.00236965024694452 0 0.055316839611017063 -0.0015793626230581714 0 0.054958382692251402 -0.0013761347697359217 0 0.055416575582984844 -0.00091452277782814485 0 0.054714892077333335 -0.0018672756889016526 0 0.055316839611017063 -0.0015793626230581714 0 0.054958382692251402 -0.0013761347697359217 0 0.054958382692251402 -0.0013761347697359217 0 0.054733957420467036 -0.0010178777563014509 0 0.054554148464503883 -0.0015722129438595601 0 0.054714892077333335 -0.0018672756889016526 0 0.054958382692251402 -0.0013761347697359217 0 0.054554148464503883 -0.0015722129438595601 0 0.054958382692251402 -0.0013761347697359217 0 0.054733957420467036 -0.0010178777563014509 0 0.055416575582984844 -0.00091452277782814485 0 0.055416575582984844 -0.00091452277782814485 0 0.054901707101251487 -0.00043458210761652467 0 0.055001492774815371 -3.5624267704893557e-07 0 0.056095564131710664 -0.0010104808990983041 0 0.055416575582984844 -0.00091452277782814485 0 0.055001492774815371 -3.5624267704893557e-07 0 0.054733957420467036 -0.0010178777563014509 0 0.055416575582984844 -0.00091452277782814485 0 0.054901707101251487 -0.00043458210761652467 0 0.054901707101251487 -0.00043458210761652467 0 0.055001492774815371 -3.5624267704893557e-07 0 0.054997700555226813 3.966041111015408e-07 0 0.054998920864389622 -6.4800764636799079e-07 0 0.054409099167600887 -0.0004899374971738189 0 0.054997700555226813 3.966041111015408e-07 0 0.054388249196011478 -0.00072971801025585603 0 0.052739008198129163 -0.001033766755566474 0 0.054901707101251487 -0.00043458210761652467 0 0.054997700555226813 3.966041111015408e-07 0 0.054388249196011478 -0.00072971801025585603 0 0.054733957420467036 -0.0010178777563014509 0 0.054901707101251487 -0.00043458210761652467 0 0.054388249196011478 -0.00072971801025585603 0 0.054388249196011478 -0.00072971801025585603 0 0.054275100009945371 -0.0012528060036073839 0 0.052739008198129163 -0.001033766755566474 0 0.054275100009945371 -0.0012528060036073839 0 0.053649826899599261 -0.0017683937440953509 0 0.052739008198129163 -0.001033766755566474 0 0.054733957420467036 -0.0010178777563014509 0 0.054388249196011478 -0.00072971801025585603 0 0.054275100009945371 -0.0012528060036073839 0 0.054733957420467036 -0.0010178777563014509 0 0.054275100009945371 -0.0012528060036073839 0 0.054554148464503883 -0.0015722129438595601 0 0.054275100009945371 -0.0012528060036073839 0 0.054179732073404895 -0.0017348196670158404 0 0.054554148464503883 -0.0015722129438595601 0 0.054444256723358883 -0.0019948772239924083 0 0.054179732073404895 -0.0017348196670158404 0 0.054554148464503883 -0.0015722129438595601 0 0.054275100009945371 -0.0012528060036073839 0 0.054179732073404895 -0.0017348196670158404 0 0.053649826899599261 -0.0017683937440953509 0 0.053649826899599261 -0.0017683937440953509 0 0.052739008198129163 -0.001033766755566474 0 0.052794957010134341 -0.0026490429511546541 0 0.054999694267975692 -4.8116167251075984e-07 0 0.055000338610655085 8.3629599684118511e-08 0 0.054956423083852311 -0.00010253188074488692 0 0.055000338610655085 8.3629599684118511e-08 0 0.055066899134994338 -0.00013992038564608852 0 0.054956423083852311 -0.00010253188074488692 0 0.055066899134994338 -0.00013992038564608852 0 0.054956423083852311 -0.00010253188074488692 0 0.054917555027380438 -0.00033277082836311375 0 0.055066899134994338 -0.00013992038564608852 0 0.054917555027380438 -0.00033277082836311375 0 0.054951432140004183 -0.0008779261786957945 0 0.054708675568350011 -0.00063173416966469647 0 0.054917555027380438 -0.00033277082836311375 0 0.054951432140004183 -0.0008779261786957945 0 0.041451593493892359 -0.0031503752890688105 0 0.042163235220219544 -0.0025040120265006106 0 0.041355903123936145 -0.003464984002806129 0 0.050047098728381076 -0.0021009727632151968 0 0.046675386284350341 -0.0027600505279953072 0 0.054409099167600887 -0.0004899374971738189 0 0.050047098728381076 -0.0021009727632151968 0 0.052739008198129163 -0.001033766755566474 0 0.05083465127661882 -0.0027543138203968321 0 0.052794957010134341 -0.0026490429511546541 0 0.039587642356631904 -0.0035587196809519889 0 0.041355903123936145 -0.003464984002806129 0 0.04035320098616535 -0.0029599770810363637 0 0.044152764787185522 -0.0040631417855749559 0 0.042163235220219544 -0.0025040120265006106 0 0.041355903123936145 -0.003464984002806129 0 0.041440171693774813 -0.0038859016516240401 0 0.041567797314622151 -0.0035261863883660218 0 0.041355903123936145 -0.003464984002806129 0 0.041264901668407294 -0.0028868736508970792 0 0.04035320098616535 -0.0029599770810363637 0 0.041355903123936145 -0.003464984002806129 0 0.041530353843171094 -0.0031614351029044018 0 0.041264901668407294 -0.0028868736508970792 0 0.041451593493892359 -0.0031503752890688105 0 0.041355903123936145 -0.003464984002806129 0 0.041530353843171094 -0.0031614351029044018 0 0.041773202492439626 -0.002466642832181465 0 0.041530353843171094 -0.0031614351029044018 0 0.041264901668407294 -0.0028868736508970792 0 0.041773202492439626 -0.002466642832181465 0 0.041264901668407294 -0.0028868736508970792 0 0.040979458951878295 -0.0022041162991969475 0 0.04035320098616535 -0.0029599770810363637 0 0.039747714575106452 -0.0029201340679269822 0 0.039724407144770942 -0.0029153880880315834 0 0.040249364055491614 -0.0029979503262950974 0 0.040446945272549585 -0.0023966545411453519 0 0.041264901668407294 -0.0028868736508970792 0 0.04035320098616535 -0.0029599770810363637 0 0.040979458951878295 -0.0022041162991969475 0 0.039747714575106452 -0.0029201340679269822 0 0.039606923471736319 -0.0028720424248177912 0 0.039471600662120389 -0.0028700242227281438 0 0.039747714575106452 -0.0029201340679269822 0 0.039471600662120389 -0.0028700242227281438 0 0.039724407144770942 -0.0029153880880315834 0 0.039531572898045333 -0.0013896514895959913 0 0.039489077396423523 -0.0011884411606191418 0 0.039446698482662274 -0.001186901480383267 0 0.040451854555931699 -0.0017884634499602048 0 0.0377600915855296 -0.0021740761088915967 0 0.041773202492439626 -0.002466642832181465 0 0.040979458951878295 -0.0022041162991969475 0 0.041317251727566069 -0.0016186346978554322 0 0.040446945272549585 -0.0023966545411453519 0 0.0377600915855296 -0.0021740761088915967 0 0.035646567184032765 -0.0020149533218806926 0 0.0377600915855296 -0.0021740761088915967 0 0.039489077396423523 -0.0011884411606191418 0 0.03943996626383469 -0.0012999080471754864 0 0.039446698482662274 -0.001186901480383267 0 0.032108160080846333 -0.0025407423635149442 0 0.032028514406366816 -0.0027425700317132901 0 0.031835835874726617 -0.0025092042184205144 0 0.0377600915855296 -0.0021740761088915967 0 0.035306473995613798 -0.0026290487794596537 0 0.032108160080846333 -0.0025407423635149442 0 0.031835835874726617 -0.0025092042184205144 0 0.032056497605221349 -0.0023259438427907374 0 0.039305045850755789 -0.0027925526905306025 0 0.039085742067829041 -0.0027935371331844201 0 0.038807732107975682 -0.0028665445517354719 0 0.039305045850755789 -0.0027925526905306025 0 0.039471600662120389 -0.0028700242227281438 0 0.039085742067829041 -0.0027935371331844201 0 0.039606923471736319 -0.0028720424248177912 0 0.039305045850755789 -0.0027925526905306025 0 0.039471600662120389 -0.0028700242227281438 0 0.039471600662120389 -0.0028700242227281438 0 0.039283038889613681 -0.0028788732865457855 0 0.039085742067829041 -0.0027935371331844201 0 0.039085742067829041 -0.0027935371331844201 0 0.038978038025275087 -0.0027859662680834577 0 0.039049710367264109 -0.0028557515800698742 0 0.039085742067829041 -0.0027935371331844201 0 0.038978038025275087 -0.0027859662680834577 0 0.038867242148567786 -0.002856783723600648 0 0.039283038889613681 -0.0028788732865457855 0 0.039049710367264109 -0.0028557515800698742 0 0.039059479702107366 -0.0030572571823112172 0 0.039283038889613681 -0.0028788732865457855 0 0.039085742067829041 -0.0027935371331844201 0 0.039049710367264109 -0.0028557515800698742 0 0.039283038889613681 -0.0028788732865457855 0 0.039382777242298057 -0.0030124204412984722 0 0.039059479702107366 -0.0030572571823112172 0 0.039283038889613681 -0.0028788732865457855 0 0.039382777242298057 -0.0030124204412984722 0 0.039724407144770942 -0.0029153880880315834 0 0.039471600662120389 -0.0028700242227281438 0 0.039283038889613681 -0.0028788732865457855 0 0.039724407144770942 -0.0029153880880315834 0 0.039382777242298057 -0.0030124204412984722 0 0.039724407144770942 -0.0029153880880315834 0 0.039629955537487931 -0.0030835302982126613 0 0.039382777242298057 -0.0030124204412984722 0 0.039629955537487931 -0.0030835302982126613 0 0.039302656804044545 -0.0032177153637522049 0 0.04035320098616535 -0.0029599770810363637 0 0.039724407144770942 -0.0029153880880315834 0 0.039629955537487931 -0.0030835302982126613 0 0.039587642356631904 -0.0035587196809519889 0 0.04035320098616535 -0.0029599770810363637 0 0.039629955537487931 -0.0030835302982126613 0 0.039587642356631904 -0.0035587196809519889 0 0.039629955537487931 -0.0030835302982126613 0 0.039302656804044545 -0.0032177153637522049 0 0.039382777242298057 -0.0030124204412984722 0 0.039302656804044545 -0.0032177153637522049 0 0.039059479702107366 -0.0030572571823112172 0 0.039115989941561062 -0.0034130229817392263 0 0.039302656804044545 -0.0032177153637522049 0 0.039059479702107366 -0.0030572571823112172 0 0.045289516760998898 -0.0023567990336492333 0 0.041915483386390007 -0.0023309304356792051 0 0.039115989941561062 -0.0034130229817392263 0 0.038866446270223176 -0.0031558972058613652 0 0.039059479702107366 -0.0030572571823112172 0 0.046267536008999154 -0.0011093471808562047 0 0.045136879821533464 -0.0010439460292077651 0 0.045896969620102583 -0.0018274243804890363 0 0.046267536008999154 -0.0011093471808562047 0 0.045896969620102583 -0.0018274243804890363 0 0.046532813669543878 -0.0016853548699572053 0 0.045896969620102583 -0.0018274243804890363 0 0.04665591482640713 -0.002640395324093635 0 0.046532813669543878 -0.0016853548699572053 0 0.038866446270223176 -0.0031558972058613652 0 0.038888297424986985 -0.0029753069716729505 0 0.038683857534882994 -0.0030299859948808025 0 0.041915483386390007 -0.0023309304356792051 0 0.042481000711700759 -0.0027823712770937525 0 0.038866446270223176 -0.0031558972058613652 0 0.039059479702107366 -0.0030572571823112172 0 0.038888297424986985 -0.0029753069716729505 0 0.038888297424986985 -0.0029753069716729505 0 0.038898884354200726 -0.0028469131679019926 0 0.038770895206542831 -0.0029455378138115128 0 0.039049710367264109 -0.0028557515800698742 0 0.039059479702107366 -0.0030572571823112172 0 0.038888297424986985 -0.0029753069716729505 0 0.039049710367264109 -0.0028557515800698742 0 0.038888297424986985 -0.0029753069716729505 0 0.038898884354200726 -0.0028469131679019926 0 0.038978038025275087 -0.0027859662680834577 0 0.039049710367264109 -0.0028557515800698742 0 0.038898884354200726 -0.0028469131679019926 0 0.038898884354200726 -0.0028469131679019926 0 0.038931552499646048 -0.0027540476252636776 0 0.03884993047967196 -0.0026096168207414366 0 0.038978038025275087 -0.0027859662680834577 0 0.038898884354200726 -0.0028469131679019926 0 0.038931552499646048 -0.0027540476252636776 0 0.038561090663088375 -0.0029257396087645228 0 0.037740592277866594 -0.0030169833813580393 0 0.03884993047967196 -0.0026096168207414366 0 0.037494327790654057 -0.0031069042938343086 0 0.038366916576102764 -0.0029373938081249259 0 0.038898884354200726 -0.0028469131679019926 0 0.038561090663088375 -0.0029257396087645228 0 0.03884993047967196 -0.0026096168207414366 0 0.038898884354200726 -0.0028469131679019926 0 0.038561090663088375 -0.0029257396087645228 0 0.038770895206542831 -0.0029455378138115128 0 0.038888297424986985 -0.0029753069716729505 0 0.038770895206542831 -0.0029455378138115128 0 0.038683857534882994 -0.0030299859948808025 0 0.038561090663088375 -0.0029257396087645228 0 0.038770895206542831 -0.0029455378138115128 0 0.038683857534882994 -0.0030299859948808025 0 0.037425432451253363 -0.0034849953049935632 0 0.042481000711700759 -0.0027823712770937525 0 0.038561090663088375 -0.0029257396087645228 0 0.037740592277866594 -0.0030169833813580393 0 0.037886907424157845 -0.0037543671730772086 0 0.035570035456589731 -0.00058115413128089714 0 0.042481000711700759 -0.0027823712770937525 0 0.037740592277866594 -0.0030169833813580393 0 0.037411894909102662 -0.0029843560313021337 0 0.037886907424157845 -0.0037543671730772086 0 0.029764273756287006 -0.0011849807328099726 0 0.035570035456589731 -0.00058115413128089714 0 0.037740592277866594 -0.0030169833813580393 0 0.037568121975970231 -0.0032173585808688517 0 0.036706081906087359 -0.0033345668476191972 0 0.037740592277866594 -0.0030169833813580393 0 0.037568121975970231 -0.0032173585808688517 0 0.037411894909102662 -0.0029843560313021337 0 0.023936201968568705 0.001528501829140436 0 0.023742444861251523 0.001199345789759447 0 0.024098169792640969 0.0011996724737697215 0 0.023476579517209679 0.0013119892712769425 0 0.023936201968568705 0.001528501829140436 0 0.023742444861251523 0.001199345789759447 0 0.04448754895406045 -0.0010822036014533389 0 0.044608088874869029 -0.00060833556395001971 0 0.044121211072614061 -0.00066857328781338163 0 0.044608088874869029 -0.00060833556395001971 0 0.044333209405443809 -0.00031661185607383211 0 0.044706090883469489 -0.00026871839285998395 0 0.04665591482640713 -0.002640395324093635 0 0.047046351393073324 -0.0019176299813196439 0 0.046532813669543878 -0.0016853548699572053 0 0.042481000711700759 -0.0027823712770937525 0 0.045717743728439571 -0.0010223799328548321 0 0.044608088874869029 -0.00060833556395001971 0 0.044121211072614061 -0.00066857328781338163 0 0.044333209405443809 -0.00031661185607383211 0 0.047435735724959904 -0.0011800780310111535 0 0.047046351393073324 -0.0019176299813196439 0 0.046532813669543878 -0.0016853548699572053 0 0.047435735724959904 -0.0011800780310111535 0 0.046267536008999154 -0.0011093471808562047 0 0.046532813669543878 -0.0016853548699572053 0 0.050334728321546916 -0.00077952970977386202 0 0.045717743728439571 -0.0010223799328548321 0 0.044572044317917968 3.6591348812507276e-05 0 0.044706090883469489 -0.00026871839285998395 0 0.045007055236141076 5.0039351508312159e-08 0 0.044572044317917968 3.6591348812507276e-05 0 0.044333209405443809 -0.00031661185607383211 0 0.044706090883469489 -0.00026871839285998395 0 0.023465323345066312 0.00026636368989863853 0 0.02305987482419896 -3.7894883215742445e-05 0 0.023501135037105051 -9.8090173284737245e-05 0 0.023120509141305819 0.00038960214889930826 0 0.022866151010165457 9.0187545131001695e-05 0 0.02305987482419896 -3.7894883215742445e-05 0 0.023465323345066312 0.00026636368989863853 0 0.023120509141305819 0.00038960214889930826 0 0.02305987482419896 -3.7894883215742445e-05 0 0.023120509141305819 0.00038960214889930826 0 0.023518940470750468 0.00061007408103467468 0 0.023311729710012743 0.00084803735511429328 0 0.023465323345066312 0.00026636368989863853 0 0.023120509141305819 0.00038960214889930826 0 0.023518940470750468 0.00061007408103467468 0 0.023465323345066312 0.00026636368989863853 0 0.023518940470750468 0.00061007408103467468 0 0.023960887701298055 0.00065046170749463055 0 0.023518940470750468 0.00061007408103467468 0 0.02372962739195203 0.00091043320364114593 0 0.023960887701298055 0.00065046170749463055 0 0.023518940470750468 0.00061007408103467468 0 0.02372962739195203 0.00091043320364114593 0 0.023311729710012743 0.00084803735511429328 0 0.02372962739195203 0.00091043320364114593 0 0.023742444861251523 0.001199345789759447 0 0.024098169792640969 0.0011996724737697215 0 0.02372962739195203 0.00091043320364114593 0 0.023742444861251523 0.001199345789759447 0 0.023311729710012743 0.00084803735511429328 0 0.023476579517209679 0.0013119892712769425 0 0.023742444861251523 0.001199345789759447 0 0.023311729710012743 0.00084803735511429328 0 0.023311729710012743 0.00084803735511429328 0 0.023058895858636297 0.0010353282807693915 0 0.022954809120178245 0.00080407594275475568 0 0.023311729710012743 0.00084803735511429328 0 0.022954809120178245 0.00080407594275475568 0 0.022993368519956512 0.00060050064756228994 0 0.023476579517209679 0.0013119892712769425 0 0.023311729710012743 0.00084803735511429328 0 0.023058895858636297 0.0010353282807693915 0 0.037568121975970231 -0.0032173585808688517 0 0.036590601471317451 -0.0035817252119636888 0 0.036706081906087359 -0.0033345668476191972 0 0.029764273756287006 -0.0011849807328099726 0 0.029295006016725862 -0.0013373383473625621 0 0.03884993047967196 -0.0026096168207414366 0 0.038959263454342051 -0.0028069602832536855 0 0.03899047495296417 -0.0029731200927074282 0 0.036590601471317451 -0.0035817252119636888 0 0.036706081906087359 -0.0033345668476191972 0 0.035385164737170995 -0.0040564216825523898 0 0.029295006016725862 -0.0013373383473625621 0 0.033599438327780791 -0.0027379495936650897 0 0.038366916576102764 -0.0029373938081249259 0 0.033599438327780791 -0.0027379495936650897 0 0.038931552499646048 -0.0027540476252636776 0 0.03884993047967196 -0.0026096168207414366 0 0.038959263454342051 -0.0028069602832536855 0 0.038978038025275087 -0.0027859662680834577 0 0.038931552499646048 -0.0027540476252636776 0 0.038959263454342051 -0.0028069602832536855 0 0.022954809120178245 0.00080407594275475568 0 0.022828225997545724 0.00064682742041466737 0 0.022993368519956512 0.00060050064756228994 0 0.023058895858636297 0.0010353282807693915 0 0.022954809120178245 0.00080407594275475568 0 0.022837738962615338 0.00080570887006423814 0 0.022954809120178245 0.00080407594275475568 0 0.022828225997545724 0.00064682742041466737 0 0.022837738962615338 0.00080570887006423814 0 0.022828225997545724 0.00064682742041466737 0 0.022993368519956512 0.00060050064756228994 0 0.022832730417733912 0.00033987616616509218 0 0.022828225997545724 0.00064682742041466737 0 0.022832730417733912 0.00033987616616509218 0 0.022663995467362068 0.00033092897858080967 0 0.023120509141305819 0.00038960214889930826 0 0.022993368519956512 0.00060050064756228994 0 0.022832730417733912 0.00033987616616509218 0 0.023120509141305819 0.00038960214889930826 0 0.023311729710012743 0.00084803735511429328 0 0.022993368519956512 0.00060050064756228994 0 0.023120509141305819 0.00038960214889930826 0 0.022866151010165457 9.0187545131001695e-05 0 0.022832730417733912 0.00033987616616509218 0 0.022866151010165457 9.0187545131001695e-05 0 0.022832730417733912 0.00033987616616509218 0 0.02266835924481372 -4.3043667296951041e-05 0 0.022832730417733912 0.00033987616616509218 0 0.022663995467362068 0.00033092897858080967 0 0.02266835924481372 -4.3043667296951041e-05 0 0.022663995467362068 0.00033092897858080967 0 0.022515307850124948 0.00036199733149717695 0 0.022492530871820359 -2.2469462829560662e-05 0 0.022663995467362068 0.00033092897858080967 0 0.022492530871820359 -2.2469462829560662e-05 0 0.02266835924481372 -4.3043667296951041e-05 0 0.022432868048721855 -0.0020783595478081518 0 0.022537711176260144 -0.002592734963198146 0 0.022624355294370818 -0.0022652957199524953 0 0.022515307850124948 0.00036199733149717695 0 0.022292724214526272 9.0063124289000121e-05 0 0.022492530871820359 -2.2469462829560662e-05 0 0.021964312162674443 -0.00084318907655705913 0 0.026827846980344707 -0.0015281764133837613 0 0.022515307850124948 0.00036199733149717695 0 0.022292724214526272 9.0063124289000121e-05 0 0.022417362637902918 0.00061699815608094158 0 0.022515307850124948 0.00036199733149717695 0 0.022711316802438677 0.0007802860566752251 0 0.022823098003969505 0.00083377238522884089 0 0.022515307850124948 0.00036199733149717695 0 0.022417362637902918 0.00061699815608094158 0 0.022711316802438677 0.0007802860566752251 0 0.031522889442323697 -0.0019092303995239055 0 0.031430613268538236 -0.0019895415263443991 0 0.031543347272389173 -0.0019998609062913584 0 0.026827846980344707 -0.0015281764133837613 0 0.031902619396164816 -0.0022616196662608042 0 0.026827846980344707 -0.0015281764133837613 0 0.028447945661094456 -0.0020449962823145969 0 0.0315222661549351 -0.0019150575546945396 0 0.031543347272389173 -0.0019998609062913584 0 0.031609861738145187 -0.0019548525483517186 0 0.022663995467362068 0.00033092897858080967 0 0.022515307850124948 0.00036199733149717695 0 0.022823098003969505 0.00083377238522884089 0 0.022828225997545724 0.00064682742041466737 0 0.022663995467362068 0.00033092897858080967 0 0.022823098003969505 0.00083377238522884089 0 0.022828225997545724 0.00064682742041466737 0 0.022823098003969505 0.00083377238522884089 0 0.022837738962615338 0.00080570887006423814 0 0.038110578975188873 -0.003275286101235177 0 0.036444646745200406 -0.0044597330022501302 0 0.038470408755915043 -0.003339058531320572 0 0.033599438327780791 -0.0027379495936650897 0 0.039435403078390593 -0.0029634836234445866 0 0.03899047495296417 -0.0029731200927074282 0 0.038867242148567786 -0.002856783723600648 0 0.038470408755915043 -0.003339058531320572 0 0.030377518095616934 -0.0020658548974669027 0 0.033599438327780791 -0.0027379495936650897 0 0.038959263454342051 -0.0028069602832536855 0 0.03899047495296417 -0.0029731200927074282 0 0.038867242148567786 -0.002856783723600648 0 0.038978038025275087 -0.0027859662680834577 0 0.038959263454342051 -0.0028069602832536855 0 0.038867242148567786 -0.002856783723600648 0 0.039085742067829041 -0.0027935371331844201 0 0.038867242148567786 -0.002856783723600648 0 0.038807732107975682 -0.0028665445517354719 0 0.038344963711505378 -0.0034358664275974437 0 0.038807732107975682 -0.0028665445517354719 0 0.038470408755915043 -0.003339058531320572 0 0.031430613268538236 -0.0019895415263443991 0 0.031636164723366014 -0.0022618833830779241 0 0.031543347272389173 -0.0019998609062913584 0 0.038867242148567786 -0.002856783723600648 0 0.038807732107975682 -0.0028665445517354719 0 0.038470408755915043 -0.003339058531320572 0 0.031902619396164816 -0.0022616196662608042 0 0.035647219828760533 -0.002844435954616655 0 0.031902619396164816 -0.0022616196662608042 0 0.030377518095616934 -0.0020658548974669027 0 0.038344963711505378 -0.0034358664275974437 0 0.038110578975188873 -0.003275286101235177 0 0.038470408755915043 -0.003339058531320572 0 0.031543347272389173 -0.0019998609062913584 0 0.031670126953151155 -0.0020824333329035722 0 0.031609861738145187 -0.0019548525483517186 0 0.031636164723366014 -0.0022618833830779241 0 0.031543347272389173 -0.0019998609062913584 0 0.031670126953151155 -0.0020824333329035722 0 0.031670126953151155 -0.0020824333329035722 0 0.031696496798400323 -0.0019744015228529924 0 0.031609861738145187 -0.0019548525483517186 0 0.031775336646417775 -0.0020845060129285834 0 0.031811957721338081 -0.001985213535732252 0 0.031696496798400323 -0.0019744015228529924 0 0.031670126953151155 -0.0020824333329035722 0 0.031775336646417775 -0.0020845060129285834 0 0.031696496798400323 -0.0019744015228529924 0 0.031775336646417775 -0.0020845060129285834 0 0.031773073347120026 -0.0022257925647374784 0 0.031876888750544313 -0.0021573513543844494 0 0.031670126953151155 -0.0020824333329035722 0 0.031775336646417775 -0.0020845060129285834 0 0.031773073347120026 -0.0022257925647374784 0 0.031636164723366014 -0.0022618833830779241 0 0.031670126953151155 -0.0020824333329035722 0 0.031773073347120026 -0.0022257925647374784 0 0.031835835874726617 -0.0025092042184205144 0 0.031773073347120026 -0.0022257925647374784 0 0.031903157716178084 -0.0022811664099946587 0 0.035306473995613798 -0.0026290487794596537 0 0.035647219828760533 -0.002844435954616655 0 0.031835835874726617 -0.0025092042184205144 0 0.031636164723366014 -0.0022618833830779241 0 0.031773073347120026 -0.0022257925647374784 0 0.031835835874726617 -0.0025092042184205144 0 0.031903157716178084 -0.0022811664099946587 0 0.032056497605221349 -0.0023259438427907374 0 0.031773073347120026 -0.0022257925647374784 0 0.031903157716178084 -0.0022811664099946587 0 0.031876888750544313 -0.0021573513543844494 0 0.031903157716178084 -0.0022811664099946587 0 0.031984211349644229 -0.0022117537066537645 0 0.031876888750544313 -0.0021573513543844494 0 0.031903157716178084 -0.0022811664099946587 0 0.031984211349644229 -0.0022117537066537645 0 0.032056497605221349 -0.0023259438427907374 0 0.031984211349644229 -0.0022117537066537645 0 0.03201494371460098 -0.002160487767849396 0 0.032068122958727026 -0.0022164324101473331 0 0.031963879949769181 -0.0021286972360960322 0 0.031876888750544313 -0.0021573513543844494 0 0.031920614832517707 -0.0020557635867518784 0 0.031984211349644229 -0.0022117537066537645 0 0.03201494371460098 -0.002160487767849396 0 0.031963879949769181 -0.0021286972360960322 0 0.031984211349644229 -0.0022117537066537645 0 0.031963879949769181 -0.0021286972360960322 0 0.031876888750544313 -0.0021573513543844494 0 0.032004171331228314 -0.0021197889897799928 0 0.031980719222086465 -0.0020812273448812531 0 0.032021263675096757 -0.0020923360755623951 0 0.032004171331228314 -0.0021197889897799928 0 0.031963879949769181 -0.0021286972360960322 0 0.031980719222086465 -0.0020812273448812531 0 0.03201494371460098 -0.002160487767849396 0 0.032004171331228314 -0.0021197889897799928 0 0.031963879949769181 -0.0021286972360960322 0 0.031876888750544313 -0.0021573513543844494 0 0.031846279848708775 -0.0020706420871820994 0 0.031920614832517707 -0.0020557635867518784 0 0.031775336646417775 -0.0020845060129285834 0 0.031876888750544313 -0.0021573513543844494 0 0.031846279848708775 -0.0020706420871820994 0 0.031775336646417775 -0.0020845060129285834 0 0.031846279848708775 -0.0020706420871820994 0 0.031811957721338081 -0.001985213535732252 0 0.031846279848708775 -0.0020706420871820994 0 0.031920614832517707 -0.0020557635867518784 0 0.031811957721338081 -0.001985213535732252 0 0.031980719222086465 -0.0020812273448812531 0 0.031920614832517707 -0.0020557635867518784 0 0.03201107828294391 -0.0020352614940409232 0 0.031920614832517707 -0.0020557635867518784 0 0.031931922247167427 -0.0019232242397013732 0 0.03201107828294391 -0.0020352614940409232 0 0.031963879949769181 -0.0021286972360960322 0 0.031980719222086465 -0.0020812273448812531 0 0.031920614832517707 -0.0020557635867518784 0 0.031931922247167427 -0.0019232242397013732 0 0.031811957721338081 -0.001985213535732252 0 0.031654598325861281 -0.0018101340611113227 0 0.023284650398729428 -0.0028556997755110466 0 0.022667255617088874 -0.0025633591911828776 0 0.023293033079664901 -0.0024840918693539555 0 0.027593117853287615 -0.0024200766058895332 0 0.026380169952427947 -0.0023333973196369455 0 0.031920614832517707 -0.0020557635867518784 0 0.031931922247167427 -0.0019232242397013732 0 0.031811957721338081 -0.001985213535732252 0 0.031811957721338081 -0.001985213535732252 0 0.031696496798400323 -0.0019744015228529924 0 0.031654598325861281 -0.0018101340611113227 0 0.031696496798400323 -0.0019744015228529924 0 0.031609861738145187 -0.0019548525483517186 0 0.031654598325861281 -0.0018101340611113227 0 0.026827846980344707 -0.0015281764133837613 0 0.026380169952427947 -0.0023333973196369455 0 0.022537711176260144 -0.002592734963198146 0 0.022746468649574084 -0.0024282347205070022 0 0.022624355294370818 -0.0022652957199524953 0 0.0315222661549351 -0.0019150575546945396 0 0.031609861738145187 -0.0019548525483517186 0 0.031654598325861281 -0.0018101340611113227 0 0.022746468649574084 -0.0024282347205070022 0 0.022820153541528793 -0.0022339469905630163 0 0.023062529746536681 -0.0022442316643531564 0 0.022746468649574084 -0.0024282347205070022 0 0.022731918094087061 -0.002337913638864644 0 0.022820153541528793 -0.0022339469905630163 0 0.026380169952427947 -0.0023333973196369455 0 0.022252752790400416 -0.0028895789801862636 0 0.022731918094087061 -0.002337913638864644 0 0.022624355294370818 -0.0022652957199524953 0 0.022820153541528793 -0.0022339469905630163 0 0.022746468649574084 -0.0024282347205070022 0 0.022731918094087061 -0.002337913638864644 0 0.022624355294370818 -0.0022652957199524953 0 0.022432868048721855 -0.0020783595478081518 0 0.022624355294370818 -0.0022652957199524953 0 0.022634236633043633 -0.0019304444458492543 0 0.022624355294370818 -0.0022652957199524953 0 0.022820153541528793 -0.0022339469905630163 0 0.022634236633043633 -0.0019304444458492543 0 0.022820153541528793 -0.0022339469905630163 0 0.023062529746536681 -0.0022442316643531564 0 0.022899714200044934 -0.0018982979347114102 0 0.022667255617088874 -0.0025633591911828776 0 0.023062529746536681 -0.0022442316643531564 0 0.023293033079664901 -0.0024840918693539555 0 0.023062529746536681 -0.0022442316643531564 0 0.023198317174543889 -0.0019124009851984988 0 0.023394337834637693 -0.0021811009911310033 0 0.023062529746536681 -0.0022442316643531564 0 0.023293033079664901 -0.0024840918693539555 0 0.023394337834637693 -0.0021811009911310033 0 0.023198317174543889 -0.0019124009851984988 0 0.023039924494759039 -0.0015952584608837162 0 0.023454679419650428 -0.0017813847211313831 0 0.023198317174543889 -0.0019124009851984988 0 0.022899714200044934 -0.0018982979347114102 0 0.023039924494759039 -0.0015952584608837162 0 0.023062529746536681 -0.0022442316643531564 0 0.023198317174543889 -0.0019124009851984988 0 0.022899714200044934 -0.0018982979347114102 0 0.022634236633043633 -0.0019304444458492543 0 0.022707718182652145 -0.0016077149380141075 0 0.022353319657768319 -0.0015064847105294588 0 0.022820153541528793 -0.0022339469905630163 0 0.022899714200044934 -0.0018982979347114102 0 0.022634236633043633 -0.0019304444458492543 0 0.022899714200044934 -0.0018982979347114102 0 0.022707718182652145 -0.0016077149380141075 0 0.023039924494759039 -0.0015952584608837162 0 0.022899714200044934 -0.0018982979347114102 0 0.022634236633043633 -0.0019304444458492543 0 0.022707718182652145 -0.0016077149380141075 0 0.022707718182652145 -0.0016077149380141075 0 0.023039924494759039 -0.0015952584608837162 0 0.022750707249132477 -0.0012211063752837234 0 0.022707718182652145 -0.0016077149380141075 0 0.022750707249132477 -0.0012211063752837234 0 0.022353319657768319 -0.0015064847105294588 0 0.023039924494759039 -0.0015952584608837162 0 0.022750707249132477 -0.0012211063752837234 0 0.023301111854727524 -0.0013238479399501648 0 0.023024810649583893 -0.00086378376324029813 0 0.022750707249132477 -0.0012211063752837234 0 0.023301111854727524 -0.0013238479399501648 0 0.023024810649583893 -0.00086378376324029813 0 0.023043438228744835 -0.0005404320206394786 0 0.022761786792249987 -0.0005325719434473912 0 0.023024810649583893 -0.00086378376324029813 0 0.022598567285964981 -0.00075020785766573696 0 0.022761786792249987 -0.0005325719434473912 0 0.023024810649583893 -0.00086378376324029813 0 0.022598567285964981 -0.00075020785766573696 0 0.022750707249132477 -0.0012211063752837234 0 0.022598567285964981 -0.00075020785766573696 0 0.022750707249132477 -0.0012211063752837234 0 0.022313548649449528 -0.00097666152409291726 0 0.022275895746432805 -0.00053867235013203255 0 0.022392489001221087 -0.00050954146953303243 0 0.022258795041697813 -0.00030300647995398626 0 0.02229379744983527 -0.00074579945886847209 0 0.022349008886530779 -0.00093970770115554944 0 0.022750707249132477 -0.0012211063752837234 0 0.022313548649449528 -0.00097666152409291726 0 0.022353319657768319 -0.0015064847105294588 0 0.022598567285964981 -0.00075020785766573696 0 0.022313548649449528 -0.00097666152409291726 0 0.022310099988447303 -0.00058185053329335801 0 0.02229379744983527 -0.00074579945886847209 0 0.022305263054246641 -0.0005976676590273176 0 0.022275895746432805 -0.00053867235013203255 0 0.022310099988447303 -0.00058185053329335801 0 0.022310542098368493 -0.00060082580996386468 0 0.022275895746432805 -0.00053867235013203255 0 0.022392489001221087 -0.00050954146953303243 0 0.022310542098368493 -0.00060082580996386468 0 0.022258795041697813 -0.00030300647995398626 0 0.022492530871820359 -2.2469462829560662e-05 0 0.022540504492935085 -0.00031516282993931141 0 0.022392489001221087 -0.00050954146953303243 0 0.022258795041697813 -0.00030300647995398626 0 0.022540504492935085 -0.00031516282993931141 0 0.021964312162674443 -0.00084318907655705913 0 0.022349008886530779 -0.00093970770115554944 0 0.022432868048721855 -0.0020783595478081518 0 0.022634236633043633 -0.0019304444458492543 0 0.022353319657768319 -0.0015064847105294588 0 0.022292724214526272 9.0063124289000121e-05 0 0.022258795041697813 -0.00030300647995398626 0 0.022492530871820359 -2.2469462829560662e-05 0 0.02266835924481372 -4.3043667296951041e-05 0 0.022755709417120327 -0.00029032154217282808 0 0.022540504492935085 -0.00031516282993931141 0 0.022492530871820359 -2.2469462829560662e-05 0 0.02266835924481372 -4.3043667296951041e-05 0 0.022540504492935085 -0.00031516282993931141 0 0.022866151010165457 9.0187545131001695e-05 0 0.02266835924481372 -4.3043667296951041e-05 0 0.022755709417120327 -0.00029032154217282808 0 0.022866151010165457 9.0187545131001695e-05 0 0.022755709417120327 -0.00029032154217282808 0 0.02305987482419896 -3.7894883215742445e-05 0 0.022755709417120327 -0.00029032154217282808 0 0.022574053663707894 -0.00049179062390474957 0 0.022755196557296395 -0.0004937227866832159 0 0.022755709417120327 -0.00029032154217282808 0 0.022540504492935085 -0.00031516282993931141 0 0.022574053663707894 -0.00049179062390474957 0 0.022392489001221087 -0.00050954146953303243 0 0.022413693778722633 -0.0006183929156441646 0 0.022574053663707894 -0.00049179062390474957 0 0.022392489001221087 -0.00050954146953303243 0 0.022540504492935085 -0.00031516282993931141 0 0.022574053663707894 -0.00049179062390474957 0 0.022392489001221087 -0.00050954146953303243 0 0.022413693778722633 -0.0006183929156441646 0 0.022310542098368493 -0.00060082580996386468 0 0.022413693778722633 -0.0006183929156441646 0 0.022574053663707894 -0.00049179062390474957 0 0.022571256244745388 -0.00062726955750914265 0 0.022574053663707894 -0.00049179062390474957 0 0.022571256244745388 -0.00062726955750914265 0 0.022755196557296395 -0.0004937227866832159 0 0.022571256244745388 -0.00062726955750914265 0 0.022404264626960043 -0.00074950758540767715 0 0.022302914796559478 -0.00073177727037687516 0 0.022413693778722633 -0.0006183929156441646 0 0.022571256244745388 -0.00062726955750914265 0 0.022302914796559478 -0.00073177727037687516 0 0.022404264626960043 -0.00074950758540767715 0 0.022619616503344188 -0.00060838132735656554 0 0.022215297260690939 -0.0009565197218919919 0 0.022404264626960043 -0.00074950758540767715 0 0.022302914796559478 -0.00073177727037687516 0 0.022215297260690939 -0.0009565197218919919 0 0.022571256244745388 -0.00062726955750914265 0 0.022404264626960043 -0.00074950758540767715 0 0.022619616503344188 -0.00060838132735656554 0 0.022571256244745388 -0.00062726955750914265 0 0.022975854575817248 -0.00051442682780652863 0 0.022619616503344188 -0.00060838132735656554 0 0.022755709417120327 -0.00029032154217282808 0 0.022975854575817248 -0.00051442682780652863 0 0.022755196557296395 -0.0004937227866832159 0 0.022571256244745388 -0.00062726955750914265 0 0.022975854575817248 -0.00051442682780652863 0 0.022755196557296395 -0.0004937227866832159 0 0.022755709417120327 -0.00029032154217282808 0 0.022975854575817248 -0.00051442682780652863 0 0.02305987482419896 -3.7894883215742445e-05 0 0.022975854575817248 -0.00051442682780652863 0 0.02305987482419896 -3.7894883215742445e-05 0 0.023501135037105051 -9.8090173284737245e-05 0 0.043100970472134729 1.1108970295275719e-06 0 0.03617924247098224 -3.4197615852064077e-06 0 0.040362116048084692 -0.00035403842130788131 0 0.034249395194229149 -0.0003432377708025227 0 0.033960748428524763 -0.00040878671961332028 0 0.034071384046199242 -0.00074719758598777318 0 0.033960748428524763 -0.00040878671961332028 0 0.033752631229679926 -0.00016818203710032112 0 0.034174215591109412 9.1040317222849953e-05 0 0.034249395194229149 -0.0003432377708025227 0 0.033960748428524763 -0.00040878671961332028 0 0.034174215591109412 9.1040317222849953e-05 0 0.029762650000315988 -0.0013426890069874831 0 0.030028718666696992 -0.0012535222760965659 0 0.034249395194229149 -0.0003432377708025227 0 0.034505734954553446 0.00014729263965667849 0 0.034174215591109412 9.1040317222849953e-05 0 0.034505734954553446 0.00014729263965667849 0 0.036167397516251934 -1.4030739374230976e-06 0 0.03365514566210312 1.6612450180470611e-06 0 0.036173231646501838 1.245067800940136e-07 0 0.03770819592332994 -0.00041641266341445348 0 0.034505734954553446 0.00014729263965667849 0 0.036167397516251934 -1.4030739374230976e-06 0 0.034830273668427544 -0.00079088718877123377 0 0.034249395194229149 -0.0003432377708025227 0 0.034505734954553446 0.00014729263965667849 0 0.034830273668427544 -0.00079088718877123377 0 0.03770819592332994 -0.00041641266341445348 0 0.038812962980212459 -0.00067356630843802535 0 0.043100970472134729 1.1108970295275719e-06 0 0.042820271513295614 -0.00017040077349051729 0 0.040362116048084692 -0.00035403842130788131 0 0.042820271513295614 -0.00017040077349051729 0 0.040362116048084692 -0.00035403842130788131 0 0.043257351862351072 -0.00048292038115999345 0 0.034249395194229149 -0.0003432377708025227 0 0.034364105813934162 -0.0010460624534172789 0 0.034071384046199242 -0.00074719758598777318 0 0.034249395194229149 -0.0003432377708025227 0 0.034830273668427544 -0.00079088718877123377 0 0.034364105813934162 -0.0010460624534172789 0 0.033960748428524763 -0.00040878671961332028 0 0.034071384046199242 -0.00074719758598777318 0 0.033879804859758771 -0.00078325899133375673 0 0.034071384046199242 -0.00074719758598777318 0 0.034099572405720528 -0.00099788372340968456 0 0.033879804859758771 -0.00078325899133375673 0 0.034041104208376832 -0.0010058520842561713 0 0.034364105813934162 -0.0010460624534172789 0 0.034099572405720528 -0.00099788372340968456 0 0.034364105813934162 -0.0010460624534172789 0 0.034071384046199242 -0.00074719758598777318 0 0.034099572405720528 -0.00099788372340968456 0 0.034099572405720528 -0.00099788372340968456 0 0.03406542254434413 -0.001094466919999566 0 0.033879804859758771 -0.00078325899133375673 0 0.03406542254434413 -0.001094466919999566 0 0.033662207101691419 -0.00086432972268392523 0 0.033879804859758771 -0.00078325899133375673 0 0.034100910395851551 -0.001039138285322484 0 0.033681053969809985 -0.00148220180479142 0 0.03406542254434413 -0.001094466919999566 0 0.033662207101691419 -0.00086432972268392523 0 0.03346682008165857 -0.00084035742715260779 0 0.034444363789731668 -0.0011735054479282095 0 0.034478158573333063 -0.0015420460688464039 0 0.03468241494275566 -0.0013451321083380729 0 0.03406542254434413 -0.001094466919999566 0 0.034444363789731668 -0.0011735054479282095 0 0.034478158573333063 -0.0015420460688464039 0 0.034680216863434851 -0.0010658977057056544 0 0.034444363789731668 -0.0011735054479282095 0 0.03468241494275566 -0.0013451321083380729 0 0.033512866243024637 -0.0011866972389444402 0 0.033681053969809985 -0.00148220180479142 0 0.033662207101691419 -0.00086432972268392523 0 0.033483364388098132 -0.00082619882134393145 0 0.033620515325948737 -0.00070554450514555224 0 0.033681053969809985 -0.00148220180479142 0 0.032060975078802824 -0.001619897620220921 0 0.034478158573333063 -0.0015420460688464039 0 0.03468241494275566 -0.0013451321083380729 0 0.034788460111374542 -0.0016659567786846124 0 0.03287909873605499 -0.0021586810486283439 0 0.0316876085081291 -0.00099229456472040597 0 0.031357163843558453 -0.0015451781042555342 0 0.033483364388098132 -0.00082619882134393145 0 0.033450282301982534 -0.00060526128410070461 0 0.033200937939577083 -0.00059895383215858786 0 0.033681053969809985 -0.00148220180479142 0 0.030278970774560085 -0.0016462927244830336 0 0.033450282301982534 -0.00060526128410070461 0 0.033620515325948737 -0.00070554450514555224 0 0.033660507441817152 -0.00051831900824884849 0 0.033483364388098132 -0.00082619882134393145 0 0.033450282301982534 -0.00060526128410070461 0 0.033620515325948737 -0.00070554450514555224 0 0.033620515325948737 -0.00070554450514555224 0 0.033879804859758771 -0.00078325899133375673 0 0.033660507441817152 -0.00051831900824884849 0 0.033662207101691419 -0.00086432972268392523 0 0.033620515325948737 -0.00070554450514555224 0 0.033879804859758771 -0.00078325899133375673 0 0.03514706311608809 -0.0016175995541429066 0 0.032320274880902326 -0.0014436529353491179 0 0.032068122958727026 -0.0022164324101473331 0 0.032214080382356729 -0.0023277141026065763 0 0.032045610038890233 -0.0020907622393699162 0 0.031984211349644229 -0.0022117537066537645 0 0.032068122958727026 -0.0022164324101473331 0 0.032056497605221349 -0.0023259438427907374 0 0.032068122958727026 -0.0022164324101473331 0 0.032056497605221349 -0.0023259438427907374 0 0.032214080382356729 -0.0023277141026065763 0 0.034680216863434851 -0.0010658977057056544 0 0.035079775567486038 -0.0012053331254354466 0 0.03468241494275566 -0.0013451321083380729 0 0.03514706311608809 -0.0016175995541429066 0 0.032060975078802824 -0.001619897620220921 0 0.035079775567486038 -0.0012053331254354466 0 0.03468241494275566 -0.0013451321083380729 0 0.034788460111374542 -0.0016659567786846124 0 0.030278970774560085 -0.0016462927244830336 0 0.032060975078802824 -0.001619897620220921 0 0.029422512562006047 -0.0016853184399394309 0 0.02937606736285505 -0.0016935299619659676 0 0.029394252577801389 -0.0017380977632614901 0 0.032060975078802824 -0.001619897620220921 0 0.029097665549083631 -0.001980715223884935 0 0.02937606736285505 -0.0016935299619659676 0 0.029394252577801389 -0.0017380977632614901 0 0.029292181237292346 -0.001697819177820417 0 0.03207070845250963 -0.0018166321568398468 0 0.032315469473476861 -0.0019179184559506596 0 0.032617263010973785 -0.001749265063916495 0 0.032426679867203517 -0.0012644231304641406 0 0.03207070845250963 -0.0018166321568398468 0 0.032617263010973785 -0.001749265063916495 0 0.029097665549083631 -0.001980715223884935 0 0.032320274880902326 -0.0014436529353491179 0 0.032132416359356361 -0.0020269035927089354 0 0.03201107828294391 -0.0020352614940409232 0 0.032045610038890233 -0.0020907622393699162 0 0.031980719222086465 -0.0020812273448812531 0 0.03201107828294391 -0.0020352614940409232 0 0.032021263675096757 -0.0020923360755623951 0 0.03201107828294391 -0.0020352614940409232 0 0.032021263675096757 -0.0020923360755623951 0 0.032045610038890233 -0.0020907622393699162 0 0.032068122958727026 -0.0022164324101473331 0 0.032038314366518918 -0.0021342381978084555 0 0.032045610038890233 -0.0020907622393699162 0 0.032004171331228314 -0.0021197889897799928 0 0.032021263675096757 -0.0020923360755623951 0 0.032038314366518918 -0.0021342381978084555 0 0.032021263675096757 -0.0020923360755623951 0 0.032038314366518918 -0.0021342381978084555 0 0.032045610038890233 -0.0020907622393699162 0 0.03201494371460098 -0.002160487767849396 0 0.032068122958727026 -0.0022164324101473331 0 0.032038314366518918 -0.0021342381978084555 0 0.03201494371460098 -0.002160487767849396 0 0.032004171331228314 -0.0021197889897799928 0 0.032038314366518918 -0.0021342381978084555 0 0.023284650398729428 -0.0028556997755110466 0 0.023293033079664901 -0.0024840918693539555 0 0.023914297466744252 -0.0025404895569073587 0 0.023284650398729428 -0.0028556997755110466 0 0.024055495836742435 -0.0031815441502164154 0 0.023914297466744252 -0.0025404895569073587 0 0.027593117853287615 -0.0024200766058895332 0 0.029097665549083631 -0.001980715223884935 0 0.031931922247167427 -0.0019232242397013732 0 0.032132416359356361 -0.0020269035927089354 0 0.03201107828294391 -0.0020352614940409232 0 0.024055495836742435 -0.0031815441502164154 0 0.023914297466744252 -0.0025404895569073587 0 0.02442066414439897 -0.0029787918427706212 0 0.023652814545677699 -0.0023346276005108187 0 0.026728081102087697 -0.0022164072267061873 0 0.023666726139219236 -0.0024904259450932793 0 0.023980130369339658 -0.0027882825671839951 0 0.023948879822424388 -0.0024763094805026627 0 0.029097665549083631 -0.001980715223884935 0 0.026728081102087697 -0.0022164072267061873 0 0.02937606736285505 -0.0016935299619659676 0 0.029292181237292346 -0.001697819177820417 0 0.029380434217347002 -0.0016481948788573918 0 0.028521926633456748 -0.0017296778035469284 0 0.028806840560919256 -0.0020152709078059168 0 0.028107771132077516 -0.0024152175403227005 0 0.026728081102087697 -0.0022164072267061873 0 0.027526607701521665 -0.0021404691662892977 0 0.029422512562006047 -0.0016853184399394309 0 0.02937606736285505 -0.0016935299619659676 0 0.029380434217347002 -0.0016481948788573918 0 0.030278970774560085 -0.0016462927244830336 0 0.026728081102087697 -0.0022164072267061873 0 0.023980130369339658 -0.0027882825671839951 0 0.023948879822424388 -0.0024763094805026627 0 0.024206683201966939 -0.0026579210460780777 0 0.023948879822424388 -0.0024763094805026627 0 0.024206683201966939 -0.0026579210460780777 0 0.024127859823322915 -0.0022161645163654735 0 0.023948879822424388 -0.0024763094805026627 0 0.023733717863780212 -0.0021700168304025604 0 0.024127859823322915 -0.0022161645163654735 0 0.023666726139219236 -0.0024904259450932793 0 0.023948879822424388 -0.0024763094805026627 0 0.023733717863780212 -0.0021700168304025604 0 0.023293033079664901 -0.0024840918693539555 0 0.023914297466744252 -0.0025404895569073587 0 0.023394337834637693 -0.0021811009911310033 0 0.023666726139219236 -0.0024904259450932793 0 0.023733717863780212 -0.0021700168304025604 0 0.023394337834637693 -0.0021811009911310033 0 0.023652814545677699 -0.0023346276005108187 0 0.023510316979514553 -0.0022741355165820398 0 0.033960748428524763 -0.00040878671961332028 0 0.033660507441817152 -0.00051831900824884849 0 0.033752631229679926 -0.00016818203710032112 0 0.033660507441817152 -0.00051831900824884849 0 0.033316205474656038 -0.00041563196113623898 0 0.033752631229679926 -0.00016818203710032112 0 0.033960748428524763 -0.00040878671961332028 0 0.033879804859758771 -0.00078325899133375673 0 0.033660507441817152 -0.00051831900824884849 0 0.033450282301982534 -0.00060526128410070461 0 0.033660507441817152 -0.00051831900824884849 0 0.033316205474656038 -0.00041563196113623898 0 0.027526607701521665 -0.0021404691662892977 0 0.029762650000315988 -0.0013426890069874831 0 0.033450282301982534 -0.00060526128410070461 0 0.033200937939577083 -0.00059895383215858786 0 0.033316205474656038 -0.00041563196113623898 0 0.030278970774560085 -0.0016462927244830336 0 0.027526607701521665 -0.0021404691662892977 0 0.027526607701521665 -0.0021404691662892977 0 0.024219136202331255 -0.0025170043960366429 0 0.024206683201966939 -0.0026579210460780777 0 0.024127859823322915 -0.0022161645163654735 0 0.024591931757488004 -0.0020749848635548975 0 0.024659250311930888 -0.0030327889383898678 0 0.025138709842226829 -0.0027703425963524564 0 0.024901384131455349 -0.0024452025674778226 0 0.024901384131455349 -0.0024452025674778226 0 0.025279963082738305 -0.0013922278253371103 0 0.025421326829104817 -0.0021473101845242938 0 0.024219136202331255 -0.0025170043960366429 0 0.025302907779081785 -0.0012648000214148265 0 0.025138709842226829 -0.0027703425963524564 0 0.024901384131455349 -0.0024452025674778226 0 0.025421326829104817 -0.0021473101845242938 0 0.024591931757488004 -0.0020749848635548975 0 0.024204568359905414 -0.0018596920705444249 0 0.024364028714777292 -0.0014779028561050934 0 0.024127859823322915 -0.0022161645163654735 0 0.024591931757488004 -0.0020749848635548975 0 0.024204568359905414 -0.0018596920705444249 0 0.024204568359905414 -0.0018596920705444249 0 0.024364028714777292 -0.0014779028561050934 0 0.023992057810876887 -0.0016090602005984658 0 0.024591931757488004 -0.0020749848635548975 0 0.024364028714777292 -0.0014779028561050934 0 0.025116927456162775 -0.0013629142343784355 0 0.023733717863780212 -0.0021700168304025604 0 0.023394337834637693 -0.0021811009911310033 0 0.023454679419650428 -0.0017813847211313831 0 0.023733717863780212 -0.0021700168304025604 0 0.023454679419650428 -0.0017813847211313831 0 0.023905689038378707 -0.0018881968567071078 0 0.023198317174543889 -0.0019124009851984988 0 0.023394337834637693 -0.0021811009911310033 0 0.023454679419650428 -0.0017813847211313831 0 0.023454679419650428 -0.0017813847211313831 0 0.023905689038378707 -0.0018881968567071078 0 0.023699703477807782 -0.0015708965281696519 0 0.023733717863780212 -0.0021700168304025604 0 0.024127859823322915 -0.0022161645163654735 0 0.023905689038378707 -0.0018881968567071078 0 0.024127859823322915 -0.0022161645163654735 0 0.024204568359905414 -0.0018596920705444249 0 0.023905689038378707 -0.0018881968567071078 0 0.024204568359905414 -0.0018596920705444249 0 0.023905689038378707 -0.0018881968567071078 0 0.023992057810876887 -0.0016090602005984658 0 0.024364028714777292 -0.0014779028561050934 0 0.023992057810876887 -0.0016090602005984658 0 0.023800943764926648 -0.0012380500104743777 0 0.023992057810876887 -0.0016090602005984658 0 0.023699703477807782 -0.0015708965281696519 0 0.023800943764926648 -0.0012380500104743777 0 0.023905689038378707 -0.0018881968567071078 0 0.023992057810876887 -0.0016090602005984658 0 0.023699703477807782 -0.0015708965281696519 0 0.023454679419650428 -0.0017813847211313831 0 0.023699703477807782 -0.0015708965281696519 0 0.023301111854727524 -0.0013238479399501648 0 0.023699703477807782 -0.0015708965281696519 0 0.023301111854727524 -0.0013238479399501648 0 0.023800943764926648 -0.0012380500104743777 0 0.023039924494759039 -0.0015952584608837162 0 0.023454679419650428 -0.0017813847211313831 0 0.023301111854727524 -0.0013238479399501648 0 0.023024810649583893 -0.00086378376324029813 0 0.023301111854727524 -0.0013238479399501648 0 0.023415589337915814 -0.00102276898279745 0 0.023301111854727524 -0.0013238479399501648 0 0.023415589337915814 -0.00102276898279745 0 0.023800943764926648 -0.0012380500104743777 0 0.023415589337915814 -0.00102276898279745 0 0.023800943764926648 -0.0012380500104743777 0 0.023577921283489848 -0.00071846386356978482 0 0.023800943764926648 -0.0012380500104743777 0 0.023577921283489848 -0.00071846386356978482 0 0.024193891730819535 -0.00090096773451622434 0 0.023577921283489848 -0.00071846386356978482 0 0.024328988350757468 -0.00046203754673084386 0 0.023809231097427871 -0.00033452538046198409 0 0.023577921283489848 -0.00071846386356978482 0 0.024193891730819535 -0.00090096773451622434 0 0.024328988350757468 -0.00046203754673084386 0 0.023024810649583893 -0.00086378376324029813 0 0.023577921283489848 -0.00071846386356978482 0 0.023043438228744835 -0.0005404320206394786 0 0.023024810649583893 -0.00086378376324029813 0 0.023415589337915814 -0.00102276898279745 0 0.023577921283489848 -0.00071846386356978482 0 0.024364028714777292 -0.0014779028561050934 0 0.024858450027145242 -0.00066134778005671427 0 0.025116927456162775 -0.0013629142343784355 0 0.024364028714777292 -0.0014779028561050934 0 0.024193891730819535 -0.00090096773451622434 0 0.024858450027145242 -0.00066134778005671427 0 0.024364028714777292 -0.0014779028561050934 0 0.023800943764926648 -0.0012380500104743777 0 0.024193891730819535 -0.00090096773451622434 0 0.024193891730819535 -0.00090096773451622434 0 0.024328988350757468 -0.00046203754673084386 0 0.024858450027145242 -0.00066134778005671427 0 0.024328988350757468 -0.00046203754673084386 0 0.024858450027145242 -0.00066134778005671427 0 0.025017380498286439 -0.00010295681330231292 0 0.024858450027145242 -0.00066134778005671427 0 0.0256723843270871 -0.00021469619653539314 0 0.025017380498286439 -0.00010295681330231292 0 0.0256723843270871 -0.00021469619653539314 0 0.026084361586101168 -0.001376039304534125 0 0.027289786108459838 -0.00013097947097904958 0 0.0256723843270871 -0.00021469619653539314 0 0.025279963082738305 -0.0013922278253371103 0 0.026084361586101168 -0.001376039304534125 0 0.024858450027145242 -0.00066134778005671427 0 0.0256723843270871 -0.00021469619653539314 0 0.025116927456162775 -0.0013629142343784355 0 0.025633875549238672 -0.00031859081159825241 0 0.025302907779081785 -0.0012648000214148265 0 0.025279963082738305 -0.0013922278253371103 0 0.026084361586101168 -0.001376039304534125 0 0.025421326829104817 -0.0021473101845242938 0 0.026084361586101168 -0.001376039304534125 0 0.025992554162217848 -0.002497792106481646 0 0.027429627519414041 -0.0021233254161783987 0 0.030028718666696992 -0.0012535222760965659 0 0.030753332798433123 -0.00097026378436693107 0 0.025138709842226829 -0.0027703425963524564 0 0.025992554162217848 -0.002497792106481646 0 0.025421326829104817 -0.0021473101845242938 0 0.026084361586101168 -0.001376039304534125 0 0.025992554162217848 -0.002497792106481646 0 0.025421326829104817 -0.0021473101845242938 0 0.034505734954553446 0.00014729263965667849 0 0.03365514566210312 1.6612450180470611e-06 0 0.034019553483156231 -5.1203268026513789e-05 0 0.034505734954553446 0.00014729263965667849 0 0.034174215591109412 9.1040317222849953e-05 0 0.034019553483156231 -5.1203268026513789e-05 0 0.026084361586101168 -0.001376039304534125 0 0.027429627519414041 -0.0021233254161783987 0 0.027289786108459838 -0.00013097947097904958 0 0.030753332798433123 -0.00097026378436693107 0 0.031137148320138482 -2.5872750460812512e-07 0 0.03365514566210312 1.6612450180470611e-06 0 0.034019553483156231 -5.1203268026513789e-05 0 0.031140888686086592 -1.9610491773606793e-06 0 0.027429627519414041 -0.0021233254161783987 0 0.031130023629599948 -5.0145452948951336e-06 0 0.027289786108459838 -0.00013097947097904958 0 0.031130023629599948 -5.0145452948951336e-06 0 0.027289786108459838 -0.00013097947097904958 0 0.028084527657368644 1.9409310188709938e-06 0 0.0256723843270871 -0.00021469619653539314 0 0.027289786108459838 -0.00013097947097904958 0 0.025894379753635732 9.8820363450516203e-05 0 0.027289786108459838 -0.00013097947097904958 0 0.028084527657368644 1.9409310188709938e-06 0 0.025894379753635732 9.8820363450516203e-05 0 0.028084527657368644 1.9409310188709938e-06 0 0.025894379753635732 9.8820363450516203e-05 0 0.025030031280620382 -1.0151591568070664e-06 0 0.025894379753635732 9.8820363450516203e-05 0 0.023806166843710438 -0.00053564301309327379 0 0.025314239787999893 0.00011831517905857569 0 0.025894379753635732 9.8820363450516203e-05 0 0.023806166843710438 -0.00053564301309327379 0 0.025030031280620382 -1.0151591568070664e-06 0 0.023806166843710438 -0.00053564301309327379 0 0.025030031280620382 -1.0151591568070664e-06 0 0.022663777827659902 -8.2083375786101679e-05 0 0.025371396522173715 -6.2816474122812579e-06 0 0.025450558278206595 -3.5186046706320809e-05 0 0.025017380498286439 -0.00010295681330231292 0 0.0256723843270871 -0.00021469619653539314 0 0.025371396522173715 -6.2816474122812579e-06 0 0.025017380498286439 -0.00010295681330231292 0 0.0256723843270871 -0.00021469619653539314 0 0.025894379753635732 9.8820363450516203e-05 0 0.025314239787999893 0.00011831517905857569 0 0.025371396522173715 -6.2816474122812579e-06 0 0.025314239787999893 0.00011831517905857569 0 0.025450558278206595 -3.5186046706320809e-05 0 0.0256723843270871 -0.00021469619653539314 0 0.025371396522173715 -6.2816474122812579e-06 0 0.025314239787999893 0.00011831517905857569 0 0.023806166843710438 -0.00053564301309327379 0 0.025314239787999893 0.00011831517905857569 0 0.025450558278206595 -3.5186046706320809e-05 0 0.023806166843710438 -0.00053564301309327379 0 0.018739155876764939 -0.0015824833808473313 0 0.020605310608031439 -0.00047401996015199996 0 0.023573790161722043 -0.00060129830140816796 0 0.02215785898828487 -0.00072872736099122257 0 0.018739155876764939 -0.0015824833808473313 0 0.018961504642731993 -0.00018777166497775053 0 0.01776214188450741 -0.00050714242832984742 0 0.018961504642731993 -0.00018777166497775053 0 0.017987940357078052 2.566590612317644e-05 0 0.01776214188450741 -0.00050714242832984742 0 0.018739155876764939 -0.0015824833808473313 0 0.018961504642731993 -0.00018777166497775053 0 0.020605310608031439 -0.00047401996015199996 0 0.018961504642731993 -0.00018777166497775053 0 0.020605310608031439 -0.00047401996015199996 0 0.021013029890826613 1.6880767450940161e-05 0 0.018961504642731993 -0.00018777166497775053 0 0.019005885677161851 0.00043201019193057406 0 0.021013029890826613 1.6880767450940161e-05 0 0.018961504642731993 -0.00018777166497775053 0 0.017987940357078052 2.566590612317644e-05 0 0.017786542091266198 0.0005301120180115198 0 0.018788379208686833 -0.00018000676585688396 0 0.017835075454898201 0.00056718802989276583 0 0.018961504642731993 -0.00018777166497775053 0 0.019005885677161851 0.00043201019193057406 0 0.017822285979117284 0.00061489070621169523 0 0.017987940357078052 2.566590612317644e-05 0 0.017786542091266198 0.0005301120180115198 0 0.017430861688171564 6.4403929018783167e-05 0 0.025030031280620382 -1.0151591568070664e-06 0 0.022663777827659902 -8.2083375786101679e-05 0 0.021978034608856053 3.0706430550774829e-07 0 0.023806166843710438 -0.00053564301309327379 0 0.020605310608031439 -0.00047401996015199996 0 0.021013029890826613 1.6880767450940161e-05 0 0.023806166843710438 -0.00053564301309327379 0 0.022663777827659902 -8.2083375786101679e-05 0 0.021013029890826613 1.6880767450940161e-05 0 0.019005885677161851 0.00043201019193057406 0 0.021013029890826613 1.6880767450940161e-05 0 0.019782842316755315 0.00036601920935437084 0 0.022663777827659902 -8.2083375786101679e-05 0 0.021013029890826613 1.6880767450940161e-05 0 0.019782842316755315 0.00036601920935437084 0 0.022663777827659902 -8.2083375786101679e-05 0 0.021978034608856053 3.0706430550774829e-07 0 0.019782842316755315 0.00036601920935437084 0 0.021978034608856053 3.0706430550774829e-07 0 0.018925293437759061 8.3672396178043685e-07 0 0.019782842316755315 0.00036601920935437084 0 0.018925293437759061 8.3672396178043685e-07 0 0.017494537843771269 0.00043681032826477613 0 0.019782842316755315 0.00036601920935437084 0 0.018925293437759061 8.3672396178043685e-07 0 0.017494537843771269 0.00043681032826477613 0 0.015872732460078923 9.6381044219267984e-07 0 0.017494537843771269 0.00043681032826477613 0 0.019782842316755315 0.00036601920935437084 0 0.017535478182125988 0.00076990424526683209 0 0.019005885677161851 0.00043201019193057406 0 0.019782842316755315 0.00036601920935437084 0 0.017535478182125988 0.00076990424526683209 0 0.019005885677161851 0.00043201019193057406 0 0.017822285979117284 0.00061489070621169523 0 0.017535478182125988 0.00076990424526683209 0 0.017835075454898201 0.00056718802989276583 0 0.016896285716969803 0.00087448599512805498 0 0.017822285979117284 0.00061489070621169523 0 0.017535478182125988 0.00076990424526683209 0 0.016717001342532348 0.00087098132360648877 0 0.017535478182125988 0.00076990424526683209 0 0.016366311837820294 0.00086426214980482206 0 0.016064195321248486 0.00069194691976488668 0 0.017535478182125988 0.00076990424526683209 0 0.016366311837820294 0.00086426214980482206 0 0.016717001342532348 0.00087098132360648877 0 0.016366311837820294 0.00086426214980482206 0 0.016336143924281774 0.00085516897516816064 0 0.016717001342532348 0.00087098132360648877 0 0.016366311837820294 0.00086426214980482206 0 0.016336143924281774 0.00085516897516816064 0 0.015564896987482169 0.000689570473005958 0 0.016064195321248486 0.00069194691976488668 0 0.014348269079983458 0.00051206308976091549 0 0.015564896987482169 0.000689570473005958 0 0.016366311837820294 0.00086426214980482206 0 0.016064195321248486 0.00069194691976488668 0 0.015564896987482169 0.000689570473005958 0 0.015872732460078923 9.6381044219267984e-07 0 0.016064195321248486 0.00069194691976488668 0 0.014348269079983458 0.00051206308976091549 0 0.015872732460078923 9.6381044219267984e-07 0 0.014348269079983458 0.00051206308976091549 0 0.012820772381453535 8.4330239860200998e-07 0 0.017494537843771269 0.00043681032826477613 0 0.015872732460078923 9.6381044219267984e-07 0 0.016064195321248486 0.00069194691976488668 0 0.017494537843771269 0.00043681032826477613 0 0.017535478182125988 0.00076990424526683209 0 0.016064195321248486 0.00069194691976488668 0 0.016545492423411034 0.00085213412301152452 0 0.016090674345230517 0.00079706112820422648 0 0.01669870526473639 0.00061805799699569356 0 0.015549906356584028 0.00019088081380994225 0 0.015869550719277162 0.0002478246005288943 0 0.016545492423411034 0.00085213412301152452 0 0.016090674345230517 0.00079706112820422648 0 0.016648374253512396 0.00094192402219278517 0 0.015008918789494338 -0.0003490909320105933 0 0.014994668139073311 -0.00038126757898869604 0 0.01509499751554884 -0.00043086263297462346 0 0.015008918789494338 -0.0003490909320105933 0 0.014994668139073311 -0.00038126757898869604 0 0.015113544291343388 -0.00030994955037427617 0 0.014994668139073311 -0.00038126757898869604 0 0.01509499751554884 -0.00043086263297462346 0 0.014960360674292576 -0.00038171188786992083 0 0.014994668139073311 -0.00038126757898869604 0 0.014956860733163182 -0.00036555324016847177 0 0.014960360674292576 -0.00038171188786992083 0 0.016545492423411034 0.00085213412301152452 0 0.016648374253512396 0.00094192402219278517 0 0.016652343996817913 0.00091776433005335352 0 0.016648374253512396 0.00094192402219278517 0 0.016652343996817913 0.00091776433005335352 0 0.016471381989196017 0.00078282446890825088 0 0.016336143924281774 0.00085516897516816064 0 0.016652343996817913 0.00091776433005335352 0 0.016471381989196017 0.00078282446890825088 0 0.016336143924281774 0.00085516897516816064 0 0.017058928311030164 0.00087150735205835251 0 0.016652343996817913 0.00091776433005335352 0 0.017058928311030164 0.00087150735205835251 0 0.016652343996817913 0.00091776433005335352 0 0.016882043255294348 0.00073294402866731269 0 0.016431304738536916 0.00085154742589370889 0 0.016896285716969803 0.00087448599512805498 0 0.016545492423411034 0.00085213412301152452 0 0.016652343996817913 0.00091776433005335352 0 0.01669870526473639 0.00061805799699569356 0 0.016652343996817913 0.00091776433005335352 0 0.016882043255294348 0.00073294402866731269 0 0.01669870526473639 0.00061805799699569356 0 0.016882043255294348 0.00073294402866731269 0 0.01684299783516972 0.00047406553638655797 0 0.01669870526473639 0.00061805799699569356 0 0.016882043255294348 0.00073294402866731269 0 0.017124013724024348 0.00054135716277012628 0 0.01684299783516972 0.00047406553638655797 0 0.017786542091266198 0.0005301120180115198 0 0.017058928311030164 0.00087150735205835251 0 0.017124013724024348 0.00054135716277012628 0 0.017058928311030164 0.00087150735205835251 0 0.016882043255294348 0.00073294402866731269 0 0.017124013724024348 0.00054135716277012628 0 0.017786542091266198 0.0005301120180115198 0 0.017124013724024348 0.00054135716277012628 0 0.017430861688171564 6.4403929018783167e-05 0 0.01684299783516972 0.00047406553638655797 0 0.0166199846281515 0.00022749063143813849 0 0.016900900430373577 0.00013874047745454488 0 0.017124013724024348 0.00054135716277012628 0 0.01684299783516972 0.00047406553638655797 0 0.016900900430373577 0.00013874047745454488 0 0.016189293406522202 -0.00012845251024605343 0 0.01669870526473639 0.00061805799699569356 0 0.016508792889412777 -0.00060943132022827317 0 0.01684299783516972 0.00047406553638655797 0 0.01669870526473639 0.00061805799699569356 0 0.0166199846281515 0.00022749063143813849 0 0.016376437115736608 0.000648029690080682 0 0.017795750758860623 -0.00049910484341129577 0 0.016189293406522202 -0.00012845251024605343 0 0.01584841918449038 -0.00051170970650569916 0 0.016508792889412777 -0.00060943132022827317 0 0.016189293406522202 -0.00012845251024605343 0 0.01669870526473639 0.00061805799699569356 0 0.01592010352346129 0.00016404606883217138 0 0.016090674345230517 0.00079706112820422648 0 0.01669870526473639 0.00061805799699569356 0 0.01592010352346129 0.00016404606883217138 0 0.016090674345230517 0.00079706112820422648 0 0.01592010352346129 0.00016404606883217138 0 0.015236681351413334 -0.00023968643872962074 0 0.015549906356584028 0.00019088081380994225 0 0.015244101225603653 -0.00022521160697817585 0 0.01592010352346129 0.00016404606883217138 0 0.015682467107036656 -0.00023328066327546845 0 0.015236681351413334 -0.00023968643872962074 0 0.016189293406522202 -0.00012845251024605343 0 0.01592010352346129 0.00016404606883217138 0 0.015682467107036656 -0.00023328066327546845 0 0.016189293406522202 -0.00012845251024605343 0 0.015682467107036656 -0.00023328066327546845 0 0.01584841918449038 -0.00051170970650569916 0 0.015682467107036656 -0.00023328066327546845 0 0.01584841918449038 -0.00051170970650569916 0 0.015219767819367645 -0.00030228375508637296 0 0.019381850093294104 -0.00030960304019461059 0 0.020365448864762062 0.00017925004503922625 0 0.022781644407655031 -0.00017724561495084613 0 0.022774656138047158 -0.00011960635785559162 0 0.022697862791311269 -0.0001469143573562834 0 0.022781644407655031 -0.00017724561495084613 0 0.022697862791311269 -0.0001469143573562834 0 0.022735728603412192 -0.00019974064088647115 0 0.022781644407655031 -0.00017724561495084613 0 0.022809311393410928 -0.00021896753464732365 0 0.022735728603412192 -0.00019974064088647115 0 0.022781644407655031 -0.00017724561495084613 0 0.02280569553614438 -0.00016437562174635378 0 0.02283541281169478 -0.00020582749389364693 0 0.022781644407655031 -0.00017724561495084613 0 0.02283541281169478 -0.00020582749389364693 0 0.022809311393410928 -0.00021896753464732365 0 0.02280569553614438 -0.00016437562174635378 0 0.022774656138047158 -0.00011960635785559162 0 0.022822703656106016 -0.00015562169099939897 0 0.022781644407655031 -0.00017724561495084613 0 0.02280569553614438 -0.00016437562174635378 0 0.022774656138047158 -0.00011960635785559162 0 0.019381850093294104 -0.00030960304019461059 0 0.017795750758860623 -0.00049910484341129577 0 0.022822703656106016 -0.00015562169099939897 0 0.02283541281169478 -0.00020582749389364693 0 0.022868586555400975 -0.00026127134776761005 0 0.017795750758860623 -0.00049910484341129577 0 0.016666778753678748 0.00013835253674324309 0 0.016277225500870372 0.00014630699624164611 0 0.016499708591854189 -0.00041481674904391281 0 0.016825846655240149 8.1702628542590301e-05 0 0.02280569553614438 -0.00016437562174635378 0 0.022822703656106016 -0.00015562169099939897 0 0.02283541281169478 -0.00020582749389364693 0 0.017795750758860623 -0.00049910484341129577 0 0.021085122708326149 0.00025093059227638539 0 0.016277225500870372 0.00014630699624164611 0 0.016499708591854189 -0.00041481674904391281 0 0.016044392546588217 -0.00079988596671397402 0 0.021085122708326149 0.00025093059227638539 0 0.020517439858364853 -0.00036856254185059631 0 0.016499708591854189 -0.00041481674904391281 0 0.016044392546588217 -0.00079988596671397402 0 0.017052170788467769 -0.0010249182037874449 0 0.022868586555400975 -0.00026127134776761005 0 0.022877413249565486 -0.00025600200226681946 0 0.022859321039055639 -0.00024820758499336833 0 0.022868586555400975 -0.00026127134776761005 0 0.022859321039055639 -0.00024820758499336833 0 0.022845467365123242 -0.00023312191848764307 0 0.021085122708326149 0.00025093059227638539 0 0.021529859946926522 0.00018472818616865194 0 0.022877413249565486 -0.00025600200226681946 0 0.022859321039055639 -0.00024820758499336833 0 0.022864120331645133 -0.00025197709048322472 0 0.022859321039055639 -0.00024820758499336833 0 0.022864120331645133 -0.00025197709048322472 0 0.022839725625356806 -0.00023749411766041609 0 0.022877413249565486 -0.00025600200226681946 0 0.022864120331645133 -0.00025197709048322472 0 0.022910463964673958 -0.00025563330162456713 0 0.022864120331645133 -0.00025197709048322472 0 0.022910463964673958 -0.00025563330162456713 0 0.022836832076462595 -0.00025838293599918883 0 0.022836832076462595 -0.00025838293599918883 0 0.02279135367123733 -0.00025162627870206313 0 0.022818713718016245 -0.00024405144786293238 0 0.022864120331645133 -0.00025197709048322472 0 0.022818713718016245 -0.00024405144786293238 0 0.022839725625356806 -0.00023749411766041609 0 0.022864120331645133 -0.00025197709048322472 0 0.022836832076462595 -0.00025838293599918883 0 0.022818713718016245 -0.00024405144786293238 0 0.022818713718016245 -0.00024405144786293238 0 0.022809311393410928 -0.00021896753464732365 0 0.022839725625356806 -0.00023749411766041609 0 0.022809311393410928 -0.00021896753464732365 0 0.022735728603412192 -0.00019974064088647115 0 0.022759785262095676 -0.00023509799033209739 0 0.022818713718016245 -0.00024405144786293238 0 0.022809311393410928 -0.00021896753464732365 0 0.022759785262095676 -0.00023509799033209739 0 0.02279135367123733 -0.00025162627870206313 0 0.022818713718016245 -0.00024405144786293238 0 0.022759785262095676 -0.00023509799033209739 0 0.02283541281169478 -0.00020582749389364693 0 0.022809311393410928 -0.00021896753464732365 0 0.022845467365123242 -0.00023312191848764307 0 0.02283541281169478 -0.00020582749389364693 0 0.022868586555400975 -0.00026127134776761005 0 0.022845467365123242 -0.00023312191848764307 0 0.022859321039055639 -0.00024820758499336833 0 0.022845467365123242 -0.00023312191848764307 0 0.022839725625356806 -0.00023749411766041609 0 0.022809311393410928 -0.00021896753464732365 0 0.022845467365123242 -0.00023312191848764307 0 0.022839725625356806 -0.00023749411766041609 0 0.017124013724024348 0.00054135716277012628 0 0.017430861688171564 6.4403929018783167e-05 0 0.016900900430373577 0.00013874047745454488 0 0.017987940357078052 2.566590612317644e-05 0 0.017430861688171564 6.4403929018783167e-05 0 0.01776214188450741 -0.00050714242832984742 0 0.017430861688171564 6.4403929018783167e-05 0 0.017086112451802526 -0.0003488066400439129 0 0.01776214188450741 -0.00050714242832984742 0 0.016499708591854189 -0.00041481674904391281 0 0.016825846655240149 8.1702628542590301e-05 0 0.017086112451802526 -0.0003488066400439129 0 0.017430861688171564 6.4403929018783167e-05 0 0.016825846655240149 8.1702628542590301e-05 0 0.017086112451802526 -0.0003488066400439129 0 0.017418726974309358 4.6071613854264288e-05 0 0.016666778753678748 0.00013835253674324309 0 0.016499708591854189 -0.00041481674904391281 0 0.017086112451802526 -0.0003488066400439129 0 0.017052170788467769 -0.0010249182037874449 0 0.018739155876764939 -0.0015824833808473313 0 0.01776214188450741 -0.00050714242832984742 0 0.017052170788467769 -0.0010249182037874449 0 0.017086112451802526 -0.0003488066400439129 0 0.01776214188450741 -0.00050714242832984742 0 0.017052170788467769 -0.0010249182037874449 0 0.025450558278206595 -3.5186046706320809e-05 0 0.024582427804382186 0.00042578145890244547 0 0.025017380498286439 -0.00010295681330231292 0 0.024582427804382186 0.00042578145890244547 0 0.024440343663090811 -5.6195481756392943e-05 0 0.025017380498286439 -0.00010295681330231292 0 0.02215785898828487 -0.00072872736099122257 0 0.020517439858364853 -0.00036856254185059631 0 0.024582427804382186 0.00042578145890244547 0 0.024440343663090811 -5.6195481756392943e-05 0 0.023992883341599994 8.0176018626526062e-05 0 0.024328988350757468 -0.00046203754673084386 0 0.024440343663090811 -5.6195481756392943e-05 0 0.023809231097427871 -0.00033452538046198409 0 0.024440343663090811 -5.6195481756392943e-05 0 0.023992883341599994 8.0176018626526062e-05 0 0.023809231097427871 -0.00033452538046198409 0 0.024328988350757468 -0.00046203754673084386 0 0.024440343663090811 -5.6195481756392943e-05 0 0.025017380498286439 -0.00010295681330231292 0 0.022861666108311279 -0.00025179359435314195 0 0.022989376817913344 -0.00025388049033849046 0 0.023201282964407658 -0.00024513991504641024 0 0.021085122708326149 0.00025093059227638539 0 0.023417104459929165 -0.00010818948907354204 0 0.022989376817913344 -0.00025388049033849046 0 0.023201282964407658 -0.00024513991504641024 0 0.022935468846358255 -0.00035152517949972427 0 0.022989376817913344 -0.00025388049033849046 0 0.022935468846358255 -0.00035152517949972427 0 0.022837889258405717 -0.00029262016869744848 0 0.022910463964673958 -0.00025563330162456713 0 0.022836832076462595 -0.00025838293599918883 0 0.022837889258405717 -0.00029262016869744848 0 0.022910463964673958 -0.00025563330162456713 0 0.022989376817913344 -0.00025388049033849046 0 0.022837889258405717 -0.00029262016869744848 0 0.022861666108311279 -0.00025179359435314195 0 0.022877413249565486 -0.00025600200226681946 0 0.022989376817913344 -0.00025388049033849046 0 0.022877413249565486 -0.00025600200226681946 0 0.022910463964673958 -0.00025563330162456713 0 0.022989376817913344 -0.00025388049033849046 0 0.023440345191722091 0.00062808368090259232 0 0.023992883341599994 8.0176018626526062e-05 0 0.023201282964407658 -0.00024513991504641024 0 0.023440345191722091 0.00062808368090259232 0 0.024582427804382186 0.00042578145890244547 0 0.023992883341599994 8.0176018626526062e-05 0 0.023992883341599994 8.0176018626526062e-05 0 0.023809231097427871 -0.00033452538046198409 0 0.023201282964407658 -0.00024513991504641024 0 0.023577921283489848 -0.00071846386356978482 0 0.023809231097427871 -0.00033452538046198409 0 0.023201282964407658 -0.00024513991504641024 0 0.023577921283489848 -0.00071846386356978482 0 0.023201282964407658 -0.00024513991504641024 0 0.023043438228744835 -0.0005404320206394786 0 0.023201282964407658 -0.00024513991504641024 0 0.023043438228744835 -0.0005404320206394786 0 0.022935468846358255 -0.00035152517949972427 0 0.022761786792249987 -0.0005325719434473912 0 0.022935468846358255 -0.00035152517949972427 0 0.022738475533773353 -0.00038554253570355389 0 0.023043438228744835 -0.0005404320206394786 0 0.022761786792249987 -0.0005325719434473912 0 0.022935468846358255 -0.00035152517949972427 0 0.022935468846358255 -0.00035152517949972427 0 0.022738475533773353 -0.00038554253570355389 0 0.022837889258405717 -0.00029262016869744848 0 0.022837889258405717 -0.00029262016869744848 0 0.022605396676546239 -0.0003448599838129818 0 0.022738479361575172 -0.00027245721336120683 0 0.022738475533773353 -0.00038554253570355389 0 0.022837889258405717 -0.00029262016869744848 0 0.022605396676546239 -0.0003448599838129818 0 0.022605396676546239 -0.0003448599838129818 0 0.022543410507943229 -0.00045747668282417286 0 0.022358304069987091 -0.00042896510121573123 0 0.022738475533773353 -0.00038554253570355389 0 0.022605396676546239 -0.0003448599838129818 0 0.022543410507943229 -0.00045747668282417286 0 0.022598567285964981 -0.00075020785766573696 0 0.022543410507943229 -0.00045747668282417286 0 0.022310099988447303 -0.00058185053329335801 0 0.022598567285964981 -0.00075020785766573696 0 0.022761786792249987 -0.0005325719434473912 0 0.022543410507943229 -0.00045747668282417286 0 0.022761786792249987 -0.0005325719434473912 0 0.022738475533773353 -0.00038554253570355389 0 0.022543410507943229 -0.00045747668282417286 0 0.022310542098368493 -0.00060082580996386468 0 0.022261952044663118 -0.00053070905382900763 0 0.022212213083100101 -0.00054801048918732122 0 0.022310099988447303 -0.00058185053329335801 0 0.022310542098368493 -0.00060082580996386468 0 0.022261952044663118 -0.00053070905382900763 0 0.022261952044663118 -0.00053070905382900763 0 0.022358304069987091 -0.00042896510121573123 0 0.022190162981630145 -0.00043585261282718703 0 0.022261952044663118 -0.00053070905382900763 0 0.022190162981630145 -0.00043585261282718703 0 0.022212213083100101 -0.00054801048918732122 0 0.022543410507943229 -0.00045747668282417286 0 0.022310099988447303 -0.00058185053329335801 0 0.022358304069987091 -0.00042896510121573123 0 0.022310099988447303 -0.00058185053329335801 0 0.022261952044663118 -0.00053070905382900763 0 0.022358304069987091 -0.00042896510121573123 0 0.022358304069987091 -0.00042896510121573123 0 0.022279890516865488 -0.00035204115166651646 0 0.022425977107560471 -0.00031844906719690516 0 0.022358304069987091 -0.00042896510121573123 0 0.022279890516865488 -0.00035204115166651646 0 0.022190162981630145 -0.00043585261282718703 0 0.022279890516865488 -0.00035204115166651646 0 0.022263297365179936 -0.00024908389297622539 0 0.022425977107560471 -0.00031844906719690516 0 0.022279890516865488 -0.00035204115166651646 0 0.022190162981630145 -0.00043585261282718703 0 0.022153286855453976 -0.0003040932054376341 0 0.022190162981630145 -0.00043585261282718703 0 0.022153286855453976 -0.0003040932054376341 0 0.022060249230004512 -0.00035486956559692878 0 0.022060249230004512 -0.00035486956559692878 0 0.021913594921723709 -0.00028057261654816835 0 0.022047972686344567 -0.00022628747301444173 0 0.022153286855453976 -0.0003040932054376341 0 0.022060249230004512 -0.00035486956559692878 0 0.022047972686344567 -0.00022628747301444173 0 0.022279890516865488 -0.00035204115166651646 0 0.022153286855453976 -0.0003040932054376341 0 0.022263297365179936 -0.00024908389297622539 0 0.022153286855453976 -0.0003040932054376341 0 0.022263297365179936 -0.00024908389297622539 0 0.022047972686344567 -0.00022628747301444173 0 0.022455795337759779 -0.000231559394986212 0 0.022537709389219892 -0.00016103465820904058 0 0.022254340518947147 -0.00013568099677446871 0 0.022263297365179936 -0.00024908389297622539 0 0.022455795337759779 -0.000231559394986212 0 0.022254340518947147 -0.00013568099677446871 0 0.022263297365179936 -0.00024908389297622539 0 0.022455795337759779 -0.000231559394986212 0 0.022425977107560471 -0.00031844906719690516 0 0.022774656138047158 -0.00011960635785559162 0 0.022697862791311269 -0.0001469143573562834 0 0.022639479555479101 -7.7586873569661336e-05 0 0.022537709389219892 -0.00016103465820904058 0 0.022697862791311269 -0.0001469143573562834 0 0.022642697430068536 -0.00022324238257512782 0 0.022537709389219892 -0.00016103465820904058 0 0.022697862791311269 -0.0001469143573562834 0 0.022617586652636929 -5.4454234291859328e-05 0 0.02203880365552716 -0.00062090341467789707 0 0.020365448864762062 0.00017925004503922625 0 0.022735728603412192 -0.00019974064088647115 0 0.022642697430068536 -0.00022324238257512782 0 0.022759785262095676 -0.00023509799033209739 0 0.022697862791311269 -0.0001469143573562834 0 0.022735728603412192 -0.00019974064088647115 0 0.022642697430068536 -0.00022324238257512782 0 0.022455795337759779 -0.000231559394986212 0 0.022537709389219892 -0.00016103465820904058 0 0.022642697430068536 -0.00022324238257512782 0 0.022455795337759779 -0.000231559394986212 0 0.022642697430068536 -0.00022324238257512782 0 0.022573904117248637 -0.00027982363049041206 0 0.022642697430068536 -0.00022324238257512782 0 0.022738479361575172 -0.00027245721336120683 0 0.022573904117248637 -0.00027982363049041206 0 0.022642697430068536 -0.00022324238257512782 0 0.022759785262095676 -0.00023509799033209739 0 0.022738479361575172 -0.00027245721336120683 0 0.02279135367123733 -0.00025162627870206313 0 0.022759785262095676 -0.00023509799033209739 0 0.022738479361575172 -0.00027245721336120683 0 0.022836832076462595 -0.00025838293599918883 0 0.022837889258405717 -0.00029262016869744848 0 0.022738479361575172 -0.00027245721336120683 0 0.022836832076462595 -0.00025838293599918883 0 0.02279135367123733 -0.00025162627870206313 0 0.022738479361575172 -0.00027245721336120683 0 0.022605396676546239 -0.0003448599838129818 0 0.022738479361575172 -0.00027245721336120683 0 0.022573904117248637 -0.00027982363049041206 0 0.022605396676546239 -0.0003448599838129818 0 0.022425977107560471 -0.00031844906719690516 0 0.022573904117248637 -0.00027982363049041206 0 0.022605396676546239 -0.0003448599838129818 0 0.022358304069987091 -0.00042896510121573123 0 0.022425977107560471 -0.00031844906719690516 0 0.022455795337759779 -0.000231559394986212 0 0.022425977107560471 -0.00031844906719690516 0 0.022573904117248637 -0.00027982363049041206 0 0.022060724378389112 -0.00068774233190208782 0 0.021852008828198443 -0.00052577310380009774 0 0.021736491297393454 -0.0007380729055667147 0 0.022060724378389112 -0.00068774233190208782 0 0.022302914796559478 -0.00073177727037687516 0 0.022215297260690939 -0.0009565197218919919 0 0.022302914796559478 -0.00073177727037687516 0 0.022109510110731111 -0.00058783628653310616 0 0.022250344139590567 -0.00062532636025901831 0 0.022060724378389112 -0.00068774233190208782 0 0.022109510110731111 -0.00058783628653310616 0 0.021981679578593257 -0.00052442000534778043 0 0.022060724378389112 -0.00068774233190208782 0 0.022302914796559478 -0.00073177727037687516 0 0.022109510110731111 -0.00058783628653310616 0 0.022109510110731111 -0.00058783628653310616 0 0.022250344139590567 -0.00062532636025901831 0 0.022088929838715139 -0.0004825841517347066 0 0.022413693778722633 -0.0006183929156441646 0 0.022302914796559478 -0.00073177727037687516 0 0.022250344139590567 -0.00062532636025901831 0 0.022310542098368493 -0.00060082580996386468 0 0.022250344139590567 -0.00062532636025901831 0 0.022212213083100101 -0.00054801048918732122 0 0.022413693778722633 -0.0006183929156441646 0 0.022310542098368493 -0.00060082580996386468 0 0.022250344139590567 -0.00062532636025901831 0 0.022250344139590567 -0.00062532636025901831 0 0.022212213083100101 -0.00054801048918732122 0 0.022088929838715139 -0.0004825841517347066 0 0.022190162981630145 -0.00043585261282718703 0 0.022212213083100101 -0.00054801048918732122 0 0.022088929838715139 -0.0004825841517347066 0 0.022060249230004512 -0.00035486956559692878 0 0.021943946702165415 -0.00035308566507536587 0 0.022088929838715139 -0.0004825841517347066 0 0.022190162981630145 -0.00043585261282718703 0 0.022060249230004512 -0.00035486956559692878 0 0.022088929838715139 -0.0004825841517347066 0 0.022060249230004512 -0.00035486956559692878 0 0.021943946702165415 -0.00035308566507536587 0 0.021913594921723709 -0.00028057261654816835 0 0.021943946702165415 -0.00035308566507536587 0 0.021812814555798782 -0.00027342793509705905 0 0.021913594921723709 -0.00028057261654816835 0 0.021943946702165415 -0.00035308566507536587 0 0.021862157830677062 -0.00034026939171511909 0 0.021812814555798782 -0.00027342793509705905 0 0.021943946702165415 -0.00035308566507536587 0 0.021862157830677062 -0.00034026939171511909 0 0.021984890052583351 -0.00044730274923486383 0 0.021943946702165415 -0.00035308566507536587 0 0.022088929838715139 -0.0004825841517347066 0 0.021984890052583351 -0.00044730274923486383 0 0.022109510110731111 -0.00058783628653310616 0 0.022088929838715139 -0.0004825841517347066 0 0.021984890052583351 -0.00044730274923486383 0 0.022109510110731111 -0.00058783628653310616 0 0.021984890052583351 -0.00044730274923486383 0 0.021981679578593257 -0.00052442000534778043 0 0.021981679578593257 -0.00052442000534778043 0 0.021903654152877473 -0.00040569910493618445 0 0.021824796390528343 -0.0003978820794847486 0 0.021984890052583351 -0.00044730274923486383 0 0.021981679578593257 -0.00052442000534778043 0 0.021903654152877473 -0.00040569910493618445 0 0.021862157830677062 -0.00034026939171511909 0 0.021984890052583351 -0.00044730274923486383 0 0.021903654152877473 -0.00040569910493618445 0 0.021862157830677062 -0.00034026939171511909 0 0.021822455536572506 -0.00031324159291264223 0 0.021746711635522564 -0.00028921840048162697 0 0.021862157830677062 -0.00034026939171511909 0 0.021822455536572506 -0.00031324159291264223 0 0.021903654152877473 -0.00040569910493618445 0 0.021822455536572506 -0.00031324159291264223 0 0.021903654152877473 -0.00040569910493618445 0 0.021824796390528343 -0.0003978820794847486 0 0.021822455536572506 -0.00031324159291264223 0 0.021824796390528343 -0.0003978820794847486 0 0.021800947347539259 -0.00028758306614906339 0 0.021824796390528343 -0.0003978820794847486 0 0.021719202628255996 -0.00033740853672440394 0 0.021800947347539259 -0.00028758306614906339 0 0.021719202628255996 -0.00033740853672440394 0 0.021800947347539259 -0.00028758306614906339 0 0.021609713257870956 -0.00023910880141848274 0 0.021824796390528343 -0.0003978820794847486 0 0.021719202628255996 -0.00033740853672440394 0 0.021625519612586561 -0.00041288026531715422 0 0.021824796390528343 -0.0003978820794847486 0 0.021852008828198443 -0.00052577310380009774 0 0.021625519612586561 -0.00041288026531715422 0 0.022060724378389112 -0.00068774233190208782 0 0.021981679578593257 -0.00052442000534778043 0 0.021852008828198443 -0.00052577310380009774 0 0.021981679578593257 -0.00052442000534778043 0 0.021824796390528343 -0.0003978820794847486 0 0.021852008828198443 -0.00052577310380009774 0 0.018833004002222351 -0.00067067491000135997 0 0.01904584845621618 -0.0010313696819831944 0 0.019225253385343598 -0.00075832618849798667 0 0.018833004002222351 -0.00067067491000135997 0 0.01904584845621618 -0.0010313696819831944 0 0.018593241929045545 -0.00080792737182268761 0 0.020766225295570814 -0.00053594048871267118 0 0.019941100960053835 -0.00039636160776436783 0 0.021800947347539259 -0.00028758306614906339 0 0.021870560640027556 -0.00015097793458434167 0 0.021609713257870956 -0.00023910880141848274 0 0.021870560640027556 -0.00015097793458434167 0 0.021609713257870956 -0.00023910880141848274 0 0.021405285519310323 1.379348352995783e-05 0 0.021822455536572506 -0.00031324159291264223 0 0.021800947347539259 -0.00028758306614906339 0 0.021798490835451718 -0.00029662969297053303 0 0.021494911768853948 -7.2323624386003938e-05 0 0.020766225295570814 -0.00053594048871267118 0 0.021630205570759013 -0.00025222889114844774 0 0.021746711635522564 -0.00028921840048162697 0 0.021660375017615446 -0.00019144548121974436 0 0.020766225295570814 -0.00053594048871267118 0 0.021834766104531833 -0.00047557987870499007 0 0.021822455536572506 -0.00031324159291264223 0 0.021798490835451718 -0.00029662969297053303 0 0.021746711635522564 -0.00028921840048162697 0 0.020766225295570814 -0.00053594048871267118 0 0.020340012665546699 -0.00047599453969631703 0 0.021630205570759013 -0.00025222889114844774 0 0.02155217123124455 -0.00013120106896750259 0 0.021660375017615446 -0.00019144548121974436 0 0.02155217123124455 -0.00013120106896750259 0 0.021660375017615446 -0.00019144548121974436 0 0.021486234212164092 -8.9382084714376565e-05 0 0.021660375017615446 -0.00019144548121974436 0 0.021754165298346572 -0.00018963860330754257 0 0.021486234212164092 -8.9382084714376565e-05 0 0.021746711635522564 -0.00028921840048162697 0 0.021660375017615446 -0.00019144548121974436 0 0.021812814555798782 -0.00027342793509705905 0 0.021660375017615446 -0.00019144548121974436 0 0.021812814555798782 -0.00027342793509705905 0 0.021754165298346572 -0.00018963860330754257 0 0.021862157830677062 -0.00034026939171511909 0 0.021746711635522564 -0.00028921840048162697 0 0.021812814555798782 -0.00027342793509705905 0 0.021913594921723709 -0.00028057261654816835 0 0.021754165298346572 -0.00018963860330754257 0 0.022047972686344567 -0.00022628747301444173 0 0.021812814555798782 -0.00027342793509705905 0 0.021913594921723709 -0.00028057261654816835 0 0.021754165298346572 -0.00018963860330754257 0 0.021754165298346572 -0.00018963860330754257 0 0.021486234212164092 -8.9382084714376565e-05 0 0.021588441164857058 -7.5386304811635242e-05 0 0.02120829737060698 3.9612595881808929e-05 0 0.021486234212164092 -8.9382084714376565e-05 0 0.021588441164857058 -7.5386304811635242e-05 0 0.020420121181580733 -0.00023382552904497409 0 0.020411532685427849 3.9113156886697772e-06 0 0.01952749396520391 -0.00058081770878704291 0 0.01945534192550653 -0.00019927852454279993 0 0.020351683960167889 -2.7982123747723153e-05 0 0.02120829737060698 3.9612595881808929e-05 0 0.02127305787315734 -2.1310771851709301e-05 0 0.020351683960167889 -2.7982123747723153e-05 0 0.02155217123124455 -0.00013120106896750259 0 0.02127305787315734 -2.1310771851709301e-05 0 0.021486234212164092 -8.9382084714376565e-05 0 0.02120829737060698 3.9612595881808929e-05 0 0.02127305787315734 -2.1310771851709301e-05 0 0.021486234212164092 -8.9382084714376565e-05 0 0.020340012665546699 -0.00047599453969631703 0 0.020420121181580733 -0.00023382552904497409 0 0.019225253385343598 -0.00075832618849798667 0 0.01952749396520391 -0.00058081770878704291 0 0.0189749042612865 -0.00046800461401080672 0 0.01952749396520391 -0.00058081770878704291 0 0.01912054180086115 -0.00027956039599119615 0 0.0189749042612865 -0.00046800461401080672 0 0.01952749396520391 -0.00058081770878704291 0 0.01912054180086115 -0.00027956039599119615 0 0.01945534192550653 -0.00019927852454279993 0 0.0189749042612865 -0.00046800461401080672 0 0.018704522392879112 -0.00010941489045142164 0 0.01852726849351766 -0.00029965973105769618 0 0.01912054180086115 -0.00027956039599119615 0 0.0189749042612865 -0.00046800461401080672 0 0.018704522392879112 -0.00010941489045142164 0 0.018833004002222351 -0.00067067491000135997 0 0.019225253385343598 -0.00075832618849798667 0 0.0189749042612865 -0.00046800461401080672 0 0.018833004002222351 -0.00067067491000135997 0 0.0189749042612865 -0.00046800461401080672 0 0.01852726849351766 -0.00029965973105769618 0 0.022179843656149237 -0.00010585548594816254 0 0.022254340518947147 -0.00013568099677446871 0 0.022093483985375015 -0.00015207613188007908 0 0.015008918789494338 -0.0003490909320105933 0 0.015113544291343388 -0.00030994955037427617 0 0.015236681351413334 -0.00023968643872962074 0 0.015088339596173212 -0.00031235073811441294 0 0.015113544291343388 -0.00030994955037427617 0 0.015236681351413334 -0.00023968643872962074 0 0.018359524552531706 -0.00021870906769611101 0 0.020365448864762062 0.00017925004503922625 0 0.015088339596173212 -0.00031235073811441294 0 0.015236681351413334 -0.00023968643872962074 0 0.015219767819367645 -0.00030228375508637296 0 0.022537709389219892 -0.00016103465820904058 0 0.022617586652636929 -5.4454234291859328e-05 0 0.022254340518947147 -0.00013568099677446871 0 0.015682467107036656 -0.00023328066327546845 0 0.015236681351413334 -0.00023968643872962074 0 0.015219767819367645 -0.00030228375508637296 0 0.022179843656149237 -0.00010585548594816254 0 0.022226545783632933 -0.0001307831190234675 0 0.022254340518947147 -0.00013568099677446871 0 0.020365448864762062 0.00017925004503922625 0 0.023025779532360301 -0.00024284167871174101 0 0.022263297365179936 -0.00024908389297622539 0 0.022254340518947147 -0.00013568099677446871 0 0.022047972686344567 -0.00022628747301444173 0 0.022254340518947147 -0.00013568099677446871 0 0.022047972686344567 -0.00022628747301444173 0 0.022093483985375015 -0.00015207613188007908 0 0.021754165298346572 -0.00018963860330754257 0 0.021870974322743431 -0.0001171924916267186 0 0.021588441164857058 -7.5386304811635242e-05 0 0.021754165298346572 -0.00018963860330754257 0 0.022047972686344567 -0.00022628747301444173 0 0.021870974322743431 -0.0001171924916267186 0 0.022047972686344567 -0.00022628747301444173 0 0.021870974322743431 -0.0001171924916267186 0 0.022093483985375015 -0.00015207613188007908 0 0.022179843656149237 -0.00010585548594816254 0 0.021870974322743431 -0.0001171924916267186 0 0.022093483985375015 -0.00015207613188007908 0 0.022179843656149237 -0.00010585548594816254 0 0.021870974322743431 -0.0001171924916267186 0 0.021916821289491736 0.00010614484313187053 0 0.018359524552531706 -0.00021870906769611101 0 0.018527272978818215 -0.00013286241432591063 0 0.021870974322743431 -0.0001171924916267186 0 0.021588441164857058 -7.5386304811635242e-05 0 0.021916821289491736 0.00010614484313187053 0 0.02120829737060698 3.9612595881808929e-05 0 0.021916821289491736 0.00010614484313187053 0 0.021472176594047637 0.0006200846652987226 0 0.02120829737060698 3.9612595881808929e-05 0 0.021588441164857058 -7.5386304811635242e-05 0 0.021916821289491736 0.00010614484313187053 0 0.015002005811451368 -0.00035914920743823094 0 0.014956860733163182 -0.00036555324016847177 0 0.014947702883021888 -0.00036310163543033818 0 0.015002005811451368 -0.00035914920743823094 0 0.01503173763983838 -0.00034636649659177147 0 0.014956860733163182 -0.00036555324016847177 0 0.015088339596173212 -0.00031235073811441294 0 0.015002005811451368 -0.00035914920743823094 0 0.01503173763983838 -0.00034636649659177147 0 0.014994668139073311 -0.00038126757898869604 0 0.015113544291343388 -0.00030994955037427617 0 0.01503173763983838 -0.00034636649659177147 0 0.015088339596173212 -0.00031235073811441294 0 0.015113544291343388 -0.00030994955037427617 0 0.01503173763983838 -0.00034636649659177147 0 0.014994668139073311 -0.00038126757898869604 0 0.01503173763983838 -0.00034636649659177147 0 0.014956860733163182 -0.00036555324016847177 0 0.014956860733163182 -0.00036555324016847177 0 0.014868773727029164 -0.00039100533744015941 0 0.014817812141142502 -0.0004472642419454029 0 0.014956860733163182 -0.00036555324016847177 0 0.014868773727029164 -0.00039100533744015941 0 0.014960360674292576 -0.00038171188786992083 0 0.014955349980241896 -0.00035842617790325486 0 0.014782319528725328 -0.00041406977820414569 0 0.014868773727029164 -0.00039100533744015941 0 0.014817812141142502 -0.0004472642419454029 0 0.014770673396820722 -0.00041380146686423021 0 0.014881413935652819 -0.00036740561736480382 0 0.014902201835058975 -0.00036680849964783254 0 0.014947702883021888 -0.00036310163543033818 0 0.014881413935652819 -0.00036740561736480382 0 0.014902201835058975 -0.00036680849964783254 0 0.014859936582937319 -0.00039245957997184692 0 0.014956860733163182 -0.00036555324016847177 0 0.014881413935652819 -0.00036740561736480382 0 0.014947702883021888 -0.00036310163543033818 0 0.015002005811451368 -0.00035914920743823094 0 0.014947702883021888 -0.00036310163543033818 0 0.014938165130098774 -0.00036137559560288509 0 0.014947702883021888 -0.00036310163543033818 0 0.014938165130098774 -0.00036137559560288509 0 0.014915708963580398 -0.00036333793877856127 0 0.018527272978818215 -0.00013286241432591063 0 0.018066855603827373 0.00011466451288483469 0 0.014938165130098774 -0.00036137559560288509 0 0.014915708963580398 -0.00036333793877856127 0 0.014904371864299352 -0.00036615710240984876 0 0.014902201835058975 -0.00036680849964783254 0 0.014915708963580398 -0.00036333793877856127 0 0.014874221953318565 -0.00037224040789103922 0 0.014902201835058975 -0.00036680849964783254 0 0.014947702883021888 -0.00036310163543033818 0 0.014915708963580398 -0.00036333793877856127 0 0.014902201835058975 -0.00036680849964783254 0 0.014874221953318565 -0.00037224040789103922 0 0.014807677586611445 -0.00038770972589433083 0 0.014915708963580398 -0.00036333793877856127 0 0.014874221953318565 -0.00037224040789103922 0 0.014904371864299352 -0.00036615710240984876 0 0.014904371864299352 -0.00036615710240984876 0 0.014872839398043871 -0.00037894692039713314 0 0.014890345533036862 -0.00037863000864981212 0 0.014874221953318565 -0.00037224040789103922 0 0.014904371864299352 -0.00036615710240984876 0 0.014872839398043871 -0.00037894692039713314 0 0.014872839398043871 -0.00037894692039713314 0 0.014860465246877215 -0.00039202099419325477 0 0.014890345533036862 -0.00037863000864981212 0 0.014872839398043871 -0.00037894692039713314 0 0.014860465246877215 -0.00039202099419325477 0 0.014838725003387896 -0.00039204203232247033 0 0.014860465246877215 -0.00039202099419325477 0 0.014838725003387896 -0.00039204203232247033 0 0.01482726918076367 -0.0004169299825207255 0 0.014860465246877215 -0.00039202099419325477 0 0.014890345533036862 -0.00037863000864981212 0 0.014872693383433217 -0.00039976380751324835 0 0.014874221953318565 -0.00037224040789103922 0 0.014872839398043871 -0.00037894692039713314 0 0.014838725003387896 -0.00039204203232247033 0 0.014874221953318565 -0.00037224040789103922 0 0.014838725003387896 -0.00039204203232247033 0 0.014807677586611445 -0.00038770972589433083 0 0.014838725003387896 -0.00039204203232247033 0 0.014807677586611445 -0.00038770972589433083 0 0.014795131937964135 -0.00042009090146102922 0 0.014860432013938205 -0.00042929107218862058 0 0.014793198344769741 -0.00042125669897024812 0 0.014859936582937319 -0.00039245957997184692 0 0.014860432013938205 -0.00042929107218862058 0 0.014793198344769741 -0.00042125669897024812 0 0.014792531334817654 -0.00047660745451373772 0 0.014782319528725328 -0.00041406977820414569 0 0.015233945970600035 -0.00051895118695543814 0 0.014881413935652819 -0.00036740561736480382 0 0.014793198344769741 -0.00042125669897024812 0 0.014859936582937319 -0.00039245957997184692 0 0.014817812141142502 -0.0004472642419454029 0 0.014596959436402534 -0.00064986257833219048 0 0.014644006157391894 -0.00050862608869790013 0 0.014902201835058975 -0.00036680849964783254 0 0.014860432013938205 -0.00042929107218862058 0 0.014859936582937319 -0.00039245957997184692 0 0.014799500043927064 -0.00041240271098336861 0 0.015185576072445386 -0.00033294829496340967 0 0.018687737538550023 0.00018110619465310163 0 0.019014521704377077 -1.0273236020111004e-05 0 0.019067046816790601 0.00026925419172099609 0 0.01912054180086115 -0.00027956039599119615 0 0.018704522392879112 -0.00010941489045142164 0 0.019014521704377077 -1.0273236020111004e-05 0 0.018687737538550023 0.00018110619465310163 0 0.018704522392879112 -0.00010941489045142164 0 0.019014521704377077 -1.0273236020111004e-05 0 0.01912054180086115 -0.00027956039599119615 0 0.019014521704377077 -1.0273236020111004e-05 0 0.01945534192550653 -0.00019927852454279993 0 0.019014521704377077 -1.0273236020111004e-05 0 0.01945534192550653 -0.00019927852454279993 0 0.019336004662710574 8.737875414220405e-05 0 0.019336004662710574 8.737875414220405e-05 0 0.019067046816790601 0.00026925419172099609 0 0.019555236542725361 0.00026018655288755896 0 0.019014521704377077 -1.0273236020111004e-05 0 0.019336004662710574 8.737875414220405e-05 0 0.019067046816790601 0.00026925419172099609 0 0.019067046816790601 0.00026925419172099609 0 0.019555236542725361 0.00026018655288755896 0 0.019374412737503274 0.00045549480499275326 0 0.019555236542725361 0.00026018655288755896 0 0.019956771954413855 0.00012290008849924478 0 0.01984091063662391 0.00051212249898905553 0 0.019336004662710574 8.737875414220405e-05 0 0.019555236542725361 0.00026018655288755896 0 0.019711446886632084 7.2563799673785662e-05 0 0.019555236542725361 0.00026018655288755896 0 0.019956771954413855 0.00012290008849924478 0 0.019711446886632084 7.2563799673785662e-05 0 0.01945534192550653 -0.00019927852454279993 0 0.019336004662710574 8.737875414220405e-05 0 0.019711446886632084 7.2563799673785662e-05 0 0.01945534192550653 -0.00019927852454279993 0 0.019711446886632084 7.2563799673785662e-05 0 0.020351683960167889 -2.7982123747723153e-05 0 0.019956771954413855 0.00012290008849924478 0 0.019711446886632084 7.2563799673785662e-05 0 0.020351683960167889 -2.7982123747723153e-05 0 0.02120829737060698 3.9612595881808929e-05 0 0.021472176594047637 0.0006200846652987226 0 0.021091884666729444 0.00064353767424783228 0 0.021072427253225244 -5.8065756419925681e-06 0 0.020873337688796966 0.0003281164009498755 0 0.02120829737060698 3.9612595881808929e-05 0 0.020351683960167889 -2.7982123747723153e-05 0 0.020271723144806388 3.1892548185347016e-05 0 0.019956771954413855 0.00012290008849924478 0 0.020351683960167889 -2.7982123747723153e-05 0 0.020271723144806388 3.1892548185347016e-05 0 0.019956771954413855 0.00012290008849924478 0 0.020271723144806388 3.1892548185347016e-05 0 0.01984091063662391 0.00051212249898905553 0 0.020873337688796966 0.0003281164009498755 0 0.018791138761109823 0.00069902485145939065 0 0.014938165130098774 -0.00036137559560288509 0 0.014904371864299352 -0.00036615710240984876 0 0.014922702005775281 -0.00036410843518682644 0 0.021472176594047637 0.0006200846652987226 0 0.021091884666729444 0.00064353767424783228 0 0.020990614645353095 0.0012444420310078425 0 0.018066855603827373 0.00011466451288483469 0 0.018791138761109823 0.00069902485145939065 0 0.018791138761109823 0.00069902485145939065 0 0.016827728909805679 0.00010693811048893254 0 0.014904371864299352 -0.00036615710240984876 0 0.014922702005775281 -0.00036410843518682644 0 0.014890345533036862 -0.00037863000864981212 0 0.016827728909805679 0.00010693811048893254 0 0.013997096190133828 0.001364735030618409 0 0.014922702005775281 -0.00036410843518682644 0 0.014890345533036862 -0.00037863000864981212 0 0.014908865706163092 -0.00038032182716193777 0 0.014908865706163092 -0.00038032182716193777 0 0.014896373151800519 -0.00040762583060825958 0 0.014872693383433217 -0.00039976380751324835 0 0.014890345533036862 -0.00037863000864981212 0 0.014908865706163092 -0.00038032182716193777 0 0.014872693383433217 -0.00039976380751324835 0 0.018728028873983057 0.0010606517181295501 0 0.018793423389617193 0.00099695122927511261 0 0.018732571978358471 0.00091793363210519708 0 0.018716497643385288 0.0011873038292362782 0 0.018728028873983057 0.0010606517181295501 0 0.018800028905389982 0.0010861517514209095 0 0.018728028873983057 0.0010606517181295501 0 0.018800028905389982 0.0010861517514209095 0 0.018793423389617193 0.00099695122927511261 0 0.019132267411732035 0.00086200539243762406 0 0.018974158418586094 0.00093661357725106822 0 0.018800028905389982 0.0010861517514209095 0 0.018793423389617193 0.00099695122927511261 0 0.018910862578924909 0.00093284171912429604 0 0.019436319156401594 0.00073093223430648827 0 0.019082398068851408 0.00074977453210541413 0 0.018910862578924909 0.00093284171912429604 0 0.019436319156401594 0.00073093223430648827 0 0.019225574117219014 0.00060953295712165979 0 0.019082398068851408 0.00074977453210541413 0 0.019436319156401594 0.00073093223430648827 0 0.019225574117219014 0.00060953295712165979 0 0.019469876665798701 0.00057545245808364226 0 0.01984091063662391 0.00051212249898905553 0 0.019469876665798701 0.00057545245808364226 0 0.019374412737503274 0.00045549480499275326 0 0.019555236542725361 0.00026018655288755896 0 0.01984091063662391 0.00051212249898905553 0 0.019374412737503274 0.00045549480499275326 0 0.019225574117219014 0.00060953295712165979 0 0.019469876665798701 0.00057545245808364226 0 0.019374412737503274 0.00045549480499275326 0 0.018791138761109823 0.00069902485145939065 0 0.019132267411732035 0.00086200539243762406 0 0.01984091063662391 0.00051212249898905553 0 0.019436319156401594 0.00073093223430648827 0 0.019469876665798701 0.00057545245808364226 0 0.019067046816790601 0.00026925419172099609 0 0.019374412737503274 0.00045549480499275326 0 0.019020801065516364 0.00050753491769027612 0 0.019067046816790601 0.00026925419172099609 0 0.019020801065516364 0.00050753491769027612 0 0.01874660487882894 0.00042928670508454448 0 0.019020801065516364 0.00050753491769027612 0 0.01878754267881878 0.00060821315753092117 0 0.01874660487882894 0.00042928670508454448 0 0.019225574117219014 0.00060953295712165979 0 0.019020801065516364 0.00050753491769027612 0 0.01898622471817752 0.0006475784387082969 0 0.019225574117219014 0.00060953295712165979 0 0.019374412737503274 0.00045549480499275326 0 0.019020801065516364 0.00050753491769027612 0 0.019225574117219014 0.00060953295712165979 0 0.01898622471817752 0.0006475784387082969 0 0.019082398068851408 0.00074977453210541413 0 0.019082398068851408 0.00074977453210541413 0 0.018870990512432947 0.00077770492514575898 0 0.018910862578924909 0.00093284171912429604 0 0.01898622471817752 0.0006475784387082969 0 0.019082398068851408 0.00074977453210541413 0 0.018870990512432947 0.00077770492514575898 0 0.018870990512432947 0.00077770492514575898 0 0.01878754267881878 0.00060821315753092117 0 0.018674182123441633 0.0007453061745680338 0 0.019020801065516364 0.00050753491769027612 0 0.01898622471817752 0.0006475784387082969 0 0.01878754267881878 0.00060821315753092117 0 0.01898622471817752 0.0006475784387082969 0 0.018870990512432947 0.00077770492514575898 0 0.01878754267881878 0.00060821315753092117 0 0.01878754267881878 0.00060821315753092117 0 0.018509969909868713 0.00055639899522066472 0 0.01874660487882894 0.00042928670508454448 0 0.018674182123441633 0.0007453061745680338 0 0.018509969909868713 0.00055639899522066472 0 0.018396659266410535 0.00071075121319330321 0 0.01878754267881878 0.00060821315753092117 0 0.018674182123441633 0.0007453061745680338 0 0.018509969909868713 0.00055639899522066472 0 0.018509969909868713 0.00055639899522066472 0 0.018396659266410535 0.00071075121319330321 0 0.018148341455013997 0.00057118360256306212 0 0.018687737538550023 0.00018110619465310163 0 0.019067046816790601 0.00026925419172099609 0 0.01874660487882894 0.00042928670508454448 0 0.018509969909868713 0.00055639899522066472 0 0.01874660487882894 0.00042928670508454448 0 0.018460109106543283 0.00032943646257401968 0 0.018687737538550023 0.00018110619465310163 0 0.01874660487882894 0.00042928670508454448 0 0.018460109106543283 0.00032943646257401968 0 0.018566553813658137 0.00098449246561982005 0 0.01868037888014517 0.0012380810556463138 0 0.018702457150499296 0.0014498213710259305 0 0.018566553813658137 0.00098449246561982005 0 0.018712102420702686 0.0010576065711171193 0 0.01868037888014517 0.0012380810556463138 0 0.018566553813658137 0.00098449246561982005 0 0.018702457150499296 0.0014498213710259305 0 0.01803320705871873 0.00077984541456829271 0 0.018566553813658137 0.00098449246561982005 0 0.018396659266410535 0.00071075121319330321 0 0.01803320705871873 0.00077984541456829271 0 0.018674182123441633 0.0007453061745680338 0 0.018396659266410535 0.00071075121319330321 0 0.018628286247052352 0.00087161438124402164 0 0.018566553813658137 0.00098449246561982005 0 0.018396659266410535 0.00071075121319330321 0 0.018628286247052352 0.00087161438124402164 0 0.018566553813658137 0.00098449246561982005 0 0.018628286247052352 0.00087161438124402164 0 0.018712102420702686 0.0010576065711171193 0 0.018628286247052352 0.00087161438124402164 0 0.018804641253229216 0.00093133809247718182 0 0.018712102420702686 0.0010576065711171193 0 0.018870990512432947 0.00077770492514575898 0 0.018674182123441633 0.0007453061745680338 0 0.018804641253229216 0.00093133809247718182 0 0.018674182123441633 0.0007453061745680338 0 0.018628286247052352 0.00087161438124402164 0 0.018804641253229216 0.00093133809247718182 0 0.018910862578924909 0.00093284171912429604 0 0.018804641253229216 0.00093133809247718182 0 0.018821619697189252 0.00096484413112477192 0 0.018870990512432947 0.00077770492514575898 0 0.018910862578924909 0.00093284171912429604 0 0.018804641253229216 0.00093133809247718182 0 0.018804641253229216 0.00093133809247718182 0 0.018763215997802611 0.0010398408295279019 0 0.018821619697189252 0.00096484413112477192 0 0.018804641253229216 0.00093133809247718182 0 0.018712102420702686 0.0010576065711171193 0 0.018763215997802611 0.0010398408295279019 0 0.018712102420702686 0.0010576065711171193 0 0.018655697217307407 0.0011904500615044235 0 0.018763215997802611 0.0010398408295279019 0 0.018712102420702686 0.0010576065711171193 0 0.01868037888014517 0.0012380810556463138 0 0.018655697217307407 0.0011904500615044235 0 0.013100381567797833 0.0011055944559344719 0 0.013997096190133828 0.001364735030618409 0 0.018697638038846363 0.0011273231409412152 0 0.018763215997802611 0.0010398408295279019 0 0.018816560750267032 0.00097338109332481819 0 0.018655697217307407 0.0011904500615044235 0 0.018697638038846363 0.0011273231409412152 0 0.018763215997802611 0.0010398408295279019 0 0.018763215997802611 0.0010398408295279019 0 0.018821619697189252 0.00096484413112477192 0 0.018816560750267032 0.00097338109332481819 0 0.018793423389617193 0.00099695122927511261 0 0.018910862578924909 0.00093284171912429604 0 0.018811596156775655 0.00094934736656835392 0 0.018910862578924909 0.00093284171912429604 0 0.018821619697189252 0.00096484413112477192 0 0.018811596156775655 0.00094934736656835392 0 0.018793423389617193 0.00099695122927511261 0 0.018811596156775655 0.00094934736656835392 0 0.018732571978358471 0.00091793363210519708 0 0.018821619697189252 0.00096484413112477192 0 0.018811596156775655 0.00094934736656835392 0 0.018816560750267032 0.00097338109332481819 0 0.017708058524253525 0.0020429263336945395 0 0.013997096190133828 0.001364735030618409 0 0.014896373151800519 -0.00040762583060825958 0 0.014872693383433217 -0.00039976380751324835 0 0.014839712953458168 -0.00043594056304275343 0 0.013997096190133828 0.001364735030618409 0 0.010344225291372643 0.00084649522821068815 0 0.0074146593911801287 0.0028890894196573727 0 0.0065026850498429685 0.0019884454414164335 0 0.0059725072238645755 0.0021477079383333871 0 0.0065026850498429685 0.0019884454414164335 0 0.0059725072238645755 0.0021477079383333871 0 0.0058955099418936917 0.0014418163032163202 0 0.0065026850498429685 0.0019884454414164335 0 0.0069568724974309682 0.001547825268396428 0 0.0062370225192406479 0.0011025497561069533 0 0.0064170988226019549 0.0020472273008426355 0 0.0046937728621648245 0.00061069804721947346 0 0.0065026850498429685 0.0019884454414164335 0 0.0062370225192406479 0.0011025497561069533 0 0.0055912578179575182 0.0012171172523997222 0 0.0076587072272954271 0.0009284351253448645 0 0.0074146593911801287 0.0028890894196573727 0 0.0069568724974309682 0.001547825268396428 0 0.0074146593911801287 0.0028890894196573727 0 0.0065026850498429685 0.0019884454414164335 0 0.0069568724974309682 0.001547825268396428 0 0.0076587072272954271 0.0009284351253448645 0 0.0069204877046284514 0.0009416873580944718 0 0.0068074356580628426 0.00017475329274487569 0 0.0069568724974309682 0.001547825268396428 0 0.0069204877046284514 0.0009416873580944718 0 0.0062370225192406479 0.0011025497561069533 0 0.0076587072272954271 0.0009284351253448645 0 0.0069568724974309682 0.001547825268396428 0 0.0069204877046284514 0.0009416873580944718 0 0.0062370225192406479 0.0011025497561069533 0 0.0068074356580628426 0.00017475329274487569 0 0.00532846070761813 0.0010195301584471151 0 0.0069204877046284514 0.0009416873580944718 0 0.0062370225192406479 0.0011025497561069533 0 0.0068074356580628426 0.00017475329274487569 0 0.0056981586339699478 0.00069110471219681465 0 0.0046937728621648245 0.00061069804721947346 0 0.0076587072272954271 0.0009284351253448645 0 0.0068074356580628426 0.00017475329274487569 0 0.0078586705942862017 -0.0012057854614358201 0 0.0068074356580628426 0.00017475329274487569 0 0.0065907188518693899 -0.0011448666023477962 0 0.00532846070761813 0.0010195301584471151 0 0.0068128550166134212 -0.001392071417773477 0 0.0052422101517832637 0.0010818648726440476 0 0.0068074356580628426 0.00017475329274487569 0 0.0065907188518693899 -0.0011448666023477962 0 0.0078586705942862017 -0.0012057854614358201 0 0.0065907188518693899 -0.0011448666023477962 0 0.0078586705942862017 -0.0012057854614358201 0 0.0076215910750978373 -0.0031185498339164827 0 0.0068128550166134212 -0.001392071417773477 0 0.0034079107359324015 -0.0018844679987741174 0 0.0060806085131079836 -0.00092373560192339239 0 0.0051307275062160967 -0.0014523225653015881 0 0.0069274758943949234 -0.0027508464088981028 0 0.013357461827905034 8.604542950215153e-05 0 0.00978404589366174 -0.0020458713905736861 0 0.018472254152971348 0.0011508972901457498 0 0.018526889060633808 0.0011621860585555796 0 0.018429878889461102 0.00112398501233957 0 0.018472254152971348 0.0011508972901457498 0 0.018429878889461102 0.00112398501233957 0 0.018284932368762639 0.0010700770521031677 0 0.013100381567797833 0.0011055944559344719 0 0.013357461827905034 8.604542950215153e-05 0 0.018697638038846363 0.0011273231409412152 0 0.018472254152971348 0.0011508972901457498 0 0.018580416563384026 0.0011607268737187733 0 0.018472254152971348 0.0011508972901457498 0 0.018580416563384026 0.0011607268737187733 0 0.018526889060633808 0.0011621860585555796 0 0.018655697217307407 0.0011904500615044235 0 0.018697638038846363 0.0011273231409412152 0 0.018580416563384026 0.0011607268737187733 0 0.018655697217307407 0.0011904500615044235 0 0.018580416563384026 0.0011607268737187733 0 0.018526889060633808 0.0011621860585555796 0 0.01868037888014517 0.0012380810556463138 0 0.018655697217307407 0.0011904500615044235 0 0.018630646473147175 0.0012614179111307044 0 0.018655697217307407 0.0011904500615044235 0 0.018630646473147175 0.0012614179111307044 0 0.018526889060633808 0.0011621860585555796 0 0.018630646473147175 0.0012614179111307044 0 0.018526889060633808 0.0011621860585555796 0 0.018659187717033808 0.0011063684808544202 0 0.018429878889461102 0.00112398501233957 0 0.018494680222659342 0.0011463660498972107 0 0.018340980198732822 0.0010636204089767259 0 0.015054978114127761 0.00099584438338694748 0 0.0077235957842009904 -0.00097119840613701903 0 0.018526889060633808 0.0011621860585555796 0 0.018429878889461102 0.00112398501233957 0 0.018494680222659342 0.0011463660498972107 0 0.018822625789831897 0.00056627278716469144 0 0.015054978114127761 0.00099584438338694748 0 0.015054978114127761 0.00099584438338694748 0 0.011013533315492621 0.0018664689031146729 0 0.00698792624315596 -0.0013169203882178414 0 0.0052548223741218985 -0.00069077715105996993 0 0.0058713256681049118 0.00047826787425557049 0 0.019549933454676476 0.0030288185910548994 0 0.018307179575950478 0.0025793461935564375 0 0.01747401051520521 0.0041657170899624119 0 0.018630646473147175 0.0012614179111307044 0 0.018659187717033808 0.0011063684808544202 0 0.018702457150499296 0.0014498213710259305 0 0.015054978114127761 0.00099584438338694748 0 0.019247332476285701 0.0022857669337783288 0 0.019549933454676476 0.0030288185910548994 0 0.018307179575950478 0.0025793461935564375 0 0.018702457150499296 0.0014498213710259305 0 0.01868037888014517 0.0012380810556463138 0 0.018630646473147175 0.0012614179111307044 0 0.018702457150499296 0.0014498213710259305 0 0.0084613654821139774 -0.00088434901820728582 0 0.0076289137275960851 -0.0015824589453780041 0 0.0082648662474473916 -0.0020745794475862749 0 0.012139979104698504 -0.00066220581197907959 0 0.0044094863285341658 -0.0018871004712428794 0 0.0077577300352351594 -0.00061851475099987104 0 0.0084233283737644247 -0.00073208657547742121 0 0.0076733012221631121 -0.0010819146838815293 0 0.010077185362595812 -0.0004631466148582354 0 0.0039879051779310552 -0.0020450135307047922 0 0.0084613654821139774 -0.00088434901820728582 0 0.0076289137275960851 -0.0015824589453780041 0 0.0070336372066243753 -0.0006241179331637895 0 0.0076289137275960851 -0.0015824589453780041 0 0.0070336372066243753 -0.0006241179331637895 0 0.0067569696224920768 -0.0027457706867740302 0 0.012139979104698504 -0.00066220581197907959 0 0.010077185362595812 -0.0004631466148582354 0 0.015233945970600035 -0.00051895118695543814 0 0.010077185362595812 -0.0004631466148582354 0 0.014793198344769741 -0.00042125669897024812 0 0.014792531334817654 -0.00047660745451373772 0 0.014714813087317454 -0.00052397227250506814 0 0.014801421596195333 -0.00053938177126158587 0 0.014792531334817654 -0.00047660745451373772 0 0.014714813087317454 -0.00052397227250506814 0 0.015185576072445386 -0.00033294829496340967 0 0.012139979104698504 -0.00066220581197907959 0 0.014860432013938205 -0.00042929107218862058 0 0.014801421596195333 -0.00053938177126158587 0 0.014792531334817654 -0.00047660745451373772 0 0.014807677586611445 -0.00038770972589433083 0 0.014730954200941591 -0.00045067422345358542 0 0.014795131937964135 -0.00042009090146102922 0 0.014795131937964135 -0.00042009090146102922 0 0.01482726918076367 -0.0004169299825207255 0 0.014776430771006288 -0.00045968432048020821 0 0.014838725003387896 -0.00039204203232247033 0 0.014795131937964135 -0.00042009090146102922 0 0.01482726918076367 -0.0004169299825207255 0 0.01482726918076367 -0.0004169299825207255 0 0.014839712953458168 -0.00043594056304275343 0 0.014776430771006288 -0.00045968432048020821 0 0.014860465246877215 -0.00039202099419325477 0 0.014872693383433217 -0.00039976380751324835 0 0.01482726918076367 -0.0004169299825207255 0 0.014872693383433217 -0.00039976380751324835 0 0.01482726918076367 -0.0004169299825207255 0 0.014839712953458168 -0.00043594056304275343 0 0.010344225291372643 0.00084649522821068815 0 0.0077750535769411802 -0.00013263921938713716 0 0.0059725072238645755 0.0021477079383333871 0 0.0058955099418936917 0.0014418163032163202 0 0.0049420269452944482 0.0016057761292038663 0 0.0031068453444451395 -0.0010315559880720345 0 0.0024305038236678233 -0.00092085793124806626 0 0.0021713098421804961 -0.0013559927941450421 0 0.0046937728621648245 0.00061069804721947346 0 0.0077750535769411802 -0.00013263921938713716 0 0.0062370225192406479 0.0011025497561069533 0 0.00532846070761813 0.0010195301584471151 0 0.005423430469450187 0.0011988376645080325 0 0.012139979104698504 -0.00066220581197907959 0 0.0077750535769411802 -0.00013263921938713716 0 0.014730954200941591 -0.00045067422345358542 0 0.014795131937964135 -0.00042009090146102922 0 0.014776430771006288 -0.00045968432048020821 0 0.0024305038236678233 -0.00092085793124806626 0 0.0021713098421804961 -0.0013559927941450421 0 0.0014149407297166466 -0.001481989832422773 0 0.0077750535769411802 -0.00013263921938713716 0 0.0044094863285341658 -0.0018871004712428794 0 0.0031068453444451395 -0.0010315559880720345 0 0.0021713098421804961 -0.0013559927941450421 0 0.0022568897386843574 -0.0017893218070778201 0 0.0021713098421804961 -0.0013559927941450421 0 0.0022568897386843574 -0.0017893218070778201 0 0.0017622227020152408 -0.0015886447202359882 0 0.00532846070761813 0.0010195301584471151 0 0.0035478085426476212 -0.00048490257417326866 0 0.0049701745583514709 -0.00035882539696163593 0 0.0060806085131079836 -0.00092373560192339239 0 0.00532846070761813 0.0010195301584471151 0 0.0049701745583514709 -0.00035882539696163593 0 0.0035478085426476212 -0.00048490257417326866 0 0.0049701745583514709 -0.00035882539696163593 0 0.0051307275062160967 -0.0014523225653015881 0 0.0046937728621648245 0.00061069804721947346 0 0.0029046216319473903 -0.0012006153704538669 0 0.00532846070761813 0.0010195301584471151 0 0.005423430469450187 0.0011988376645080325 0 0.0035478085426476212 -0.00048490257417326866 0 0.0035478085426476212 -0.00048490257417326866 0 0.0051307275062160967 -0.0014523225653015881 0 0.0044518661551450865 -0.0024675754565613725 0 0.0060806085131079836 -0.00092373560192339239 0 0.0049701745583514709 -0.00035882539696163593 0 0.0051307275062160967 -0.0014523225653015881 0 0.0035478085426476212 -0.00048490257417326866 0 0.0018270209104846384 -0.0021445492891791255 0 0.0044518661551450865 -0.0024675754565613725 0 0.0029046216319473903 -0.0012006153704538669 0 0.00084863174375182692 -0.0021192904234182057 0 0.0022568897386843574 -0.0017893218070778201 0 0.0011164767428428321 -0.002229586954951276 0 0.00096953835251919725 -0.0020772704682675853 0 0.0019543829412624059 -0.0017979594905904101 0 0.0015258202881133578 -0.0019366985213165706 0 0.001703536823039395 -0.0025292388424645244 0 0.0016003435600621693 -0.002346668062117615 0 0.0017622227020152408 -0.0015886447202359882 0 0.00083769325805658384 -0.0019256724529274061 0 0.0011164767428428321 -0.002229586954951276 0 0.00096953835251919725 -0.0020772704682675853 0 0.00089594552542143996 -0.0020883243198062274 0 0.00084863174375182692 -0.0021192904234182057 0 0.0016383438261927345 -0.0024137284079924163 0 0.0044094863285341658 -0.0018871004712428794 0 0.0021713098421804961 -0.0013559927941450421 0 0.0014149407297166466 -0.001481989832422773 0 0.0017622227020152408 -0.0015886447202359882 0 0.0022568897386843574 -0.0017893218070778201 0 0.00096953835251919725 -0.0020772704682675853 0 0.0017622227020152408 -0.0015886447202359882 0 0.0016003435600621693 -0.002346668062117615 0 0.0014149407297166466 -0.001481989832422773 0 0.0017622227020152408 -0.0015886447202359882 0 0.0016003435600621693 -0.002346668062117615 0 0.001662859168729046 -0.0023931742904541834 0 0.0016382969202090151 -0.0024277836154975563 0 0.001662859168729046 -0.0023931742904541834 0 0.0016382969202090151 -0.0024277836154975563 0 0.0015894413001669239 -0.0024217004859892204 0 0.0044094863285341658 -0.0018871004712428794 0 0.0039879051779310552 -0.0020450135307047922 0 0.0076289137275960851 -0.0015824589453780041 0 0.0082648662474473916 -0.0020745794475862749 0 0.0067569696224920768 -0.0027457706867740302 0 0.0016670017105141221 -0.0025541328147601107 0 0.0015894413001669239 -0.0024217004859892204 0 0.0018585975438402133 -0.0026875567116107328 0 0.0016382969202090151 -0.0024277836154975563 0 0.0016670017105141221 -0.0025541328147601107 0 0.0015894413001669239 -0.0024217004859892204 0 0.0016382969202090151 -0.0024277836154975563 0 0.001651531293893756 -0.0025201468109828139 0 0.0016670017105141221 -0.0025541328147601107 0 0.0016003435600621693 -0.002346668062117615 0 0.0016382969202090151 -0.0024277836154975563 0 0.001651531293893756 -0.0025201468109828139 0 0.001703536823039395 -0.0025292388424645244 0 0.0016003435600621693 -0.002346668062117615 0 0.001651531293893756 -0.0025201468109828139 0 0.001703536823039395 -0.0025292388424645244 0 0.001651531293893756 -0.0025201468109828139 0 0.0016696949242530979 -0.0026773607771247753 0 0.001651531293893756 -0.0025201468109828139 0 0.0016670017105141221 -0.0025541328147601107 0 0.0016696949242530979 -0.0026773607771247753 0 0.0039392777543807763 -0.00075775421324232627 0 0.0040862012058601399 -0.00055715841505483131 0 0.0038861864142067655 -0.0011172960843068281 0 0.0039879051779310552 -0.0020450135307047922 0 0.002709473635439347 -0.0017158818619752675 0 0.0039392777543807763 -0.00075775421324232627 0 0.0038304491286164756 -0.00073501783688718209 0 0.0037685007548743693 -0.00097168871870320715 0 0.0039557098066630748 -0.00065009502383499545 0 0.0039392777543807763 -0.00075775421324232627 0 0.0038304491286164756 -0.00073501783688718209 0 0.0039557098066630748 -0.00065009502383499545 0 0.0038304491286164756 -0.00073501783688718209 0 0.0039468685527239214 -0.00057381331165749078 0 0.0039557098066630748 -0.00065009502383499545 0 0.0039392777543807763 -0.00075775421324232627 0 0.0040862012058601399 -0.00055715841505483131 0 0.0036985613933772786 -0.00071785839461410695 0 0.0038304491286164756 -0.00073501783688718209 0 0.0036080201464775007 -0.00104682020500678 0 0.0038304491286164756 -0.00073501783688718209 0 0.0038792726822986885 -0.00051041382774388139 0 0.0039468685527239214 -0.00057381331165749078 0 0.0036985613933772786 -0.00071785839461410695 0 0.0038792726822986885 -0.00051041382774388139 0 0.0038668792805099986 -0.00032781690914001905 0 0.0036985613933772786 -0.00071785839461410695 0 0.0038304491286164756 -0.00073501783688718209 0 0.0038792726822986885 -0.00051041382774388139 0 0.0038792726822986885 -0.00051041382774388139 0 0.0040033221489464308 -0.00051094436504992512 0 0.0039468685527239214 -0.00057381331165749078 0 0.0038792726822986885 -0.00051041382774388139 0 0.0040033221489464308 -0.00051094436504992512 0 0.0040147414795817602 -0.0004598947478401408 0 0.0039557098066630748 -0.00065009502383499545 0 0.0040862012058601399 -0.00055715841505483131 0 0.0040025046147326377 -0.00058223632903698947 0 0.0040862012058601399 -0.00055715841505483131 0 0.0040025046147326377 -0.00058223632903698947 0 0.0040388085777483861 -0.00054999275488295987 0 0.0040033221489464308 -0.00051094436504992512 0 0.0039468685527239214 -0.00057381331165749078 0 0.0040388085777483861 -0.00054999275488295987 0 0.0039557098066630748 -0.00065009502383499545 0 0.0040025046147326377 -0.00058223632903698947 0 0.0039468685527239214 -0.00057381331165749078 0 0.0040025046147326377 -0.00058223632903698947 0 0.0039468685527239214 -0.00057381331165749078 0 0.0040388085777483861 -0.00054999275488295987 0 0.0040033221489464308 -0.00051094436504992512 0 0.0040388085777483861 -0.00054999275488295987 0 0.0040776617567766073 -0.0005394061727102777 0 0.0040862012058601399 -0.00055715841505483131 0 0.0040388085777483861 -0.00054999275488295987 0 0.0040776617567766073 -0.0005394061727102777 0 0.0041977235887472961 -0.00053693197799698639 0 0.0040862012058601399 -0.00055715841505483131 0 0.0040776617567766073 -0.0005394061727102777 0 0.0041977235887472961 -0.00053693197799698639 0 0.0040923025239537544 -0.00055920457496978987 0 0.0041423492311620635 -0.00065829463695983494 0 0.0041977235887472961 -0.00053693197799698639 0 0.0040776617567766073 -0.0005394061727102777 0 0.0040923025239537544 -0.00055920457496978987 0 0.0040033221489464308 -0.00051094436504992512 0 0.0040776617567766073 -0.0005394061727102777 0 0.0040923025239537544 -0.00055920457496978987 0 0.0040033221489464308 -0.00051094436504992512 0 0.0041306428784270311 -0.00054730831768103451 0 0.0040923025239537544 -0.00055920457496978987 0 0.0040033221489464308 -0.00051094436504992512 0 0.0041306428784270311 -0.00054730831768103451 0 0.0040147414795817602 -0.0004598947478401408 0 0.0041306428784270311 -0.00054730831768103451 0 0.0040923025239537544 -0.00055920457496978987 0 0.0041423492311620635 -0.00065829463695983494 0 0.014243786516966056 -0.00077847149701942343 0 0.014314382076888644 -0.00068995405328095365 0 0.014201178658297824 -0.00071480290041130937 0 0.014243786516966056 -0.00077847149701942343 0 0.014401461505870577 -0.00071537012105458476 0 0.014314382076888644 -0.00068995405328095365 0 0.014356480357391515 -0.00078429539543332471 0 0.014243786516966056 -0.00077847149701942343 0 0.014401461505870577 -0.00071537012105458476 0 0.010077185362595812 -0.0004631466148582354 0 0.0087447897729161211 -0.0007171724613390674 0 0.014596959436402534 -0.00064986257833219048 0 0.014356480357391515 -0.00078429539543332471 0 0.014401461505870577 -0.00071537012105458476 0 0.0047105497359796744 -0.00085784807122502623 0 0.0047231469090805826 -0.00080765007601206593 0 0.0053068947168961158 -0.00076357346267485451 0 0.0046418433039559807 -0.00072901402025837641 0 0.0046553113247870311 -0.00085173442230386781 0 0.0044568815329201336 -0.00065117157549415166 0 0.0046418433039559807 -0.00072901402025837641 0 0.0047362813419805621 -0.00068428456442040371 0 0.0047231469090805826 -0.00080765007601206593 0 0.0046418433039559807 -0.00072901402025837641 0 0.0046314354083088665 -0.00064790389639936025 0 0.0044568815329201336 -0.00065117157549415166 0 0.0046418433039559807 -0.00072901402025837641 0 0.0046314354083088665 -0.00064790389639936025 0 0.0047362813419805621 -0.00068428456442040371 0 0.0047362813419805621 -0.00068428456442040371 0 0.00491013575792073 -0.00067865618566067588 0 0.0047495655176196232 -0.00056646726713900815 0 0.0046314354083088665 -0.00064790389639936025 0 0.0047362813419805621 -0.00068428456442040371 0 0.0047495655176196232 -0.00056646726713900815 0 0.00491013575792073 -0.00067865618566067588 0 0.0047495655176196232 -0.00056646726713900815 0 0.0050103579340225997 -0.00053620463109008956 0 0.0047362813419805621 -0.00068428456442040371 0 0.00491013575792073 -0.00067865618566067588 0 0.0047231469090805826 -0.00080765007601206593 0 0.0046418433039559807 -0.00072901402025837641 0 0.0046553113247870311 -0.00085173442230386781 0 0.0047231469090805826 -0.00080765007601206593 0 0.010736571000600124 -0.00077414885436428483 0 0.010260940811871106 -0.0011021560219512923 0 0.0041423492311620635 -0.00065829463695983494 0 0.0046553113247870311 -0.00085173442230386781 0 0.0044568815329201336 -0.00065117157549415166 0 0.0087447897729161211 -0.0007171724613390674 0 0.010736571000600124 -0.00077414885436428483 0 0.014243786516966056 -0.00077847149701942343 0 0.014058040170373792 -0.00077013578949996836 0 0.014201178658297824 -0.00071480290041130937 0 0.0041306428784270311 -0.00054730831768103451 0 0.0041423492311620635 -0.00065829463695983494 0 0.0044568815329201336 -0.00065117157549415166 0 0.0044568815329201336 -0.00065117157549415166 0 0.0043378251323279845 -0.00051305666865083339 0 0.0045477236507752063 -0.00056593332334494339 0 0.0041306428784270311 -0.00054730831768103451 0 0.0044568815329201336 -0.00065117157549415166 0 0.0043378251323279845 -0.00051305666865083339 0 0.0041306428784270311 -0.00054730831768103451 0 0.0043378251323279845 -0.00051305666865083339 0 0.0040147414795817602 -0.0004598947478401408 0 0.0043378251323279845 -0.00051305666865083339 0 0.0045798366392885009 -0.0004532573570195799 0 0.0045477236507752063 -0.00056593332334494339 0 0.0043378251323279845 -0.00051305666865083339 0 0.0045798366392885009 -0.0004532573570195799 0 0.0044594871726387113 -0.00031315326794080311 0 0.0045798366392885009 -0.0004532573570195799 0 0.0045477236507752063 -0.00056593332334494339 0 0.0047495655176196232 -0.00056646726713900815 0 0.0046314354083088665 -0.00064790389639936025 0 0.0045477236507752063 -0.00056593332334494339 0 0.0047495655176196232 -0.00056646726713900815 0 0.0046314354083088665 -0.00064790389639936025 0 0.0044568815329201336 -0.00065117157549415166 0 0.0045477236507752063 -0.00056593332334494339 0 0.0045798366392885009 -0.0004532573570195799 0 0.0047495655176196232 -0.00056646726713900815 0 0.0048602466783003971 -0.00037965959706106424 0 0.0045798366392885009 -0.0004532573570195799 0 0.0044594871726387113 -0.00031315326794080311 0 0.0048602466783003971 -0.00037965959706106424 0 0.0044594871726387113 -0.00031315326794080311 0 0.0050007302729321041 -0.00017874393713038518 0 0.0048602466783003971 -0.00037965959706106424 0 0.0044594871726387113 -0.00031315326794080311 0 0.0040147414795817602 -0.0004598947478401408 0 0.0038668792805099986 -0.00032781690914001905 0 0.0043378251323279845 -0.00051305666865083339 0 0.0044594871726387113 -0.00031315326794080311 0 0.0040147414795817602 -0.0004598947478401408 0 0.0038792726822986885 -0.00051041382774388139 0 0.0040147414795817602 -0.0004598947478401408 0 0.0038668792805099986 -0.00032781690914001905 0 0.0036985613933772786 -0.00071785839461410695 0 0.0038668792805099986 -0.00032781690914001905 0 0.0032756679594391786 -0.00074089525049935313 0 0.0036985613933772786 -0.00071785839461410695 0 0.0032756679594391786 -0.00074089525049935313 0 0.0034382078081881531 -0.0010623529026420988 0 0.0044594871726387113 -0.00031315326794080311 0 0.0038668792805099986 -0.00032781690914001905 0 0.00440044238198831 0.00031386740675114921 0 0.0039199352223196447 -0.00023442581401790158 0 0.0036148660657888284 -0.0003997531918123519 0 0.0044594871726387113 -0.00031315326794080311 0 0.00440044238198831 0.00031386740675114921 0 0.004905937449016096 8.5879864640650021e-05 0 0.0036148660657888284 -0.0003997531918123519 0 0.0040365538652066242 -0.00011964747617822709 0 0.0031343382703646395 -0.000313638721750281 0 0.0031044252725995866 -0.00031630185043272002 0 0.0030999737853912193 -0.00029375108655912155 0 0.002278371597299518 -3.4125810413670731e-05 0 0.0039249388507410204 -5.2033906609026406e-05 0 0.0030999737853912193 -0.00029375108655912155 0 0.0030842367713461187 -0.00030649890182930583 0 0.0030826022432295453 -0.0002784858397331859 0 0.0031044252725995866 -0.00031630185043272002 0 0.0030999737853912193 -0.00029375108655912155 0 0.0030842367713461187 -0.00030649890182930583 0 0.0012603445419558962 0.00015163993140809216 0 0.0013221340215267044 0.0002438346976340399 0 0.0013310725655475918 0.00021963632869165703 0 0.0016272641313182722 4.8255966993723706e-05 0 0.0012603445419558962 0.00015163993140809216 0 0.0013221340215267044 0.0002438346976340399 0 0.0016272641313182722 4.8255966993723706e-05 0 0.0012603445419558962 0.00015163993140809216 0 0.0012882145883799491 -0.00020860514657780721 0 0.0039249388507410204 -5.2033906609026406e-05 0 0.0037488255972939213 -0.00010089818006353584 0 0.0044594871726387113 -0.00031315326794080311 0 0.004905937449016096 8.5879864640650021e-05 0 0.0050007302729321041 -0.00017874393713038518 0 0.0052680654226570931 -9.2287954968389975e-05 0 0.0050007302729321041 -0.00017874393713038518 0 0.0052666886145301319 -0.00031996383080335812 0 0.0040365538652066242 -0.00011964747617822709 0 0.0039249388507410204 -5.2033906609026406e-05 0 0.004905937449016096 8.5879864640650021e-05 0 0.0052680654226570931 -9.2287954968389975e-05 0 0.0050007302729321041 -0.00017874393713038518 0 0.00060734474833346887 1.1352344539048291e-06 0 0.0016036626580651226 0.00029108223561474214 0 0.00016361983476119568 2.883725923732121e-05 0 0.0012603445419558962 0.00015163993140809216 0 0.0010855101179346883 0.00025261937128819945 0 0.00016361983476119568 2.883725923732121e-05 0 0.0012603445419558962 0.00015163993140809216 0 0.0012882145883799491 -0.00020860514657780721 0 0.00016361983476119568 2.883725923732121e-05 0 0.0010855101179346883 0.00025261937128819945 0 0.0016036626580651226 0.00029108223561474214 0 0.00016361983476119568 2.883725923732121e-05 0 0.0010855101179346883 0.00025261937128819945 0 0.0013310725655475918 0.00021963632869165703 0 0.0016036626580651226 0.00029108223561474214 0 0.0012603445419558962 0.00015163993140809216 0 0.0010855101179346883 0.00025261937128819945 0 0.0013310725655475918 0.00021963632869165703 0 0.0013310725655475918 0.00021963632869165703 0 0.0016036626580651226 0.00029108223561474214 0 0.0016405374108716037 -0.00017332405305365124 0 0.0016036626580651226 0.00029108223561474214 0 0.0025740733308287772 5.0578170022276249e-05 0 0.0016405374108716037 -0.00017332405305365124 0 0.0013221340215267044 0.0002438346976340399 0 0.0013310725655475918 0.00021963632869165703 0 0.0016405374108716037 -0.00017332405305365124 0 0.00060734474833346887 1.1352344539048291e-06 0 0.0016036626580651226 0.00029108223561474214 0 0.0036605685253354864 1.2915707463528045e-07 0 0.0016036626580651226 0.00029108223561474214 0 0.0025740733308287772 5.0578170022276249e-05 0 0.0036605685253354864 1.2915707463528045e-07 0 0.0050783708575570111 -9.883935431344285e-05 0 0.0058720831320513414 -0.00011425978959156965 0 0.0059082415338518567 -0.00028556329053685067 0 0.0025740733308287772 5.0578170022276249e-05 0 0.0050783708575570111 -9.883935431344285e-05 0 0.0016405374108716037 -0.00017332405305365124 0 0.0048241684461334082 -0.00015906619461059898 0 0.0037488255972939213 -0.00010089818006353584 0 0.0025740733308287772 5.0578170022276249e-05 0 0.0050783708575570111 -9.883935431344285e-05 0 0.0036605685253354864 1.2915707463528045e-07 0 0.0058720831320513414 -0.00011425978959156965 0 0.0059082415338518567 -0.00028556329053685067 0 0.0057232137520847482 -0.00030124596225182001 0 0.0058720831320513414 -0.00011425978959156965 0 0.0057232137520847482 -0.00030124596225182001 0 0.0062066478179435827 2.6089539596575627e-05 0 0.0057232137520847482 -0.00030124596225182001 0 0.0062066478179435827 2.6089539596575627e-05 0 0.0057103944378441495 -0.00057955044580422325 0 0.0050783708575570111 -9.883935431344285e-05 0 0.0036605685253354864 1.2915707463528045e-07 0 0.0067147618035944484 -2.1822018241219663e-06 0 0.0050783708575570111 -9.883935431344285e-05 0 0.0058720831320513414 -0.00011425978959156965 0 0.0062066478179435827 2.6089539596575627e-05 0 0.0062066478179435827 2.6089539596575627e-05 0 0.0067147618035944484 -2.1822018241219663e-06 0 0.0079302646411553105 -0.00033304172799009639 0 0.0050783708575570111 -9.883935431344285e-05 0 0.0062066478179435827 2.6089539596575627e-05 0 0.0067147618035944484 -2.1822018241219663e-06 0 0.0050103579340225997 -0.00053620463109008956 0 0.0048602466783003971 -0.00037965959706106424 0 0.0052666886145301319 -0.00031996383080335812 0 0.0047495655176196232 -0.00056646726713900815 0 0.0050103579340225997 -0.00053620463109008956 0 0.0048602466783003971 -0.00037965959706106424 0 0.0050007302729321041 -0.00017874393713038518 0 0.0048602466783003971 -0.00037965959706106424 0 0.0052666886145301319 -0.00031996383080335812 0 0.0039249388507410204 -5.2033906609026406e-05 0 0.006209230680356401 -0.0004563462438751764 0 0.0052680654226570931 -9.2287954968389975e-05 0 0.0057232137520847482 -0.00030124596225182001 0 0.0052666886145301319 -0.00031996383080335812 0 0.0057348689080584624 -0.00018930397109024721 0 0.0059082415338518567 -0.00028556329053685067 0 0.0057232137520847482 -0.00030124596225182001 0 0.0057232137520847482 -0.00030124596225182001 0 0.0052666886145301319 -0.00031996383080335812 0 0.0053068947168961158 -0.00076357346267485451 0 0.0057232137520847482 -0.00030124596225182001 0 0.0053068947168961158 -0.00076357346267485451 0 0.0057103944378441495 -0.00057955044580422325 0 0.010736571000600124 -0.00077414885436428483 0 0.0097050012272761905 -0.0014040941846603938 0 0.00491013575792073 -0.00067865618566067588 0 0.0047231469090805826 -0.00080765007601206593 0 0.0053068947168961158 -0.00076357346267485451 0 0.0050103579340225997 -0.00053620463109008956 0 0.0052666886145301319 -0.00031996383080335812 0 0.0053068947168961158 -0.00076357346267485451 0 0.00491013575792073 -0.00067865618566067588 0 0.0050103579340225997 -0.00053620463109008956 0 0.0053068947168961158 -0.00076357346267485451 0 0.01471761825631398 -0.00076465247867661538 0 0.015194602657940755 -0.0013462811388903271 0 0.015532243744465112 -0.0008735014479596564 0 0.014460467760588654 -0.0019718576394545961 0 0.01471761825631398 -0.00076465247867661538 0 0.015194602657940755 -0.0013462811388903271 0 0.015501387847807203 -0.0017564877018519389 0 0.014460467760588654 -0.0019718576394545961 0 0.015194602657940755 -0.0013462811388903271 0 0.0097050012272761905 -0.0014040941846603938 0 0.0090930779508454785 -0.0012143753842982286 0 0.014460467760588654 -0.0019718576394545961 0 0.013527434507889348 -0.00089428292748214104 0 0.01471761825631398 -0.00076465247867661538 0 0.014460467760588654 -0.0019718576394545961 0 0.013527434507889348 -0.00089428292748214104 0 0.012479442740616868 -0.0020899688187153149 0 0.013527434507889348 -0.00089428292748214104 0 0.01471761825631398 -0.00076465247867661538 0 0.014013611094198486 0.00017484394355819075 0 0.01471761825631398 -0.00076465247867661538 0 0.015521589474116516 0.00017081710778733407 0 0.015532243744465112 -0.0008735014479596564 0 0.0062066478179435827 2.6089539596575627e-05 0 0.0079302646411553105 -0.00033304172799009639 0 0.0057103944378441495 -0.00057955044580422325 0 0.0067147618035944484 -2.1822018241219663e-06 0 0.0079302646411553105 -0.00033304172799009639 0 0.0097682669623372978 -1.3426381835765725e-07 0 0.0080101064202367876 -0.00053908300598732477 0 0.0090930779508454785 -0.0012143753842982286 0 0.013527434507889348 -0.00089428292748214104 0 0.012479442740616868 -0.0020899688187153149 0 0.011688320190326904 -0.00015674383387493485 0 0.0079302646411553105 -0.00033304172799009639 0 0.012479442740616868 -0.0020899688187153149 0 0.011688320190326904 -0.00015674383387493485 0 0.013527434507889348 -0.00089428292748214104 0 0.011688320190326904 -0.00015674383387493485 0 0.014013611094198486 0.00017484394355819075 0 0.011688320190326904 -0.00015674383387493485 0 0.0097682669623372978 -1.3426381835765725e-07 0 0.012557699836939242 0.00022506533105421799 0 0.0079302646411553105 -0.00033304172799009639 0 0.011688320190326904 -0.00015674383387493485 0 0.0097682669623372978 -1.3426381835765725e-07 0 0.0097682669623372978 -1.3426381835765725e-07 0 0.012557699836939242 0.00022506533105421799 0 0.012820772381453535 8.4330239860200998e-07 0 0.011688320190326904 -0.00015674383387493485 0 0.012557699836939242 0.00022506533105421799 0 0.014013611094198486 0.00017484394355819075 0 0.012557699836939242 0.00022506533105421799 0 0.014348269079983458 0.00051206308976091549 0 0.014013611094198486 0.00017484394355819075 0 0.012557699836939242 0.00022506533105421799 0 0.014348269079983458 0.00051206308976091549 0 0.012820772381453535 8.4330239860200998e-07 0 0.01471761825631398 -0.00076465247867661538 0 0.015521589474116516 0.00017081710778733407 0 0.014013611094198486 0.00017484394355819075 0 0.015521589474116516 0.00017081710778733407 0 0.014013611094198486 0.00017484394355819075 0 0.015564896987482169 0.000689570473005958 0 0.014348269079983458 0.00051206308976091549 0 0.014013611094198486 0.00017484394355819075 0 0.015564896987482169 0.000689570473005958 0 0.015521589474116516 0.00017081710778733407 0 0.015564896987482169 0.000689570473005958 0 0.016118314509217371 0.00052790062181561537 0 0.016336143924281774 0.00085516897516816064 0 0.015564896987482169 0.000689570473005958 0 0.016118314509217371 0.00052790062181561537 0 0.016336143924281774 0.00085516897516816064 0 0.016118314509217371 0.00052790062181561537 0 0.016471381989196017 0.00078282446890825088 0 0.015521589474116516 0.00017081710778733407 0 0.016533476210746488 0.00029122711772468262 0 0.015532243744465112 -0.0008735014479596564 0 0.015521589474116516 0.00017081710778733407 0 0.016118314509217371 0.00052790062181561537 0 0.016533476210746488 0.00029122711772468262 0 0.015424201748641285 -0.00050780136830080218 0 0.015376544224265926 -0.000481783873766465 0 0.015680545289737776 -0.00084724002217969013 0 0.016648374253512396 0.00094192402219278517 0 0.016533476210746488 0.00029122711772468262 0 0.016471381989196017 0.00078282446890825088 0 0.015869550719277162 0.0002478246005288943 0 0.015956749494652287 -0.00010555938263265722 0 0.016118314509217371 0.00052790062181561537 0 0.016533476210746488 0.00029122711772468262 0 0.016471381989196017 0.00078282446890825088 0 0.01509499751554884 -0.00043086263297462346 0 0.014960360674292576 -0.00038171188786992083 0 0.015376544224265926 -0.000481783873766465 0 0.01509499751554884 -0.00043086263297462346 0 0.015424201748641285 -0.00050780136830080218 0 0.015376544224265926 -0.000481783873766465 0 0.014969665805710628 -0.00039145313919730808 0 0.014841483838470488 -0.00053704375274773509 0 0.014868773727029164 -0.00039100533744015941 0 0.014960360674292576 -0.00038171188786992083 0 0.014770673396820722 -0.00041380146686423021 0 0.014960360674292576 -0.00038171188786992083 0 0.014770673396820722 -0.00041380146686423021 0 0.014505601496752063 -0.00042468644382467706 0 0.014770673396820722 -0.00041380146686423021 0 0.014505601496752063 -0.00042468644382467706 0 0.014644006157391894 -0.00050862608869790013 0 0.014817812141142502 -0.0004472642419454029 0 0.014770673396820722 -0.00041380146686423021 0 0.014644006157391894 -0.00050862608869790013 0 0.014505601496752063 -0.00042468644382467706 0 0.014471475462459237 -0.00059810486795396133 0 0.014644006157391894 -0.00050862608869790013 0 0.014505601496752063 -0.00042468644382467706 0 0.014471475462459237 -0.00059810486795396133 0 0.014222275948183847 -0.00059907390486631251 0 0.014596959436402534 -0.00064986257833219048 0 0.014471475462459237 -0.00059810486795396133 0 0.014644006157391894 -0.00050862608869790013 0 0.014596959436402534 -0.00064986257833219048 0 0.014471475462459237 -0.00059810486795396133 0 0.014401461505870577 -0.00071537012105458476 0 0.014471475462459237 -0.00059810486795396133 0 0.014401461505870577 -0.00071537012105458476 0 0.014314382076888644 -0.00068995405328095365 0 0.014471475462459237 -0.00059810486795396133 0 0.014314382076888644 -0.00068995405328095365 0 0.014222275948183847 -0.00059907390486631251 0 0.010736571000600124 -0.00077414885436428483 0 0.015503038681506234 -0.00065411443877285184 0 0.014058040170373792 -0.00077013578949996836 0 0.014201178658297824 -0.00071480290041130937 0 0.014222275948183847 -0.00059907390486631251 0 0.014314382076888644 -0.00068995405328095365 0 0.014201178658297824 -0.00071480290041130937 0 0.014222275948183847 -0.00059907390486631251 0 0.015506820960431896 -0.001199434198143132 0 0.015532243744465112 -0.0008735014479596564 0 0.015680545289737776 -0.00084724002217969013 0 0.015501387847807203 -0.0017564877018519389 0 0.015506820960431896 -0.001199434198143132 0 0.015680545289737776 -0.00084724002217969013 0 0.015501387847807203 -0.0017564877018519389 0 0.015194602657940755 -0.0013462811388903271 0 0.015506820960431896 -0.001199434198143132 0 0.015194602657940755 -0.0013462811388903271 0 0.015506820960431896 -0.001199434198143132 0 0.015532243744465112 -0.0008735014479596564 0 0.015956749494652287 -0.00010555938263265722 0 0.015573053592421705 -0.00081181100828778296 0 0.014841483838470488 -0.00053704375274773509 0 0.015503038681506234 -0.00065411443877285184 0 0.015424201748641285 -0.00050780136830080218 0 0.015532243744465112 -0.0008735014479596564 0 0.015680545289737776 -0.00084724002217969013 0 0.01630336807237814 -0.00075411900115796644 0 0.016563369128854852 -0.00033673220709462152 0 0.016490777379570304 -0.00052974575471645294 0 0.01630336807237814 -0.00075411900115796644 0 0.016377079015544919 -0.00011477738443655822 0 0.015806409432876485 -0.00065819257151697712 0 0.01630336807237814 -0.00075411900115796644 0 0.016377079015544919 -0.00011477738443655822 0 0.016563369128854852 -0.00033673220709462152 0 0.01630336807237814 -0.00075411900115796644 0 0.016490777379570304 -0.00052974575471645294 0 0.016422170806738256 -0.00048975852639140255 0 0.016563369128854852 -0.00033673220709462152 0 0.016580572093539553 -0.0004228538333424236 0 0.016713106494900834 -0.00028763969046754188 0 0.016563369128854852 -0.00033673220709462152 0 0.016580572093539553 -0.0004228538333424236 0 0.016490777379570304 -0.00052974575471645294 0 0.016580572093539553 -0.0004228538333424236 0 0.01646494425584312 -0.00048840104836690528 0 0.016448165714722875 -0.00050830708215873429 0 0.016580572093539553 -0.0004228538333424236 0 0.01646494425584312 -0.00048840104836690528 0 0.016648368793153366 -0.0003939016147666659 0 0.01646494425584312 -0.00048840104836690528 0 0.016448165714722875 -0.00050830708215873429 0 0.016167404827962362 -0.00051365281905405968 0 0.016448165714722875 -0.00050830708215873429 0 0.016422170806738256 -0.00048975852639140255 0 0.016167404827962362 -0.00051365281905405968 0 0.016448165714722875 -0.00050830708215873429 0 0.016490777379570304 -0.00052974575471645294 0 0.016422170806738256 -0.00048975852639140255 0 0.016580572093539553 -0.0004228538333424236 0 0.016448165714722875 -0.00050830708215873429 0 0.016490777379570304 -0.00052974575471645294 0 0.0055222480442578478 0.0074243400922663263 0 0.0052590538556412754 0.0074992000376739457 0 0.0044619491319128146 0.0068756965531702541 0 0.01630336807237814 -0.00075411900115796644 0 0.016422170806738256 -0.00048975852639140255 0 0.015678615498635039 -0.0022531209274458527 0 0.0055222480442578478 0.0074243400922663263 0 0.0025551084701192898 0.008133071720460891 0 0.0044619491319128146 0.0068756965531702541 0 0.010158585665995909 0.0033849019507540315 0 0.0094634335126598731 0.0027373865120797602 0 0.015678615498635039 -0.0022531209274458527 0 0.013864411322548125 -0.0013023641058149938 0 0.015806409432876485 -0.00065819257151697712 0 0.01630336807237814 -0.00075411900115796644 0 0.015678615498635039 -0.0022531209274458527 0 0.015806409432876485 -0.00065819257151697712 0 0.0094634335126598731 0.0027373865120797602 0 0.0020985300816876024 0.0033081857930551441 0 0.013864411322548125 -0.0013023641058149938 0 0.011130941617520804 -0.001161407792098072 0 0.0098543101212711093 -0.0042927316535725218 0 0.015678615498635039 -0.0022531209274458527 0 0.013864411322548125 -0.0013023641058149938 0 0.0098543101212711093 -0.0042927316535725218 0 0.017838400209299041 0.0016044209742085149 0 0.017512569902155082 0.00043520745484157002 0 0.01604602669620207 0.00034952939954368954 0 0.013864411322548125 -0.0013023641058149938 0 0.011130941617520804 -0.001161407792098072 0 0.01604602669620207 0.00034952939954368954 0 0.013669356801326084 0.00065900768090121256 0 0.015945074024269021 0.00029163926220669489 0 0.013669356801326084 0.00065900768090121256 0 0.017003125777792626 0.0010042288925295906 0 0.013864411322548125 -0.0013023641058149938 0 0.015806409432876485 -0.00065819257151697712 0 0.01604602669620207 0.00034952939954368954 0 0.016377079015544919 -0.00011477738443655822 0 0.015806409432876485 -0.00065819257151697712 0 0.01604602669620207 0.00034952939954368954 0 0.016377079015544919 -0.00011477738443655822 0 0.01604602669620207 0.00034952939954368954 0 0.016827772281854354 -9.461763227903095e-05 0 0.01604602669620207 0.00034952939954368954 0 0.016870252315713239 -5.1345421323833159e-05 0 0.016827772281854354 -9.461763227903095e-05 0 0.017512569902155082 0.00043520745484157002 0 0.016870252315713239 -5.1345421323833159e-05 0 0.017628933020883541 -0.00012468648896812168 0 0.017512569902155082 0.00043520745484157002 0 0.017628933020883541 -0.00012468648896812168 0 0.017958856454908401 0.0001295044777978588 0 0.017512569902155082 0.00043520745484157002 0 0.01604602669620207 0.00034952939954368954 0 0.016870252315713239 -5.1345421323833159e-05 0 0.017628933020883541 -0.00012468648896812168 0 0.017953487443978143 -0.0002140679048594 0 0.018240276304204193 -0.0001534928325321376 0 0.017628933020883541 -0.00012468648896812168 0 0.017953487443978143 -0.0002140679048594 0 0.017551020889557484 -0.00022954986761512024 0 0.016827772281854354 -9.461763227903095e-05 0 0.017551020889557484 -0.00022954986761512024 0 0.017214142681834056 -0.00021098963651458677 0 0.016870252315713239 -5.1345421323833159e-05 0 0.017628933020883541 -0.00012468648896812168 0 0.017551020889557484 -0.00022954986761512024 0 0.016870252315713239 -5.1345421323833159e-05 0 0.016827772281854354 -9.461763227903095e-05 0 0.017551020889557484 -0.00022954986761512024 0 0.017551020889557484 -0.00022954986761512024 0 0.017214142681834056 -0.00021098963651458677 0 0.017554739288573061 -0.00027959496801217024 0 0.017214142681834056 -0.00021098963651458677 0 0.017100053680770222 -0.00025943493396701057 0 0.017554739288573061 -0.00027959496801217024 0 0.017214142681834056 -0.00021098963651458677 0 0.016903378271116588 -0.00020164039713054663 0 0.017100053680770222 -0.00025943493396701057 0 0.016827772281854354 -9.461763227903095e-05 0 0.017214142681834056 -0.00021098963651458677 0 0.016903378271116588 -0.00020164039713054663 0 0.016827772281854354 -9.461763227903095e-05 0 0.016903378271116588 -0.00020164039713054663 0 0.016672072894760082 -0.00018175733013975736 0 0.016903378271116588 -0.00020164039713054663 0 0.016713106494900834 -0.00028763969046754188 0 0.016860198248209717 -0.00029734528410143207 0 0.016903378271116588 -0.00020164039713054663 0 0.016713106494900834 -0.00028763969046754188 0 0.016672072894760082 -0.00018175733013975736 0 0.016563369128854852 -0.00033673220709462152 0 0.016713106494900834 -0.00028763969046754188 0 0.016672072894760082 -0.00018175733013975736 0 0.016377079015544919 -0.00011477738443655822 0 0.016563369128854852 -0.00033673220709462152 0 0.016672072894760082 -0.00018175733013975736 0 0.016377079015544919 -0.00011477738443655822 0 0.016827772281854354 -9.461763227903095e-05 0 0.016672072894760082 -0.00018175733013975736 0 0.016568831676833984 -0.00044605768101713166 0 0.016648368793153366 -0.0003939016147666659 0 0.016746114006811148 -0.00038904985403262645 0 0.01646494425584312 -0.00048840104836690528 0 0.016568831676833984 -0.00044605768101713166 0 0.016648368793153366 -0.0003939016147666659 0 0.016580572093539553 -0.0004228538333424236 0 0.016713106494900834 -0.00028763969046754188 0 0.016648368793153366 -0.0003939016147666659 0 0.016713106494900834 -0.00028763969046754188 0 0.016648368793153366 -0.0003939016147666659 0 0.016860198248209717 -0.00029734528410143207 0 0.016648368793153366 -0.0003939016147666659 0 0.016860198248209717 -0.00029734528410143207 0 0.016746114006811148 -0.00038904985403262645 0 0.016860198248209717 -0.00029734528410143207 0 0.016746114006811148 -0.00038904985403262645 0 0.016959640510245847 -0.0003459870495645549 0 0.016860198248209717 -0.00029734528410143207 0 0.016959640510245847 -0.0003459870495645549 0 0.017100053680770222 -0.00025943493396701057 0 0.016903378271116588 -0.00020164039713054663 0 0.016860198248209717 -0.00029734528410143207 0 0.017100053680770222 -0.00025943493396701057 0 0.016959640510245847 -0.0003459870495645549 0 0.017100053680770222 -0.00025943493396701057 0 0.017299008762478717 -0.00030890288380037089 0 0.016959640510245847 -0.0003459870495645549 0 0.017133672378045681 -0.00035676605303597845 0 0.017299008762478717 -0.00030890288380037089 0 0.017133672378045681 -0.00035676605303597845 0 0.016908132978963663 -0.00041680471999900931 0 0.017063103806350212 -0.00040074460357635624 0 0.016959640510245847 -0.0003459870495645549 0 0.017133672378045681 -0.00035676605303597845 0 0.016908132978963663 -0.00041680471999900931 0 0.016959640510245847 -0.0003459870495645549 0 0.016908132978963663 -0.00041680471999900931 0 0.016771974105365711 -0.00041688324729337935 0 0.016908132978963663 -0.00041680471999900931 0 0.01691018066982956 -0.00046083382194331241 0 0.016783238293735743 -0.00048221425911699431 0 0.01691018066982956 -0.00046083382194331241 0 0.016592567815014461 -0.00056808333293369455 0 0.016783238293735743 -0.00048221425911699431 0 0.016908132978963663 -0.00041680471999900931 0 0.016771974105365711 -0.00041688324729337935 0 0.016783238293735743 -0.00048221425911699431 0 0.017063103806350212 -0.00040074460357635624 0 0.01691018066982956 -0.00046083382194331241 0 0.017164264584031714 -0.00039425446252668836 0 0.016908132978963663 -0.00041680471999900931 0 0.017063103806350212 -0.00040074460357635624 0 0.01691018066982956 -0.00046083382194331241 0 0.01691018066982956 -0.00046083382194331241 0 0.017243067923819123 -0.00045579716395956796 0 0.017164264584031714 -0.00039425446252668836 0 0.01691018066982956 -0.00046083382194331241 0 0.016592567815014461 -0.00056808333293369455 0 0.017243067923819123 -0.00045579716395956796 0 0.016740253443641339 -0.00049978058864809285 0 0.015793726969871736 -0.0015690086189791145 0 0.016592567815014461 -0.00056808333293369455 0 0.014617222342452968 -0.00017645468507226125 0 0.015798760716847916 0.00053643459380239768 0 0.016592567815014461 -0.00056808333293369455 0 0.015130017537491618 -0.0020443060486274875 0 0.014617222342452968 -0.00017645468507226125 0 0.016592567815014461 -0.00056808333293369455 0 0.016714851232889037 -0.00044213010617010396 0 0.015798760716847916 0.00053643459380239768 0 0.016427644215549812 -0.00048279397340456932 0 0.016714851232889037 -0.00044213010617010396 0 0.016055347461327366 -0.00047842988004311775 0 0.016427644215549812 -0.00048279397340456932 0 0.016560880390632089 -0.0004606912196792572 0 0.016714851232889037 -0.00044213010617010396 0 0.016568831676833984 -0.00044605768101713166 0 0.016746114006811148 -0.00038904985403262645 0 0.016560880390632089 -0.0004606912196792572 0 0.016427644215549812 -0.00048279397340456932 0 0.016560880390632089 -0.0004606912196792572 0 0.016388471075641932 -0.00049268458227831634 0 0.016568831676833984 -0.00044605768101713166 0 0.016560880390632089 -0.0004606912196792572 0 0.016388471075641932 -0.00049268458227831634 0 0.016746114006811148 -0.00038904985403262645 0 0.016959640510245847 -0.0003459870495645549 0 0.016771974105365711 -0.00041688324729337935 0 0.016746114006811148 -0.00038904985403262645 0 0.016560880390632089 -0.0004606912196792572 0 0.016771974105365711 -0.00041688324729337935 0 0.016560880390632089 -0.0004606912196792572 0 0.016771974105365711 -0.00041688324729337935 0 0.016714851232889037 -0.00044213010617010396 0 0.016771974105365711 -0.00041688324729337935 0 0.016783238293735743 -0.00048221425911699431 0 0.016714851232889037 -0.00044213010617010396 0 0.016592567815014461 -0.00056808333293369455 0 0.016783238293735743 -0.00048221425911699431 0 0.016714851232889037 -0.00044213010617010396 0 0.018269494105916096 2.0438999379242674e-05 0 0.017917912262341538 -0.0005770463148831198 0 0.024521071972315261 0.00080889944380665123 0 0.024262683585932851 0.0010073978364033905 0 0.024663379343315743 0.0009534131230113476 0 0.015130017537491618 -0.0020443060486274875 0 0.014617222342452968 -0.00017645468507226125 0 0.012048770681911151 -0.00094392653264152224 0 0.015130017537491618 -0.0020443060486274875 0 0.012048770681911151 -0.00094392653264152224 0 0.013758512647026877 -0.0034387775753572584 0 0.014617222342452968 -0.00017645468507226125 0 0.012048770681911151 -0.00094392653264152224 0 0.013718111362629896 0.0016179642913066027 0 0.013718111362629896 0.0016179642913066027 0 0.012492380132904915 0.0037239688984156208 0 0.010327257842978268 0.0016105042433671691 0 0.012048770681911151 -0.00094392653264152224 0 0.013718111362629896 0.0016179642913066027 0 0.010327257842978268 0.0016105042433671691 0 0.014617222342452968 -0.00017645468507226125 0 0.013718111362629896 0.0016179642913066027 0 0.015798760716847916 0.00053643459380239768 0 0.015586940460678057 0.0017064044371361846 0 0.011338892147745064 0.0029123924781476024 0 0.013718111362629896 0.0016179642913066027 0 0.012492380132904915 0.0037239688984156208 0 0.014649209635422137 0.0045990637783566019 0 0.013718111362629896 0.0016179642913066027 0 0.015830451558306809 0.0021187381446041817 0 0.014649209635422137 0.0045990637783566019 0 0.016167404827962362 -0.00051365281905405968 0 0.016055347461327366 -0.00047842988004311775 0 0.015048950285044516 -0.00038569338753920238 0 0.016714851232889037 -0.00044213010617010396 0 0.016055347461327366 -0.00047842988004311775 0 0.015048950285044516 -0.00038569338753920238 0 0.016422170806738256 -0.00048975852639140255 0 0.016167404827962362 -0.00051365281905405968 0 0.015048950285044516 -0.00038569338753920238 0 0.01646494425584312 -0.00048840104836690528 0 0.016167404827962362 -0.00051365281905405968 0 0.016388471075641932 -0.00049268458227831634 0 0.016167404827962362 -0.00051365281905405968 0 0.016388471075641932 -0.00049268458227831634 0 0.016055347461327366 -0.00047842988004311775 0 0.01646494425584312 -0.00048840104836690528 0 0.016568831676833984 -0.00044605768101713166 0 0.016388471075641932 -0.00049268458227831634 0 0.016427644215549812 -0.00048279397340456932 0 0.016388471075641932 -0.00049268458227831634 0 0.016055347461327366 -0.00047842988004311775 0 0.013718111362629896 0.0016179642913066027 0 0.016007951030916581 0.001948048929611184 0 0.015798760716847916 0.00053643459380239768 0 0.017734831266631387 -0.0014236925000520745 0 0.011338892147745064 0.0029123924781476024 0 0.016714851232889037 -0.00044213010617010396 0 0.016007951030916581 0.001948048929611184 0 0.015798760716847916 0.00053643459380239768 0 0.002576077771185503 0.0061152992705351796 0 0.0027699082550583943 0.0081678705787274174 0 -4.4923701082708946e-05 0.0085394336765491716 0 0.011338892147745064 0.0029123924781476024 0 0.0073928588090653672 0.0065247211386394877 0 0.0052590538556412754 0.0074992000376739457 0 0.002576077771185503 0.0061152992705351796 0 0.0027699082550583943 0.0081678705787274174 0 0.0055222480442578478 0.0074243400922663263 0 0.0052590538556412754 0.0074992000376739457 0 0.002576077771185503 0.0061152992705351796 0 0.010158585665995909 0.0033849019507540315 0 0.011338892147745064 0.0029123924781476024 0 0.0027699082550583943 0.0081678705787274174 0 0.0015139913576062852 0.0099003259019390232 0 0.0041336848926565931 0.0098449047082658017 0 0.0052590538556412754 0.0074992000376739457 0 0.0027699082550583943 0.0081678705787274174 0 0.0041336848926565931 0.0098449047082658017 0 0.0027699082550583943 0.0081678705787274174 0 0.0015139913576062852 0.0099003259019390232 0 -4.4923701082708946e-05 0.0085394336765491716 0 0.0015139913576062852 0.0099003259019390232 0 -0.00034023219273422652 0.010505922739517014 0 -4.4923701082708946e-05 0.0085394336765491716 0 0.0015139913576062852 0.0099003259019390232 0 -0.00034023219273422652 0.010505922739517014 0 0.00022986622107777659 0.011124674458926728 0 0.0015139913576062852 0.0099003259019390232 0 0.0023379659064161232 0.011406669466483469 0 0.00022986622107777659 0.011124674458926728 0 0.0015139913576062852 0.0099003259019390232 0 0.0023379659064161232 0.011406669466483469 0 0.0041336848926565931 0.0098449047082658017 0 0.012492380132904915 0.0037239688984156208 0 0.012883179549813311 0.0052593499962531529 0 0.011019517418001312 0.0056102304018726045 0 0.012492380132904915 0.0037239688984156208 0 0.012883179549813311 0.0052593499962531529 0 0.014649209635422137 0.0045990637783566019 0 -0.00034023219273422652 0.010505922739517014 0 -4.4923701082708946e-05 0.0085394336765491716 0 -0.0019763970981917364 0.011015806162231504 0 0.012883179549813311 0.0052593499962531529 0 0.014649209635422137 0.0045990637783566019 0 0.013387158385617154 0.0071039910110265421 0 0.0073928588090653672 0.0065247211386394877 0 0.0030057814282433131 0.01072711607248769 0 -0.0021763631475183801 0.014039261838285215 0 -0.0026835940990184194 0.014159463232285762 0 -0.0017819041316576216 0.014654854973839245 0 0.0030057814282433131 0.01072711607248769 0 0.0037811563943295156 0.010383633148339493 0 0.012883179549813311 0.0052593499962531529 0 0.013387158385617154 0.0071039910110265421 0 0.011019517418001312 0.0056102304018726045 0 0.0030057814282433131 0.01072711607248769 0 -0.0040640397786088833 0.014009596560400371 0 -0.0034455051611829504 0.010862928871746369 0 -0.0031191988066870814 0.012788590607673084 0 -0.0041763987368672725 0.01344779895030622 0 -0.0021763631475183801 0.014039261838285215 0 -0.0026835940990184194 0.014159463232285762 0 -0.0024929256738948262 0.013499778366679746 0 -0.0034455051611829504 0.010862928871746369 0 -0.0012092361536677734 0.011842756959636845 0 -0.0031191988066870814 0.012788590607673084 0 0.0030057814282433131 0.01072711607248769 0 -0.0026141347658610956 0.010894757987155603 0 -0.00034023219273422652 0.010505922739517014 0 -0.0019763970981917364 0.011015806162231504 0 -0.0012092361536677734 0.011842756959636845 0 -0.002261366120998897 0.013137845909108664 0 -0.0031191988066870814 0.012788590607673084 0 -0.0042190853146474609 0.014046445548441372 0 -0.0031191988066870814 0.012788590607673084 0 -0.0041763987368672725 0.01344779895030622 0 -0.0042190853146474609 0.014046445548441372 0 -0.0012092361536677734 0.011842756959636845 0 -0.002261366120998897 0.013137845909108664 0 -0.0031191988066870814 0.012788590607673084 0 0.0023379659064161232 0.011406669466483469 0 0.0039900029411055003 0.013479738348635932 0 0.0041336848926565931 0.0098449047082658017 0 0.0023379659064161232 0.011406669466483469 0 -0.00022742008088590907 0.012326354630662308 0 0.0039900029411055003 0.013479738348635932 0 0.0023379659064161232 0.011406669466483469 0 0.00022986622107777659 0.011124674458926728 0 -0.00022742008088590907 0.012326354630662308 0 -0.00034023219273422652 0.010505922739517014 0 -0.0012092361536677734 0.011842756959636845 0 0.00022986622107777659 0.011124674458926728 0 -0.0012092361536677734 0.011842756959636845 0 0.00022986622107777659 0.011124674458926728 0 -0.00022742008088590907 0.012326354630662308 0 -0.0012092361536677734 0.011842756959636845 0 -0.002261366120998897 0.013137845909108664 0 -0.00022742008088590907 0.012326354630662308 0 -0.00022742008088590907 0.012326354630662308 0 -0.00057542786212674054 0.013366657394840753 0 0.00040058766429863606 0.013453742151301875 0 -0.002261366120998897 0.013137845909108664 0 -0.00022742008088590907 0.012326354630662308 0 -0.00057542786212674054 0.013366657394840753 0 -0.002261366120998897 0.013137845909108664 0 -0.00057542786212674054 0.013366657394840753 0 -0.00033799229759872844 0.014792347285119321 0 -0.00057542786212674054 0.013366657394840753 0 0.00040058766429863606 0.013453742151301875 0 -0.00033799229759872844 0.014792347285119321 0 -0.00022742008088590907 0.012326354630662308 0 0.00040058766429863606 0.013453742151301875 0 0.0015791161826556959 0.012924666003158251 0 0.00031300151772869822 0.012899617909003834 0 0.0020174101377390032 0.01129954694215958 0 0.00040058766429863606 0.013453742151301875 0 0.0015791161826556959 0.012924666003158251 0 0.0016433765686016716 0.014753392815601719 0 0.0020174101377390032 0.01129954694215958 0 -0.0046746507616329518 0.014630538302406052 0 -0.0032762964285124653 0.016321579358976702 0 -0.00014689297630152438 0.019642510966152028 0 -7.720547784383071e-05 0.013939460964118626 0 -0.0032762964285124653 0.016321579358976702 0 -0.00014689297630152438 0.019642510966152028 0 -0.0069521713376863355 0.018229238502291491 0 0.0020174101377390032 0.01129954694215958 0 -0.001801126405691324 0.008697447733781543 0 0.0064760002871652759 0.00056879470733196607 0 0.0030356016431873868 -0.00060379133728657693 0 0.0033232498843835923 0.0022255442284368132 0 0.0064760002871652759 0.00056879470733196607 0 0.0033232498843835923 0.0022255442284368132 0 0.0061597284812121211 0.0047178887674865543 0 0.0020174101377390032 0.01129954694215958 0 0.0056121482536805028 0.0062069551258479103 0 0.0033232498843835923 0.0022255442284368132 0 0.0061597284812121211 0.0047178887674865543 0 0.0028950965405316722 0.0052715897213910269 0 0.0025551084701192898 0.008133071720460891 0 0.0028950965405316722 0.0052715897213910269 0 0.0044619491319128146 0.0068756965531702541 0 0.0061597284812121211 0.0047178887674865543 0 0.0028950965405316722 0.0052715897213910269 0 0.0044619491319128146 0.0068756965531702541 0 0.0052590538556412754 0.0074992000376739457 0 0.0061597284812121211 0.0047178887674865543 0 0.0044619491319128146 0.0068756965531702541 0 0.0051173701214052535 0.0078330271135046547 0 0.0056121482536805028 0.0062069551258479103 0 0.0025551084701192898 0.008133071720460891 0 0.00033638803839176098 0.0059907567750581746 0 -0.002069604308289849 0.0079012382595546361 0 0.00033638803839176098 0.0059907567750581746 0 -0.002069604308289849 0.0079012382595546361 0 -0.0043498042403014303 0.0041526885094505146 0 0.0025551084701192898 0.008133071720460891 0 0.0028950965405316722 0.0052715897213910269 0 0.00033638803839176098 0.0059907567750581746 0 0.0033232498843835923 0.0022255442284368132 0 0.0028950965405316722 0.0052715897213910269 0 -0.00017336840462197855 0.0029639010423461827 0 0.0028950965405316722 0.0052715897213910269 0 0.00033638803839176098 0.0059907567750581746 0 -0.00017336840462197855 0.0029639010423461827 0 0.00033638803839176098 0.0059907567750581746 0 -0.00017336840462197855 0.0029639010423461827 0 -0.0043498042403014303 0.0041526885094505146 0 -0.00017336840462197855 0.0029639010423461827 0 0.00071030247416736347 0.00056183655047793235 0 -0.0017817606091623727 0.00011075994767543056 0 -0.00017336840462197855 0.0029639010423461827 0 -0.0017817606091623727 0.00011075994767543056 0 -0.0036721886784301153 0.0011477401037853787 0 -0.00017336840462197855 0.0029639010423461827 0 -0.0036721886784301153 0.0011477401037853787 0 -0.0043498042403014303 0.0041526885094505146 0 0.0033232498843835923 0.0022255442284368132 0 -0.00017336840462197855 0.0029639010423461827 0 0.00071030247416736347 0.00056183655047793235 0 -0.001801126405691324 0.008697447733781543 0 -0.0080153258706570814 0.0073488731112402216 0 0.0030356016431873868 -0.00060379133728657693 0 0.0033232498843835923 0.0022255442284368132 0 0.00071030247416736347 0.00056183655047793235 0 -0.0069521713376863355 0.018229238502291491 0 -0.014467444501427918 0.016987476172177853 0 -0.0098924765132836837 0.015355293232603335 0 0.0030356016431873868 -0.00060379133728657693 0 0.00071030247416736347 0.00056183655047793235 0 -0.0012298385042940221 -0.0022663889946652215 0 -0.0017817606091623727 0.00011075994767543056 0 -0.0042709160851568265 -0.001454148741421553 0 -0.0036721886784301153 0.0011477401037853787 0 0.00071030247416736347 0.00056183655047793235 0 -0.0017817606091623727 0.00011075994767543056 0 -0.0012298385042940221 -0.0022663889946652215 0 -0.0017817606091623727 0.00011075994767543056 0 -0.0012298385042940221 -0.0022663889946652215 0 -0.0042709160851568265 -0.001454148741421553 0 -0.0012298385042940221 -0.0022663889946652215 0 -0.0042709160851568265 -0.001454148741421553 0 -0.0070167018887899559 -0.0036959227609838666 0 -0.0064466128378362899 -0.0019031032192046644 0 -0.0078749114919694132 -0.0019567562483335053 0 -0.0070167018887899559 -0.0036959227609838666 0 -0.0042709160851568265 -0.001454148741421553 0 -0.0064466128378362899 -0.0019031032192046644 0 -0.0070737503314291439 -0.00037140622256746773 0 -0.0042709160851568265 -0.001454148741421553 0 -0.0064466128378362899 -0.0019031032192046644 0 -0.0070167018887899559 -0.0036959227609838666 0 -0.0042709160851568265 -0.001454148741421553 0 -0.0036721886784301153 0.0011477401037853787 0 -0.0070737503314291439 -0.00037140622256746773 0 -0.0036721886784301153 0.0011477401037853787 0 -0.0070737503314291439 -0.00037140622256746773 0 -0.0043498042403014303 0.0041526885094505146 0 -0.0067914637177602186 -0.00055039871897282204 0 -0.0056108256127751438 0.0049329883757997283 0 -0.0091670522842843358 0.0017006620703133438 0 -0.0070737503314291439 -0.00037140622256746773 0 -0.0057397336458333888 0.0040823289282510677 0 -0.0091670522842843358 0.0017006620703133438 0 -0.0090887596009265898 -0.00097096071431926052 0 -0.010727105728279984 -0.00058786073889119004 0 -0.0091670522842843358 0.0017006620703133438 0 -0.0090887596009265898 -0.00097096071431926052 0 -0.0070737503314291439 -0.00037140622256746773 0 -0.0090887596009265898 -0.00097096071431926052 0 -0.0070737503314291439 -0.00037140622256746773 0 -0.0078749114919694132 -0.0019567562483335053 0 -0.0064466128378362899 -0.0019031032192046644 0 -0.0070737503314291439 -0.00037140622256746773 0 -0.0078749114919694132 -0.0019567562483335053 0 -0.0090887596009265898 -0.00097096071431926052 0 -0.010727105728279984 -0.00058786073889119004 0 -0.009733200556758765 -0.002472590158430479 0 -0.0090887596009265898 -0.00097096071431926052 0 -0.0078749114919694132 -0.0019567562483335053 0 -0.009733200556758765 -0.002472590158430479 0 -0.011710362275144702 -0.0020350268377643784 0 -0.010727105728279984 -0.00058786073889119004 0 -0.009733200556758765 -0.002472590158430479 0 -0.011710362275144702 -0.0020350268377643784 0 -0.012387424003635201 -0.00068220424900586709 0 -0.010727105728279984 -0.00058786073889119004 0 -0.011710362275144702 -0.0020350268377643784 0 -0.012387424003635201 -0.00068220424900586709 0 -0.013626149322897506 -0.0022622162992931363 0 -0.012387424003635201 -0.00068220424900586709 0 -0.013778239032172636 0.00030449969312976426 0 -0.011664999119746729 0.0013000173302930513 0 -0.012387424003635201 -0.00068220424900586709 0 -0.010727105728279984 -0.00058786073889119004 0 -0.011664999119746729 0.0013000173302930513 0 -0.014990129745673016 -0.0016275381212743753 0 -0.013626149322897506 -0.0022622162992931363 0 -0.013778239032172636 0.00030449969312976426 0 -0.012387424003635201 -0.00068220424900586709 0 -0.013626149322897506 -0.0022622162992931363 0 -0.013778239032172636 0.00030449969312976426 0 -0.014990129745673016 -0.0016275381212743753 0 -0.013778239032172636 0.00030449969312976426 0 -0.015914976328479068 0.00031546669786786168 0 -0.0036575594707973988 -0.0025829879013732362 0 0.0019821826066254099 -0.001687751067429365 0 0.0082760183486696882 -0.0064714715179649031 0 0.0053540426813984097 -0.0089804442162313338 0 0.0056973363975267475 -0.0060553798285835417 0 -0.013778239032172636 0.00030449969312976426 0 -0.013375601735252152 0.0028223696816970247 0 -0.015914976328479068 0.00031546669786786168 0 -0.013778239032172636 0.00030449969312976426 0 -0.013375601735252152 0.0028223696816970247 0 -0.011664999119746729 0.0013000173302930513 0 -0.013375601735252152 0.0028223696816970247 0 -0.011664999119746729 0.0013000173302930513 0 -0.010537527309150434 0.0054002169690292321 0 -0.0091670522842843358 0.0017006620703133438 0 -0.011664999119746729 0.0013000173302930513 0 -0.010537527309150434 0.0054002169690292321 0 -0.0091670522842843358 0.0017006620703133438 0 -0.010727105728279984 -0.00058786073889119004 0 -0.011664999119746729 0.0013000173302930513 0 0.0082760183486696882 -0.0064714715179649031 0 0.010843610430799977 -0.0040234715675325763 0 0.00846856708178584 -0.004220118829043021 0 -0.0036575594707973988 -0.0025829879013732362 0 -0.00019930900728474054 0.00073252354714152643 0 0.010843610430799977 -0.0040234715675325763 0 0.00846856708178584 -0.004220118829043021 0 0.0098535843141151873 -0.002629616642486864 0 0.0082760183486696882 -0.0064714715179649031 0 0.0071451991997894034 -0.0049941798846447408 0 0.0056973363975267475 -0.0060553798285835417 0 0.0082760183486696882 -0.0064714715179649031 0 0.0071451991997894034 -0.0049941798846447408 0 0.00846856708178584 -0.004220118829043021 0 0.0071451991997894034 -0.0049941798846447408 0 0.00846856708178584 -0.004220118829043021 0 0.0061597651722405874 -0.0032955542753647445 0 0.017739827309006577 0.00013756950338879995 0 0.017439153004935277 3.5295016834638677e-05 0 0.017711774953657791 0.00027417796810367336 0 0.017739827309006577 0.00013756950338879995 0 0.017711774953657791 0.00027417796810367336 0 0.017831418670537166 0.00022925507462336092 0 0.015047323390068632 -0.0013100137398397835 0 0.012923150510555176 -0.0013372219760681065 0 0.00846856708178584 -0.004220118829043021 0 0.0098535843141151873 -0.002629616642486864 0 0.0061597651722405874 -0.0032955542753647445 0 0.010843610430799977 -0.0040234715675325763 0 0.0098535843141151873 -0.002629616642486864 0 0.013029980182291911 -0.0019514550467961088 0 0.017739827309006577 0.00013756950338879995 0 0.017858477722538429 0.00025475703536986973 0 0.01792374891118045 0.00024882479006089775 0 0.015047323390068632 -0.0013100137398397835 0 0.0076377587310085806 0.0011650130230804669 0 -0.00019930900728474054 0.00073252354714152643 0 0.0076377587310085806 0.0011650130230804669 0 0.0020985300816876024 0.0033081857930551441 0 -0.0056108256127751438 0.0049329883757997283 0 0.0076377587310085806 0.0011650130230804669 0 0.0020985300816876024 0.0033081857930551441 0 -0.0075212178486157889 0.007951048774281563 0 -0.0043461663114530624 0.0085760854044108006 0 -0.0057397336458333888 0.0040823289282510677 0 -0.010537527309150434 0.0054002169690292321 0 -0.0075212178486157889 0.007951048774281563 0 -0.0057397336458333888 0.0040823289282510677 0 -0.0091670522842843358 0.0017006620703133438 0 -0.010537527309150434 0.0054002169690292321 0 -0.0057397336458333888 0.0040823289282510677 0 0.018307179575950478 0.0025793461935564375 0 0.018702457150499296 0.0014498213710259305 0 0.017507870661932195 0.0018476922662415513 0 0.018307179575950478 0.0025793461935564375 0 0.017507870661932195 0.0018476922662415513 0 0.01747401051520521 0.0041657170899624119 0 0.01747401051520521 0.0041657170899624119 0 0.01574241442366521 0.0027869331764045339 0 0.015069693886490418 0.0040427814503977847 0 0.01747401051520521 0.0041657170899624119 0 0.015069693886490418 0.0040427814503977847 0 0.014745010258018791 0.0056140963164805898 0 0.017507870661932195 0.0018476922662415513 0 0.01574241442366521 0.0027869331764045339 0 0.015683218938576774 0.0014085405836004221 0 0.017507870661932195 0.0018476922662415513 0 0.01747401051520521 0.0041657170899624119 0 0.01574241442366521 0.0027869331764045339 0 0.01574241442366521 0.0027869331764045339 0 0.015683218938576774 0.0014085405836004221 0 0.013799734978904009 0.0019691459558595459 0 0.013799734978904009 0.0019691459558595459 0 0.013147244210662908 0.0028151516486832383 0 0.014055650457502964 0.0030273865364168302 0 0.013799734978904009 0.0019691459558595459 0 0.013147244210662908 0.0028151516486832383 0 0.012228386628387771 0.0027160221838740577 0 0.013147244210662908 0.0028151516486832383 0 0.014055650457502964 0.0030273865364168302 0 0.012391416160914605 0.0034898829268297494 0 0.01574241442366521 0.0027869331764045339 0 0.013799734978904009 0.0019691459558595459 0 0.014055650457502964 0.0030273865364168302 0 0.01574241442366521 0.0027869331764045339 0 0.014055650457502964 0.0030273865364168302 0 0.015069693886490418 0.0040427814503977847 0 0.015069693886490418 0.0040427814503977847 0 0.012391416160914605 0.0034898829268297494 0 0.014745010258018791 0.0056140963164805898 0 0.014184854478156326 0.0050807752956985881 0 0.0088976308500434472 0.0021267227514630005 0 0.012391416160914605 0.0034898829268297494 0 0.012155160999355258 0.0044467130780329262 0 0.012957529461692655 0.0049373467343818821 0 0.014055650457502964 0.0030273865364168302 0 0.015069693886490418 0.0040427814503977847 0 0.012391416160914605 0.0034898829268297494 0 0.011637898499090629 0.0033084047047831984 0 0.011773429302371123 0.0034408285188199999 0 0.011392140025183354 0.0055425799493566737 0 -0.014990129745673016 -0.0016275381212743753 0 -0.015914976328479068 0.00031546669786786168 0 -0.01613415193489021 -0.0041442018717300555 0 0.012391416160914605 0.0034898829268297494 0 0.012155160999355258 0.0044467130780329262 0 0.011773429302371123 0.0034408285188199999 0 0.012155160999355258 0.0044467130780329262 0 0.011773429302371123 0.0034408285188199999 0 0.011392140025183354 0.0055425799493566737 0 0.0019821826066254099 -0.001687751067429365 0 -0.0041793777983128938 0.0027904521945926689 0 0.012391416160914605 0.0034898829268297494 0 0.011773429302371123 0.0034408285188199999 0 0.012228386628387771 0.0027160221838740577 0 0.0019821826066254099 -0.001687751067429365 0 0.0037870769994640084 -0.00031013584527166403 0 0.011529502186455553 0.003227885280315292 0 0.012228386628387771 0.0027160221838740577 0 0.011457421592969889 0.001115135861415671 0 0.013799734978904009 0.0019691459558595459 0 0.012228386628387771 0.0027160221838740577 0 0.011457421592969889 0.001115135861415671 0 0.0019821826066254099 -0.001687751067429365 0 0.0085183503147669773 -0.0028007138087215882 0 0.011529502186455553 0.003227885280315292 0 0.011773429302371123 0.0034408285188199999 0 0.012228386628387771 0.0027160221838740577 0 0.013147244210662908 0.0028151516486832383 0 0.012391416160914605 0.0034898829268297494 0 0.012228386628387771 0.0027160221838740577 0 0.0071451991997894034 -0.0049941798846447408 0 0.0056973363975267475 -0.0060553798285835417 0 0.0061597651722405874 -0.0032955542753647445 0 0.012923150510555176 -0.0013372219760681065 0 0.016273000667148093 0.00013783420926311143 0 0.0085183503147669773 -0.0028007138087215882 0 0.012923150510555176 -0.0013372219760681065 0 0.011457421592969889 0.001115135861415671 0 0.011363489770496716 -0.0011211746493082937 0 0.014142761175397898 -0.00049716747892806026 0 0.017680559723208845 0.00042021294799454305 0 0.017808639093847781 0.00039100772924278342 0 0.017714277477661692 0.00047576301912086942 0 0.017680559723208845 0.00042021294799454305 0 0.017808639093847781 0.00039100772924278342 0 0.017711774953657791 0.00027417796810367336 0 0.012923150510555176 -0.0013372219760681065 0 0.01742894759622397 0.00081850602082781179 0 0.017808639093847781 0.00039100772924278342 0 0.017714277477661692 0.00047576301912086942 0 0.017740027606965719 0.00052898612011108401 0 0.013799734978904009 0.0019691459558595459 0 0.011457421592969889 0.001115135861415671 0 0.014142761175397898 -0.00049716747892806026 0 0.015683218938576774 0.0014085405836004221 0 0.013799734978904009 0.0019691459558595459 0 0.014142761175397898 -0.00049716747892806026 0 0.017507870661932195 0.0018476922662415513 0 0.015683218938576774 0.0014085405836004221 0 0.017219287160890828 0.00061587660458268807 0 0.016273000667148093 0.00013783420926311143 0 0.016970554951420514 0.00045956953591450549 0 0.015683218938576774 0.0014085405836004221 0 0.014142761175397898 -0.00049716747892806026 0 0.017219287160890828 0.00061587660458268807 0 0.017714277477661692 0.00047576301912086942 0 0.017219287160890828 0.00061587660458268807 0 0.017740027606965719 0.00052898612011108401 0 0.017740027606965719 0.00052898612011108401 0 0.018148341455013997 0.00057118360256306212 0 0.01803320705871873 0.00077984541456829271 0 0.018396659266410535 0.00071075121319330321 0 0.018148341455013997 0.00057118360256306212 0 0.01803320705871873 0.00077984541456829271 0 0.017219287160890828 0.00061587660458268807 0 0.017740027606965719 0.00052898612011108401 0 0.01803320705871873 0.00077984541456829271 0 0.017507870661932195 0.0018476922662415513 0 0.017219287160890828 0.00061587660458268807 0 0.01803320705871873 0.00077984541456829271 0 0.018702457150499296 0.0014498213710259305 0 0.017507870661932195 0.0018476922662415513 0 0.01803320705871873 0.00077984541456829271 0 0.018460109106543283 0.00032943646257401968 0 0.01819272921039786 0.00041479359449951765 0 0.018189062224263142 0.00026253316048439743 0 0.018460109106543283 0.00032943646257401968 0 0.018189062224263142 0.00026253316048439743 0 0.018382791286033446 0.00013539807523239562 0 0.018509969909868713 0.00055639899522066472 0 0.018460109106543283 0.00032943646257401968 0 0.01819272921039786 0.00041479359449951765 0 0.017740027606965719 0.00052898612011108401 0 0.018148341455013997 0.00057118360256306212 0 0.01819272921039786 0.00041479359449951765 0 0.018509969909868713 0.00055639899522066472 0 0.018148341455013997 0.00057118360256306212 0 0.01819272921039786 0.00041479359449951765 0 0.017740027606965719 0.00052898612011108401 0 0.01819272921039786 0.00041479359449951765 0 0.017960254646704359 0.00034295009398701979 0 0.017808639093847781 0.00039100772924278342 0 0.017740027606965719 0.00052898612011108401 0 0.017960254646704359 0.00034295009398701979 0 0.017960254646704359 0.00034295009398701979 0 0.018189062224263142 0.00026253316048439743 0 0.018126496321728792 0.00011615540203321091 0 0.01819272921039786 0.00041479359449951765 0 0.017960254646704359 0.00034295009398701979 0 0.018189062224263142 0.00026253316048439743 0 0.017960254646704359 0.00034295009398701979 0 0.01791544546774097 0.00023492916923731059 0 0.018126496321728792 0.00011615540203321091 0 0.01791544546774097 0.00023492916923731059 0 0.018050838969698554 8.4843279020040729e-05 0 0.018126496321728792 0.00011615540203321091 0 0.017808639093847781 0.00039100772924278342 0 0.017960254646704359 0.00034295009398701979 0 0.01791544546774097 0.00023492916923731059 0 0.017711774953657791 0.00027417796810367336 0 0.01791544546774097 0.00023492916923731059 0 0.017956008342837757 0.00016508705522150281 0 0.017808639093847781 0.00039100772924278342 0 0.017711774953657791 0.00027417796810367336 0 0.01791544546774097 0.00023492916923731059 0 0.01791544546774097 0.00023492916923731059 0 0.018050838969698554 8.4843279020040729e-05 0 0.017956008342837757 0.00016508705522150281 0 0.018050838969698554 8.4843279020040729e-05 0 0.017956008342837757 0.00016508705522150281 0 0.018111856638757674 2.8050450427005106e-05 0 0.018050838969698554 8.4843279020040729e-05 0 0.018145964192953272 -5.4883617974639014e-05 0 0.018111856638757674 2.8050450427005106e-05 0 0.018145964192953272 -5.4883617974639014e-05 0 0.018111856638757674 2.8050450427005106e-05 0 0.018265619134003635 -0.00012116355570023575 0 0.018145964192953272 -5.4883617974639014e-05 0 0.018265619134003635 -0.00012116355570023575 0 0.018194453210300995 -0.00015234489526882018 0 0.018145964192953272 -5.4883617974639014e-05 0 0.018251072665417874 -0.00011465173687939181 0 0.018194453210300995 -0.00015234489526882018 0 0.018145964192953272 -5.4883617974639014e-05 0 0.018251072665417874 -0.00011465173687939181 0 0.018126496321728792 0.00011615540203321091 0 0.018050838969698554 8.4843279020040729e-05 0 0.018145964192953272 -5.4883617974639014e-05 0 0.018126496321728792 0.00011615540203321091 0 0.018189062224263142 0.00026253316048439743 0 0.018126496321728792 0.00011615540203321091 0 0.018382791286033446 0.00013539807523239562 0 0.018126496321728792 0.00011615540203321091 0 0.018382223848197755 -4.8406599424105049e-05 0 0.018382791286033446 0.00013539807523239562 0 0.018251072665417874 -0.00011465173687939181 0 0.018126496321728792 0.00011615540203321091 0 0.018382223848197755 -4.8406599424105049e-05 0 0.018251072665417874 -0.00011465173687939181 0 0.018382223848197755 -4.8406599424105049e-05 0 0.01852726849351766 -0.00029965973105769618 0 0.018704522392879112 -0.00010941489045142164 0 0.018382223848197755 -4.8406599424105049e-05 0 0.018382791286033446 0.00013539807523239562 0 0.018704522392879112 -0.00010941489045142164 0 0.018382223848197755 -4.8406599424105049e-05 0 0.01852726849351766 -0.00029965973105769618 0 0.018687737538550023 0.00018110619465310163 0 0.018460109106543283 0.00032943646257401968 0 0.018382791286033446 0.00013539807523239562 0 0.018687737538550023 0.00018110619465310163 0 0.018704522392879112 -0.00010941489045142164 0 0.018382791286033446 0.00013539807523239562 0 0.018011000509129998 0.00021821241046398245 0 0.017886571643832727 0.00030888920470021594 0 0.01792374891118045 0.00024882479006089775 0 0.018011000509129998 0.00021821241046398245 0 0.017829982158959479 0.00034389265315076486 0 0.017958856454908401 0.0001295044777978588 0 0.017740379037672047 0.00040456393161332141 0 0.017829982158959479 0.00034389265315076486 0 0.017886571643832727 0.00030888920470021594 0 0.017512569902155082 0.00043520745484157002 0 0.017829982158959479 0.00034389265315076486 0 0.017958856454908401 0.0001295044777978588 0 0.017740379037672047 0.00040456393161332141 0 0.017512569902155082 0.00043520745484157002 0 0.017829982158959479 0.00034389265315076486 0 0.018011000509129998 0.00021821241046398245 0 0.017829982158959479 0.00034389265315076486 0 0.017886571643832727 0.00030888920470021594 0 0.0081676714900852983 0.003124909254283647 0 0.0044240704079048917 -0.00010324902264772907 0 0.0074318740753006136 0.000506177587509493 0 0.013669356801326084 0.00065900768090121256 0 0.0076377587310085806 0.0011650130230804669 0 0.017740379037672047 0.00040456393161332141 0 0.017858477722538429 0.00025475703536986973 0 0.017886571643832727 0.00030888920470021594 0 0.013669356801326084 0.00065900768090121256 0 0.0020985300816876024 0.0033081857930551441 0 0.017858477722538429 0.00025475703536986973 0 0.017886571643832727 0.00030888920470021594 0 0.01792374891118045 0.00024882479006089775 0 0.017739827309006577 0.00013756950338879995 0 0.01792374891118045 0.00024882479006089775 0 0.017831418670537166 0.00022925507462336092 0 0.017711774953657791 0.00027417796810367336 0 0.017831418670537166 0.00022925507462336092 0 0.017956008342837757 0.00016508705522150281 0 0.01792374891118045 0.00024882479006089775 0 0.017831418670537166 0.00022925507462336092 0 0.017956008342837757 0.00016508705522150281 0 0.018011000509129998 0.00021821241046398245 0 0.01792374891118045 0.00024882479006089775 0 0.018139836331095019 7.9405396973336869e-05 0 0.01792374891118045 0.00024882479006089775 0 0.017956008342837757 0.00016508705522150281 0 0.018139836331095019 7.9405396973336869e-05 0 0.018139836331095019 7.9405396973336869e-05 0 0.018111856638757674 2.8050450427005106e-05 0 0.018265619134003635 -0.00012116355570023575 0 0.017956008342837757 0.00016508705522150281 0 0.018139836331095019 7.9405396973336869e-05 0 0.018111856638757674 2.8050450427005106e-05 0 0.018139836331095019 7.9405396973336869e-05 0 0.018265619134003635 -0.00012116355570023575 0 0.018455724618770673 -8.3882760696064808e-05 0 0.018455724618770673 -8.3882760696064808e-05 0 0.018191239761264025 4.9403071697904776e-05 0 0.018240276304204193 -0.0001534928325321376 0 0.018011000509129998 0.00021821241046398245 0 0.018139836331095019 7.9405396973336869e-05 0 0.018191239761264025 4.9403071697904776e-05 0 0.018011000509129998 0.00021821241046398245 0 0.018191239761264025 4.9403071697904776e-05 0 0.017958856454908401 0.0001295044777978588 0 0.018139836331095019 7.9405396973336869e-05 0 0.018455724618770673 -8.3882760696064808e-05 0 0.018191239761264025 4.9403071697904776e-05 0 0.018191239761264025 4.9403071697904776e-05 0 0.017958856454908401 0.0001295044777978588 0 0.018240276304204193 -0.0001534928325321376 0 0.017628933020883541 -0.00012468648896812168 0 0.017958856454908401 0.0001295044777978588 0 0.018240276304204193 -0.0001534928325321376 0 0.018240276304204193 -0.0001534928325321376 0 0.01871941496468937 -0.00022950800028209134 0 0.018414841180032539 -0.00033136299876488121 0 0.01871941496468937 -0.00022950800028209134 0 0.019209539346031788 -0.00049618083075314708 0 0.018414841180032539 -0.00033136299876488121 0 0.01871941496468937 -0.00022950800028209134 0 0.018917093729298024 -7.5070044730804535e-05 0 0.019209539346031788 -0.00049618083075314708 0 0.018455724618770673 -8.3882760696064808e-05 0 0.018240276304204193 -0.0001534928325321376 0 0.01871941496468937 -0.00022950800028209134 0 0.018455724618770673 -8.3882760696064808e-05 0 0.01871941496468937 -0.00022950800028209134 0 0.018917093729298024 -7.5070044730804535e-05 0 0.018265619134003635 -0.00012116355570023575 0 0.018455724618770673 -8.3882760696064808e-05 0 0.018917093729298024 -7.5070044730804535e-05 0 0.018265619134003635 -0.00012116355570023575 0 0.018269040917793956 -7.411052739966995e-05 0 0.018917093729298024 -7.5070044730804535e-05 0 0.019182089168024594 -3.6461930044416042e-05 0 0.018965302346399277 -6.3761557996461823e-05 0 0.020053932579460879 5.1696346133810519e-05 0 0.018917093729298024 -7.5070044730804535e-05 0 0.019627511293702583 -0.00049338063284091603 0 0.020053932579460879 5.1696346133810519e-05 0 0.019627511293702583 -0.00049338063284091603 0 0.020273866499117128 -0.00031082393056841882 0 0.019627511293702583 -0.00049338063284091603 0 0.020273866499117128 -0.00031082393056841882 0 0.019948082051448102 -0.00060322177242164512 0 0.019627511293702583 -0.00049338063284091603 0 0.019875783752012106 -0.00061113124450210769 0 0.019948082051448102 -0.00060322177242164512 0 0.019627511293702583 -0.00049338063284091603 0 0.019924593532518395 -0.00073626459997741609 0 0.019209539346031788 -0.00049618083075314708 0 0.019627511293702583 -0.00049338063284091603 0 0.019924593532518395 -0.00073626459997741609 0 0.019875783752012106 -0.00061113124450210769 0 0.019924593532518395 -0.00073626459997741609 0 0.019209539346031788 -0.00049618083075314708 0 0.019879484529889538 -0.00084894808830918405 0 0.018917093729298024 -7.5070044730804535e-05 0 0.019627511293702583 -0.00049338063284091603 0 0.019209539346031788 -0.00049618083075314708 0 0.018833004002222351 -0.00067067491000135997 0 0.01852726849351766 -0.00029965973105769618 0 0.018480572745862102 -0.00049232332033601848 0 0.018251072665417874 -0.00011465173687939181 0 0.01852726849351766 -0.00029965973105769618 0 0.018321743930215826 -0.00029508630554971743 0 0.018321743930215826 -0.00029508630554971743 0 0.018480572745862102 -0.00049232332033601848 0 0.018251959572527159 -0.00042744485370989935 0 0.01852726849351766 -0.00029965973105769618 0 0.018321743930215826 -0.00029508630554971743 0 0.018480572745862102 -0.00049232332033601848 0 0.018321743930215826 -0.00029508630554971743 0 0.018194453210300995 -0.00015234489526882018 0 0.018251959572527159 -0.00042744485370989935 0 0.018251072665417874 -0.00011465173687939181 0 0.018321743930215826 -0.00029508630554971743 0 0.018194453210300995 -0.00015234489526882018 0 0.018265619134003635 -0.00012116355570023575 0 0.018269040917793956 -7.411052739966995e-05 0 0.018194453210300995 -0.00015234489526882018 0 0.019182089168024594 -3.6461930044416042e-05 0 0.019551450610653946 -0.00017495108743075471 0 0.018269040917793956 -7.411052739966995e-05 0 0.018194453210300995 -0.00015234489526882018 0 0.018251959572527159 -0.00042744485370989935 0 0.020053932579460879 5.1696346133810519e-05 0 0.020273866499117128 -0.00031082393056841882 0 0.020772529526785655 0.00010014268795842946 0 0.020273866499117128 -0.00031082393056841882 0 0.02086678036280179 -0.00025180125079467757 0 0.020577954748189454 -0.00051699527041247325 0 0.020273866499117128 -0.00031082393056841882 0 0.02086678036280179 -0.00025180125079467757 0 0.020772529526785655 0.00010014268795842946 0 0.02086678036280179 -0.00025180125079467757 0 0.020772529526785655 0.00010014268795842946 0 0.021405285519310323 1.379348352995783e-05 0 0.019551450610653946 -0.00017495108743075471 0 0.019941100960053835 -0.00039636160776436783 0 0.018480572745862102 -0.00049232332033601848 0 0.018251959572527159 -0.00042744485370989935 0 0.018593241929045545 -0.00080792737182268761 0 0.02086678036280179 -0.00025180125079467757 0 0.021405285519310323 1.379348352995783e-05 0 0.021292775032007116 -0.00031872294304709502 0 0.021609713257870956 -0.00023910880141848274 0 0.021405285519310323 1.379348352995783e-05 0 0.021292775032007116 -0.00031872294304709502 0 0.018833004002222351 -0.00067067491000135997 0 0.018480572745862102 -0.00049232332033601848 0 0.018593241929045545 -0.00080792737182268761 0 0.021852008828198443 -0.00052577310380009774 0 0.021629078570643955 -0.00057613138434486129 0 0.021736491297393454 -0.0007380729055667147 0 0.021629078570643955 -0.00057613138434486129 0 0.021400486144684819 -0.00053248962312570927 0 0.021504374024021815 -0.0006510855129762597 0 0.021629078570643955 -0.00057613138434486129 0 0.021625519612586561 -0.00041288026531715422 0 0.021400486144684819 -0.00053248962312570927 0 0.021852008828198443 -0.00052577310380009774 0 0.021629078570643955 -0.00057613138434486129 0 0.021625519612586561 -0.00041288026531715422 0 0.021609713257870956 -0.00023910880141848274 0 0.021625519612586561 -0.00041288026531715422 0 0.021292775032007116 -0.00031872294304709502 0 0.021625519612586561 -0.00041288026531715422 0 0.021292775032007116 -0.00031872294304709502 0 0.021400486144684819 -0.00053248962312570927 0 0.021719202628255996 -0.00033740853672440394 0 0.021609713257870956 -0.00023910880141848274 0 0.021625519612586561 -0.00041288026531715422 0 0.021292775032007116 -0.00031872294304709502 0 0.021400486144684819 -0.00053248962312570927 0 0.021016723698730769 -0.00051011152336544131 0 0.02086678036280179 -0.00025180125079467757 0 0.021292775032007116 -0.00031872294304709502 0 0.021016723698730769 -0.00051011152336544131 0 0.021400486144684819 -0.00053248962312570927 0 0.021016723698730769 -0.00051011152336544131 0 0.021238832808328684 -0.0007439641810445375 0 0.021400486144684819 -0.00053248962312570927 0 0.021504374024021815 -0.0006510855129762597 0 0.021238832808328684 -0.0007439641810445375 0 0.021016723698730769 -0.00051011152336544131 0 0.02072964615647847 -0.00070752793283141682 0 0.021238832808328684 -0.0007439641810445375 0 0.021016723698730769 -0.00051011152336544131 0 0.020577954748189454 -0.00051699527041247325 0 0.02072964615647847 -0.00070752793283141682 0 0.02086678036280179 -0.00025180125079467757 0 0.021016723698730769 -0.00051011152336544131 0 0.020577954748189454 -0.00051699527041247325 0 0.020577954748189454 -0.00051699527041247325 0 0.02072964615647847 -0.00070752793283141682 0 0.020325443322560179 -0.00074628836953693079 0 0.02072964615647847 -0.00070752793283141682 0 0.020477605150783174 -0.00096602315022562371 0 0.020325443322560179 -0.00074628836953693079 0 0.02072964615647847 -0.00070752793283141682 0 0.020477605150783174 -0.00096602315022562371 0 0.020837022228648635 -0.00090578705887554573 0 0.020477605150783174 -0.00096602315022562371 0 0.020837022228648635 -0.00090578705887554573 0 0.02047194074865338 -0.0012371199417700767 0 0.020837022228648635 -0.00090578705887554573 0 0.02047194074865338 -0.0012371199417700767 0 0.020889616618561705 -0.0013810824232523865 0 0.020837022228648635 -0.00090578705887554573 0 0.021308620634048633 -0.0010109554575052392 0 0.02103880932744041 -0.0013338510177190038 0 0.020647882820394217 -0.00076466038530875313 0 0.021796205255096308 -0.0016638796383316673 0 0.021221921628263512 -0.0010794399338219371 0 0.021796205255096308 -0.0016638796383316673 0 0.020837022228648635 -0.00090578705887554573 0 0.021238832808328684 -0.0007439641810445375 0 0.021308620634048633 -0.0010109554575052392 0 0.02072964615647847 -0.00070752793283141682 0 0.020837022228648635 -0.00090578705887554573 0 0.021238832808328684 -0.0007439641810445375 0 0.021238832808328684 -0.0007439641810445375 0 0.021308620634048633 -0.0010109554575052392 0 0.021736491297393454 -0.0007380729055667147 0 0.021504374024021815 -0.0006510855129762597 0 0.021238832808328684 -0.0007439641810445375 0 0.021736491297393454 -0.0007380729055667147 0 0.021308620634048633 -0.0010109554575052392 0 0.02172011816438315 -0.0010068506695425563 0 0.021736491297393454 -0.0007380729055667147 0 0.021308620634048633 -0.0010109554575052392 0 0.02172011816438315 -0.0010068506695425563 0 0.021576210703095157 -0.0014965144261430826 0 0.02172011816438315 -0.0010068506695425563 0 0.021736491297393454 -0.0007380729055667147 0 0.022215297260690939 -0.0009565197218919919 0 0.022060724378389112 -0.00068774233190208782 0 0.021736491297393454 -0.0007380729055667147 0 0.022215297260690939 -0.0009565197218919919 0 0.021629078570643955 -0.00057613138434486129 0 0.021504374024021815 -0.0006510855129762597 0 0.021736491297393454 -0.0007380729055667147 0 0.020178047505688298 -0.00053432106044749253 0 0.021086292793286689 0.00045065988445778745 0 0.02081595216154707 -0.00059223720991249235 0 0.019924593532518395 -0.00073626459997741609 0 0.02081595216154707 -0.00059223720991249235 0 0.019879484529889538 -0.00084894808830918405 0 0.019924593532518395 -0.00073626459997741609 0 0.020178047505688298 -0.00053432106044749253 0 0.02081595216154707 -0.00059223720991249235 0 0.019924593532518395 -0.00073626459997741609 0 0.020178047505688298 -0.00053432106044749253 0 0.019875783752012106 -0.00061113124450210769 0 0.020178047505688298 -0.00053432106044749253 0 0.019875783752012106 -0.00061113124450210769 0 0.019948082051448102 -0.00060322177242164512 0 0.020577954748189454 -0.00051699527041247325 0 0.019948082051448102 -0.00060322177242164512 0 0.020325443322560179 -0.00074628836953693079 0 0.020273866499117128 -0.00031082393056841882 0 0.020577954748189454 -0.00051699527041247325 0 0.019948082051448102 -0.00060322177242164512 0 0.019948082051448102 -0.00060322177242164512 0 0.020325443322560179 -0.00074628836953693079 0 0.020001618076780959 -0.00088300417370177524 0 0.020002733780215359 -0.00046152424350244666 0 0.019756612285703072 -0.00068796385326916722 0 0.020178047505688298 -0.00053432106044749253 0 0.019948082051448102 -0.00060322177242164512 0 0.019857850331092993 -2.4610310865121296e-05 0 0.020477605150783174 -0.00096602315022562371 0 0.020001618076780959 -0.00088300417370177524 0 0.020183744130175898 -0.0011390124946418227 0 0.020477605150783174 -0.00096602315022562371 0 0.020325443322560179 -0.00074628836953693079 0 0.020001618076780959 -0.00088300417370177524 0 0.020477605150783174 -0.00096602315022562371 0 0.02047194074865338 -0.0012371199417700767 0 0.020183744130175898 -0.0011390124946418227 0 0.02047194074865338 -0.0012371199417700767 0 0.020183744130175898 -0.0011390124946418227 0 0.020209219119242137 -0.00149656308177857 0 0.020001618076780959 -0.00088300417370177524 0 0.020183744130175898 -0.0011390124946418227 0 0.019916634419736623 -0.0012344571546974189 0 0.020183744130175898 -0.0011390124946418227 0 0.019916634419736623 -0.0012344571546974189 0 0.020209219119242137 -0.00149656308177857 0 0.019756612285703072 -0.00068796385326916722 0 0.021355500214802967 0.00091035861996682939 0 0.021355500214802967 0.00091035861996682939 0 0.020892773975483961 0.00066616646268350028 0 0.021112600843838682 0.001263400293610398 0 0.021086292793286689 0.00045065988445778745 0 0.021733046333757163 0.0014633612140248266 0 0.020178047505688298 -0.00053432106044749253 0 0.019857850331092993 -2.4610310865121296e-05 0 0.021086292793286689 0.00045065988445778745 0 0.019857850331092993 -2.4610310865121296e-05 0 0.020255834090064557 0.0011722395909344911 0 0.021086292793286689 0.00045065988445778745 0 0.021086292793286689 0.00045065988445778745 0 0.021948745974647077 0.00082788965242510195 0 0.02081595216154707 -0.00059223720991249235 0 0.021086292793286689 0.00045065988445778745 0 0.021948745974647077 0.00082788965242510195 0 0.021733046333757163 0.0014633612140248266 0 0.021948745974647077 0.00082788965242510195 0 0.02246789037254451 0.00168549950198794 0 0.021733046333757163 0.0014633612140248266 0 0.021948745974647077 0.00082788965242510195 0 0.022958844129533029 0.0014936954594189178 0 0.02246789037254451 0.00168549950198794 0 0.021948745974647077 0.00082788965242510195 0 0.022958844129533029 0.0014936954594189178 0 0.022337550219835346 0.00029976308786590719 0 0.022958844129533029 0.0014936954594189178 0 0.022337550219835346 0.00029976308786590719 0 0.024055937633311493 0.0011832240030368846 0 0.022958844129533029 0.0014936954594189178 0 0.024055937633311493 0.0011832240030368846 0 0.023929168678029234 0.0019830155264258212 0 0.021948745974647077 0.00082788965242510195 0 0.022337550219835346 0.00029976308786590719 0 0.02081595216154707 -0.00059223720991249235 0 0.024055937633311493 0.0011832240030368846 0 0.025567639959745259 0.00063536866988843127 0 0.025168222919214261 0.0021456994349748188 0 0.022337550219835346 0.00029976308786590719 0 0.024055937633311493 0.0011832240030368846 0 0.023809577724691361 -1.7450284663932028e-05 0 0.024055937633311493 0.0011832240030368846 0 0.023809577724691361 -1.7450284663932028e-05 0 0.025567639959745259 0.00063536866988843127 0 0.023809577724691361 -1.7450284663932028e-05 0 0.025225192520792049 -0.00081234646744565145 0 0.025567639959745259 0.00063536866988843127 0 0.023809577724691361 -1.7450284663932028e-05 0 0.025225192520792049 -0.00081234646744565145 0 0.0239009212287952 -0.0019342576170067612 0 0.023809577724691361 -1.7450284663932028e-05 0 0.0239009212287952 -0.0019342576170067612 0 0.02091680744354632 -0.0012916592221197832 0 0.018703082363454557 -0.0014384096989122389 0 0.02091680744354632 -0.0012916592221197832 0 0.019470371796418622 -0.00073651709348715412 0 0.02131104801015889 -0.0016226148127963128 0 0.020929958794008174 -0.0013803982643174843 0 0.02131104801015889 -0.0016226148127963128 0 0.021807252070812279 -0.0015463415906507942 0 0.018703082363454557 -0.0014384096989122389 0 0.01792384767332875 -0.0008109390422125671 0 0.017851270758195051 -0.0011648971892184729 0 0.025225192520792049 -0.00081234646744565145 0 0.0239009212287952 -0.0019342576170067612 0 0.025818666869737637 -0.0019508372619598915 0 0.022337550219835346 0.00029976308786590719 0 0.02081595216154707 -0.00059223720991249235 0 0.02091680744354632 -0.0012916592221197832 0 0.022337550219835346 0.00029976308786590719 0 0.023809577724691361 -1.7450284663932028e-05 0 0.02091680744354632 -0.0012916592221197832 0 0.02081595216154707 -0.00059223720991249235 0 0.02091680744354632 -0.0012916592221197832 0 0.019879484529889538 -0.00084894808830918405 0 0.019209539346031788 -0.00049618083075314708 0 0.019879484529889538 -0.00084894808830918405 0 0.018952425313400193 -0.00053001543933290491 0 0.018952425313400193 -0.00053001543933290491 0 0.019470371796418622 -0.00073651709348715412 0 0.018282247400189595 -0.00046481227784139659 0 0.02091680744354632 -0.0012916592221197832 0 0.019879484529889538 -0.00084894808830918405 0 0.019470371796418622 -0.00073651709348715412 0 0.019879484529889538 -0.00084894808830918405 0 0.018952425313400193 -0.00053001543933290491 0 0.019470371796418622 -0.00073651709348715412 0 0.018703082363454557 -0.0014384096989122389 0 0.019470371796418622 -0.00073651709348715412 0 0.018389440175192399 -0.00070563786766957926 0 0.018703082363454557 -0.0014384096989122389 0 0.018389440175192399 -0.00070563786766957926 0 0.01792384767332875 -0.0008109390422125671 0 0.018389440175192399 -0.00070563786766957926 0 0.017954725668943718 -0.0005833964401498671 0 0.01792384767332875 -0.0008109390422125671 0 0.017954725668943718 -0.0005833964401498671 0 0.018282247400189595 -0.00046481227784139659 0 0.017654090671075495 -0.00043503262439181404 0 0.018389440175192399 -0.00070563786766957926 0 0.017954725668943718 -0.0005833964401498671 0 0.018282247400189595 -0.00046481227784139659 0 0.019470371796418622 -0.00073651709348715412 0 0.018389440175192399 -0.00070563786766957926 0 0.018282247400189595 -0.00046481227784139659 0 0.018282247400189595 -0.00046481227784139659 0 0.017727227789030034 -0.00035532810423804102 0 0.018095710647754268 -0.00034543288364748614 0 0.018282247400189595 -0.00046481227784139659 0 0.017654090671075495 -0.00043503262439181404 0 0.017727227789030034 -0.00035532810423804102 0 0.017654090671075495 -0.00043503262439181404 0 0.017727227789030034 -0.00035532810423804102 0 0.017402274942753145 -0.0003597223265693707 0 0.017727227789030034 -0.00035532810423804102 0 0.017402274942753145 -0.0003597223265693707 0 0.017299008762478717 -0.00030890288380037089 0 0.017727227789030034 -0.00035532810423804102 0 0.017299008762478717 -0.00030890288380037089 0 0.017554739288573061 -0.00027959496801217024 0 0.017100053680770222 -0.00025943493396701057 0 0.017299008762478717 -0.00030890288380037089 0 0.017554739288573061 -0.00027959496801217024 0 0.017133672378045681 -0.00035676605303597845 0 0.017402274942753145 -0.0003597223265693707 0 0.017299008762478717 -0.00030890288380037089 0 0.017727227789030034 -0.00035532810423804102 0 0.017554739288573061 -0.00027959496801217024 0 0.018095710647754268 -0.00034543288364748614 0 0.017551020889557484 -0.00022954986761512024 0 0.018414841180032539 -0.00033136299876488121 0 0.018095710647754268 -0.00034543288364748614 0 0.017551020889557484 -0.00022954986761512024 0 0.017554739288573061 -0.00027959496801217024 0 0.018095710647754268 -0.00034543288364748614 0 0.017953487443978143 -0.0002140679048594 0 0.017551020889557484 -0.00022954986761512024 0 0.018414841180032539 -0.00033136299876488121 0 0.017953487443978143 -0.0002140679048594 0 0.018240276304204193 -0.0001534928325321376 0 0.018414841180032539 -0.00033136299876488121 0 0.019209539346031788 -0.00049618083075314708 0 0.018952425313400193 -0.00053001543933290491 0 0.018414841180032539 -0.00033136299876488121 0 0.018952425313400193 -0.00053001543933290491 0 0.018414841180032539 -0.00033136299876488121 0 0.018095710647754268 -0.00034543288364748614 0 0.018952425313400193 -0.00053001543933290491 0 0.018282247400189595 -0.00046481227784139659 0 0.018095710647754268 -0.00034543288364748614 0 0.017364474544321707 -0.0004025928581421994 0 0.017917912262341538 -0.0005770463148831198 0 0.017419862600177596 -0.00050276080025253025 0 0.017515645695158805 -0.00054762014695766052 0 0.017460993001908776 -0.00056366613765319016 0 0.017419862600177596 -0.00050276080025253025 0 0.017515645695158805 -0.00054762014695766052 0 0.017503857110045196 -0.00058480611811201149 0 0.021161782638093003 0.00048734348625844643 0 0.017917912262341538 -0.0005770463148831198 0 0.024448639603604341 0.0011879746184679952 0 0.024262683585932851 0.0010073978364033905 0 0.024663379343315743 0.0009534131230113476 0 0.017419862600177596 -0.00050276080025253025 0 0.017339824009100006 -0.00044282038595258469 0 0.01732630774035266 -0.00042320932687259607 0 0.017243067923819123 -0.00045579716395956796 0 0.017339824009100006 -0.00044282038595258469 0 0.01732630774035266 -0.00042320932687259607 0 0.015793726969871736 -0.0015690086189791145 0 0.017917912262341538 -0.0005770463148831198 0 0.017243067923819123 -0.00045579716395956796 0 0.017164264584031714 -0.00039425446252668836 0 0.01732630774035266 -0.00042320932687259607 0 0.017164264584031714 -0.00039425446252668836 0 0.01732630774035266 -0.00042320932687259607 0 0.017374302011274902 -0.00040816997134165934 0 0.017133672378045681 -0.00035676605303597845 0 0.017402274942753145 -0.0003597223265693707 0 0.0172343600170403 -0.00037386271948456528 0 0.017133672378045681 -0.00035676605303597845 0 0.017063103806350212 -0.00040074460357635624 0 0.0172343600170403 -0.00037386271948456528 0 0.017063103806350212 -0.00040074460357635624 0 0.017164264584031714 -0.00039425446252668836 0 0.0172343600170403 -0.00037386271948456528 0 0.017164264584031714 -0.00039425446252668836 0 0.0172343600170403 -0.00037386271948456528 0 0.017374302011274902 -0.00040816997134165934 0 0.017402274942753145 -0.0003597223265693707 0 0.0172343600170403 -0.00037386271948456528 0 0.017374302011274902 -0.00040816997134165934 0 0.017654090671075495 -0.00043503262439181404 0 0.017402274942753145 -0.0003597223265693707 0 0.017374302011274902 -0.00040816997134165934 0 0.017654090671075495 -0.00043503262439181404 0 0.017374302011274902 -0.00040816997134165934 0 0.017521376473838526 -0.00048151426930914904 0 0.017419862600177596 -0.00050276080025253025 0 0.017463061508910121 -0.00049859737265387177 0 0.017531796137199792 -0.00060398396686195171 0 0.017419862600177596 -0.00050276080025253025 0 0.01732630774035266 -0.00042320932687259607 0 0.017463061508910121 -0.00049859737265387177 0 0.01732630774035266 -0.00042320932687259607 0 0.017374302011274902 -0.00040816997134165934 0 0.017463061508910121 -0.00049859737265387177 0 0.017374302011274902 -0.00040816997134165934 0 0.017521376473838526 -0.00048151426930914904 0 0.017463061508910121 -0.00049859737265387177 0 0.017531796137199792 -0.00060398396686195171 0 0.01763534160046127 -0.00058432946518966638 0 0.017653265367239972 -0.00078310478867804438 0 0.017463061508910121 -0.00049859737265387177 0 0.017531796137199792 -0.00060398396686195171 0 0.01763534160046127 -0.00058432946518966638 0 0.017521376473838526 -0.00048151426930914904 0 0.017463061508910121 -0.00049859737265387177 0 0.01763534160046127 -0.00058432946518966638 0 0.017954725668943718 -0.0005833964401498671 0 0.01763534160046127 -0.00058432946518966638 0 0.01792384767332875 -0.0008109390422125671 0 0.017954725668943718 -0.0005833964401498671 0 0.017654090671075495 -0.00043503262439181404 0 0.01763534160046127 -0.00058432946518966638 0 0.017654090671075495 -0.00043503262439181404 0 0.017521376473838526 -0.00048151426930914904 0 0.01763534160046127 -0.00058432946518966638 0 0.01763534160046127 -0.00058432946518966638 0 0.01792384767332875 -0.0008109390422125671 0 0.017653265367239972 -0.00078310478867804438 0 0.01792384767332875 -0.0008109390422125671 0 0.017653265367239972 -0.00078310478867804438 0 0.017851270758195051 -0.0011648971892184729 0 0.017653265367239972 -0.00078310478867804438 0 0.017614941633294069 -0.00074685525026270221 0 0.017655053768748506 -0.00082783466062178758 0 0.017531796137199792 -0.00060398396686195171 0 0.017653265367239972 -0.00078310478867804438 0 0.017614941633294069 -0.00074685525026270221 0 0.017614941633294069 -0.00074685525026270221 0 0.017503857110045196 -0.00058480611811201149 0 0.017535055042381235 -0.00067739761540801843 0 0.016500654739072161 -0.0014141304145073356 0 0.022334713229138114 -0.00068274069693296223 0 0.017531796137199792 -0.00060398396686195171 0 0.017614941633294069 -0.00074685525026270221 0 0.017503857110045196 -0.00058480611811201149 0 0.017419862600177596 -0.00050276080025253025 0 0.017531796137199792 -0.00060398396686195171 0 0.017503857110045196 -0.00058480611811201149 0 0.017515645695158805 -0.00054762014695766052 0 0.017503857110045196 -0.00058480611811201149 0 0.017513583571275762 -0.00060168115455532607 0 0.017503857110045196 -0.00058480611811201149 0 0.017513583571275762 -0.00060168115455532607 0 0.017535055042381235 -0.00067739761540801843 0 0.017614941633294069 -0.00074685525026270221 0 0.017535055042381235 -0.00067739761540801843 0 0.017563034353364086 -0.00072858411233243697 0 0.017513583571275762 -0.00060168115455532607 0 0.017535055042381235 -0.00067739761540801843 0 0.017507106136237429 -0.00065386118201800911 0 0.017535055042381235 -0.00067739761540801843 0 0.01754681483374344 -0.00072146094804993505 0 0.017563034353364086 -0.00072858411233243697 0 0.017535055042381235 -0.00067739761540801843 0 0.01754681483374344 -0.00072146094804993505 0 0.017507106136237429 -0.00065386118201800911 0 0.028334691049654304 -0.0017735153285058972 0 0.028208745994429719 -0.0018713117167516308 0 0.028086675662227601 -0.0011723249033038475 0 0.02325602411675267 0.00073377201079684372 0 0.022334713229138114 -0.00068274069693296223 0 0.024619069118428986 -0.00023792755290618947 0 0.024485157138662301 -4.2656691353474109e-05 0 0.024269983121712413 -0.00020672850998981526 0 0.025882822837695933 -0.00031072344427241042 0 0.022334713229138114 -0.00068274069693296223 0 0.02325602411675267 0.00073377201079684372 0 0.025882822837695933 -0.00031072344427241042 0 0.025882822837695933 -0.00031072344427241042 0 0.028581084553266477 -0.0016220319701251459 0 0.017614941633294069 -0.00074685525026270221 0 0.017916287323906949 -0.00072679673382693676 0 0.017655053768748506 -0.00082783466062178758 0 0.027468122858096158 -0.0011732327753494348 0 0.028086675662227601 -0.0011723249033038475 0 0.027241229615132968 -0.0018862725207083209 0 0.028208745994429719 -0.0018713117167516308 0 0.028086675662227601 -0.0011723249033038475 0 0.027241229615132968 -0.0018862725207083209 0 0.022334713229138114 -0.00068274069693296223 0 0.022610498649886245 -0.0014384903920715358 0 0.027468122858096158 -0.0011732327753494348 0 0.028086675662227601 -0.0011723249033038475 0 0.027880809607122314 -0.00036512691598094416 0 0.028581084553266477 -0.0016220319701251459 0 0.027807938910651447 -0.00033489402793930991 0 0.029191833035281171 -0.0021919972815501636 0 0.029596382924799807 -0.0010903237193831978 0 0.028566951689735595 -0.0012954316092148703 0 0.028566951689735595 -0.0012954316092148703 0 0.029350722145753648 -0.0001105874103371462 0 0.027880809607122314 -0.00036512691598094416 0 0.029596382924799807 -0.0010903237193831978 0 0.028566951689735595 -0.0012954316092148703 0 0.029350722145753648 -0.0001105874103371462 0 0.017653265367239972 -0.00078310478867804438 0 0.017851270758195051 -0.0011648971892184729 0 0.017655053768748506 -0.00082783466062178758 0 0.021807252070812279 -0.0015463415906507942 0 0.022610498649886245 -0.0014384903920715358 0 0.025818666869737637 -0.0019508372619598915 0 0.027241229615132968 -0.0018862725207083209 0 0.026722312798648219 -0.00093553386560606838 0 0.027468122858096158 -0.0011732327753494348 0 0.026722312798648219 -0.00093553386560606838 0 0.027880809607122314 -0.00036512691598094416 0 0.027468122858096158 -0.0011732327753494348 0 0.027241229615132968 -0.0018862725207083209 0 0.026722312798648219 -0.00093553386560606838 0 0.025225192520792049 -0.00081234646744565145 0 0.025818666869737637 -0.0019508372619598915 0 0.026722312798648219 -0.00093553386560606838 0 0.025225192520792049 -0.00081234646744565145 0 0.026722312798648219 -0.00093553386560606838 0 0.025567639959745259 0.00063536866988843127 0 0.026722312798648219 -0.00093553386560606838 0 0.02722804372159825 0.00073680563447423128 0 0.027880809607122314 -0.00036512691598094416 0 0.026722312798648219 -0.00093553386560606838 0 0.025567639959745259 0.00063536866988843127 0 0.02722804372159825 0.00073680563447423128 0 0.02722804372159825 0.00073680563447423128 0 0.028266646067966989 0.0014006701999732672 0 0.027365546080703813 0.0023703662910352901 0 0.025567639959745259 0.00063536866988843127 0 0.02722804372159825 0.00073680563447423128 0 0.026308241973065805 0.0017896932162052518 0 0.025567639959745259 0.00063536866988843127 0 0.026308241973065805 0.0017896932162052518 0 0.025168222919214261 0.0021456994349748188 0 0.029350722145753648 -0.0001105874103371462 0 0.028589261002178661 0.00051307681790127406 0 0.029946632926074992 0.00092495537033960608 0 0.029350722145753648 -0.0001105874103371462 0 0.028589261002178661 0.00051307681790127406 0 0.027880809607122314 -0.00036512691598094416 0 0.02722804372159825 0.00073680563447423128 0 0.028589261002178661 0.00051307681790127406 0 0.027880809607122314 -0.00036512691598094416 0 0.02722804372159825 0.00073680563447423128 0 0.028589261002178661 0.00051307681790127406 0 0.028266646067966989 0.0014006701999732672 0 0.028589261002178661 0.00051307681790127406 0 0.028266646067966989 0.0014006701999732672 0 0.029253540438130599 0.0016324336707171589 0 0.028589261002178661 0.00051307681790127406 0 0.029253540438130599 0.0016324336707171589 0 0.029946632926074992 0.00092495537033960608 0 0.029253540438130599 0.0016324336707171589 0 0.02904135654872933 0.0027244136482201509 0 0.030463801419597647 0.0022652811327344906 0 0.028266646067966989 0.0014006701999732672 0 0.029253540438130599 0.0016324336707171589 0 0.02904135654872933 0.0027244136482201509 0 0.028266646067966989 0.0014006701999732672 0 0.02904135654872933 0.0027244136482201509 0 0.027365546080703813 0.0023703662910352901 0 0.02904135654872933 0.0027244136482201509 0 0.028076267869132008 0.0034813635965622062 0 0.027365546080703813 0.0023703662910352901 0 0.02904135654872933 0.0027244136482201509 0 0.02926142854647169 0.0042127358804460212 0 0.03037226483733586 0.003428437520481953 0 0.02904135654872933 0.0027244136482201509 0 0.028076267869132008 0.0034813635965622062 0 0.02926142854647169 0.0042127358804460212 0 0.028076267869132008 0.0034813635965622062 0 0.02926142854647169 0.0042127358804460212 0 0.027929849779906479 0.0047451051281940798 0 0.02926142854647169 0.0042127358804460212 0 0.027929849779906479 0.0047451051281940798 0 0.029865419136136526 0.005535553034524401 0 0.02890641049010198 0.004156261414315709 0 0.032197681412861459 0.0048695091225469753 0 0.02926142854647169 0.0042127358804460212 0 0.029865419136136526 0.005535553034524401 0 0.03145483533865822 0.0050765380813378985 0 0.027929849779906479 0.0047451051281940798 0 0.026097917846230698 0.0044968498936853634 0 0.026984471082462991 0.0059912714079751253 0 0.028076267869132008 0.0034813635965622062 0 0.027929849779906479 0.0047451051281940798 0 0.026865151740018717 0.0034022596054381965 0 0.027929849779906479 0.0047451051281940798 0 0.026865151740018717 0.0034022596054381965 0 0.026097917846230698 0.0044968498936853634 0 0.026761233745405948 0.0030826861179569006 0 0.024878570996359987 0.0050004964879147235 0 0.028076267869132008 0.0034813635965622062 0 0.026865151740018717 0.0034022596054381965 0 0.027365546080703813 0.0023703662910352901 0 0.026761233745405948 0.0030826861179569006 0 0.027248781183920941 0.0024990381994929494 0 0.026226054650443496 0.0032727664462337499 0 0.027365546080703813 0.0023703662910352901 0 0.026308241973065805 0.0017896932162052518 0 0.02722804372159825 0.00073680563447423128 0 0.027365546080703813 0.0023703662910352901 0 0.026308241973065805 0.0017896932162052518 0 0.026226054650443496 0.0032727664462337499 0 0.026308241973065805 0.0017896932162052518 0 0.025168222919214261 0.0021456994349748188 0 0.024055937633311493 0.0011832240030368846 0 0.025168222919214261 0.0021456994349748188 0 0.023929168678029234 0.0019830155264258212 0 0.025168222919214261 0.0021456994349748188 0 0.024645293271685725 0.0026311224492995126 0 0.023929168678029234 0.0019830155264258212 0 0.024645293271685725 0.0026311224492995126 0 0.023999062170720373 0.0025803574725144032 0 0.024717477897552097 0.003239647401062056 0 0.024645293271685725 0.0026311224492995126 0 0.025219568815981808 0.0031394095074380002 0 0.024717477897552097 0.003239647401062056 0 0.026226054650443496 0.0032727664462337499 0 0.025168222919214261 0.0021456994349748188 0 0.025219568815981808 0.0031394095074380002 0 0.025168222919214261 0.0021456994349748188 0 0.024645293271685725 0.0026311224492995126 0 0.025219568815981808 0.0031394095074380002 0 0.022958844129533029 0.0014936954594189178 0 0.023999062170720373 0.0025803574725144032 0 0.023339601656763815 0.0024575577044501002 0 0.022958844129533029 0.0014936954594189178 0 0.02246789037254451 0.00168549950198794 0 0.023339601656763815 0.0024575577044501002 0 0.022958844129533029 0.0014936954594189178 0 0.023929168678029234 0.0019830155264258212 0 0.023999062170720373 0.0025803574725144032 0 0.023999062170720373 0.0025803574725144032 0 0.024177879797564073 0.003147348040742372 0 0.024717477897552097 0.003239647401062056 0 0.024645293271685725 0.0026311224492995126 0 0.023929168678029234 0.0019830155264258212 0 0.023999062170720373 0.0025803574725144032 0 0.023999062170720373 0.0025803574725144032 0 0.023339601656763815 0.0024575577044501002 0 0.024177879797564073 0.003147348040742372 0 0.023339601656763815 0.0024575577044501002 0 0.024177879797564073 0.003147348040742372 0 0.023247486327276298 0.0028190174848101313 0 0.024177879797564073 0.003147348040742372 0 0.024920808999959666 0.0037790242484009706 0 0.02342535566158312 0.0031784898167676076 0 0.024177879797564073 0.003147348040742372 0 0.024857602936639047 0.0036170260792989209 0 0.024920808999959666 0.0037790242484009706 0 0.024177879797564073 0.003147348040742372 0 0.024857602936639047 0.0036170260792989209 0 0.024717477897552097 0.003239647401062056 0 0.024857602936639047 0.0036170260792989209 0 0.024717477897552097 0.003239647401062056 0 0.025123891528697054 0.003692911817371369 0 0.024857602936639047 0.0036170260792989209 0 0.025123891528697054 0.003692911817371369 0 0.025270500215233728 0.0037923143950866259 0 0.024857602936639047 0.0036170260792989209 0 0.024920808999959666 0.0037790242484009706 0 0.025270500215233728 0.0037923143950866259 0 0.031322348609216871 0.00053906857331279803 0 0.030688683860067227 0.0024380944847677702 0 0.024920808999959666 0.0037790242484009706 0 0.025270500215233728 0.0037923143950866259 0 0.02611273587150189 0.0037157568843518697 0 0.024356113085135463 0.0047490226774749471 0 0.030688683860067227 0.0024380944847677702 0 0.025219568815981808 0.0031394095074380002 0 0.025123891528697054 0.003692911817371369 0 0.025544335905476553 0.0037210243508906471 0 0.026226054650443496 0.0032727664462337499 0 0.025219568815981808 0.0031394095074380002 0 0.025544335905476553 0.0037210243508906471 0 0.025219568815981808 0.0031394095074380002 0 0.024717477897552097 0.003239647401062056 0 0.025123891528697054 0.003692911817371369 0 0.025123891528697054 0.003692911817371369 0 0.02534909166061633 0.0038935421365346575 0 0.025270500215233728 0.0037923143950866259 0 0.025123891528697054 0.003692911817371369 0 0.025544335905476553 0.0037210243508906471 0 0.02534909166061633 0.0038935421365346575 0 0.024878570996359987 0.0050004964879147235 0 0.031058529589145758 0.0012984451041214047 0 0.031058529589145758 0.0012984451041214047 0 0.033286904448373442 0.0010348768199543266 0 0.037561773870102823 -0.0037560813926475973 0 0.037989511484642816 -0.0031181978792602246 0 0.03923895231714495 -0.0038303530070031852 0 0.026097917846230698 0.0044968498936853634 0 0.02535995421395518 0.0055283699860733705 0 0.026984471082462991 0.0059912714079751253 0 0.037561773870102823 -0.0037560813926475973 0 0.037167100106584465 -0.0027863715076913357 0 0.037989511484642816 -0.0031181978792602246 0 0.031058529589145758 0.0012984451041214047 0 0.031322348609216871 0.00053906857331279803 0 0.036654296033740583 -0.0024741204231130231 0 0.037167100106584465 -0.0027863715076913357 0 0.037016549628977331 -0.0022660711827576473 0 0.031058529589145758 0.0012984451041214047 0 0.038482740961556412 -0.0047120442651214399 0 0.037167100106584465 -0.0027863715076913357 0 0.037675870742517895 -0.00265625526859866 0 0.037989511484642816 -0.0031181978792602246 0 0.037167100106584465 -0.0027863715076913357 0 0.037675870742517895 -0.00265625526859866 0 0.037306693986940129 -0.0027277901125103837 0 0.037675870742517895 -0.00265625526859866 0 0.037989511484642816 -0.0031181978792602246 0 0.038575059194204793 -0.0025779848779663118 0 0.037943865969893166 -0.0023691015178117789 0 0.037016549628977331 -0.0022660711827576473 0 0.037320564626322286 -0.0021889199458678217 0 0.037167100106584465 -0.0027863715076913357 0 0.037016549628977331 -0.0022660711827576473 0 0.037555705542782272 -0.0024951964806502794 0 0.037943865969893166 -0.0023691015178117789 0 0.037016549628977331 -0.0022660711827576473 0 0.037555705542782272 -0.0024951964806502794 0 0.037306693986940129 -0.0027277901125103837 0 0.037555705542782272 -0.0024951964806502794 0 0.038295853090425658 -0.0024561797522570368 0 0.037167100106584465 -0.0027863715076913357 0 0.037306693986940129 -0.0027277901125103837 0 0.037555705542782272 -0.0024951964806502794 0 0.037943865969893166 -0.0023691015178117789 0 0.037555705542782272 -0.0024951964806502794 0 0.038295853090425658 -0.0024561797522570368 0 0.038295853090425658 -0.0024561797522570368 0 0.03896807222524229 -0.0025400262608557926 0 0.040715040581306164 -0.0024949204146445837 0 0.037943865969893166 -0.0023691015178117789 0 0.038295853090425658 -0.0024561797522570368 0 0.03896807222524229 -0.0025400262608557926 0 0.0437425514128175 -0.0014295974035954922 0 0.045814503696057232 -0.0019550425891189187 0 0.045034662564667406 -0.0013327328664864263 0 0.041602157779186445 -0.0024623128828195531 0 0.040887002360562578 -0.0025369077255175962 0 0.0437425514128175 -0.0014295974035954922 0 0.045814503696057232 -0.0019550425891189187 0 0.040715040581306164 -0.0024949204146445837 0 0.038295853090425658 -0.0024561797522570368 0 0.037471594589825269 -0.0031846714084227557 0 0.040715040581306164 -0.0024949204146445837 0 0.037306693986940129 -0.0027277901125103837 0 0.038295853090425658 -0.0024561797522570368 0 0.037471594589825269 -0.0031846714084227557 0 0.037306693986940129 -0.0027277901125103837 0 0.037471594589825269 -0.0031846714084227557 0 0.037481719836804574 -0.0025239740952910598 0 0.045814503696057232 -0.0019550425891189187 0 0.045492168807141152 -0.0011986403180304372 0 0.045034662564667406 -0.0013327328664864263 0 0.045814503696057232 -0.0019550425891189187 0 0.045492168807141152 -0.0011986403180304372 0 0.046325377385561889 -0.0015793183660413167 0 0.045492168807141152 -0.0011986403180304372 0 0.045034662564667406 -0.0013327328664864263 0 0.045478540909479115 -0.0017169227367243799 0 0.04777668759502799 -0.0017897625886646108 0 0.045760400432516717 -0.0017796029545169504 0 0.050040178978988069 -0.0025151903497264614 0 0.045478540909479115 -0.0017169227367243799 0 0.048730222979345116 -0.0010988008825278726 0 0.0437425514128175 -0.0014295974035954922 0 0.045034662564667406 -0.0013327328664864263 0 0.045478540909479115 -0.0017169227367243799 0 0.037675870742517895 -0.00265625526859866 0 0.037936052440674516 -0.002257507043042205 0 0.038575059194204793 -0.0025779848779663118 0 0.037936052440674516 -0.002257507043042205 0 0.038465678361668226 -0.0018796037727298893 0 0.037601418871559003 -0.0019462198558162292 0 0.037936052440674516 -0.002257507043042205 0 0.038465678361668226 -0.0018796037727298893 0 0.038575059194204793 -0.0025779848779663118 0 0.041602157779186445 -0.0024623128828195531 0 0.042205337955078089 -0.0017488081062856247 0 0.037675870742517895 -0.00265625526859866 0 0.037306693986940129 -0.0027277901125103837 0 0.037481719836804574 -0.0025239740952910598 0 0.037675870742517895 -0.00265625526859866 0 0.037936052440674516 -0.002257507043042205 0 0.037481719836804574 -0.0025239740952910598 0 0.037471594589825269 -0.0031846714084227557 0 0.037481719836804574 -0.0025239740952910598 0 0.037601418871559003 -0.0019462198558162292 0 0.037936052440674516 -0.002257507043042205 0 0.037481719836804574 -0.0025239740952910598 0 0.037601418871559003 -0.0019462198558162292 0 0.04777668759502799 -0.0017897625886646108 0 0.049412202203083441 -0.0014848388646591343 0 0.045492168807141152 -0.0011986403180304372 0 0.046325377385561889 -0.0015793183660413167 0 0.046411471346931701 -0.0011382961231783438 0 0.046325377385561889 -0.0015793183660413167 0 0.046411471346931701 -0.0011382961231783438 0 0.047201842596642854 -0.0012607258890907768 0 0.049412202203083441 -0.0014848388646591343 0 0.051147511138432723 -0.00097955913069633057 0 0.038465678361668226 -0.0018796037727298893 0 0.037601418871559003 -0.0019462198558162292 0 0.038988270841697557 -0.00089109207739063829 0 0.046411471346931701 -0.0011382961231783438 0 0.047246516678220947 -0.0010455963989058658 0 0.047201842596642854 -0.0012607258890907768 0 0.042205337955078089 -0.0017488081062856247 0 0.042318858686952503 -0.0011853859154514776 0 0.047246516678220947 -0.0010455963989058658 0 0.047201842596642854 -0.0012607258890907768 0 0.048103760980322943 -0.00092814963587333475 0 0.038988270841697557 -0.00089109207739063829 0 0.039359969004710844 -0.001763973871349377 0 0.040130051577931106 -0.0011332453923124609 0 0.038465678361668226 -0.0018796037727298893 0 0.038988270841697557 -0.00089109207739063829 0 0.039359969004710844 -0.001763973871349377 0 0.038465678361668226 -0.0018796037727298893 0 0.039359969004710844 -0.001763973871349377 0 0.038575059194204793 -0.0025779848779663118 0 0.039359969004710844 -0.001763973871349377 0 0.038575059194204793 -0.0025779848779663118 0 0.039843528570317387 -0.002673750345296844 0 0.040291408661790519 -0.0018294886956058114 0 0.041246653937646073 -0.0023589460459803599 0 0.039843528570317387 -0.002673750345296844 0 0.039359969004710844 -0.001763973871349377 0 0.040291408661790519 -0.0018294886956058114 0 0.039843528570317387 -0.002673750345296844 0 0.039359969004710844 -0.001763973871349377 0 0.040291408661790519 -0.0018294886956058114 0 0.040130051577931106 -0.0011332453923124609 0 0.038988270841697557 -0.00089109207739063829 0 0.040130051577931106 -0.0011332453923124609 0 0.040935200668492155 7.7505819686828501e-05 0 0.042318858686952503 -0.0011853859154514776 0 0.048406114482849372 -0.00056590542753876764 0 0.040291408661790519 -0.0018294886956058114 0 0.040130051577931106 -0.0011332453923124609 0 0.041273527657260799 -0.0013013981042671252 0 0.040130051577931106 -0.0011332453923124609 0 0.041273527657260799 -0.0013013981042671252 0 0.040935200668492155 7.7505819686828501e-05 0 0.04289008100387405 -0.00081655428596950463 0 0.04333327372831916 0.00055731313720339647 0 0.040935200668492155 7.7505819686828501e-05 0 0.041273527657260799 -0.0013013981042671252 0 0.04289008100387405 -0.00081655428596950463 0 0.040935200668492155 7.7505819686828501e-05 0 0.041273527657260799 -0.0013013981042671252 0 0.04289008100387405 -0.00081655428596950463 0 0.042551154994539743 -0.0018684886274600882 0 0.04289008100387405 -0.00081655428596950463 0 0.04333327372831916 0.00055731313720339647 0 0.044574961097522521 -0.0006419905941782648 0 0.04289008100387405 -0.00081655428596950463 0 0.042551154994539743 -0.0018684886274600882 0 0.044240467335324357 -0.0020964033184033789 0 0.042551154994539743 -0.0018684886274600882 0 0.042729108376940689 -0.0027630189466287028 0 0.044240467335324357 -0.0020964033184033789 0 0.042551154994539743 -0.0018684886274600882 0 0.041246653937646073 -0.0023589460459803599 0 0.042729108376940689 -0.0027630189466287028 0 0.040291408661790519 -0.0018294886956058114 0 0.041273527657260799 -0.0013013981042671252 0 0.041246653937646073 -0.0023589460459803599 0 0.041273527657260799 -0.0013013981042671252 0 0.042551154994539743 -0.0018684886274600882 0 0.041246653937646073 -0.0023589460459803599 0 0.041246653937646073 -0.0023589460459803599 0 0.041461262735872952 -0.0037828952715896805 0 0.039843528570317387 -0.002673750345296844 0 0.041246653937646073 -0.0023589460459803599 0 0.041461262735872952 -0.0037828952715896805 0 0.042729108376940689 -0.0027630189466287028 0 0.035007734140456478 0.001498241166011556 0 0.038951073851439207 0.0013969608498611403 0 0.041461262735872952 -0.0037828952715896805 0 0.042729108376940689 -0.0027630189466287028 0 0.044030994286801232 -0.0034461051928662344 0 0.029036871695747903 0.0066399271073763469 0 0.029865419136136526 0.005535553034524401 0 0.031571975648947349 0.0072677723768077383 0 0.027929849779906479 0.0047451051281940798 0 0.029036871695747903 0.0066399271073763469 0 0.029865419136136526 0.005535553034524401 0 0.035007734140456478 0.001498241166011556 0 0.033286904448373442 0.0010348768199543266 0 0.027929849779906479 0.0047451051281940798 0 0.029036871695747903 0.0066399271073763469 0 0.026984471082462991 0.0059912714079751253 0 0.038575059194204793 -0.0025779848779663118 0 0.03923895231714495 -0.0038303530070031852 0 0.039843528570317387 -0.002673750345296844 0 0.037989511484642816 -0.0031181978792602246 0 0.038575059194204793 -0.0025779848779663118 0 0.03923895231714495 -0.0038303530070031852 0 0.041461262735872952 -0.0037828952715896805 0 0.03923895231714495 -0.0038303530070031852 0 0.039843528570317387 -0.002673750345296844 0 0.022975854575817248 -0.00051442682780652863 0 0.023501135037105051 -9.8090173284737245e-05 0 0.023912518811667408 -0.00060628668752743813 0 0.023501135037105051 -9.8090173284737245e-05 0 0.024056425299274774 -0.00014399710101677116 0 0.023912518811667408 -0.00060628668752743813 0 0.024056425299274774 -0.00014399710101677116 0 0.024604010413208279 -0.00058099757816465058 0 0.024469847099829179 2.6520042761194051e-05 0 0.024056425299274774 -0.00014399710101677116 0 0.023912518811667408 -0.00060628668752743813 0 0.024604010413208279 -0.00058099757816465058 0 0.022532616436425398 -0.00057268682099550518 0 0.027569352266676266 -0.00070942309693591539 0 0.022785008121754314 -0.00061013702167609448 0 0.022920831897930666 -0.00064151278375923601 0 0.022905070957053884 -0.00051742030918844046 0 0.022745431706439036 -0.00054431439482812761 0 0.022785008121754314 -0.00061013702167609448 0 0.022905070957053884 -0.00051742030918844046 0 0.023319417329106831 -0.00052418125289319681 0 0.022532616436425398 -0.00057268682099550518 0 0.022745431706439036 -0.00054431439482812761 0 0.022619616503344188 -0.00060838132735656554 0 0.022785008121754314 -0.00061013702167609448 0 0.022975854575817248 -0.00051442682780652863 0 0.022745431706439036 -0.00054431439482812761 0 0.022619616503344188 -0.00060838132735656554 0 0.022619616503344188 -0.00060838132735656554 0 0.022757878219280471 -0.00074319869702973627 0 0.022785008121754314 -0.00061013702167609448 0 0.02172011816438315 -0.0010068506695425563 0 0.022215297260690939 -0.0009565197218919919 0 0.021576210703095157 -0.0014965144261430826 0 0.022619616503344188 -0.00060838132735656554 0 0.022215297260690939 -0.0009565197218919919 0 0.022757878219280471 -0.00074319869702973627 0 0.022316879803475888 -0.0009229790834816865 0 0.021913314341152162 -0.0012182801073890093 0 0.021308620634048633 -0.0010109554575052392 0 0.021576210703095157 -0.0014965144261430826 0 0.021108840506645517 -0.0012961521647394201 0 0.022757878219280471 -0.00074319869702973627 0 0.022785008121754314 -0.00061013702167609448 0 0.022920831897930666 -0.00064151278375923601 0 0.021913314341152162 -0.0012182801073890093 0 0.023612349606979433 -0.0011429636144013023 0 0.023247760793191238 -0.00035425092400058283 0 0.024776792012011974 -0.00025824220635199284 0 0.024704694635972989 0.00077037499724393413 0 0.023612349606979433 -0.0011429636144013023 0 0.026440688425592544 -0.00028546806605641455 0 0.023247760793191238 -0.00035425092400058283 0 0.024909080953887618 -0.0016384445444698698 0 0.024776792012011974 -0.00025824220635199284 0 0.023612349606979433 -0.0011429636144013023 0 0.021796205255096308 -0.0016638796383316673 0 0.023247760793191238 -0.00035425092400058283 0 0.023684392147127267 -0.0030369598158572295 0 0.024909080953887618 -0.0016384445444698698 0 0.021576210703095157 -0.0014965144261430826 0 0.021217845906639526 -0.0017718749471039119 0 0.021108840506645517 -0.0012961521647394201 0 0.021796205255096308 -0.0016638796383316673 0 0.022617766113622161 -0.0017392456993844192 0 0.02047194074865338 -0.0012371199417700767 0 0.020699629175315974 -0.0015741656635936564 0 0.020457413551225236 -0.0014707995218802236 0 0.02047194074865338 -0.0012371199417700767 0 0.020889616618561705 -0.0013810824232523865 0 0.020699629175315974 -0.0015741656635936564 0 0.022617766113622161 -0.0017392456993844192 0 0.023592982476870535 0.00065195893207184463 0 0.020699629175315974 -0.0015741656635936564 0 0.020533079911509138 -0.0017582449637757627 0 0.020457413551225236 -0.0014707995218802236 0 0.024909080953887618 -0.0016384445444698698 0 0.024776792012011974 -0.00025824220635199284 0 0.026143714162475518 -0.00022530461837245102 0 0.024776792012011974 -0.00025824220635199284 0 0.026143714162475518 -0.00022530461837245102 0 0.025256592113705498 0.00059044982961275431 0 0.023592982476870535 0.00065195893207184463 0 0.025451094556253617 -0.00011911476313727906 0 0.026293668246485082 -0.0003310385219865322 0 0.026341992180109259 0.0020296435563431749 0 0.025256592113705498 0.00059044982961275431 0 0.030317188072327882 0.00050231616394375228 0 0.028395268784595893 -0.00094675097924661555 0 0.026031515025625333 0.00034181363786852834 0 0.026341992180109259 0.0020296435563431749 0 0.024704694635972989 0.00077037499724393413 0 0.025256592113705498 0.00059044982961275431 0 0.032087760270713854 0.00016601131569614856 0 0.027569352266676266 -0.00070942309693591539 0 0.032087760270713854 0.00016601131569614856 0 0.026440688425592544 -0.00028546806605641455 0 0.024776792012011974 -0.00025824220635199284 0 0.024704694635972989 0.00077037499724393413 0 0.025256592113705498 0.00059044982961275431 0 0.023612349606979433 -0.0011429636144013023 0 0.027569352266676266 -0.00070942309693591539 0 0.026474575897879417 -0.002389873824681879 0 0.028395268784595893 -0.00094675097924661555 0 0.026031515025625333 0.00034181363786852834 0 0.034486624963431529 -0.00049981679523660371 0 0.03476749495571875 -0.0002694887080903977 0 0.034429314608978169 -0.00018249138660596869 0 0.027569352266676266 -0.00070942309693591539 0 0.029593830684195258 -0.0001162656373584114 0 0.03491895781176195 -0.00039636812101359473 0 0.034486624963431529 -0.00049981679523660371 0 0.03476749495571875 -0.0002694887080903977 0 0.03491895781176195 -0.00039636812101359473 0 0.03476749495571875 -0.0002694887080903977 0 0.034957250337839314 -0.00023346950683394269 0 0.033663656107360829 -0.00083537830038677959 0 0.034288629436932651 -0.00043104986882136308 0 0.034252759539980256 -0.00081896515489013994 0 0.032087760270713854 0.00016601131569614856 0 0.034853004602660574 -0.00025450841551251401 0 0.03491895781176195 -0.00039636812101359473 0 0.034957250337839314 -0.00023346950683394269 0 0.034946563384972561 -0.00021114406010381618 0 0.034288629436932651 -0.00043104986882136308 0 0.034651092720218858 -0.00040538953507682375 0 0.034790317842741107 -0.00024479201618504671 0 0.023933468550659476 0.002723466594926254 0 0.023715213561540403 0.0027660228414952913 0 0.023616907996602213 0.0027864217057973831 0 0.023758728869695819 0.0040649738240607931 0 0.023933468550659476 0.002723466594926254 0 0.023715213561540403 0.0027660228414952913 0 0.023758728869695819 0.0040649738240607931 0 0.023715213561540403 0.0027660228414952913 0 0.023446435358180868 0.0025836035108999988 0 0.034288629436932651 -0.00043104986882136308 0 0.034651092720218858 -0.00040538953507682375 0 0.034252759539980256 -0.00081896515489013994 0 0.029135184259932452 0.0016512420257012975 0 0.028649613504586918 0.0017733624863317877 0 0.023715213561540403 0.0027660228414952913 0 0.023561471357802115 0.0027019628901381832 0 0.023446435358180868 0.0025836035108999988 0 0.023561471357802115 0.0027019628901381832 0 0.023532061945870878 0.0027796702999064462 0 0.023446435358180868 0.0025836035108999988 0 0.023715213561540403 0.0027660228414952913 0 0.023561471357802115 0.0027019628901381832 0 0.023616907996602213 0.0027864217057973831 0 0.023561471357802115 0.0027019628901381832 0 0.023616907996602213 0.0027864217057973831 0 0.023532061945870878 0.0027796702999064462 0 0.023933468550659476 0.002723466594926254 0 0.023616907996602213 0.0027864217057973831 0 0.023272950323996025 0.00298171798337207 0 0.023616907996602213 0.0027864217057973831 0 0.023400406641956525 0.0029163643655448486 0 0.023272950323996025 0.00298171798337207 0 0.023616907996602213 0.0027864217057973831 0 0.023400406641956525 0.0029163643655448486 0 0.023532061945870878 0.0027796702999064462 0 0.02355124684348427 0.0028758638053671894 0 0.023532061945870878 0.0027796702999064462 0 0.023446435358180868 0.0025836035108999988 0 0.023400406641956525 0.0029163643655448486 0 0.02355124684348427 0.0028758638053671894 0 0.023532061945870878 0.0027796702999064462 0 0.023592982476870535 0.00065195893207184463 0 0.028649613504586918 0.0017733624863317877 0 0.026293668246485082 -0.0003310385219865322 0 0.026341992180109259 0.0020296435563431749 0 0.028424162883587248 0.0021073808775863272 0 0.023908991120394334 0.0029516699122997237 0 0.02355124684348427 0.0028758638053671894 0 0.023446435358180868 0.0025836035108999988 0 0.032087760270713854 0.00016601131569614856 0 0.028649613504586918 0.0017733624863317877 0 0.020533079911509138 -0.0017582449637757627 0 0.020457413551225236 -0.0014707995218802236 0 0.020209219119242137 -0.00149656308177857 0 0.023908991120394334 0.0029516699122997237 0 0.02355124684348427 0.0028758638053671894 0 0.023548228872652774 0.0032661376842827859 0 0.023592982476870535 0.00065195893207184463 0 0.02169309480729549 0.0009747015586075347 0 0.02047194074865338 -0.0012371199417700767 0 0.020457413551225236 -0.0014707995218802236 0 0.020209219119242137 -0.00149656308177857 0 0.021355500214802967 0.00091035861996682939 0 0.02169309480729549 0.0009747015586075347 0 0.02321585358007788 0.0035332155030139171 0 0.023548228872652774 0.0032661376842827859 0 0.023362019432651728 0.0031355870958505836 0 0.02355124684348427 0.0028758638053671894 0 0.023548228872652774 0.0032661376842827859 0 0.023362019432651728 0.0031355870958505836 0 0.023400406641956525 0.0029163643655448486 0 0.02355124684348427 0.0028758638053671894 0 0.023362019432651728 0.0031355870958505836 0 0.023400406641956525 0.0029163643655448486 0 0.023362019432651728 0.0031355870958505836 0 0.022933751131943039 0.0029383866175667897 0 0.021687324112260608 0.0020856857094875341 0 0.022610705543622 0.0023000934730236307 0 0.022933751131943039 0.0029383866175667897 0 0.023362019432651728 0.0031355870958505836 0 0.023110208150180302 0.0032424058744058358 0 0.022933751131943039 0.0029383866175667897 0 0.022537297784707287 0.0029134530100759001 0 0.022736538302320766 0.0027610196301050376 0 0.021355500214802967 0.00091035861996682939 0 0.022537297784707287 0.0029134530100759001 0 0.02321585358007788 0.0035332155030139171 0 0.023362019432651728 0.0031355870958505836 0 0.023110208150180302 0.0032424058744058358 0 0.021112600843838682 0.001263400293610398 0 0.021687324112260608 0.0020856857094875341 0 0.021733046333757163 0.0014633612140248266 0 0.021687324112260608 0.0020856857094875341 0 0.021733046333757163 0.0014633612140248266 0 0.022610705543622 0.0023000934730236307 0 0.02246789037254451 0.00168549950198794 0 0.021733046333757163 0.0014633612140248266 0 0.022610705543622 0.0023000934730236307 0 0.02246789037254451 0.00168549950198794 0 0.023339601656763815 0.0024575577044501002 0 0.022610705543622 0.0023000934730236307 0 0.023339601656763815 0.0024575577044501002 0 0.022610705543622 0.0023000934730236307 0 0.023247486327276298 0.0028190174848101313 0 0.022610705543622 0.0023000934730236307 0 0.023247486327276298 0.0028190174848101313 0 0.022933751131943039 0.0029383866175667897 0 0.024177879797564073 0.003147348040742372 0 0.023247486327276298 0.0028190174848101313 0 0.02342535566158312 0.0031784898167676076 0 0.023247486327276298 0.0028190174848101313 0 0.02342535566158312 0.0031784898167676076 0 0.022933751131943039 0.0029383866175667897 0 0.02342535566158312 0.0031784898167676076 0 0.022933751131943039 0.0029383866175667897 0 0.023272950323996025 0.00298171798337207 0 0.023400406641956525 0.0029163643655448486 0 0.022933751131943039 0.0029383866175667897 0 0.023272950323996025 0.00298171798337207 0 0.023933468550659476 0.002723466594926254 0 0.023272950323996025 0.00298171798337207 0 0.02324570990275841 0.0031936729642977908 0 0.024413610178765522 0.0027228662075018868 0 0.026115185322336584 0.0029500993140991038 0 0.023758728869695819 0.0040649738240607931 0 0.029148296380351959 0.0026195397903253279 0 0.027495420704644349 0.0080459637499023604 0 0.023758728869695819 0.0040649738240607931 0 0.023933468550659476 0.002723466594926254 0 0.029148296380351959 0.0026195397903253279 0 0.02342535566158312 0.0031784898167676076 0 0.023272950323996025 0.00298171798337207 0 0.02324570990275841 0.0031936729642977908 0 0.029148296380351959 0.0026195397903253279 0 0.034603586573032995 0.0035130591160542771 0 0.027495420704644349 0.0080459637499023604 0 0.02342535566158312 0.0031784898167676076 0 0.02324570990275841 0.0031936729642977908 0 0.023898256726490111 0.0039702105291074116 0 0.026115185322336584 0.0029500993140991038 0 0.030688683860067227 0.0024380944847677702 0 0.024920808999959666 0.0037790242484009706 0 0.02342535566158312 0.0031784898167676076 0 0.023898256726490111 0.0039702105291074116 0 0.037320564626322286 -0.0021889199458678217 0 0.038102478871587457 -0.0024661691403744016 0 0.038258803689284443 -0.0022789741386810775 0 0.037943865969893166 -0.0023691015178117789 0 0.037320564626322286 -0.0021889199458678217 0 0.038102478871587457 -0.0024661691403744016 0 0.030688683860067227 0.0024380944847677702 0 0.037370925114355504 0.00030485004348716684 0 0.029135184259932452 0.0016512420257012975 0 0.037370925114355504 0.00030485004348716684 0 0.037370925114355504 0.00030485004348716684 0 0.04248800865446288 -0.001736636729360694 0 0.045566135756194469 -0.00048740699945411774 0 0.045353539160711609 -0.00046315892544102446 0 0.045688449223340991 -0.00075452721570924252 0 0.038102478871587457 -0.0024661691403744016 0 0.038258803689284443 -0.0022789741386810775 0 0.038402545359410192 -0.0028127894845448973 0 0.037943865969893166 -0.0023691015178117789 0 0.038102478871587457 -0.0024661691403744016 0 0.03896807222524229 -0.0025400262608557926 0 0.038102478871587457 -0.0024661691403744016 0 0.038402545359410192 -0.0028127894845448973 0 0.03896807222524229 -0.0025400262608557926 0 0.038402545359410192 -0.0028127894845448973 0 0.03896807222524229 -0.0025400262608557926 0 0.040715040581306164 -0.0024949204146445837 0 0.0437425514128175 -0.0014295974035954922 0 0.038402545359410192 -0.0028127894845448973 0 0.040715040581306164 -0.0024949204146445837 0 0.0437425514128175 -0.0014295974035954922 0 0.045353539160711609 -0.00046315892544102446 0 0.045478936035445776 -0.0010629192210911942 0 0.0437425514128175 -0.0014295974035954922 0 0.045478936035445776 -0.0010629192210911942 0 0.045648422753393481 -0.0014525532586057693 0 0.043127851942037901 -0.0015716517892131172 0 0.04248800865446288 -0.001736636729360694 0 0.0437425514128175 -0.0014295974035954922 0 0.045478540909479115 -0.0017169227367243799 0 0.045648422753393481 -0.0014525532586057693 0 0.045478936035445776 -0.0010629192210911942 0 0.045648422753393481 -0.0014525532586057693 0 0.045761460390246408 -0.0010298121851763933 0 0.045648422753393481 -0.0014525532586057693 0 0.045938220968391799 -0.00097715430670519319 0 0.04611393002088638 -0.0011713940463210304 0 0.045478540909479115 -0.0017169227367243799 0 0.045648422753393481 -0.0014525532586057693 0 0.04611393002088638 -0.0011713940463210304 0 0.045761460390246408 -0.0010298121851763933 0 0.045814869560561973 -0.00064106345799099234 0 0.045938220968391799 -0.00097715430670519319 0 0.045648422753393481 -0.0014525532586057693 0 0.045761460390246408 -0.0010298121851763933 0 0.045938220968391799 -0.00097715430670519319 0 0.045353539160711609 -0.00046315892544102446 0 0.045478936035445776 -0.0010629192210911942 0 0.045688449223340991 -0.00075452721570924252 0 0.045478936035445776 -0.0010629192210911942 0 0.045761460390246408 -0.0010298121851763933 0 0.045688449223340991 -0.00075452721570924252 0 0.045761460390246408 -0.0010298121851763933 0 0.045688449223340991 -0.00075452721570924252 0 0.045710560845959286 -0.00077123794992500967 0 0.045688449223340991 -0.00075452721570924252 0 0.045710560845959286 -0.00077123794992500967 0 0.045674261324027354 -0.00079264382281425021 0 0.045710560845959286 -0.00077123794992500967 0 0.045676333690321119 -0.0005128787980479085 0 0.045814869560561973 -0.00064106345799099234 0 0.045761460390246408 -0.0010298121851763933 0 0.045710560845959286 -0.00077123794992500967 0 0.045814869560561973 -0.00064106345799099234 0 0.045710560845959286 -0.00077123794992500967 0 0.045356550652577654 -0.00082741831185646894 0 0.045454947492912984 -0.00055659278904503012 0 0.045710560845959286 -0.00077123794992500967 0 0.045454947492912984 -0.00055659278904503012 0 0.045676333690321119 -0.0005128787980479085 0 0.045710560845959286 -0.00077123794992500967 0 0.045674261324027354 -0.00079264382281425021 0 0.045356550652577654 -0.00082741831185646894 0 0.040906301078776269 -0.00083231476436540508 0 0.039976295159061932 -0.00076996920250735899 0 0.034882741983191412 -0.00040658699960353933 0 0.034943627018966993 -0.00022822929396329404 0 0.035157368078005069 -0.00040005457031665892 0 0.034882741983191412 -0.00040658699960353933 0 0.035157368078005069 -0.00040005457031665892 0 0.035309764298159518 -0.00082876549195021415 0 0.037370925114355504 0.00030485004348716684 0 0.040906301078776269 -0.00083231476436540508 0 0.045566135756194469 -0.00048740699945411774 0 0.045688449223340991 -0.00075452721570924252 0 0.045674261324027354 -0.00079264382281425021 0 0.034946563384972561 -0.00021114406010381618 0 0.034790317842741107 -0.00024479201618504671 0 0.034943627018966993 -0.00022822929396329404 0 0.034882741983191412 -0.00040658699960353933 0 0.034790317842741107 -0.00024479201618504671 0 0.034943627018966993 -0.00022822929396329404 0 0.03483665811752807 -0.0002085892129193799 0 0.034882741983191412 -0.00040658699960353933 0 0.034790317842741107 -0.00024479201618504671 0 0.034651092720218858 -0.00040538953507682375 0 0.03483665811752807 -0.0002085892129193799 0 0.034790317842741107 -0.00024479201618504671 0 0.034853004602660574 -0.00025450841551251401 0 0.034683666290951695 -0.00030152734730302076 0 0.034957250337839314 -0.00023346950683394269 0 0.034946563384972561 -0.00021114406010381618 0 0.034943627018966993 -0.00022822929396329404 0 0.034957250337839314 -0.00023346950683394269 0 0.034943627018966993 -0.00022822929396329404 0 0.035014634736124629 -0.00015905180955975976 0 0.034943627018966993 -0.00022822929396329404 0 0.035014634736124629 -0.00015905180955975976 0 0.035157368078005069 -0.00040005457031665892 0 0.035014634736124629 -0.00015905180955975976 0 0.034672865757407904 -6.776328758865628e-05 0 0.03472193897275614 0.00019255028708927322 0 0.03510828322593644 -0.00019696694738662658 0 0.03491293429035687 1.6488857993961372e-05 0 0.03476749495571875 -0.0002694887080903977 0 0.034957250337839314 -0.00023346950683394269 0 0.035014634736124629 -0.00015905180955975976 0 0.03476749495571875 -0.0002694887080903977 0 0.035014634736124629 -0.00015905180955975976 0 0.034672865757407904 -6.776328758865628e-05 0 0.034672865757407904 -6.776328758865628e-05 0 0.034476251574589376 0.00017890305442110199 0 0.034429314608978169 -0.00018249138660596869 0 0.03476749495571875 -0.0002694887080903977 0 0.034672865757407904 -6.776328758865628e-05 0 0.034429314608978169 -0.00018249138660596869 0 0.034672865757407904 -6.776328758865628e-05 0 0.03472193897275614 0.00019255028708927322 0 0.034476251574589376 0.00017890305442110199 0 0.034812035272143195 0.00037428282627496406 0 0.037355976861211906 0.00033959616829276954 0 0.03491293429035687 1.6488857993961372e-05 0 0.037355976861211906 0.00033959616829276954 0 0.03472193897275614 0.00019255028708927322 0 0.034476251574589376 0.00017890305442110199 0 0.034470048639048616 0.00046425680098577377 0 0.03550163888935854 -0.00035394814608774431 0 0.035597740383043287 -0.00065635518610461323 0 0.035982540153926386 -0.00071612128018306849 0 0.03550163888935854 -0.00035394814608774431 0 0.035157368078005069 -0.00040005457031665892 0 0.035597740383043287 -0.00065635518610461323 0 0.035014634736124629 -0.00015905180955975976 0 0.03550163888935854 -0.00035394814608774431 0 0.035157368078005069 -0.00040005457031665892 0 0.035157368078005069 -0.00040005457031665892 0 0.035309764298159518 -0.00082876549195021415 0 0.035597740383043287 -0.00065635518610461323 0 0.045356550652577654 -0.00082741831185646894 0 0.045454947492912984 -0.00055659278904503012 0 0.04517672810395211 -0.00053828090669311916 0 0.045454947492912984 -0.00055659278904503012 0 0.04517672810395211 -0.00053828090669311916 0 0.045240216816081813 -0.00028632761408303004 0 0.045356550652577654 -0.00082741831185646894 0 0.04517672810395211 -0.00053828090669311916 0 0.044814885168063978 -0.00060605185492316929 0 0.04517672810395211 -0.00053828090669311916 0 0.044814885168063978 -0.00060605185492316929 0 0.044994077419436132 -0.00032918346073676155 0 0.039976295159061932 -0.00076996920250735899 0 0.041750927563504465 -0.00053595730948538772 0 0.035597740383043287 -0.00065635518610461323 0 0.035982540153926386 -0.00071612128018306849 0 0.036089396972916146 -0.0013227705770592754 0 0.035309764298159518 -0.00082876549195021415 0 0.035597740383043287 -0.00065635518610461323 0 0.036089396972916146 -0.0013227705770592754 0 0.037355976861211906 0.00033959616829276954 0 0.041750927563504465 -0.00053595730948538772 0 0.043827920333383029 0.0011229055456434339 0 0.044045533439670666 0.00095069013119447186 0 0.043969174884932412 0.00074221261423450518 0 0.034449145636421256 0.00051084815763005663 0 0.034255637822875766 0.00070535321730209215 0 0.034337913999679476 0.00022569767211946839 0 0.024348015942255014 0.00090711431204240427 0 0.023960887701298055 0.00065046170749463055 0 0.024378698338298595 0.00051087583932830428 0 0.034556636472548807 0.00092976144455754039 0 0.029024481525736133 0.00047042176681501486 0 0.037355976861211906 0.00033959616829276954 0 0.034556636472548807 0.00092976144455754039 0 0.034556636472548807 0.00092976144455754039 0 0.040544751113294315 0.00082196960767220821 0 0.044045533439670666 0.00095069013119447186 0 0.044139447836567557 0.00068134626374908376 0 0.044267536833878657 0.00056733881515227871 0 0.036244349386819585 0.0011801751407281074 0 0.036252634777271663 0.0011772054606311053 0 0.036281644540396736 0.0011767291207267917 0 0.044045533439670666 0.00095069013119447186 0 0.043969174884932412 0.00074221261423450518 0 0.044139447836567557 0.00068134626374908376 0 0.034556636472548807 0.00092976144455754039 0 0.028784274088030037 0.0020822041842900756 0 0.041750927563504465 -0.00053595730948538772 0 0.043070745446518698 -0.0004438829752677776 0 0.02372962739195203 0.00091043320364114593 0 0.024098169792640969 0.0011996724737697215 0 0.023960887701298055 0.00065046170749463055 0 0.024348015942255014 0.00090711431204240427 0 0.024098169792640969 0.0011996724737697215 0 0.023960887701298055 0.00065046170749463055 0 0.023465323345066312 0.00026636368989863853 0 0.023960887701298055 0.00065046170749463055 0 0.023876697043400352 0.00019330452867026511 0 0.023960887701298055 0.00065046170749463055 0 0.024378698338298595 0.00051087583932830428 0 0.023876697043400352 0.00019330452867026511 0 0.034476251574589376 0.00017890305442110199 0 0.034449145636421256 0.00051084815763005663 0 0.034337913999679476 0.00022569767211946839 0 0.024378698338298595 0.00051087583932830428 0 0.024469847099829179 2.6520042761194051e-05 0 0.023876697043400352 0.00019330452867026511 0 0.029024481525736133 0.00047042176681501486 0 0.029593830684195258 -0.0001162656373584114 0 0.024056425299274774 -0.00014399710101677116 0 0.024469847099829179 2.6520042761194051e-05 0 0.023876697043400352 0.00019330452867026511 0 0.034476251574589376 0.00017890305442110199 0 0.034337913999679476 0.00022569767211946839 0 0.034429314608978169 -0.00018249138660596869 0 0.023465323345066312 0.00026636368989863853 0 0.023501135037105051 -9.8090173284737245e-05 0 0.023876697043400352 0.00019330452867026511 0 0.023501135037105051 -9.8090173284737245e-05 0 0.024056425299274774 -0.00014399710101677116 0 0.023876697043400352 0.00019330452867026511 0 0.044706090883469489 -0.00026871839285998395 0 0.045000596193354198 -0.00040632510205003099 0 0.045007055236141076 5.0039351508312159e-08 0 0.044646591481126964 4.6513289440806317e-05 0 0.049073460277603585 0.00055625281959719472 0 0.044615663345749991 0.00094934048344685158 0 0.044402164301715737 0.00073576091627773242 0 0.044383193783207139 0.001199111149615544 0 0.044615663345749991 0.00094934048344685158 0 0.04487026301956043 0.0012160836964745134 0 0.044383193783207139 0.001199111149615544 0 0.044615663345749991 0.00094934048344685158 0 0.04487026301956043 0.0012160836964745134 0 0.045029592834985317 0.00085914587499939625 0 0.049647639100143998 0.0011852522379233797 0 0.049073460277603585 0.00055625281959719472 0 0.044615663345749991 0.00094934048344685158 0 0.044615716324202734 0.00059405742886415528 0 0.044402164301715737 0.00073576091627773242 0 0.044615663345749991 0.00094934048344685158 0 0.044615716324202734 0.00059405742886415528 0 0.045029592834985317 0.00085914587499939625 0 0.044615716324202734 0.00059405742886415528 0 0.044402164301715737 0.00073576091627773242 0 0.044449190230239202 0.0005039187462608642 0 0.044402164301715737 0.00073576091627773242 0 0.044387837020970114 0.00047296082040673557 0 0.044449190230239202 0.0005039187462608642 0 0.044646591481126964 4.6513289440806317e-05 0 0.042384035789776169 0.00084918885642400654 0 0.044608088874869029 -0.00060833556395001971 0 0.045000596193354198 -0.00040632510205003099 0 0.045016635127723831 -0.00081069560656063262 0 0.044608088874869029 -0.00060833556395001971 0 0.044706090883469489 -0.00026871839285998395 0 0.045000596193354198 -0.00040632510205003099 0 0.035570035456589731 -0.00058115413128089714 0 0.042384035789776169 0.00084918885642400654 0 0.04448754895406045 -0.0010822036014533389 0 0.044608088874869029 -0.00060833556395001971 0 0.045016635127723831 -0.00081069560656063262 0 0.036248850334849772 0.0011783013153555673 0 0.036252634777271663 0.0011772054606311053 0 0.036281644540396736 0.0011767291207267917 0 0.036248850334849772 0.0011783013153555673 0 0.036281644540396736 0.0011767291207267917 0 0.03632133652686758 0.0011983430588027939 0 0.035570035456589731 -0.00058115413128089714 0 0.028784274088030037 0.0020822041842900756 0 0.044139447836567557 0.00068134626374908376 0 0.044267536833878657 0.00056733881515227871 0 0.044305478332049543 0.0004743878230730271 0 0.040544751113294315 0.00082196960767220821 0 0.042384035789776169 0.00084918885642400654 0 0.041750927563504465 -0.00053595730948538772 0 0.044748266508723683 0.0003232780538788065 0 0.044267536833878657 0.00056733881515227871 0 0.044305478332049543 0.0004743878230730271 0 0.04441786446356441 0.00047981018742486117 0 0.044057455612233919 0.00071551498695644419 0 0.044139447836567557 0.00068134626374908376 0 0.044305478332049543 0.0004743878230730271 0 0.044615716324202734 0.00059405742886415528 0 0.04472843431370141 -8.618696193761297e-05 0 0.044974002379059103 0.00026019883677018901 0 0.044615716324202734 0.00059405742886415528 0 0.044305478332049543 0.0004743878230730271 0 0.044449190230239202 0.0005039187462608642 0 0.044548569847813121 0.00054699813422230529 0 0.044748266508723683 0.0003232780538788065 0 0.044305478332049543 0.0004743878230730271 0 0.04441786446356441 0.00047981018742486117 0 0.044449190230239202 0.0005039187462608642 0 0.042384035789776169 0.00084918885642400654 0 0.043390790704097383 0.0010740169840798579 0 0.044974002379059103 0.00026019883677018901 0 0.045291667725352876 7.9796816990392269e-05 0 0.045293172563411178 0.00054414239304410828 0 0.044974002379059103 0.00026019883677018901 0 0.04504594967719331 -6.6212263949751727e-05 0 0.045291667725352876 7.9796816990392269e-05 0 0.04472843431370141 -8.618696193761297e-05 0 0.044974002379059103 0.00026019883677018901 0 0.04504594967719331 -6.6212263949751727e-05 0 0.04472843431370141 -8.618696193761297e-05 0 0.04504594967719331 -6.6212263949751727e-05 0 0.044994077419436132 -0.00032918346073676155 0 0.044814885168063978 -0.00060605185492316929 0 0.04472843431370141 -8.618696193761297e-05 0 0.044994077419436132 -0.00032918346073676155 0 0.04504594967719331 -6.6212263949751727e-05 0 0.044994077419436132 -0.00032918346073676155 0 0.045240216816081813 -0.00028632761408303004 0 0.04504594967719331 -6.6212263949751727e-05 0 0.045240216816081813 -0.00028632761408303004 0 0.045291667725352876 7.9796816990392269e-05 0 0.04517672810395211 -0.00053828090669311916 0 0.044994077419436132 -0.00032918346073676155 0 0.045240216816081813 -0.00028632761408303004 0 0.045454947492912984 -0.00055659278904503012 0 0.045240216816081813 -0.00028632761408303004 0 0.04552018756906049 -0.00017028143918102203 0 0.045240216816081813 -0.00028632761408303004 0 0.04552018756906049 -0.00017028143918102203 0 0.045291667725352876 7.9796816990392269e-05 0 0.045291667725352876 7.9796816990392269e-05 0 0.045648337408616943 0.00028369381760431358 0 0.045293172563411178 0.00054414239304410828 0 0.04552018756906049 -0.00017028143918102203 0 0.045291667725352876 7.9796816990392269e-05 0 0.045648337408616943 0.00028369381760431358 0 0.045648337408616943 0.00028369381760431358 0 0.045293172563411178 0.00054414239304410828 0 0.045836648985135543 0.00067107848027136649 0 0.045293172563411178 0.00054414239304410828 0 0.045518615221139043 0.00083549371456427784 0 0.045836648985135543 0.00067107848027136649 0 0.045518615221139043 0.00083549371456427784 0 0.04601899460739324 0.00090105092190102614 0 0.045836648985135543 0.00067107848027136649 0 0.044974002379059103 0.00026019883677018901 0 0.045293172563411178 0.00054414239304410828 0 0.044952577214890453 0.0005653642501582015 0 0.044615716324202734 0.00059405742886415528 0 0.044974002379059103 0.00026019883677018901 0 0.044952577214890453 0.0005653642501582015 0 0.044615716324202734 0.00059405742886415528 0 0.044952577214890453 0.0005653642501582015 0 0.045029592834985317 0.00085914587499939625 0 0.045293172563411178 0.00054414239304410828 0 0.045029592834985317 0.00085914587499939625 0 0.045518615221139043 0.00083549371456427784 0 0.045293172563411178 0.00054414239304410828 0 0.044952577214890453 0.0005653642501582015 0 0.045029592834985317 0.00085914587499939625 0 0.049647639100143998 0.0011852522379233797 0 0.048221606767263572 0.0015088580553809449 0 0.04487026301956043 0.0012160836964745134 0 0.045029592834985317 0.00085914587499939625 0 0.045492418870173766 0.0012960931947823106 0 0.045492418870173766 0.0012960931947823106 0 0.045518615221139043 0.00083549371456427784 0 0.04601899460739324 0.00090105092190102614 0 0.045029592834985317 0.00085914587499939625 0 0.045492418870173766 0.0012960931947823106 0 0.045518615221139043 0.00083549371456427784 0 0.048221606767263572 0.0015088580553809449 0 0.046988736920874775 0.0012804066339821229 0 0.051005793907550931 0.0020018690060973981 0 0.046767481714176849 0.0011194382658648036 0 0.047407988849735509 0.00054356045205854577 0 0.045492418870173766 0.0012960931947823106 0 0.04601899460739324 0.00090105092190102614 0 0.046767481714176849 0.0011194382658648036 0 0.04601899460739324 0.00090105092190102614 0 0.046767481714176849 0.0011194382658648036 0 0.046259556533481509 0.00084211849984760113 0 0.046767481714176849 0.0011194382658648036 0 0.046175282391508386 0.00095994511164430375 0 0.046037719802242145 0.0012175307348332486 0 0.046767481714176849 0.0011194382658648036 0 0.046037719802242145 0.0012175307348332486 0 0.047407988849735509 0.00054356045205854577 0 0.050629942487797508 0.00034615114417536674 0 0.051100198822097043 0.00013957043558584985 0 0.046767481714176849 0.0011194382658648036 0 0.046175282391508386 0.00095994511164430375 0 0.046259556533481509 0.00084211849984760113 0 0.046175282391508386 0.00095994511164430375 0 0.046063897432861108 0.00062649357550870633 0 0.046259556533481509 0.00084211849984760113 0 0.046175282391508386 0.00095994511164430375 0 0.046063897432861108 0.00062649357550870633 0 0.046116235175420489 0.00044806213332080871 0 0.046063897432861108 0.00062649357550870633 0 0.045936789401077392 0.00052708809796415805 0 0.046259556533481509 0.00084211849984760113 0 0.045936789401077392 0.00052708809796415805 0 0.046259556533481509 0.00084211849984760113 0 0.045836648985135543 0.00067107848027136649 0 0.04601899460739324 0.00090105092190102614 0 0.046259556533481509 0.00084211849984760113 0 0.045836648985135543 0.00067107848027136649 0 0.045648337408616943 0.00028369381760431358 0 0.045936789401077392 0.00052708809796415805 0 0.045836648985135543 0.00067107848027136649 0 0.046063897432861108 0.00062649357550870633 0 0.045936789401077392 0.00052708809796415805 0 0.045803080784988827 1.8277491407493315e-05 0 0.045648337408616943 0.00028369381760431358 0 0.045936789401077392 0.00052708809796415805 0 0.045803080784988827 1.8277491407493315e-05 0 0.04552018756906049 -0.00017028143918102203 0 0.045648337408616943 0.00028369381760431358 0 0.045803080784988827 1.8277491407493315e-05 0 0.045454947492912984 -0.00055659278904503012 0 0.04552018756906049 -0.00017028143918102203 0 0.045676333690321119 -0.0005128787980479085 0 0.04552018756906049 -0.00017028143918102203 0 0.045803080784988827 1.8277491407493315e-05 0 0.045676333690321119 -0.0005128787980479085 0 0.045803080784988827 1.8277491407493315e-05 0 0.045814869560561973 -0.00064106345799099234 0 0.046024234599808762 -0.00022129033373829063 0 0.045803080784988827 1.8277491407493315e-05 0 0.045676333690321119 -0.0005128787980479085 0 0.045814869560561973 -0.00064106345799099234 0 0.045803080784988827 1.8277491407493315e-05 0 0.046116235175420489 0.00044806213332080871 0 0.046024234599808762 -0.00022129033373829063 0 0.046063897432861108 0.00062649357550870633 0 0.045803080784988827 1.8277491407493315e-05 0 0.046116235175420489 0.00044806213332080871 0 0.046116235175420489 0.00044806213332080871 0 0.046024234599808762 -0.00022129033373829063 0 0.046691512106827517 0.00051257708964658796 0 0.045814869560561973 -0.00064106345799099234 0 0.046024234599808762 -0.00022129033373829063 0 0.045938220968391799 -0.00097715430670519319 0 0.046024234599808762 -0.00022129033373829063 0 0.045938220968391799 -0.00097715430670519319 0 0.046604390992200991 -0.0003714292048057578 0 0.045938220968391799 -0.00097715430670519319 0 0.04611393002088638 -0.0011713940463210304 0 0.046604390992200991 -0.0003714292048057578 0 0.04611393002088638 -0.0011713940463210304 0 0.046604390992200991 -0.0003714292048057578 0 0.047176125342817357 -0.0007872358287566827 0 0.046604390992200991 -0.0003714292048057578 0 0.047525103679738986 0.00054274775215117197 0 0.047765814464790141 -2.0416800998492813e-05 0 0.046024234599808762 -0.00022129033373829063 0 0.046604390992200991 -0.0003714292048057578 0 0.046691512106827517 0.00051257708964658796 0 0.046604390992200991 -0.0003714292048057578 0 0.046691512106827517 0.00051257708964658796 0 0.047525103679738986 0.00054274775215117197 0 0.046691512106827517 0.00051257708964658796 0 0.047525103679738986 0.00054274775215117197 0 0.047191920218240209 0.00090973868775763892 0 0.047191920218240209 0.00090973868775763892 0 0.046890275273362494 0.001118796559228813 0 0.047751503585297797 0.0014240421049048538 0 0.047525103679738986 0.00054274775215117197 0 0.047191920218240209 0.00090973868775763892 0 0.047751503585297797 0.0014240421049048538 0 0.047530500512510641 0.0015472314459035142 0 0.046890275273362494 0.001118796559228813 0 0.046037719802242145 0.0012175307348332486 0 0.047530500512510641 0.0015472314459035142 0 0.046890275273362494 0.001118796559228813 0 0.047751503585297797 0.0014240421049048538 0 0.046691512106827517 0.00051257708964658796 0 0.046890275273362494 0.001118796559228813 0 0.046339894872678623 0.00091324613692193488 0 0.046691512106827517 0.00051257708964658796 0 0.047191920218240209 0.00090973868775763892 0 0.046890275273362494 0.001118796559228813 0 0.046890275273362494 0.001118796559228813 0 0.046339894872678623 0.00091324613692193488 0 0.046037719802242145 0.0012175307348332486 0 0.046116235175420489 0.00044806213332080871 0 0.046691512106827517 0.00051257708964658796 0 0.046339894872678623 0.00091324613692193488 0 0.046175282391508386 0.00095994511164430375 0 0.046116235175420489 0.00044806213332080871 0 0.046339894872678623 0.00091324613692193488 0 0.046175282391508386 0.00095994511164430375 0 0.046339894872678623 0.00091324613692193488 0 0.046037719802242145 0.0012175307348332486 0 0.054761864980058611 -0.0001262862873693011 0 0.054843765768122173 -0.0002055228559363174 0 0.054842367358679353 -0.00020163811381757046 0 0.050191605167064272 0.0024849188940818845 0 0.051657090713983736 0.00242737326715259 0 0.050933702111272058 0.0024603459388345319 0 0.050645901342888842 0.0015688861231951633 0 0.050629942487797508 0.00034615114417536674 0 0.054761864980058611 -0.0001262862873693011 0 0.054866083157558934 -0.00021405515038876947 0 0.054843765768122173 -0.0002055228559363174 0 0.050645901342888842 0.0015688861231951633 0 0.053419657307426809 0.00095012250510800975 0 0.054843765768122173 -0.0002055228559363174 0 0.054842367358679353 -0.00020163811381757046 0 0.054786202574928639 -0.00010531117456961947 0 0.051657090713983736 0.00242737326715259 0 0.05158719568535787 0.0022230467352264507 0 0.052026794108506261 0.0017784765046246541 0 0.051657090713983736 0.00242737326715259 0 0.05158719568535787 0.0022230467352264507 0 0.051351040945103336 0.0023664130344311211 0 0.054843765768122173 -0.0002055228559363174 0 0.054876992679875426 -0.00022034012518674714 0 0.054903391411344496 -0.00019118027645394681 0 0.054866083157558934 -0.00021405515038876947 0 0.054843765768122173 -0.0002055228559363174 0 0.054876992679875426 -0.00022034012518674714 0 0.054895800120675201 -0.00020557408498736223 0 0.054895021960185739 -0.00017689310540328413 0 0.054868251127994136 -0.00025433442203990394 0 0.054866083157558934 -0.00021405515038876947 0 0.054876992679875426 -0.00022034012518674714 0 0.054868251127994136 -0.00025433442203990394 0 0.054876992679875426 -0.00022034012518674714 0 0.054895800120675201 -0.00020557408498736223 0 0.054868251127994136 -0.00025433442203990394 0 0.054876992679875426 -0.00022034012518674714 0 0.054895800120675201 -0.00020557408498736223 0 0.054903391411344496 -0.00019118027645394681 0 0.054895800120675201 -0.00020557408498736223 0 0.054903391411344496 -0.00019118027645394681 0 0.054928392043344473 -0.00015985142098551411 0 0.054895800120675201 -0.00020557408498736223 0 0.054928392043344473 -0.00015985142098551411 0 0.054895021960185739 -0.00017689310540328413 0 0.054928392043344473 -0.00015985142098551411 0 0.054937168349136284 -0.00011192113805566948 0 0.054895021960185739 -0.00017689310540328413 0 0.054928392043344473 -0.00015985142098551411 0 0.054962586550179139 -0.00011073496793685462 0 0.054937168349136284 -0.00011192113805566948 0 0.054928392043344473 -0.00015985142098551411 0 0.054975843219598496 -0.00014468619696202966 0 0.054962586550179139 -0.00011073496793685462 0 0.053419657307426809 0.00095012250510800975 0 0.054516100375544586 0.00024703768156680698 0 0.051657090713983736 0.00242737326715259 0 0.053403200738946228 0.0011858604663728828 0 0.052026794108506261 0.0017784765046246541 0 0.054943268408431861 -0.00035125758954208556 0 0.054516100375544586 0.00024703768156680698 0 0.054843765768122173 -0.0002055228559363174 0 0.054903391411344496 -0.00019118027645394681 0 0.054975843219598496 -0.00014468619696202966 0 0.054903391411344496 -0.00019118027645394681 0 0.054928392043344473 -0.00015985142098551411 0 0.054975843219598496 -0.00014468619696202966 0 0.054950838926757652 0.00010816088171545818 0 0.054978841064601269 2.7150184715897874e-05 0 0.054985537363484063 3.0470544395119348e-05 0 0.053403200738946228 0.0011858604663728828 0 0.053447778828484546 0.00055756023380041427 0 0.051893744544879251 0.00096674096436411038 0 0.054516100375544586 0.00024703768156680698 0 0.05462634006561555 0.00012892895816676386 0 0.053403200738946228 0.0011858604663728828 0 0.054286039363850506 0.0001971095346832003 0 0.053447778828484546 0.00055756023380041427 0 0.054975843219598496 -0.00014468619696202966 0 0.055001468359384097 -5.6497007703905444e-05 0 0.054962586550179139 -0.00011073496793685462 0 0.054516100375544586 0.00024703768156680698 0 0.054985209545723543 -6.727871911037589e-05 0 0.05462634006561555 0.00012892895816676386 0 0.054999785336389662 -1.5559150049140317e-07 0 0.054286039363850506 0.0001971095346832003 0 0.054618905745372349 -3.0288509955416462e-05 0 0.05499818262798354 -2.6287587619188711e-07 0 0.054978841064601269 2.7150184715897874e-05 0 0.055000004962612592 -2.253836368836607e-08 0 0.05499939034887634 -1.0795767912497923e-06 0 0.054286039363850506 0.0001971095346832003 0 0.053447778828484546 0.00055756023380041427 0 0.054618905745372349 -3.0288509955416462e-05 0 0.055001468359384097 -5.6497007703905444e-05 0 0.05499939034887634 -1.0795767912497923e-06 0 0.054988299831339085 -2.8831682474637739e-05 0 0.054978841064601269 2.7150184715897874e-05 0 0.054985537363484063 3.0470544395119348e-05 0 0.05499939034887634 -1.0795767912497923e-06 0 0.054985209545723543 -6.727871911037589e-05 0 0.054992566912159035 1.2096177009704561e-05 0 0.05499939034887634 -1.0795767912497923e-06 0 0.054972961345218903 -2.7857908085392469e-05 0 0.054999922371594866 -8.2699406944688599e-09 0 0.055000004962612592 -2.253836368836607e-08 0 0.05499939034887634 -1.0795767912497923e-06 0 0.054999922371594866 -8.2699406944688599e-09 0 0.05499939034887634 -1.0795767912497923e-06 0 0.054988299831339085 -2.8831682474637739e-05 0 0.054972961345218903 -2.7857908085392469e-05 0 0.055001468359384097 -5.6497007703905444e-05 0 0.054988299831339085 -2.8831682474637739e-05 0 0.054968057318177332 -6.3481645854609103e-05 0 0.054988299831339085 -2.8831682474637739e-05 0 0.054972961345218903 -2.7857908085392469e-05 0 0.054968057318177332 -6.3481645854609103e-05 0 0.054972961345218903 -2.7857908085392469e-05 0 0.054943288229311479 -6.5118497822035923e-05 0 0.054968057318177332 -6.3481645854609103e-05 0 0.054943288229311479 -6.5118497822035923e-05 0 0.054968057318177332 -6.3481645854609103e-05 0 0.054937168349136284 -0.00011192113805566948 0 0.055001468359384097 -5.6497007703905444e-05 0 0.054968057318177332 -6.3481645854609103e-05 0 0.054962586550179139 -0.00011073496793685462 0 0.054968057318177332 -6.3481645854609103e-05 0 0.054962586550179139 -0.00011073496793685462 0 0.054937168349136284 -0.00011192113805566948 0 0.054943288229311479 -6.5118497822035923e-05 0 0.054937168349136284 -0.00011192113805566948 0 0.054897202001878732 -9.3161264240548684e-05 0 0.054897202001878732 -9.3161264240548684e-05 0 0.054938226123127168 -3.8029811096305989e-05 0 0.054860455661771029 -2.2664347569632626e-05 0 0.054943288229311479 -6.5118497822035923e-05 0 0.054897202001878732 -9.3161264240548684e-05 0 0.054938226123127168 -3.8029811096305989e-05 0 0.054972961345218903 -2.7857908085392469e-05 0 0.054943288229311479 -6.5118497822035923e-05 0 0.054938226123127168 -3.8029811096305989e-05 0 0.054972961345218903 -2.7857908085392469e-05 0 0.054938226123127168 -3.8029811096305989e-05 0 0.054999922371594866 -8.2699406944688599e-09 0 0.054938226123127168 -3.8029811096305989e-05 0 0.054999922371594866 -8.2699406944688599e-09 0 0.054860455661771029 -2.2664347569632626e-05 0 0.054999922371594866 -8.2699406944688599e-09 0 0.054860455661771029 -2.2664347569632626e-05 0 0.054999662765187508 9.3286630411041536e-09 0 0.054860455661771029 -2.2664347569632626e-05 0 0.0548142836332551 -0.000141861848284132 0 0.054655361088197997 -0.00010932136070611285 0 0.054897202001878732 -9.3161264240548684e-05 0 0.054860455661771029 -2.2664347569632626e-05 0 0.0548142836332551 -0.000141861848284132 0 0.0548142836332551 -0.000141861848284132 0 0.054724529887700213 -0.00023708340268059608 0 0.054655361088197997 -0.00010932136070611285 0 0.054724529887700213 -0.00023708340268059608 0 0.054470888276237764 -0.00021648807695825393 0 0.054655361088197997 -0.00010932136070611285 0 0.0548142836332551 -0.000141861848284132 0 0.05484627538825286 -0.00023329909893565024 0 0.054724529887700213 -0.00023708340268059608 0 0.054897202001878732 -9.3161264240548684e-05 0 0.0548142836332551 -0.000141861848284132 0 0.054895021960185739 -0.00017689310540328413 0 0.054937168349136284 -0.00011192113805566948 0 0.054897202001878732 -9.3161264240548684e-05 0 0.054895021960185739 -0.00017689310540328413 0 0.0548142836332551 -0.000141861848284132 0 0.054895021960185739 -0.00017689310540328413 0 0.05484627538825286 -0.00023329909893565024 0 0.054866083157558934 -0.00021405515038876947 0 0.054868251127994136 -0.00025433442203990394 0 0.054771505554153596 -0.00042847096653301912 0 0.05484627538825286 -0.00023329909893565024 0 0.054868251127994136 -0.00025433442203990394 0 0.054814429095072871 -0.00029770352376263376 0 0.054868251127994136 -0.00025433442203990394 0 0.054771505554153596 -0.00042847096653301912 0 0.054814429095072871 -0.00029770352376263376 0 0.054895021960185739 -0.00017689310540328413 0 0.05484627538825286 -0.00023329909893565024 0 0.054868251127994136 -0.00025433442203990394 0 0.054771505554153596 -0.00042847096653301912 0 0.054724529887700213 -0.00023708340268059608 0 0.054470888276237764 -0.00021648807695825393 0 0.054771505554153596 -0.00042847096653301912 0 0.054724529887700213 -0.00023708340268059608 0 0.054814429095072871 -0.00029770352376263376 0 0.05484627538825286 -0.00023329909893565024 0 0.054724529887700213 -0.00023708340268059608 0 0.054814429095072871 -0.00029770352376263376 0 0.051005793907550931 0.0020018690060973981 0 0.047407988849735509 0.00054356045205854577 0 0.053791941317005307 -0.00035880029890779402 0 0.051100198822097043 0.00013957043558584985 0 0.05356827817941618 -0.00038513702690585403 0 0.054771505554153596 -0.00042847096653301912 0 0.053791941317005307 -0.00035880029890779402 0 0.054470888276237764 -0.00021648807695825393 0 0.054409111839269733 0.0010810363811169974 0 0.053791941317005307 -0.00035880029890779402 0 0.054370550932477689 -7.1807557200265324e-05 0 0.054409111839269733 0.0010810363811169974 0 0.051005793907550931 0.0020018690060973981 0 0.053791941317005307 -0.00035880029890779402 0 0.053791941317005307 -0.00035880029890779402 0 0.054389582656367647 -0.00016535058423833637 0 0.054408187344519195 -0.00011083234265115997 0 0.053791941317005307 -0.00035880029890779402 0 0.054389582656367647 -0.00016535058423833637 0 0.054370550932477689 -7.1807557200265324e-05 0 0.054389582656367647 -0.00016535058423833637 0 0.054408187344519195 -0.00011083234265115997 0 0.054622145975158083 -8.8263349288265525e-05 0 0.054408187344519195 -0.00011083234265115997 0 0.054655361088197997 -0.00010932136070611285 0 0.054679704058074291 -5.3110380535818281e-05 0 0.053791941317005307 -0.00035880029890779402 0 0.054408187344519195 -0.00011083234265115997 0 0.054470888276237764 -0.00021648807695825393 0 0.054408187344519195 -0.00011083234265115997 0 0.054470888276237764 -0.00021648807695825393 0 0.054655361088197997 -0.00010932136070611285 0 0.054860455661771029 -2.2664347569632626e-05 0 0.054679704058074291 -5.3110380535818281e-05 0 0.05484297098834226 -2.3264786485710406e-05 0 0.054860455661771029 -2.2664347569632626e-05 0 0.054655361088197997 -0.00010932136070611285 0 0.054679704058074291 -5.3110380535818281e-05 0 0.054408187344519195 -0.00011083234265115997 0 0.054679704058074291 -5.3110380535818281e-05 0 0.054622145975158083 -8.8263349288265525e-05 0 0.054679704058074291 -5.3110380535818281e-05 0 0.05484297098834226 -2.3264786485710406e-05 0 0.054622145975158083 -8.8263349288265525e-05 0 0.054860455661771029 -2.2664347569632626e-05 0 0.054999662765187508 9.3286630411041536e-09 0 0.05484297098834226 -2.3264786485710406e-05 0 0.054999662765187508 9.3286630411041536e-09 0 0.05484297098834226 -2.3264786485710406e-05 0 0.054999785273416271 -3.8709332233039588e-08 0 0.05484297098834226 -2.3264786485710406e-05 0 0.054999785273416271 -3.8709332233039588e-08 0 0.054807261066050182 -7.6738985576174746e-05 0 0.05484297098834226 -2.3264786485710406e-05 0 0.054622145975158083 -8.8263349288265525e-05 0 0.054807261066050182 -7.6738985576174746e-05 0 0.054389582656367647 -0.00016535058423833637 0 0.054622145975158083 -8.8263349288265525e-05 0 0.054643029727120949 -0.00013353265126724576 0 0.054622145975158083 -8.8263349288265525e-05 0 0.054643029727120949 -0.00013353265126724576 0 0.054807261066050182 -7.6738985576174746e-05 0 0.054643029727120949 -0.00013353265126724576 0 0.054807261066050182 -7.6738985576174746e-05 0 0.054745819632423635 -0.00014083619428654928 0 0.054807261066050182 -7.6738985576174746e-05 0 0.054999537566481745 -9.0417777444377116e-08 0 0.054745819632423635 -0.00014083619428654928 0 0.054999785273416271 -3.8709332233039588e-08 0 0.054807261066050182 -7.6738985576174746e-05 0 0.054999537566481745 -9.0417777444377116e-08 0 0.054985670880688897 5.9661942785290034e-07 0 0.055000027093548752 2.1164586611255607e-08 0 0.055030735311970336 1.2705501679080768e-05 0 0.054989935142181583 1.6810542480122821e-05 0 0.054851715770558473 -0.00013757972164814614 0 0.054999980221849321 -1.0184216643394471e-08 0 0.055000027093548752 2.1164586611255607e-08 0 0.055030735311970336 1.2705501679080768e-05 0 0.055406757700919386 0.00011000944869602448 0 0.054851715770558473 -0.00013757972164814614 0 0.054643029727120949 -0.00013353265126724576 0 0.054745819632423635 -0.00014083619428654928 0 0.054746555606780545 -2.0742166953456331e-05 0 0.055074938091849761 -0.00026074634823441121 0 0.054896833322034065 -8.0328366332630538e-05 0 0.055030735311970336 1.2705501679080768e-05 0 0.054898220739590539 6.42478079697953e-05 0 0.054745819632423635 -0.00014083619428654928 0 0.054746555606780545 -2.0742166953456331e-05 0 0.054898220739590539 6.42478079697953e-05 0 0.054824182100447046 0.0001311928814769899 0 0.054746555606780545 -2.0742166953456331e-05 0 0.054898220739590539 6.42478079697953e-05 0 0.054824182100447046 0.0001311928814769899 0 0.054857100497224261 0.00022364347475309189 0 0.054754116684973896 0.00013305735177845059 0 0.054746555606780545 -2.0742166953456331e-05 0 0.054607016793671186 -5.2718835860639281e-05 0 0.054824182100447046 0.0001311928814769899 0 0.054754116684973896 0.00013305735177845059 0 0.054746555606780545 -2.0742166953456331e-05 0 0.054643029727120949 -0.00013353265126724576 0 0.054746555606780545 -2.0742166953456331e-05 0 0.054607016793671186 -5.2718835860639281e-05 0 0.054389582656367647 -0.00016535058423833637 0 0.054643029727120949 -0.00013353265126724576 0 0.054607016793671186 -5.2718835860639281e-05 0 0.054389582656367647 -0.00016535058423833637 0 0.054607016793671186 -5.2718835860639281e-05 0 0.054370550932477689 -7.1807557200265324e-05 0 0.054754116684973896 0.00013305735177845059 0 0.054607016793671186 -5.2718835860639281e-05 0 0.0546570037698497 0.00030379031445489839 0 0.054409111839269733 0.0010810363811169974 0 0.0546570037698497 0.00030379031445489839 0 0.054837174784026568 0.00045303256622250077 0 0.054409111839269733 0.0010810363811169974 0 0.0546570037698497 0.00030379031445489839 0 0.054370550932477689 -7.1807557200265324e-05 0 0.054754116684973896 0.00013305735177845059 0 0.0546570037698497 0.00030379031445489839 0 0.054772697355058513 0.00029043342679144809 0 0.054607016793671186 -5.2718835860639281e-05 0 0.0546570037698497 0.00030379031445489839 0 0.054370550932477689 -7.1807557200265324e-05 0 0.054804145134698078 0.00035098667294744822 0 0.054837174784026568 0.00045303256622250077 0 0.054772697355058513 0.00029043342679144809 0 0.05491191684198328 0.00032514882814252644 0 0.054804145134698078 0.00035098667294744822 0 0.054857100497224261 0.00022364347475309189 0 0.05491191684198328 0.00032514882814252644 0 0.054804145134698078 0.00035098667294744822 0 0.05478234525613649 0.00037561203828763597 0 0.0546570037698497 0.00030379031445489839 0 0.054837174784026568 0.00045303256622250077 0 0.054772697355058513 0.00029043342679144809 0 0.050334728321546916 -0.00077952970977386202 0 0.049073460277603585 0.00055625281959719472 0 0.049943896297670473 0.00020438715602555862 0 0.049073460277603585 0.00055625281959719472 0 0.054804145134698078 0.00035098667294744822 0 0.054857100497224261 0.00022364347475309189 0 0.054806275220199187 0.00022532367210247289 0 0.054824182100447046 0.0001311928814769899 0 0.054857100497224261 0.00022364347475309189 0 0.054806275220199187 0.00022532367210247289 0 0.054824182100447046 0.0001311928814769899 0 0.054754116684973896 0.00013305735177845059 0 0.054806275220199187 0.00022532367210247289 0 0.054754116684973896 0.00013305735177845059 0 0.054772697355058513 0.00029043342679144809 0 0.054806275220199187 0.00022532367210247289 0 0.054804145134698078 0.00035098667294744822 0 0.054772697355058513 0.00029043342679144809 0 0.054806275220199187 0.00022532367210247289 0 0.054258722883690512 9.3321915733571501e-05 0 0.053904167513470061 0.00026476808731021626 0 0.054461236903475228 0.00011473724862899395 0 0.054254100644225846 -6.7998283309433187e-05 0 0.054258722883690512 9.3321915733571501e-05 0 0.054369828357999861 -7.9878388887611522e-05 0 0.054254100644225846 -6.7998283309433187e-05 0 0.054064448072122226 -1.1748823447355582e-06 0 0.054258722883690512 9.3321915733571501e-05 0 0.054064448072122226 -1.1748823447355582e-06 0 0.053709830843074818 9.0385430791801018e-05 0 0.053904167513470061 0.00026476808731021626 0 0.054064448072122226 -1.1748823447355582e-06 0 0.054258722883690512 9.3321915733571501e-05 0 0.053904167513470061 0.00026476808731021626 0 0.054258722883690512 9.3321915733571501e-05 0 0.054369828357999861 -7.9878388887611522e-05 0 0.054510379756451857 6.7021469802068105e-05 0 0.054397076200960917 -8.7944804847446905e-05 0 0.054475257524242961 -0.00012230003413145658 0 0.054369828357999861 -7.9878388887611522e-05 0 0.054703873485253129 1.1885184480795888e-06 0 0.054510379756451857 6.7021469802068105e-05 0 0.054369828357999861 -7.9878388887611522e-05 0 0.054222094649252039 -0.00018349542645199664 0 0.054251959356920357 -0.00027096237705946701 0 0.054369828357999861 -7.9878388887611522e-05 0 0.054222094649252039 -0.00018349542645199664 0 0.054202307853377492 -0.00013391633687994257 0 0.054369828357999861 -7.9878388887611522e-05 0 0.054245102590989441 -0.00017406621511113581 0 0.054202307853377492 -0.00013391633687994257 0 0.054254100644225846 -6.7998283309433187e-05 0 0.054369828357999861 -7.9878388887611522e-05 0 0.054245102590989441 -0.00017406621511113581 0 0.054245102590989441 -0.00017406621511113581 0 0.054202307853377492 -0.00013391633687994257 0 0.054167163439891905 -0.00016453005621481611 0 0.054202307853377492 -0.00013391633687994257 0 0.054120630649049921 -0.00012274105536382862 0 0.054146995730175937 -7.4183323878535391e-05 0 0.054202307853377492 -0.00013391633687994257 0 0.054167163439891905 -0.00016453005621481611 0 0.054120630649049921 -0.00012274105536382862 0 0.054167163439891905 -0.00016453005621481611 0 0.054120630649049921 -0.00012274105536382862 0 0.054009342258040514 -0.00011587315220582053 0 0.054120630649049921 -0.00012274105536382862 0 0.054009342258040514 -0.00011587315220582053 0 0.054146995730175937 -7.4183323878535391e-05 0 0.054009342258040514 -0.00011587315220582053 0 0.053927232826586076 -0.00053218445558743312 0 0.050602958549320023 -0.00075890357697847336 0 0.055527444091396934 6.4618912665631136e-05 0 0.048406114482849372 -0.00056590542753876764 0 0.054245102590989441 -0.00017406621511113581 0 0.054167163439891905 -0.00016453005621481611 0 0.054254231981035198 -0.00039506124885308863 0 0.048026019404943728 3.2319002610764612e-05 0 0.048406114482849372 -0.00056590542753876764 0 0.054167163439891905 -0.00016453005621481611 0 0.054009342258040514 -0.00011587315220582053 0 0.054254231981035198 -0.00039506124885308863 0 0.054245102590989441 -0.00017406621511113581 0 0.054254231981035198 -0.00039506124885308863 0 0.054193951100339345 -0.00025952609098236606 0 0.053996093081638073 -0.0009145411557832338 0 0.054254231981035198 -0.00039506124885308863 0 0.054090962411459796 -0.0005626503391455215 0 0.051147511138432723 -0.00097955913069633057 0 0.048406114482849372 -0.00056590542753876764 0 0.054254231981035198 -0.00039506124885308863 0 0.054193951100339345 -0.00025952609098236606 0 0.054090962411459796 -0.0005626503391455215 0 0.054254100644225846 -6.7998283309433187e-05 0 0.054245102590989441 -0.00017406621511113581 0 0.054193951100339345 -0.00025952609098236606 0 0.054254100644225846 -6.7998283309433187e-05 0 0.054064448072122226 -1.1748823447355582e-06 0 0.054193951100339345 -0.00025952609098236606 0 0.054064448072122226 -1.1748823447355582e-06 0 0.053947517703193233 -0.00034861845620313953 0 0.053709830843074818 9.0385430791801018e-05 0 0.054064448072122226 -1.1748823447355582e-06 0 0.054193951100339345 -0.00025952609098236606 0 0.053947517703193233 -0.00034861845620313953 0 0.053947517703193233 -0.00034861845620313953 0 0.053481002094508769 -0.00046270436934007505 0 0.053709830843074818 9.0385430791801018e-05 0 0.053947517703193233 -0.00034861845620313953 0 0.053794306433325952 -0.00067904700142686362 0 0.053481002094508769 -0.00046270436934007505 0 0.054193951100339345 -0.00025952609098236606 0 0.053947517703193233 -0.00034861845620313953 0 0.054090962411459796 -0.0005626503391455215 0 0.053947517703193233 -0.00034861845620313953 0 0.053794306433325952 -0.00067904700142686362 0 0.054090962411459796 -0.0005626503391455215 0 0.053996093081638073 -0.0009145411557832338 0 0.053794306433325952 -0.00067904700142686362 0 0.054090962411459796 -0.0005626503391455215 0 0.053996093081638073 -0.0009145411557832338 0 0.053794306433325952 -0.00067904700142686362 0 0.053405444174597652 -0.00096261831697134267 0 0.052778600425133437 -0.0018428365301956004 0 0.053996093081638073 -0.0009145411557832338 0 0.053405444174597652 -0.00096261831697134267 0 0.053794306433325952 -0.00067904700142686362 0 0.053405444174597652 -0.00096261831697134267 0 0.053481002094508769 -0.00046270436934007505 0 0.053405444174597652 -0.00096261831697134267 0 0.053481002094508769 -0.00046270436934007505 0 0.052751130376678841 -0.00078033144992345211 0 0.052778600425133437 -0.0018428365301956004 0 0.053405444174597652 -0.00096261831697134267 0 0.052751130376678841 -0.00078033144992345211 0 0.052778600425133437 -0.0018428365301956004 0 0.052751130376678841 -0.00078033144992345211 0 0.051438584028512063 -0.00064703577618013808 0 0.050040178978988069 -0.0025151903497264614 0 0.052778600425133437 -0.0018428365301956004 0 0.051438584028512063 -0.00064703577618013808 0 0.051438584028512063 -0.00064703577618013808 0 0.052985850871995567 0.00048739703441163222 0 0.050650763873371057 0.00049191199883563382 0 0.052985850871995567 0.00048739703441163222 0 0.050650763873371057 0.00049191199883563382 0 0.050623467467918445 0.0016659470634001147 0 0.052751130376678841 -0.00078033144992345211 0 0.051438584028512063 -0.00064703577618013808 0 0.052985850871995567 0.00048739703441163222 0 0.053481002094508769 -0.00046270436934007505 0 0.052751130376678841 -0.00078033144992345211 0 0.052985850871995567 0.00048739703441163222 0 0.053481002094508769 -0.00046270436934007505 0 0.052985850871995567 0.00048739703441163222 0 0.053709830843074818 9.0385430791801018e-05 0 0.046604390992200991 -0.0003714292048057578 0 0.047176125342817357 -0.0007872358287566827 0 0.047765814464790141 -2.0416800998492813e-05 0 0.045478540909479115 -0.0017169227367243799 0 0.04611393002088638 -0.0011713940463210304 0 0.047176125342817357 -0.0007872358287566827 0 0.045478540909479115 -0.0017169227367243799 0 0.047176125342817357 -0.0007872358287566827 0 0.048730222979345116 -0.0010988008825278726 0 0.047176125342817357 -0.0007872358287566827 0 0.048730222979345116 -0.0010988008825278726 0 0.049031317388923697 -1.925900547812069e-05 0 0.047176125342817357 -0.0007872358287566827 0 0.049031317388923697 -1.925900547812069e-05 0 0.047765814464790141 -2.0416800998492813e-05 0 0.050040178978988069 -0.0025151903497264614 0 0.051438584028512063 -0.00064703577618013808 0 0.048730222979345116 -0.0010988008825278726 0 0.051438584028512063 -0.00064703577618013808 0 0.048730222979345116 -0.0010988008825278726 0 0.049031317388923697 -1.925900547812069e-05 0 0.051438584028512063 -0.00064703577618013808 0 0.050650763873371057 0.00049191199883563382 0 0.049031317388923697 -1.925900547812069e-05 0 0.050650763873371057 0.00049191199883563382 0 0.048902206661730667 0.00066089957785705447 0 0.04981497083534827 0.0015758803995900024 0 0.050650763873371057 0.00049191199883563382 0 0.049031317388923697 -1.925900547812069e-05 0 0.048902206661730667 0.00066089957785705447 0 0.049031317388923697 -1.925900547812069e-05 0 0.048902206661730667 0.00066089957785705447 0 0.047765814464790141 -2.0416800998492813e-05 0 0.047525103679738986 0.00054274775215117197 0 0.048902206661730667 0.00066089957785705447 0 0.047765814464790141 -2.0416800998492813e-05 0 0.047525103679738986 0.00054274775215117197 0 0.048902206661730667 0.00066089957785705447 0 0.048723931338406773 0.0012152505553537165 0 0.047466133137386735 0.0030350322987295563 0 0.047751503585297797 0.0014240421049048538 0 0.049514313229094664 0.0022371717475111194 0 0.050645901342888842 0.0015688861231951633 0 0.049265174685921551 0.0022595901924850918 0 0.050191605167064272 0.0024849188940818845 0 0.049514313229094664 0.0022371717475111194 0 0.050315252642672288 0.0024780710196539869 0 0.050645901342888842 0.0015688861231951633 0 0.049539065160150192 0.0019095164962504929 0 0.047525103679738986 0.00054274775215117197 0 0.047751503585297797 0.0014240421049048538 0 0.048723931338406773 0.0012152505553537165 0 0.047751503585297797 0.0014240421049048538 0 0.048723931338406773 0.0012152505553537165 0 0.049514313229094664 0.0022371717475111194 0 0.048902206661730667 0.00066089957785705447 0 0.048723931338406773 0.0012152505553537165 0 0.04981497083534827 0.0015758803995900024 0 0.048723931338406773 0.0012152505553537165 0 0.049514313229094664 0.0022371717475111194 0 0.04981497083534827 0.0015758803995900024 0 0.049514313229094664 0.0022371717475111194 0 0.04981497083534827 0.0015758803995900024 0 0.050411799530690783 0.0025006105472643383 0 0.04981497083534827 0.0015758803995900024 0 0.050623467467918445 0.0016659470634001147 0 0.050411799530690783 0.0025006105472643383 0 0.050650763873371057 0.00049191199883563382 0 0.04981497083534827 0.0015758803995900024 0 0.050623467467918445 0.0016659470634001147 0 0.050623467467918445 0.0016659470634001147 0 0.050411799530690783 0.0025006105472643383 0 0.051040257497907998 0.0026225096875280569 0 0.050411799530690783 0.0025006105472643383 0 0.051040257497907998 0.0026225096875280569 0 0.050627756938648606 0.0024085915190063174 0 0.050411799530690783 0.0025006105472643383 0 0.050710453148134785 0.002499010206532776 0 0.050627756938648606 0.0024085915190063174 0 0.052598051123230218 0.0013535142099011732 0 0.052635210143610951 0.0012582915157571411 0 0.050191605167064272 0.0024849188940818845 0 0.050315252642672288 0.0024780710196539869 0 0.050933702111272058 0.0024603459388345319 0 0.050411799530690783 0.0025006105472643383 0 0.050315252642672288 0.0024780710196539869 0 0.050710453148134785 0.002499010206532776 0 0.049514313229094664 0.0022371717475111194 0 0.050411799530690783 0.0025006105472643383 0 0.050315252642672288 0.0024780710196539869 0 0.050315252642672288 0.0024780710196539869 0 0.050710453148134785 0.002499010206532776 0 0.050933702111272058 0.0024603459388345319 0 0.052985850871995567 0.00048739703441163222 0 0.053709830843074818 9.0385430791801018e-05 0 0.053904167513470061 0.00026476808731021626 0 0.052985850871995567 0.00048739703441163222 0 0.050623467467918445 0.0016659470634001147 0 0.051040257497907998 0.0026225096875280569 0 0.053005750620852971 0.00048943641010394548 0 0.052598051123230218 0.0013535142099011732 0 0.052985850871995567 0.00048739703441163222 0 0.054082632715341396 0.00029840457852579839 0 0.053904167513470061 0.00026476808731021626 0 0.054082632715341396 0.00029840457852579839 0 0.053904167513470061 0.00026476808731021626 0 0.05431712532241071 0.0001543010827806576 0 0.053904167513470061 0.00026476808731021626 0 0.05431712532241071 0.0001543010827806576 0 0.054461236903475228 0.00011473724862899395 0 0.054082632715341396 0.00029840457852579839 0 0.05431712532241071 0.0001543010827806576 0 0.054568805386553981 0.00013587268428874661 0 0.05431712532241071 0.0001543010827806576 0 0.054568805386553981 0.00013587268428874661 0 0.054652667063512912 2.9424658567406343e-05 0 0.054652667063512912 2.9424658567406343e-05 0 0.054753932743527578 4.1505255771796907e-05 0 0.054461236903475228 0.00011473724862899395 0 0.05431712532241071 0.0001543010827806576 0 0.054652667063512912 2.9424658567406343e-05 0 0.054461236903475228 0.00011473724862899395 0 0.051249153800168028 0.0023176379007809537 0 0.050627756938648606 0.0024085915190063174 0 0.052026794108506261 0.0017784765046246541 0 0.051249153800168028 0.0023176379007809537 0 0.05158719568535787 0.0022230467352264507 0 0.052026794108506261 0.0017784765046246541 0 0.051657090713983736 0.00242737326715259 0 0.050933702111272058 0.0024603459388345319 0 0.051351040945103336 0.0023664130344311211 0 0.051249153800168028 0.0023176379007809537 0 0.05158719568535787 0.0022230467352264507 0 0.051351040945103336 0.0023664130344311211 0 0.050933702111272058 0.0024603459388345319 0 0.051249153800168028 0.0023176379007809537 0 0.051351040945103336 0.0023664130344311211 0 0.050710453148134785 0.002499010206532776 0 0.050933702111272058 0.0024603459388345319 0 0.051249153800168028 0.0023176379007809537 0 0.050710453148134785 0.002499010206532776 0 0.051249153800168028 0.0023176379007809537 0 0.050627756938648606 0.0024085915190063174 0 0.054568805386553981 0.00013587268428874661 0 0.054796925343037636 -3.244130969245113e-05 0 0.054652667063512912 2.9424658567406343e-05 0 0.053403200738946228 0.0011858604663728828 0 0.052026794108506261 0.0017784765046246541 0 0.051893744544879251 0.00096674096436411038 0 0.050627756938648606 0.0024085915190063174 0 0.052026794108506261 0.0017784765046246541 0 0.051893744544879251 0.00096674096436411038 0 0.052635210143610951 0.0012582915157571411 0 0.053386594108096819 0.00054987254570304067 0 0.054369417673007882 4.3993695650143437e-05 0 0.053386594108096819 0.00054987254570304067 0 0.054618905745372349 -3.0288509955416462e-05 0 0.054796925343037636 -3.244130969245113e-05 0 0.054845116760276667 -3.4015018256714512e-05 0 0.053447778828484546 0.00055756023380041427 0 0.054618905745372349 -3.0288509955416462e-05 0 0.051893744544879251 0.00096674096436411038 0 0.054796925343037636 -3.244130969245113e-05 0 0.05486519483731906 -1.5508563186091612e-05 0 0.054652667063512912 2.9424658567406343e-05 0 0.054796925343037636 -3.244130969245113e-05 0 0.05486519483731906 -1.5508563186091612e-05 0 0.054845116760276667 -3.4015018256714512e-05 0 0.054999872271612911 1.3467830992076028e-07 0 0.05486519483731906 -1.5508563186091612e-05 0 0.054845116760276667 -3.4015018256714512e-05 0 0.054999872271612911 1.3467830992076028e-07 0 0.05486519483731906 -1.5508563186091612e-05 0 0.054999659918796351 -5.6324154711110144e-08 0 0.054618905745372349 -3.0288509955416462e-05 0 0.054999872271612911 1.3467830992076028e-07 0 0.054845116760276667 -3.4015018256714512e-05 0 0.054618905745372349 -3.0288509955416462e-05 0 0.05499818262798354 -2.6287587619188711e-07 0 0.054999872271612911 1.3467830992076028e-07 0 0.054652667063512912 2.9424658567406343e-05 0 0.054999659918796351 -5.6324154711110144e-08 0 0.054753932743527578 4.1505255771796907e-05 0 0.05486519483731906 -1.5508563186091612e-05 0 0.054652667063512912 2.9424658567406343e-05 0 0.054999659918796351 -5.6324154711110144e-08 0 0.054999659918796351 -5.6324154711110144e-08 0 0.054999703232814313 5.7642156818630051e-08 0 0.054753932743527578 4.1505255771796907e-05 0 0.054999703232814313 5.7642156818630051e-08 0 0.054798048759107224 5.4377291735428788e-05 0 0.054753932743527578 4.1505255771796907e-05 0 0.054999703232814313 5.7642156818630051e-08 0 0.054798048759107224 5.4377291735428788e-05 0 0.054999749555801135 6.8123276550463355e-08 0 0.054798048759107224 5.4377291735428788e-05 0 0.054753932743527578 4.1505255771796907e-05 0 0.054461236903475228 0.00011473724862899395 0 0.054461236903475228 0.00011473724862899395 0 0.054510379756451857 6.7021469802068105e-05 0 0.054736871105083254 7.6207541459672872e-05 0 0.054798048759107224 5.4377291735428788e-05 0 0.054461236903475228 0.00011473724862899395 0 0.054736871105083254 7.6207541459672872e-05 0 0.054258722883690512 9.3321915733571501e-05 0 0.054461236903475228 0.00011473724862899395 0 0.054510379756451857 6.7021469802068105e-05 0 0.054703873485253129 1.1885184480795888e-06 0 0.054761265987519389 5.871932675375035e-05 0 0.054871913003474049 3.7408922276445317e-05 0 0.054475257524242961 -0.00012230003413145658 0 0.054547601469395662 -0.00011755782723746645 0 0.054703873485253129 1.1885184480795888e-06 0 0.054510379756451857 6.7021469802068105e-05 0 0.054761265987519389 5.871932675375035e-05 0 0.054510379756451857 6.7021469802068105e-05 0 0.054736871105083254 7.6207541459672872e-05 0 0.054761265987519389 5.871932675375035e-05 0 0.054736871105083254 7.6207541459672872e-05 0 0.054761265987519389 5.871932675375035e-05 0 0.054886515870801837 5.4844792125806035e-05 0 0.054761265987519389 5.871932675375035e-05 0 0.054886515870801837 5.4844792125806035e-05 0 0.054871913003474049 3.7408922276445317e-05 0 0.054798048759107224 5.4377291735428788e-05 0 0.054736871105083254 7.6207541459672872e-05 0 0.054999749555801135 6.8123276550463355e-08 0 0.054736871105083254 7.6207541459672872e-05 0 0.054886515870801837 5.4844792125806035e-05 0 0.054999749555801135 6.8123276550463355e-08 0 0.054886515870801837 5.4844792125806035e-05 0 0.054999749555801135 6.8123276550463355e-08 0 0.055000011351358943 5.97154447637454e-08 0 0.054886515870801837 5.4844792125806035e-05 0 0.055000011351358943 5.97154447637454e-08 0 0.054958238295154546 3.9937123801626151e-05 0 0.054663110703322922 -7.0402939159226863e-05 0 0.054874690275594454 2.1649344499789788e-06 0 0.054958238295154546 3.9937123801626151e-05 0 0.054999540514469772 -1.9754784552994371e-08 0 0.054929336646626525 7.4476732252953693e-06 0 0.055000011351358943 5.97154447637454e-08 0 0.054958238295154546 3.9937123801626151e-05 0 0.054999540514469772 -1.9754784552994371e-08 0 0.054886515870801837 5.4844792125806035e-05 0 0.054958238295154546 3.9937123801626151e-05 0 0.054871913003474049 3.7408922276445317e-05 0 0.054999534666375888 -6.576494559022425e-08 0 0.054929336646626525 7.4476732252953693e-06 0 0.05474122021148576 -8.5145208276657028e-05 0 0.054999534666375888 -6.576494559022425e-08 0 0.05474122021148576 -8.5145208276657028e-05 0 0.054756905162881918 -7.6731030749256149e-05 0 0.054342562707757919 -0.00015684962033128615 0 0.054929336646626525 7.4476732252953693e-06 0 0.054629443498155593 -0.00012494790327917117 0 0.054999534666375888 -6.576494559022425e-08 0 0.054999540514469772 -1.9754784552994371e-08 0 0.054929336646626525 7.4476732252953693e-06 0 0.054929336646626525 7.4476732252953693e-06 0 0.054629443498155593 -0.00012494790327917117 0 0.05474122021148576 -8.5145208276657028e-05 0 0.054342562707757919 -0.00015684962033128615 0 0.054629443498155593 -0.00012494790327917117 0 0.054435540764963465 -0.00023304684010293588 0 0.054629443498155593 -0.00012494790327917117 0 0.054523454379865097 -0.00019482079792327491 0 0.054435540764963465 -0.00023304684010293588 0 0.05474122021148576 -8.5145208276657028e-05 0 0.054756905162881918 -7.6731030749256149e-05 0 0.05455793270323258 -0.0001693217296809713 0 0.054629443498155593 -0.00012494790327917117 0 0.05474122021148576 -8.5145208276657028e-05 0 0.054523454379865097 -0.00019482079792327491 0 0.05474122021148576 -8.5145208276657028e-05 0 0.054523454379865097 -0.00019482079792327491 0 0.05455793270323258 -0.0001693217296809713 0 0.054523454379865097 -0.00019482079792327491 0 0.054267914118910229 -0.00031296695147711565 0 0.054345764986002375 -0.00026819305422316178 0 0.054523454379865097 -0.00019482079792327491 0 0.054345764986002375 -0.00026819305422316178 0 0.05455793270323258 -0.0001693217296809713 0 0.054523454379865097 -0.00019482079792327491 0 0.054435540764963465 -0.00023304684010293588 0 0.054267914118910229 -0.00031296695147711565 0 0.054435540764963465 -0.00023304684010293588 0 0.054267914118910229 -0.00031296695147711565 0 0.054279389130508643 -0.00030306953102846778 0 0.054267914118910229 -0.00031296695147711565 0 0.054279389130508643 -0.00030306953102846778 0 0.054131631306318824 -0.0003321703390972794 0 0.054267914118910229 -0.00031296695147711565 0 0.054131631306318824 -0.0003321703390972794 0 0.054001636522393405 -0.00035957674325960058 0 0.054267914118910229 -0.00031296695147711565 0 0.054001636522393405 -0.00035957674325960058 0 0.054107276761151131 -0.00035488084611534052 0 0.054267914118910229 -0.00031296695147711565 0 0.054107276761151131 -0.00035488084611534052 0 0.054345764986002375 -0.00026819305422316178 0 0.054663110703322922 -7.0402939159226863e-05 0 0.054547601469395662 -0.00011755782723746645 0 0.054342562707757919 -0.00015684962033128615 0 0.054215994017292053 -0.00028459332292684111 0 0.054279389130508643 -0.00030306953102846778 0 0.054342562707757919 -0.00015684962033128615 0 0.054435540764963465 -0.00023304684010293588 0 0.054279389130508643 -0.00030306953102846778 0 0.054215994017292053 -0.00028459332292684111 0 0.054279389130508643 -0.00030306953102846778 0 0.05418960117762197 -0.00029040242635592337 0 0.054279389130508643 -0.00030306953102846778 0 0.05418960117762197 -0.00029040242635592337 0 0.054131631306318824 -0.0003321703390972794 0 0.054251959356920357 -0.00027096237705946701 0 0.054215994017292053 -0.00028459332292684111 0 0.05418960117762197 -0.00029040242635592337 0 0.054222094649252039 -0.00018349542645199664 0 0.054173670839652042 -0.00017188789888064639 0 0.05418960117762197 -0.00029040242635592337 0 0.054222094649252039 -0.00018349542645199664 0 0.054251959356920357 -0.00027096237705946701 0 0.05418960117762197 -0.00029040242635592337 0 0.054222094649252039 -0.00018349542645199664 0 0.054202307853377492 -0.00013391633687994257 0 0.054173670839652042 -0.00017188789888064639 0 0.054173670839652042 -0.00017188789888064639 0 0.054096897341880536 -0.00027407820481631145 0 0.054110428150089013 -7.7527850559048288e-05 0 0.054096897341880536 -0.00027407820481631145 0 0.05418960117762197 -0.00029040242635592337 0 0.054131631306318824 -0.0003321703390972794 0 0.054173670839652042 -0.00017188789888064639 0 0.054096897341880536 -0.00027407820481631145 0 0.05418960117762197 -0.00029040242635592337 0 0.054096897341880536 -0.00027407820481631145 0 0.054131631306318824 -0.0003321703390972794 0 0.05392759897049363 -0.00030707769815125366 0 0.054131631306318824 -0.0003321703390972794 0 0.054001636522393405 -0.00035957674325960058 0 0.05392759897049363 -0.00030707769815125366 0 0.054001636522393405 -0.00035957674325960058 0 0.05392759897049363 -0.00030707769815125366 0 0.053680181849986797 -0.0003096425423314264 0 0.05392759897049363 -0.00030707769815125366 0 0.053949784466904273 -0.00019506976365657157 0 0.053532202377684947 -0.00014885751268019519 0 0.05392759897049363 -0.00030707769815125366 0 0.053532202377684947 -0.00014885751268019519 0 0.053680181849986797 -0.0003096425423314264 0 0.054096897341880536 -0.00027407820481631145 0 0.05392759897049363 -0.00030707769815125366 0 0.053949784466904273 -0.00019506976365657157 0 0.054096897341880536 -0.00027407820481631145 0 0.053949784466904273 -0.00019506976365657157 0 0.054110428150089013 -7.7527850559048288e-05 0 0.053949784466904273 -0.00019506976365657157 0 0.053532202377684947 -0.00014885751268019519 0 0.053826241610744209 0.00024262760522022179 0 0.053949784466904273 -0.00019506976365657157 0 0.053826241610744209 0.00024262760522022179 0 0.054110428150089013 -7.7527850559048288e-05 0 0.053532202377684947 -0.00014885751268019519 0 0.053826241610744209 0.00024262760522022179 0 0.052623898989748924 0.0002138980177249198 0 0.051675096713633184 0.00049997473533474463 0 0.052535297605729732 0.0002906548616948987 0 0.049669118326702802 0.00084795866753419741 0 0.052623898989748924 0.0002138980177249198 0 0.05124088274257188 -0.0010593070414695513 0 0.051675096713633184 0.00049997473533474463 0 0.050416801904495379 0.00043896217342964477 0 0.053826241610744209 0.00024262760522022179 0 0.054188334232180398 -9.7459587391414764e-06 0 0.054110428150089013 -7.7527850559048288e-05 0 0.049669118326702802 0.00084795866753419741 0 0.046445400704157799 0.0009425280033477266 0 0.047145019716954048 -0.00084308047098301362 0 0.054009342258040514 -0.00011587315220582053 0 0.054188334232180398 -9.7459587391414764e-06 0 0.054146995730175937 -7.4183323878535391e-05 0 0.054009342258040514 -0.00011587315220582053 0 0.053927232826586076 -0.00053218445558743312 0 0.054188334232180398 -9.7459587391414764e-06 0 0.048026019404943728 3.2319002610764612e-05 0 0.050416801904495379 0.00043896217342964477 0 0.04333327372831916 0.00055731313720339647 0 0.046445400704157799 0.0009425280033477266 0 0.044574961097522521 -0.0006419905941782648 0 0.054202307853377492 -0.00013391633687994257 0 0.054173670839652042 -0.00017188789888064639 0 0.054146995730175937 -7.4183323878535391e-05 0 0.054173670839652042 -0.00017188789888064639 0 0.054146995730175937 -7.4183323878535391e-05 0 0.054110428150089013 -7.7527850559048288e-05 0 0.054188334232180398 -9.7459587391414764e-06 0 0.054146995730175937 -7.4183323878535391e-05 0 0.054110428150089013 -7.7527850559048288e-05 0 0.053007723445404963 -0.00028527693071313563 0 0.053068587363867548 -0.00021901409027840377 0 0.053066099677938246 -0.00013696225085089598 0 0.053007723445404963 -0.00028527693071313563 0 0.052845268319186643 -0.00035816067481764702 0 0.053066099677938246 -0.00013696225085089598 0 0.053068587363867548 -0.00021901409027840377 0 0.053041229560268278 -0.0002552114413148392 0 0.053101510689324609 -0.00031417191580382229 0 0.053007723445404963 -0.00028527693071313563 0 0.053068587363867548 -0.00021901409027840377 0 0.053101510689324609 -0.00031417191580382229 0 0.053007723445404963 -0.00028527693071313563 0 0.052963504714349907 -0.00051482817408263074 0 0.053101510689324609 -0.00031417191580382229 0 0.052963504714349907 -0.00051482817408263074 0 0.053101510689324609 -0.00031417191580382229 0 0.052957875624649993 -0.00085192492765024405 0 0.053007723445404963 -0.00028527693071313563 0 0.052963504714349907 -0.00051482817408263074 0 0.052845268319186643 -0.00035816067481764702 0 0.052845268319186643 -0.00035816067481764702 0 0.052623898989748924 0.0002138980177249198 0 0.053066099677938246 -0.00013696225085089598 0 0.052845268319186643 -0.00035816067481764702 0 0.052623898989748924 0.0002138980177249198 0 0.052436339422036099 -0.00082474852239765241 0 0.053532202377684947 -0.00014885751268019519 0 0.052623898989748924 0.0002138980177249198 0 0.053254355139968443 -0.00016812336439743722 0 0.052623898989748924 0.0002138980177249198 0 0.053066099677938246 -0.00013696225085089598 0 0.053254355139968443 -0.00016812336439743722 0 0.053336605964664899 -0.00023942994898580461 0 0.053254355139968443 -0.00016812336439743722 0 0.053623146568023104 -0.00034336997373106068 0 0.053066099677938246 -0.00013696225085089598 0 0.053336605964664899 -0.00023942994898580461 0 0.053254355139968443 -0.00016812336439743722 0 0.053254355139968443 -0.00016812336439743722 0 0.053680181849986797 -0.0003096425423314264 0 0.053623146568023104 -0.00034336997373106068 0 0.053532202377684947 -0.00014885751268019519 0 0.053254355139968443 -0.00016812336439743722 0 0.053680181849986797 -0.0003096425423314264 0 0.053680181849986797 -0.0003096425423314264 0 0.053842205371641902 -0.0003842946187213905 0 0.053623146568023104 -0.00034336997373106068 0 0.054001636522393405 -0.00035957674325960058 0 0.053680181849986797 -0.0003096425423314264 0 0.053842205371641902 -0.0003842946187213905 0 0.053842205371641902 -0.0003842946187213905 0 0.053623146568023104 -0.00034336997373106068 0 0.053850208297450096 -0.00042809709681954235 0 0.053842205371641902 -0.0003842946187213905 0 0.053850208297450096 -0.00042809709681954235 0 0.054019251129685579 -0.00039512628278371868 0 0.054001636522393405 -0.00035957674325960058 0 0.053842205371641902 -0.0003842946187213905 0 0.054107276761151131 -0.00035488084611534052 0 0.053336605964664899 -0.00023942994898580461 0 0.053516344885087268 -0.00035372275816297771 0 0.053623146568023104 -0.00034336997373106068 0 0.053516344885087268 -0.00035372275816297771 0 0.053623146568023104 -0.00034336997373106068 0 0.053865890249680214 -0.00051626656376373983 0 0.053623146568023104 -0.00034336997373106068 0 0.053850208297450096 -0.00042809709681954235 0 0.053865890249680214 -0.00051626656376373983 0 0.053850208297450096 -0.00042809709681954235 0 0.053865890249680214 -0.00051626656376373983 0 0.054019251129685579 -0.00039512628278371868 0 0.053865890249680214 -0.00051626656376373983 0 0.05423542032126473 -0.00058318205859348013 0 0.054371813216965929 -0.00047728745391434319 0 0.053516344885087268 -0.00035372275816297771 0 0.053865890249680214 -0.00051626656376373983 0 0.053430442994624398 -0.00057124141143138039 0 0.05386621910952713 -0.00072109228333329541 0 0.053732097502612854 -0.00083945943495631042 0 0.053732097502612854 -0.00083945943495631042 0 0.053763532393898507 -0.00097844060202736385 0 0.05423542032126473 -0.00058318205859348013 0 0.054432010982859713 -0.00050135350799299485 0 0.054371813216965929 -0.00047728745391434319 0 0.053430442994624398 -0.00057124141143138039 0 0.053257716904741847 -0.00031063983206574105 0 0.053042266402182091 -0.00035066363542545832 0 0.053732097502612854 -0.00083945943495631042 0 0.053471704965535501 -0.00074136995260640974 0 0.053982327820891726 -0.0013851005944618816 0 0.052807571671427689 -0.00088406266177321101 0 0.052906437575877513 -0.0015179935151027417 0 0.053516344885087268 -0.00035372275816297771 0 0.053430442994624398 -0.00057124141143138039 0 0.053257716904741847 -0.00031063983206574105 0 0.053336605964664899 -0.00023942994898580461 0 0.053516344885087268 -0.00035372275816297771 0 0.053257716904741847 -0.00031063983206574105 0 0.053336605964664899 -0.00023942994898580461 0 0.053257716904741847 -0.00031063983206574105 0 0.053162349117290363 -0.00022022345147645019 0 0.053068587363867548 -0.00021901409027840377 0 0.053066099677938246 -0.00013696225085089598 0 0.053162349117290363 -0.00022022345147645019 0 0.053257716904741847 -0.00031063983206574105 0 0.053103837685326012 -0.00026228529563604355 0 0.053162349117290363 -0.00022022345147645019 0 0.053257716904741847 -0.00031063983206574105 0 0.053103837685326012 -0.00026228529563604355 0 0.053042266402182091 -0.00035066363542545832 0 0.053068587363867548 -0.00021901409027840377 0 0.053103837685326012 -0.00026228529563604355 0 0.053162349117290363 -0.00022022345147645019 0 0.053066099677938246 -0.00013696225085089598 0 0.053336605964664899 -0.00023942994898580461 0 0.053162349117290363 -0.00022022345147645019 0 0.053041229560268278 -0.0002552114413148392 0 0.053042266402182091 -0.00035066363542545832 0 0.052999192406031057 -0.00026877683904629287 0 0.053041229560268278 -0.0002552114413148392 0 0.052999192406031057 -0.00026877683904629287 0 0.053101510689324609 -0.00031417191580382229 0 0.053068587363867548 -0.00021901409027840377 0 0.053103837685326012 -0.00026228529563604355 0 0.053041229560268278 -0.0002552114413148392 0 0.053103837685326012 -0.00026228529563604355 0 0.053041229560268278 -0.0002552114413148392 0 0.053042266402182091 -0.00035066363542545832 0 0.052807571671427689 -0.00088406266177321101 0 0.052103719597181776 -0.0011455420546854968 0 0.051625936206752474 -0.0004270596065316626 0 0.053763532393898507 -0.00097844060202736385 0 0.052681335934105976 -0.0013459522278095545 0 0.052906437575877513 -0.0015179935151027417 0 0.052103719597181776 -0.0011455420546854968 0 0.05139603925970497 -0.0016983451108835358 0 0.053471704965535501 -0.00074136995260640974 0 0.048751940825026367 -0.0013477334688377588 0 0.052807571671427689 -0.00088406266177321101 0 0.052906437575877513 -0.0015179935151027417 0 0.052103719597181776 -0.0011455420546854968 0 0.054432010982859713 -0.00050135350799299485 0 0.054371813216965929 -0.00047728745391434319 0 0.054427243705005471 -0.00050088079688589678 0 0.054432010982859713 -0.00050135350799299485 0 0.054414630368758925 -0.00049983854252993955 0 0.054397734338441597 -0.00049382848960094028 0 0.054432010982859713 -0.00050135350799299485 0 0.054427243705005471 -0.00050088079688589678 0 0.054414630368758925 -0.00049983854252993955 0 0.054372198796514559 -0.00049348437773619137 0 0.054721960349028459 -0.00033226409163149225 0 0.054371813216965929 -0.00047728745391434319 0 0.054539353833614274 -0.00025602443032458677 0 0.054898449242190499 -0.00023167587974058722 0 0.054371813216965929 -0.00047728745391434319 0 0.054539353833614274 -0.00025602443032458677 0 0.054206026932565279 -0.0003731451691330277 0 0.054539353833614274 -0.00025602443032458677 0 0.054898449242190499 -0.00023167587974058722 0 0.054739481330207944 -0.00010778106881568571 0 0.054539353833614274 -0.00025602443032458677 0 0.054552646916677806 -0.00017375684619447897 0 0.054739481330207944 -0.00010778106881568571 0 0.054898449242190499 -0.00023167587974058722 0 0.054930449977133623 -5.7219477320681063e-05 0 0.054739481330207944 -0.00010778106881568571 0 0.054107276761151131 -0.00035488084611534052 0 0.054248224856718527 -0.00030349845003763333 0 0.054345764986002375 -0.00026819305422316178 0 0.054107276761151131 -0.00035488084611534052 0 0.054248224856718527 -0.00030349845003763333 0 0.054019251129685579 -0.00039512628278371868 0 0.053842205371641902 -0.0003842946187213905 0 0.054107276761151131 -0.00035488084611534052 0 0.054019251129685579 -0.00039512628278371868 0 0.054308446411377394 -0.00028669051253601833 0 0.054019251129685579 -0.00039512628278371868 0 0.054206026932565279 -0.0003731451691330277 0 0.054248224856718527 -0.00030349845003763333 0 0.054308446411377394 -0.00028669051253601833 0 0.054019251129685579 -0.00039512628278371868 0 0.053865890249680214 -0.00051626656376373983 0 0.054019251129685579 -0.00039512628278371868 0 0.054206026932565279 -0.0003731451691330277 0 0.053865890249680214 -0.00051626656376373983 0 0.054371813216965929 -0.00047728745391434319 0 0.054206026932565279 -0.0003731451691330277 0 0.054539353833614274 -0.00025602443032458677 0 0.054308446411377394 -0.00028669051253601833 0 0.054206026932565279 -0.0003731451691330277 0 0.054539353833614274 -0.00025602443032458677 0 0.054308446411377394 -0.00028669051253601833 0 0.054552646916677806 -0.00017375684619447897 0 0.054308446411377394 -0.00028669051253601833 0 0.054552646916677806 -0.00017375684619447897 0 0.054485219196447943 -0.00019332541664736081 0 0.054248224856718527 -0.00030349845003763333 0 0.054308446411377394 -0.00028669051253601833 0 0.054485219196447943 -0.00019332541664736081 0 0.054248224856718527 -0.00030349845003763333 0 0.054485219196447943 -0.00019332541664736081 0 0.054345764986002375 -0.00026819305422316178 0 0.054485219196447943 -0.00019332541664736081 0 0.054345764986002375 -0.00026819305422316178 0 0.05455793270323258 -0.0001693217296809713 0 0.054485219196447943 -0.00019332541664736081 0 0.054756905162881918 -7.6731030749256149e-05 0 0.05455793270323258 -0.0001693217296809713 0 0.054485219196447943 -0.00019332541664736081 0 0.054756905162881918 -7.6731030749256149e-05 0 0.054736429655529349 -7.7767378733331361e-05 0 0.054552646916677806 -0.00017375684619447897 0 0.054485219196447943 -0.00019332541664736081 0 0.054736429655529349 -7.7767378733331361e-05 0 0.054552646916677806 -0.00017375684619447897 0 0.054736429655529349 -7.7767378733331361e-05 0 0.054739481330207944 -0.00010778106881568571 0 0.054756905162881918 -7.6731030749256149e-05 0 0.054736429655529349 -7.7767378733331361e-05 0 0.054999682228068017 -1.2678169647699572e-08 0 0.054999534666375888 -6.576494559022425e-08 0 0.054756905162881918 -7.6731030749256149e-05 0 0.054999682228068017 -1.2678169647699572e-08 0 0.054736429655529349 -7.7767378733331361e-05 0 0.054739481330207944 -0.00010778106881568571 0 0.05488124379614312 -3.088605426108456e-05 0 0.054930449977133623 -5.7219477320681063e-05 0 0.054739481330207944 -0.00010778106881568571 0 0.05488124379614312 -3.088605426108456e-05 0 0.054736429655529349 -7.7767378733331361e-05 0 0.054999682228068017 -1.2678169647699572e-08 0 0.05488124379614312 -3.088605426108456e-05 0 0.054999682228068017 -1.2678169647699572e-08 0 0.05488124379614312 -3.088605426108456e-05 0 0.054999882775727031 5.3695837224330229e-10 0 0.054930449977133623 -5.7219477320681063e-05 0 0.05488124379614312 -3.088605426108456e-05 0 0.054999882775727031 5.3695837224330229e-10 0 0.054930449977133623 -5.7219477320681063e-05 0 0.054999882775727031 5.3695837224330229e-10 0 0.054992502923640454 -2.3363853073027803e-05 0 0.054992502923640454 -2.3363853073027803e-05 0 0.055036803431563135 -8.0578364071578007e-05 0 0.055000099908682758 -1.0647999476064474e-08 0 0.054999882775727031 5.3695837224330229e-10 0 0.054992502923640454 -2.3363853073027803e-05 0 0.055000099908682758 -1.0647999476064474e-08 0 0.054930449977133623 -5.7219477320681063e-05 0 0.054992502923640454 -2.3363853073027803e-05 0 0.055036803431563135 -8.0578364071578007e-05 0 0.054898449242190499 -0.00023167587974058722 0 0.054930449977133623 -5.7219477320681063e-05 0 0.055036803431563135 -8.0578364071578007e-05 0 0.054361355849612977 -0.00038294295037621777 0 0.054158286600687548 -0.00024844058669318064 0 0.052684809133952522 -0.00081689787700851791 0 0.053452438609943774 -0.00030654094392128559 0 0.0532623732045924 -0.0011450492607135887 0 0.054974030879444358 -3.3190145253402479e-05 0 0.054999951136525747 -8.5959015608857785e-09 0 0.054999121211630947 -1.2055735160140901e-05 0 0.054361355849612977 -0.00038294295037621777 0 0.055000405096418147 5.9090366841511073e-07 0 0.054158286600687548 -0.00024844058669318064 0 0.054999697293747124 -7.8553426144820051e-09 0 0.054999951136525747 -8.5959015608857785e-09 0 0.054999121211630947 -1.2055735160140901e-05 0 0.055000028590553772 -3.9109463606962482e-09 0 0.053452438609943774 -0.00030654094392128559 0 0.054996879655666693 3.322790137844519e-07 0 0.053893610319117283 -0.00068264500594874265 0 0.054996879655666693 3.322790137844519e-07 0 0.054559884572237809 -0.00032279881217936224 0 0.055000209753941966 -2.938327867584626e-07 0 0.054996879655666693 3.322790137844519e-07 0 0.054559884572237809 -0.00032279881217936224 0 0.053893610319117283 -0.00068264500594874265 0 0.054559884572237809 -0.00032279881217936224 0 0.053893610319117283 -0.00068264500594874265 0 0.054030521680411558 -0.00089244434273240989 0 0.053452438609943774 -0.00030654094392128559 0 0.053893610319117283 -0.00068264500594874265 0 0.0532623732045924 -0.0011450492607135887 0 0.0532623732045924 -0.0011450492607135887 0 0.053465795674545305 -0.0013826408976417546 0 0.052970404314448896 -0.0018490983946890607 0 0.053893610319117283 -0.00068264500594874265 0 0.0532623732045924 -0.0011450492607135887 0 0.053465795674545305 -0.0013826408976417546 0 0.0532623732045924 -0.0011450492607135887 0 0.052970404314448896 -0.0018490983946890607 0 0.052904236427345354 -0.0015051466523529648 0 0.053893610319117283 -0.00068264500594874265 0 0.053465795674545305 -0.0013826408976417546 0 0.054030521680411558 -0.00089244434273240989 0 0.053465795674545305 -0.0013826408976417546 0 0.054030521680411558 -0.00089244434273240989 0 0.053619577977907375 -0.0016501420791908085 0 0.053465795674545305 -0.0013826408976417546 0 0.052970404314448896 -0.0018490983946890607 0 0.053132618681946263 -0.0020857011501143308 0 0.053465795674545305 -0.0013826408976417546 0 0.053619577977907375 -0.0016501420791908085 0 0.053132618681946263 -0.0020857011501143308 0 0.053619577977907375 -0.0016501420791908085 0 0.053400635935283811 -0.0022621461160689457 0 0.053132618681946263 -0.0020857011501143308 0 0.052950308826528437 -0.0018386351262054471 0 0.052464295217554559 -0.0018666986217489867 0 0.052464295217554559 -0.0018666986217489867 0 0.052681335934105976 -0.0013459522278095545 0 0.052853264613138225 -0.0017903234761951999 0 0.052482902031651554 -0.0018304460508582472 0 0.05255910459585604 -0.0014106956227341425 0 0.052970404314448896 -0.0018490983946890607 0 0.052853264613138225 -0.0017903234761951999 0 0.052904236427345354 -0.0015051466523529648 0 0.052853264613138225 -0.0017903234761951999 0 0.05255910459585604 -0.0014106956227341425 0 0.052904236427345354 -0.0015051466523529648 0 0.054414630368758925 -0.00049983854252993955 0 0.054397734338441597 -0.00049382848960094028 0 0.054394466286385758 -0.00050911360588425808 0 0.052681335934105976 -0.0013459522278095545 0 0.053473838058636473 -0.00097721628297530849 0 0.054427243705005471 -0.00050088079688589678 0 0.054414630368758925 -0.00049983854252993955 0 0.054394466286385758 -0.00050911360588425808 0 0.054361355849612977 -0.00038294295037621777 0 0.053473838058636473 -0.00097721628297530849 0 0.054721960349028459 -0.00033226409163149225 0 0.054361355849612977 -0.00038294295037621777 0 0.054427243705005471 -0.00050088079688589678 0 0.054387281551302027 -0.00054016978139804844 0 0.054394466286385758 -0.00050911360588425808 0 0.052684809133952522 -0.00081689787700851791 0 0.05255910459585604 -0.0014106956227341425 0 0.052904236427345354 -0.0015051466523529648 0 0.052684809133952522 -0.00081689787700851791 0 0.0532623732045924 -0.0011450492607135887 0 0.052904236427345354 -0.0015051466523529648 0 0.054785229094143462 -9.6724333245376854e-05 0 0.054442899060062021 -0.00025306476086375362 0 0.054929006939325072 -7.7236568345146896e-05 0 0.054999426714993221 3.0356753095400106e-08 0 0.054785229094143462 -9.6724333245376854e-05 0 0.054929006939325072 -7.7236568345146896e-05 0 0.054999426714993221 3.0356753095400106e-08 0 0.055000251680722569 -6.4500247625488421e-08 0 0.054929006939325072 -7.7236568345146896e-05 0 0.054999426714993221 3.0356753095400106e-08 0 0.054785229094143462 -9.6724333245376854e-05 0 0.054839390589939301 -9.7010707731956977e-05 0 0.054785229094143462 -9.6724333245376854e-05 0 0.054839390589939301 -9.7010707731956977e-05 0 0.054442899060062021 -0.00025306476086375362 0 0.054839390589939301 -9.7010707731956977e-05 0 0.053950700145584167 -0.00024691973184464436 0 0.054442899060062021 -0.00025306476086375362 0 0.054751318291991286 -0.00017319519126396334 0 0.054358476247759871 -0.00061981417476993832 0 0.054839390589939301 -9.7010707731956977e-05 0 0.05459832164998972 -0.00044389402933702572 0 0.054825364839633572 -0.00091127256806743356 0 0.054839390589939301 -9.7010707731956977e-05 0 0.055000209753941966 -2.938327867584626e-07 0 0.05459832164998972 -0.00044389402933702572 0 0.054999426714993221 3.0356753095400106e-08 0 0.054839390589939301 -9.7010707731956977e-05 0 0.055000209753941966 -2.938327867584626e-07 0 0.054559884572237809 -0.00032279881217936224 0 0.055000209753941966 -2.938327867584626e-07 0 0.05459832164998972 -0.00044389402933702572 0 0.054559884572237809 -0.00032279881217936224 0 0.054030521680411558 -0.00089244434273240989 0 0.05459832164998972 -0.00044389402933702572 0 0.054030521680411558 -0.00089244434273240989 0 0.05459832164998972 -0.00044389402933702572 0 0.054222489704231686 -0.0010868848458922341 0 0.054030521680411558 -0.00089244434273240989 0 0.053619577977907375 -0.0016501420791908085 0 0.054222489704231686 -0.0010868848458922341 0 0.05459832164998972 -0.00044389402933702572 0 0.054222489704231686 -0.0010868848458922341 0 0.054825364839633572 -0.00091127256806743356 0 0.053619577977907375 -0.0016501420791908085 0 0.054222489704231686 -0.0010868848458922341 0 0.054239022877560369 -0.0019055662839280285 0 0.053619577977907375 -0.0016501420791908085 0 0.054239022877560369 -0.0019055662839280285 0 0.053400635935283811 -0.0022621461160689457 0 0.052972306230172121 -0.00089700968465573666 0 0.053950700145584167 -0.00024691973184464436 0 0.053955777604123054 -0.00076468562258887507 0 0.053592319409762904 -0.0014131467236210514 0 0.054358476247759871 -0.00061981417476993832 0 0.054222489704231686 -0.0010868848458922341 0 0.054239022877560369 -0.0019055662839280285 0 0.054825364839633572 -0.00091127256806743356 0 0.053950700145584167 -0.00024691973184464436 0 0.054442899060062021 -0.00025306476086375362 0 0.053955777604123054 -0.00076468562258887507 0 0.054442899060062021 -0.00025306476086375362 0 0.053955777604123054 -0.00076468562258887507 0 0.054642665265488305 -0.00048317006433146864 0 0.052972306230172121 -0.00089700968465573666 0 0.053955777604123054 -0.00076468562258887507 0 0.053985344893095734 -0.0014896546197384257 0 0.053955777604123054 -0.00076468562258887507 0 0.054642665265488305 -0.00048317006433146864 0 0.053985344893095734 -0.0014896546197384257 0 0.053394861595930675 -0.00078671563406038103 0 0.051859735026542723 -0.0017561238918449005 0 0.049906677902026096 -0.0014369298881739914 0 0.049926323845476843 -0.0017468871043044279 0 0.050184899238660902 -0.0016777364056719431 0 0.049906677902026096 -0.0014369298881739914 0 0.049926323845476843 -0.0017468871043044279 0 0.049704919964388014 -0.0018808547957029176 0 0.053394861595930675 -0.00078671563406038103 0 0.055054630863065952 5.7605427294152997e-05 0 0.054442899060062021 -0.00025306476086375362 0 0.054696233513972799 -0.00046529175099630719 0 0.054929006939325072 -7.7236568345146896e-05 0 0.05461242413753823 -0.00049455600865470927 0 0.053394861595930675 -0.00078671563406038103 0 0.04272131300234807 -0.0012730253285278827 0 0.043022519934071614 3.0892351026832522e-05 0 0.042090547678312329 -0.00030617065994458577 0 0.049847218699932194 -0.0020012491564031132 0 0.049926323845476843 -0.0017468871043044279 0 0.050184899238660902 -0.0016777364056719431 0 0.049847218699932194 -0.0020012491564031132 0 0.049926323845476843 -0.0017468871043044279 0 0.049704919964388014 -0.0018808547957029176 0 0.053985344893095734 -0.0014896546197384257 0 0.052520994968386393 -0.0023842114870852144 0 0.052918424178288091 -0.0030333739369822347 0 0.051859735026542723 -0.0017561238918449005 0 0.049916948589990399 -0.0024188973140189252 0 0.049847218699932194 -0.0020012491564031132 0 0.049704919964388014 -0.0018808547957029176 0 0.049524814284006867 -0.0023252891408347839 0 0.045159673300945308 -0.0017663243346885983 0 0.049916948589990399 -0.0024188973140189252 0 0.052520994968386393 -0.0023842114870852144 0 0.052032506098945795 -0.0019679660020069747 0 0.051799915116749959 -0.0028954725974568293 0 0.053985344893095734 -0.0014896546197384257 0 0.052520994968386393 -0.0023842114870852144 0 0.052032506098945795 -0.0019679660020069747 0 0.053592319409762904 -0.0014131467236210514 0 0.052535425939313235 -0.0023451623865998503 0 0.052972306230172121 -0.00089700968465573666 0 0.053985344893095734 -0.0014896546197384257 0 0.052032506098945795 -0.0019679660020069747 0 0.053400635935283811 -0.0022621461160689457 0 0.053180423984794736 -0.0028094726331744429 0 0.052789046956988217 -0.0026643901771074199 0 0.054239022877560369 -0.0019055662839280285 0 0.053400635935283811 -0.0022621461160689457 0 0.053180423984794736 -0.0028094726331744429 0 0.052353722611893416 -0.0030255467007420014 0 0.053180423984794736 -0.0028094726331744429 0 0.05112927678520561 -0.0032126140264784305 0 0.052353722611893416 -0.0030255467007420014 0 0.053180423984794736 -0.0028094726331744429 0 0.052789046956988217 -0.0026643901771074199 0 0.052535425939313235 -0.0023451623865998503 0 0.051445230066172361 -0.0031183898766420103 0 0.052353722611893416 -0.0030255467007420014 0 0.05112927678520561 -0.0032126140264784305 0 0.052616117504534717 -0.0029054739680775881 0 0.050642185934081735 -0.0032189847389859768 0 0.049536711834408768 -0.0025883660173713192 0 0.05112927678520561 -0.0032126140264784305 0 0.050660253160886584 -0.0032954831294702927 0 0.052616117504534717 -0.0029054739680775881 0 0.052032506098945795 -0.0019679660020069747 0 0.05112927678520561 -0.0032126140264784305 0 0.051799915116749959 -0.0028954725974568293 0 0.05112927678520561 -0.0032126140264784305 0 0.051215989483695726 -0.0032294609621014206 0 0.051799915116749959 -0.0028954725974568293 0 0.05112927678520561 -0.0032126140264784305 0 0.051215989483695726 -0.0032294609621014206 0 0.050660253160886584 -0.0032954831294702927 0 0.042602114667651916 0.002928104921715872 0 0.041785916809740441 0.001067416114413096 0 0.050660253160886584 -0.0032954831294702927 0 0.051720411634046178 -0.0051010124281189321 0 0.047958152242856572 -0.0060758870366647046 0 0.050660253160886584 -0.0032954831294702927 0 0.04735996177980599 -0.0039397552189128684 0 0.047958152242856572 -0.0060758870366647046 0 0.050660253160886584 -0.0032954831294702927 0 0.051581075623574009 -0.003841713595494259 0 0.051720411634046178 -0.0051010124281189321 0 0.044404681239067656 0.0012055149399537112 0 0.043892709796200566 -0.0001219830556502277 0 0.043833083950861919 0.00038968022929433184 0 0.042602114667651916 0.002928104921715872 0 0.049916948589990399 -0.0024188973140189252 0 0.051581075623574009 -0.003841713595494259 0 0.051720411634046178 -0.0051010124281189321 0 0.053152630245896192 -0.0023401570602132617 0 0.052197867331524692 -0.0031818330754387679 0 0.049916948589990399 -0.0024188973140189252 0 0.051581075623574009 -0.003841713595494259 0 0.051799915116749959 -0.0028954725974568293 0 0.052918424178288091 -0.0030333739369822347 0 0.051215989483695726 -0.0032294609621014206 0 0.050660253160886584 -0.0032954831294702927 0 0.051581075623574009 -0.003841713595494259 0 0.051215989483695726 -0.0032294609621014206 0 0.051581075623574009 -0.003841713595494259 0 0.051799915116749959 -0.0028954725974568293 0 0.052520994968386393 -0.0023842114870852144 0 0.051799915116749959 -0.0028954725974568293 0 0.052918424178288091 -0.0030333739369822347 0 0.04272131300234807 -0.0012730253285278827 0 0.043892709796200566 -0.0001219830556502277 0 0.043022519934071614 3.0892351026832522e-05 0 0.043833083950861919 0.00038968022929433184 0 0.043234256145268768 0.00087053580014714545 0 0.043022519934071614 3.0892351026832522e-05 0 0.043892709796200566 -0.0001219830556502277 0 0.043833083950861919 0.00038968022929433184 0 0.043022519934071614 3.0892351026832522e-05 0 0.042602114667651916 0.002928104921715872 0 0.04003456128763748 0.0022675931662419482 0 0.044404681239067656 0.0012055149399537112 0 0.043833083950861919 0.00038968022929433184 0 0.043145569004572719 0.00096196721535376129 0 0.04415382927438339 -0.00016219673480524329 0 0.04003456128763748 0.0022675931662419482 0 0.036816166912114638 0.0065682931107381047 0 0.037061542211448875 0.0065734632961217008 0 0.036892364976877944 0.0063348763604978856 0 0.043234256145268768 0.00087053580014714545 0 0.042351360710694605 0.000666976549216172 0 0.043022519934071614 3.0892351026832522e-05 0 0.037300346601188625 0.0021845722914432581 0 0.034855126168855825 0.001677300483347458 0 0.034864406218197419 0.0042223517836316275 0 0.04003456128763748 0.0022675931662419482 0 0.039121136735387085 0.0013613738459044729 0 0.04003456128763748 0.0022675931662419482 0 0.028867955409332947 0.0043949721806911726 0 0.042351360710694605 0.000666976549216172 0 0.043022519934071614 3.0892351026832522e-05 0 0.042090547678312329 -0.00030617065994458577 0 0.052325775020908634 -0.002799875089249333 0 0.051649545377693409 -0.002595743999174747 0 0.052126368201681282 -0.0023819834211140328 0 0.052325775020908634 -0.002799875089249333 0 0.052126368201681282 -0.0023819834211140328 0 0.05261499815761999 -0.0024837489427860181 0 0.047297874575606524 -0.001898906194253092 0 0.048751940825026367 -0.0013477334688377588 0 0.052681335934105976 -0.0013459522278095545 0 0.048751940825026367 -0.0013477334688377588 0 0.052103719597181776 -0.0011455420546854968 0 0.05139603925970497 -0.0016983451108835358 0 0.051625936206752474 -0.0004270596065316626 0 0.051763856494962616 -0.0020029733353358549 0 0.051649545377693409 -0.002595743999174747 0 0.052126368201681282 -0.0023819834211140328 0 0.052253588149802958 -0.0019406580668448125 0 0.052126368201681282 -0.0023819834211140328 0 0.05261499815761999 -0.0024837489427860181 0 0.052253588149802958 -0.0019406580668448125 0 0.051763856494962616 -0.0020029733353358549 0 0.052126368201681282 -0.0023819834211140328 0 0.052970404314448896 -0.0018490983946890607 0 0.052253588149802958 -0.0019406580668448125 0 0.05261499815761999 -0.0024837489427860181 0 0.052970404314448896 -0.0018490983946890607 0 0.05261499815761999 -0.0024837489427860181 0 0.053132618681946263 -0.0020857011501143308 0 0.05261499815761999 -0.0024837489427860181 0 0.053132618681946263 -0.0020857011501143308 0 0.052789046956988217 -0.0026643901771074199 0 0.053400635935283811 -0.0022621461160689457 0 0.053132618681946263 -0.0020857011501143308 0 0.052789046956988217 -0.0026643901771074199 0 0.05261499815761999 -0.0024837489427860181 0 0.052789046956988217 -0.0026643901771074199 0 0.052616117504534717 -0.0029054739680775881 0 0.052353722611893416 -0.0030255467007420014 0 0.052789046956988217 -0.0026643901771074199 0 0.052616117504534717 -0.0029054739680775881 0 0.052325775020908634 -0.002799875089249333 0 0.05261499815761999 -0.0024837489427860181 0 0.052616117504534717 -0.0029054739680775881 0 0.047297874575606524 -0.001898906194253092 0 0.049536711834408768 -0.0025883660173713192 0 0.043294088999903863 -0.0012172471018873563 0 0.045112016018088397 -0.0041287132054738584 0 0.042865977353038577 -0.0040009426088622865 0 0.043294088999903863 -0.0012172471018873563 0 0.046155781176306192 -0.0020659621182605435 0 0.045112016018088397 -0.0041287132054738584 0 0.050660253160886584 -0.0032954831294702927 0 0.046155781176306192 -0.0020659621182605435 0 0.04735996177980599 -0.0039397552189128684 0 0.046155781176306192 -0.0020659621182605435 0 0.04735996177980599 -0.0039397552189128684 0 0.045112016018088397 -0.0041287132054738584 0 0.04735996177980599 -0.0039397552189128684 0 0.045112016018088397 -0.0041287132054738584 0 0.047958152242856572 -0.0060758870366647046 0 0.045112016018088397 -0.0041287132054738584 0 0.044651058122313889 -0.0061952045517502802 0 0.047958152242856572 -0.0060758870366647046 0 0.045112016018088397 -0.0041287132054738584 0 0.042865977353038577 -0.0040009426088622865 0 0.044651058122313889 -0.0061952045517502802 0 0.043294088999903863 -0.0012172471018873563 0 0.042865977353038577 -0.0040009426088622865 0 0.040001491219633104 -0.0036583976632990367 0 0.048751940825026367 -0.0013477334688377588 0 0.047038289736446935 -0.0027806559369243618 0 0.043294088999903863 -0.0012172471018873563 0 0.040731190124818545 -0.00022786593327254627 0 0.040001491219633104 -0.0036583976632990367 0 0.042865977353038577 -0.0040009426088622865 0 0.040001491219633104 -0.0036583976632990367 0 0.041946931242538094 -0.0064819657996141502 0 0.033973183826592861 -5.8236056871354119e-05 0 0.040474216986070816 0.0010980896770163759 0 0.040001491219633104 -0.0036583976632990367 0 0.041946931242538094 -0.0064819657996141502 0 0.039367259379274884 -0.0069248052290206462 0 0.029020056231772808 0.0069811306862199362 0 0.028512980954817795 0.0047010650190182704 0 0.026901316032584627 0.0064218228105035824 0 0.029020056231772808 0.0069811306862199362 0 0.031177644884874761 0.0051489999197236848 0 0.028512980954817795 0.0047010650190182704 0 0.033973183826592861 -5.8236056871354119e-05 0 0.03836659634541522 0.0007551293850951565 0 0.042865977353038577 -0.0040009426088622865 0 0.041946931242538094 -0.0064819657996141502 0 0.044651058122313889 -0.0061952045517502802 0 0.029020056231772808 0.0069811306862199362 0 0.031534521670065194 0.0076241981799426905 0 0.031177644884874761 0.0051489999197236848 0 0.031534521670065194 0.0076241981799426905 0 0.032948096396121763 0.0062959083255968813 0 0.034722674908336422 0.0082236317358591309 0 0.03836659634541522 0.0007551293850951565 0 0.041785916809740441 0.001067416114413096 0 0.032948096396121763 0.0062959083255968813 0 0.031177644884874761 0.0051489999197236848 0 0.033906684073884585 0.0049490818813154088 0 0.031534521670065194 0.0076241981799426905 0 0.032948096396121763 0.0062959083255968813 0 0.031177644884874761 0.0051489999197236848 0 0.031177644884874761 0.0051489999197236848 0 0.03230038840241542 0.0031634940915036365 0 0.029759219640083791 0.0031598647772727055 0 0.031177644884874761 0.0051489999197236848 0 0.03230038840241542 0.0031634940915036365 0 0.033906684073884585 0.0049490818813154088 0 0.03230038840241542 0.0031634940915036365 0 0.033991858425689719 0.001891357522405056 0 0.030892533462574194 0.0017215918736017773 0 0.03230038840241542 0.0031634940915036365 0 0.029759219640083791 0.0031598647772727055 0 0.030892533462574194 0.0017215918736017773 0 0.029759219640083791 0.0031598647772727055 0 0.027712157052675244 0.002783248156812418 0 0.028475704578929867 0.0013187418380064171 0 0.027712157052675244 0.002783248156812418 0 0.028512980954817795 0.0047010650190182704 0 0.026457451444181223 0.0042452636061824922 0 0.031177644884874761 0.0051489999197236848 0 0.029759219640083791 0.0031598647772727055 0 0.028512980954817795 0.0047010650190182704 0 0.029759219640083791 0.0031598647772727055 0 0.027712157052675244 0.002783248156812418 0 0.028512980954817795 0.0047010650190182704 0 0.020338523142427036 0.0073797917213417625 0 0.01930386788063199 0.0067118767933516676 0 0.020113878432707618 0.0060564997931488842 0 0.028867955409332947 0.0043949721806911726 0 0.028308842011326749 0.0064478901900936426 0 0.03738898331597236 0.0062216536290598612 0 0.036892364976877944 0.0063348763604978856 0 0.037138589218571182 0.0054363824815131878 0 0.036892364976877944 0.0063348763604978856 0 0.037138589218571182 0.0054363824815131878 0 0.036685467878947296 0.0060518913548521375 0 0.037061542211448875 0.0065734632961217008 0 0.03738898331597236 0.0062216536290598612 0 0.036892364976877944 0.0063348763604978856 0 0.035829862919948864 0.0052882412391733347 0 0.036819119083724532 0.0068201261582321255 0 0.034899061560675522 0.0062597664446957619 0 0.037138589218571182 0.0054363824815131878 0 0.036685467878947296 0.0060518913548521375 0 0.035829862919948864 0.0052882412391733347 0 0.036685467878947296 0.0060518913548521375 0 0.035829862919948864 0.0052882412391733347 0 0.036819119083724532 0.0068201261582321255 0 0.036892364976877944 0.0063348763604978856 0 0.036685467878947296 0.0060518913548521375 0 0.036819119083724532 0.0068201261582321255 0 0.038555030723506988 0.008950560143579419 0 0.036819119083724532 0.0068201261582321255 0 0.034722674908336422 0.0082236317358591309 0 0.036816166912114638 0.0065682931107381047 0 0.036892364976877944 0.0063348763604978856 0 0.036819119083724532 0.0068201261582321255 0 0.042602114667651916 0.002928104921715872 0 0.038586952597482037 0.0070967890144610435 0 0.032948096396121763 0.0062959083255968813 0 0.034722674908336422 0.0082236317358591309 0 0.034899061560675522 0.0062597664446957619 0 0.036819119083724532 0.0068201261582321255 0 0.034722674908336422 0.0082236317358591309 0 0.034899061560675522 0.0062597664446957619 0 0.035829862919948864 0.0052882412391733347 0 0.033906684073884585 0.0049490818813154088 0 0.034899061560675522 0.0062597664446957619 0 0.032948096396121763 0.0062959083255968813 0 0.033906684073884585 0.0049490818813154088 0 0.034899061560675522 0.0062597664446957619 0 0.03230038840241542 0.0031634940915036365 0 0.036032188647856143 0.0036789163334112573 0 0.033991858425689719 0.001891357522405056 0 0.03230038840241542 0.0031634940915036365 0 0.033906684073884585 0.0049490818813154088 0 0.036032188647856143 0.0036789163334112573 0 0.026979545945166418 0.0045640842471525635 0 0.025458051366200284 0.0030917902748045087 0 0.018040395619666159 0.0055959296603927044 0 0.01822297840069936 0.0044048219085671709 0 0.016915770834126875 0.0041981367470296438 0 0.035829862919948864 0.0052882412391733347 0 0.033906684073884585 0.0049490818813154088 0 0.036032188647856143 0.0036789163334112573 0 0.037138589218571182 0.0054363824815131878 0 0.035829862919948864 0.0052882412391733347 0 0.036032188647856143 0.0036789163334112573 0 0.01930386788063199 0.0067118767933516676 0 0.018040395619666159 0.0055959296603927044 0 0.01922163039859057 0.0051894291331598943 0 0.028308842011326749 0.0064478901900936426 0 0.026979545945166418 0.0045640842471525635 0 0.018040395619666159 0.0055959296603927044 0 0.01822297840069936 0.0044048219085671709 0 0.01922163039859057 0.0051894291331598943 0 0.01822297840069936 0.0044048219085671709 0 0.01922163039859057 0.0051894291331598943 0 0.018967743134338494 0.0041072757036620467 0 0.01922163039859057 0.0051894291331598943 0 0.018967743134338494 0.0041072757036620467 0 0.019761148739129031 0.0043484033761193681 0 0.01922163039859057 0.0051894291331598943 0 0.020054859285447878 0.005205155128050273 0 0.019761148739129031 0.0043484033761193681 0 0.01922163039859057 0.0051894291331598943 0 0.020113878432707618 0.0060564997931488842 0 0.020054859285447878 0.005205155128050273 0 0.01930386788063199 0.0067118767933516676 0 0.01922163039859057 0.0051894291331598943 0 0.020113878432707618 0.0060564997931488842 0 0.019314831894246386 0.0033284747372941924 0 0.018524970091546616 0.0026926289483057168 0 0.019281048448465104 0.0023755576600635424 0 0.019314831894246386 0.0033284747372941924 0 0.018524970091546616 0.0026926289483057168 0 0.018276035895669715 0.0033418532593827415 0 0.019314831894246386 0.0033284747372941924 0 0.018967743134338494 0.0041072757036620467 0 0.019761148739129031 0.0043484033761193681 0 0.019314831894246386 0.0033284747372941924 0 0.018967743134338494 0.0041072757036620467 0 0.018276035895669715 0.0033418532593827415 0 0.01822297840069936 0.0044048219085671709 0 0.018967743134338494 0.0041072757036620467 0 0.018276035895669715 0.0033418532593827415 0 0.018524970091546616 0.0026926289483057168 0 0.018276035895669715 0.0033418532593827415 0 0.017708834711326709 0.0021450108119467322 0 0.018276035895669715 0.0033418532593827415 0 0.017278478612980781 0.0030207003260125935 0 0.017708834711326709 0.0021450108119467322 0 0.01822297840069936 0.0044048219085671709 0 0.018276035895669715 0.0033418532593827415 0 0.017278478612980781 0.0030207003260125935 0 0.01822297840069936 0.0044048219085671709 0 0.017278478612980781 0.0030207003260125935 0 0.016915770834126875 0.0041981367470296438 0 0.025458051366200284 0.0030917902748045087 0 0.024182683086489427 0.0016890341867159579 0 0.017278478612980781 0.0030207003260125935 0 0.016915770834126875 0.0041981367470296438 0 0.016136515868838564 0.0030032302518405002 0 0.017278478612980781 0.0030207003260125935 0 0.016643807503955804 0.0014475611027143266 0 0.016136515868838564 0.0030032302518405002 0 0.016643807503955804 0.0014475611027143266 0 0.017245605124180743 0.001358758064709436 0 0.01668777299289962 0.0011683101933997696 0 0.016643807503955804 0.0014475611027143266 0 0.017708834711326709 0.0021450108119467322 0 0.017245605124180743 0.001358758064709436 0 0.017278478612980781 0.0030207003260125935 0 0.016643807503955804 0.0014475611027143266 0 0.017708834711326709 0.0021450108119467322 0 0.018524970091546616 0.0026926289483057168 0 0.017708834711326709 0.0021450108119467322 0 0.018502889105511556 0.0020478813358090833 0 0.017708834711326709 0.0021450108119467322 0 0.017917604699472019 0.0013755557071677066 0 0.017245605124180743 0.001358758064709436 0 0.017708834711326709 0.0021450108119467322 0 0.018502889105511556 0.0020478813358090833 0 0.017917604699472019 0.0013755557071677066 0 0.018502889105511556 0.0020478813358090833 0 0.018755703529000148 0.0015461028128596693 0 0.017917604699472019 0.0013755557071677066 0 0.018524970091546616 0.0026926289483057168 0 0.018502889105511556 0.0020478813358090833 0 0.019281048448465104 0.0023755576600635424 0 0.028475704578929867 0.0013187418380064171 0 0.02962477089874491 0.00052916365133029789 0 0.02805346188680459 -0.00022046570949693723 0 0.027136200542835588 0.0001423880790097646 0 0.028475704578929867 0.0013187418380064171 0 0.02805346188680459 -0.00022046570949693723 0 0.027136200542835588 0.0001423880790097646 0 0.028475704578929867 0.0013187418380064171 0 0.027080247401031196 0.001369340970267305 0 0.027712157052675244 0.002783248156812418 0 0.028475704578929867 0.0013187418380064171 0 0.027080247401031196 0.001369340970267305 0 0.029759219640083791 0.0031598647772727055 0 0.028475704578929867 0.0013187418380064171 0 0.030892533462574194 0.0017215918736017773 0 0.028475704578929867 0.0013187418380064171 0 0.030892533462574194 0.0017215918736017773 0 0.02962477089874491 0.00052916365133029789 0 0.033991858425689719 0.001891357522405056 0 0.030892533462574194 0.0017215918736017773 0 0.031763547724648372 0.00034014769388646717 0 0.030892533462574194 0.0017215918736017773 0 0.031763547724648372 0.00034014769388646717 0 0.02962477089874491 0.00052916365133029789 0 0.031763547724648372 0.00034014769388646717 0 0.02962477089874491 0.00052916365133029789 0 0.029305057724668387 -0.00077021533548199742 0 0.02962477089874491 0.00052916365133029789 0 0.029305057724668387 -0.00077021533548199742 0 0.02805346188680459 -0.00022046570949693723 0 0.014882305165760206 0.0015936796715812481 0 0.020713082422133079 0.0013036202738131077 0 0.024182683086489427 0.0016890341867159579 0 0.020713082422133079 0.0013036202738131077 0 0.016643807503955804 0.0014475611027143266 0 0.016136515868838564 0.0030032302518405002 0 0.015330077378819388 0.0018763476954031446 0 0.016643807503955804 0.0014475611027143266 0 0.017134371161162534 0.00091212159574567729 0 0.016877311695212505 0.0011133002198587987 0 0.016643807503955804 0.0014475611027143266 0 0.016877311695212505 0.0011133002198587987 0 0.01668777299289962 0.0011683101933997696 0 0.016643807503955804 0.0014475611027143266 0 0.017249241903072896 0.0005346975034470527 0 0.017134371161162534 0.00091212159574567729 0 0.01778650275807539 0.00076857505887124563 0 0.017134371161162534 0.00091212159574567729 0 0.016877311695212505 0.0011133002198587987 0 0.017249241903072896 0.0005346975034470527 0 0.01778650275807539 0.00076857505887124563 0 0.017134371161162534 0.00091212159574567729 0 0.020713082422133079 0.0013036202738131077 0 0.01780480091375658 0.00026312187895386759 0 0.01778650275807539 0.00076857505887124563 0 0.017630062911133709 0.00089108563091322955 0 0.01733231646168526 0.00086119838779963797 0 0.020713082422133079 0.0013036202738131077 0 0.024047605169153115 0.00014754579339053836 0 0.01778650275807539 0.00076857505887124563 0 0.018166895042349997 0.0010693006391251192 0 0.017630062911133709 0.00089108563091322955 0 0.019209799315738116 0.00092504882380589713 0 0.01778650275807539 0.00076857505887124563 0 0.018166895042349997 0.0010693006391251192 0 0.017531728211842894 0.001207729459582782 0 0.017630062911133709 0.00089108563091322955 0 0.017395440597139173 0.0010146573775478523 0 0.017531728211842894 0.001207729459582782 0 0.018166895042349997 0.0010693006391251192 0 0.017630062911133709 0.00089108563091322955 0 0.021105009626905348 0.00085061558137538857 0 0.024047605169153115 0.00014754579339053836 0 0.017630062911133709 0.00089108563091322955 0 0.017380637383382021 0.00087784921207887756 0 0.017395440597139173 0.0010146573775478523 0 0.017630062911133709 0.00089108563091322955 0 0.017380637383382021 0.00087784921207887756 0 0.01733231646168526 0.00086119838779963797 0 0.017380637383382021 0.00087784921207887756 0 0.017237073786981898 0.00094402302559088856 0 0.017163695166834605 0.0008680006475402899 0 0.017380637383382021 0.00087784921207887756 0 0.017237073786981898 0.00094402302559088856 0 0.017395440597139173 0.0010146573775478523 0 0.027396512166132571 0.0019818126580651509 0 0.027699836856989044 0.0017599531370509401 0 0.027806778747472182 0.00165968853894083 0 0.021643804433259473 0.0011665995319631844 0 0.027827371790919715 0.0024256357916599596 0 0.017237073786981898 0.00094402302559088856 0 0.017395440597139173 0.0010146573775478523 0 0.01735112413528226 0.0012391995873090322 0 0.017531728211842894 0.001207729459582782 0 0.017395440597139173 0.0010146573775478523 0 0.01735112413528226 0.0012391995873090322 0 0.027136200542835588 0.0001423880790097646 0 0.025813779246339711 0.00053810317682188109 0 0.027080247401031196 0.001369340970267305 0 0.021105009626905348 0.00085061558137538857 0 0.027827371790919715 0.0024256357916599596 0 0.027699836856989044 0.0017599531370509401 0 0.027806778747472182 0.00165968853894083 0 0.027882437398745002 0.0016469000503583681 0 0.027827371790919715 0.0024256357916599596 0 0.034353654988729693 0.0037407179020583197 0 0.027827371790919715 0.0024256357916599596 0 0.033688956525686209 0.004340512398923687 0 0.039580668209119811 0.0061066485736085965 0 0.039942298197762516 0.0061373650084623355 0 0.039651658971326151 0.0061332846695202788 0 0.039580668209119811 0.0061066485736085965 0 0.04015283568298917 0.0061488868554931695 0 0.039942298197762516 0.0061373650084623355 0 0.027712157052675244 0.002783248156812418 0 0.026111090674768109 0.0022560423681444171 0 0.027080247401031196 0.001369340970267305 0 0.025813779246339711 0.00053810317682188109 0 0.026111090674768109 0.0022560423681444171 0 0.027080247401031196 0.001369340970267305 0 0.039761122788573883 0.0058143232563540011 0 0.039682320172379 0.0060035282354068574 0 0.039784366513009047 0.0060485947254888357 0 0.035760412113311553 0.0041470156641939156 0 0.03805016985911118 0.006399028991155656 0 0.039762191038452202 0.0060931450795638368 0 0.039784366513009047 0.0060485947254888357 0 0.039787023572170885 0.0060920844844609837 0 0.039761122788573883 0.0058143232563540011 0 0.039682320172379 0.0060035282354068574 0 0.039501118163319714 0.0059850632388452766 0 0.039682320172379 0.0060035282354068574 0 0.039501118163319714 0.0059850632388452766 0 0.039678070683484071 0.0061279295458334382 0 0.039682320172379 0.0060035282354068574 0 0.039784366513009047 0.0060485947254888357 0 0.039678070683484071 0.0061279295458334382 0 0.039784366513009047 0.0060485947254888357 0 0.039787023572170885 0.0060920844844609837 0 0.039848373084450536 0.0061612041029691852 0 0.039784366513009047 0.0060485947254888357 0 0.039848373084450536 0.0061612041029691852 0 0.039678070683484071 0.0061279295458334382 0 0.039787023572170885 0.0060920844844609837 0 0.039942298197762516 0.0061373650084623355 0 0.039651658971326151 0.0061332846695202788 0 0.039787023572170885 0.0060920844844609837 0 0.039942298197762516 0.0061373650084623355 0 0.039848373084450536 0.0061612041029691852 0 0.039762191038452202 0.0060931450795638368 0 0.039787023572170885 0.0060920844844609837 0 0.039651658971326151 0.0061332846695202788 0 0.027699836856989044 0.0017599531370509401 0 0.027882437398745002 0.0016469000503583681 0 0.027703987491332613 0.0017929705615999216 0 0.035760412113311553 0.0041470156641939156 0 0.034353654988729693 0.0037407179020583197 0 0.0279746302568913 0.0016004087507624231 0 0.027882437398745002 0.0016469000503583681 0 0.027703987491332613 0.0017929705615999216 0 0.035760412113311553 0.0041470156641939156 0 0.033363920763596143 0.0032791021370125743 0 0.0279746302568913 0.0016004087507624231 0 0.027896667311359168 0.0018702020054170915 0 0.027703987491332613 0.0017929705615999216 0 0.039317904402647652 0.0057247170970843681 0 0.039192286682188229 0.0053602821204107561 0 0.039121505180705007 0.0055750859657982092 0 0.027896667311359168 0.0018702020054170915 0 0.027703987491332613 0.0017929705615999216 0 0.027370937710478226 0.0020719596000904322 0 0.033363920763596143 0.0032791021370125743 0 0.033874161686575463 0.0028180122634073462 0 0.027396512166132571 0.0019818126580651509 0 0.027699836856989044 0.0017599531370509401 0 0.027703987491332613 0.0017929705615999216 0 0.027396512166132571 0.0019818126580651509 0 0.027703987491332613 0.0017929705615999216 0 0.027370937710478226 0.0020719596000904322 0 0.027396512166132571 0.0019818126580651509 0 0.027370937710478226 0.0020719596000904322 0 0.027065601180281677 0.0019337864389871026 0 0.027370937710478226 0.0020719596000904322 0 0.0279257755714751 0.0019816866363730644 0 0.028113529643165408 0.0026676971664827799 0 0.027896667311359168 0.0018702020054170915 0 0.027370937710478226 0.0020719596000904322 0 0.0279257755714751 0.0019816866363730644 0 0.026973776821783244 0.0021491085970545107 0 0.02833908817033115 0.0019383573650228194 0 0.033622618499176686 0.0024052232284485211 0 0.032597005550175383 0.0019141886297730044 0 0.032643060419276324 0.0028244322982776526 0 0.033874161686575463 0.0028180122634073462 0 0.02833908817033115 0.0019383573650228194 0 0.033622618499176686 0.0024052232284485211 0 0.032597005550175383 0.0019141886297730044 0 0.033248649455305576 0.00097477257919067301 0 0.032597005550175383 0.0019141886297730044 0 0.031792009532074735 0.0023691362138345048 0 0.031469183873103844 0.0011931260678983611 0 0.032597005550175383 0.0019141886297730044 0 0.031792009532074735 0.0023691362138345048 0 0.032643060419276324 0.0028244322982776526 0 0.031792009532074735 0.0023691362138345048 0 0.032643060419276324 0.0028244322982776526 0 0.031478921426149345 0.0033588398771050888 0 0.039192286682188229 0.0053602821204107561 0 0.0391540476991677 0.005282324165269088 0 0.039121505180705007 0.0055750859657982092 0 0.033874161686575463 0.0028180122634073462 0 0.036316565302987228 0.004662232542634359 0 0.033622618499176686 0.0024052232284485211 0 0.032643060419276324 0.0028244322982776526 0 0.033074612241295966 0.0036702502931856389 0 0.029253540438130599 0.0016324336707171589 0 0.030463801419597647 0.0022652811327344906 0 0.029946632926074992 0.00092495537033960608 0 0.031792009532074735 0.0023691362138345048 0 0.030463801419597647 0.0022652811327344906 0 0.031469183873103844 0.0011931260678983611 0 0.030463801419597647 0.0022652811327344906 0 0.031478921426149345 0.0033588398771050888 0 0.03037226483733586 0.003428437520481953 0 0.031792009532074735 0.0023691362138345048 0 0.030463801419597647 0.0022652811327344906 0 0.031478921426149345 0.0033588398771050888 0 0.02904135654872933 0.0027244136482201509 0 0.030463801419597647 0.0022652811327344906 0 0.03037226483733586 0.003428437520481953 0 0.02926142854647169 0.0042127358804460212 0 0.03037226483733586 0.003428437520481953 0 0.030341506696702415 0.0048342021228555323 0 0.03037226483733586 0.003428437520481953 0 0.031366261656543638 0.0043546711381661279 0 0.030332667169556397 0.0051501714628655049 0 0.029879535623574784 0.0035662534112393708 0 0.032197681412861459 0.0048695091225469753 0 0.031478921426149345 0.0033588398771050888 0 0.031366261656543638 0.0043546711381661279 0 0.032236535405756148 0.0040491625147442362 0 0.031478921426149345 0.0033588398771050888 0 0.03037226483733586 0.003428437520481953 0 0.031366261656543638 0.0043546711381661279 0 0.031366261656543638 0.0043546711381661279 0 0.031142580007899181 0.0050725063573413814 0 0.030332667169556397 0.0051501714628655049 0 0.031366261656543638 0.0043546711381661279 0 0.031668343738867351 0.0051264673312777353 0 0.032045646568740566 0.0046461253534642146 0 0.031366261656543638 0.0043546711381661279 0 0.031668343738867351 0.0051264673312777353 0 0.031142580007899181 0.0050725063573413814 0 0.036316565302987228 0.004662232542634359 0 0.03572293773209554 0.0054770117353257625 0 0.032643060419276324 0.0028244322982776526 0 0.031478921426149345 0.0033588398771050888 0 0.032236535405756148 0.0040491625147442362 0 0.032643060419276324 0.0028244322982776526 0 0.033074612241295966 0.0036702502931856389 0 0.032236535405756148 0.0040491625147442362 0 0.033074612241295966 0.0036702502931856389 0 0.032236535405756148 0.0040491625147442362 0 0.032578540007800146 0.0049166917763858427 0 0.032236535405756148 0.0040491625147442362 0 0.032045646568740566 0.0046461253534642146 0 0.032578540007800146 0.0049166917763858427 0 0.031366261656543638 0.0043546711381661279 0 0.032236535405756148 0.0040491625147442362 0 0.032045646568740566 0.0046461253534642146 0 0.031668343738867351 0.0051264673312777353 0 0.032045646568740566 0.0046461253534642146 0 0.032095100427562702 0.005214120380833802 0 0.032045646568740566 0.0046461253534642146 0 0.032095100427562702 0.005214120380833802 0 0.032578540007800146 0.0049166917763858427 0 0.039127267315063705 0.005873894333843545 0 0.039190151797272046 0.0059450920054747924 0 0.039191209898573255 0.0060637968157343141 0 0.039761122788573883 0.0058143232563540011 0 0.03917629964698216 0.005862935433981413 0 0.039501118163319714 0.0059850632388452766 0 0.039190151797272046 0.0059450920054747924 0 0.039276248993456074 0.0059825374445863109 0 0.039191209898573255 0.0060637968157343141 0 0.039121505180705007 0.0055750859657982092 0 0.039127267315063705 0.005873894333843545 0 0.03917629964698216 0.005862935433981413 0 0.039276248993456074 0.0059825374445863109 0 0.03917629964698216 0.005862935433981413 0 0.039501118163319714 0.0059850632388452766 0 0.039317904402647652 0.0057247170970843681 0 0.039121505180705007 0.0055750859657982092 0 0.03917629964698216 0.005862935433981413 0 0.035760412113311553 0.0041470156641939156 0 0.04056016473637241 0.0059719873524327971 0 0.039190151797272046 0.0059450920054747924 0 0.039276248993456074 0.0059825374445863109 0 0.03917629964698216 0.005862935433981413 0 0.039127267315063705 0.005873894333843545 0 0.039190151797272046 0.0059450920054747924 0 0.03917629964698216 0.005862935433981413 0 0.039276248993456074 0.0059825374445863109 0 0.039501118163319714 0.0059850632388452766 0 0.039352671770702397 0.006070089003186771 0 0.039501118163319714 0.0059850632388452766 0 0.039506405232659907 0.0061087973800290534 0 0.039352671770702397 0.006070089003186771 0 0.039501118163319714 0.0059850632388452766 0 0.039506405232659907 0.0061087973800290534 0 0.039678070683484071 0.0061279295458334382 0 0.039506405232659907 0.0061087973800290534 0 0.03941596766096845 0.0061863036858008924 0 0.039352671770702397 0.006070089003186771 0 0.039506405232659907 0.0061087973800290534 0 0.03941596766096845 0.0061863036858008924 0 0.039559765968159744 0.0062385031038696389 0 0.03941596766096845 0.0061863036858008924 0 0.039559765968159744 0.0062385031038696389 0 0.039405597604569235 0.0063172757560443537 0 0.039559765968159744 0.0062385031038696389 0 0.039405597604569235 0.0063172757560443537 0 0.039591083837893108 0.0063824524930801724 0 0.03941596766096845 0.0061863036858008924 0 0.039405597604569235 0.0063172757560443537 0 0.039249370930858313 0.0061971476323820079 0 0.039265734856638188 0.0063663661758337027 0 0.039405597604569235 0.0063172757560443537 0 0.039249370930858313 0.0061971476323820079 0 0.03941596766096845 0.0061863036858008924 0 0.039249370930858313 0.0061971476323820079 0 0.039352671770702397 0.006070089003186771 0 0.039249370930858313 0.0061971476323820079 0 0.039352671770702397 0.006070089003186771 0 0.039191209898573255 0.0060637968157343141 0 0.039276248993456074 0.0059825374445863109 0 0.039352671770702397 0.006070089003186771 0 0.039191209898573255 0.0060637968157343141 0 0.031668343738867351 0.0051264673312777353 0 0.032095100427562702 0.005214120380833802 0 0.03208831390910117 0.0061682405078272362 0 0.032095100427562702 0.005214120380833802 0 0.032578540007800146 0.0049166917763858427 0 0.03208831390910117 0.0061682405078272362 0 0.03572293773209554 0.0054770117353257625 0 0.036534576051042905 0.0060640948188122636 0 0.039127267315063705 0.005873894333843545 0 0.039191209898573255 0.0060637968157343141 0 0.038954139374005568 0.0063722236338873695 0 0.039249370930858313 0.0061971476323820079 0 0.039191209898573255 0.0060637968157343141 0 0.038954139374005568 0.0063722236338873695 0 0.039265734856638188 0.0063663661758337027 0 0.039249370930858313 0.0061971476323820079 0 0.038954139374005568 0.0063722236338873695 0 0.043175695370231311 0.0011406944526516259 0 0.045035554751866359 0.0019928379771058579 0 0.039348950341103119 0.006568304377863975 0 0.039242692911780196 0.0065597950499705487 0 0.039453578241626167 0.0067142508434813895 0 0.036534576051042905 0.0060640948188122636 0 0.040224026862367201 0.0069366769286869417 0 0.039265734856638188 0.0063663661758337027 0 0.038954139374005568 0.0063722236338873695 0 0.039449609981532574 0.006574860185200402 0 0.039280961150329453 0.0064536440276045546 0 0.039348950341103119 0.006568304377863975 0 0.039449609981532574 0.006574860185200402 0 0.036534576051042905 0.0060640948188122636 0 0.043175695370231311 0.0011406944526516259 0 0.039280961150329453 0.0064536440276045546 0 0.039348950341103119 0.006568304377863975 0 0.039242692911780196 0.0065597950499705487 0 0.039348950341103119 0.006568304377863975 0 0.039449609981532574 0.006574860185200402 0 0.039453578241626167 0.0067142508434813895 0 0.039449609981532574 0.006574860185200402 0 0.039453578241626167 0.0067142508434813895 0 0.039730089655178331 0.0065335720072111645 0 0.039405597604569235 0.0063172757560443537 0 0.039449609981532574 0.006574860185200402 0 0.039591083837893108 0.0063824524930801724 0 0.039449609981532574 0.006574860185200402 0 0.039591083837893108 0.0063824524930801724 0 0.039730089655178331 0.0065335720072111645 0 0.039265734856638188 0.0063663661758337027 0 0.039405597604569235 0.0063172757560443537 0 0.039449609981532574 0.006574860185200402 0 0.029865419136136526 0.005535553034524401 0 0.03145483533865822 0.0050765380813378985 0 0.031571975648947349 0.0072677723768077383 0 0.032197681412861459 0.0048695091225469753 0 0.038951073851439207 0.0013969608498611403 0 0.037065091620868344 0.0026785323799621316 0 0.037555212289839032 0.0029476121611323345 0 0.037069454594156025 0.0035092172505380359 0 0.032197681412861459 0.0048695091225469753 0 0.03420504965491989 0.0042382731640664643 0 0.031668343738867351 0.0051264673312777353 0 0.03208831390910117 0.0061682405078272362 0 0.031204356273644328 0.0056594271804857018 0 0.031142580007899181 0.0050725063573413814 0 0.030332667169556397 0.0051501714628655049 0 0.031204356273644328 0.0056594271804857018 0 0.031668343738867351 0.0051264673312777353 0 0.031142580007899181 0.0050725063573413814 0 0.031204356273644328 0.0056594271804857018 0 0.038040155777693652 0.0032273201538211313 0 0.037555212289839032 0.0029476121611323345 0 0.03766155986066478 0.0033305062359901077 0 0.036534576051042905 0.0060640948188122636 0 0.03420504965491989 0.0042382731640664643 0 0.037555212289839032 0.0029476121611323345 0 0.03766155986066478 0.0033305062359901077 0 0.037069454594156025 0.0035092172505380359 0 0.047806615267674865 -0.0037585642430657978 0 0.044852667380360235 -0.0043887224134210564 0 0.047487919987832986 -0.0029747741874886721 0 0.03766155986066478 0.0033305062359901077 0 0.037868226456954972 0.0036730074677165229 0 0.037069454594156025 0.0035092172505380359 0 0.043175695370231311 0.0011406944526516259 0 0.038951073851439207 0.0013969608498611403 0 0.038040155777693652 0.0032273201538211313 0 0.03766155986066478 0.0033305062359901077 0 0.037868226456954972 0.0036730074677165229 0 0.044852667380360235 -0.0043887224134210564 0 0.044777055031654946 -0.0025169545910888338 0 0.046128432301379994 -0.0022843541012526865 0 0.042729108376940689 -0.0027630189466287028 0 0.044030994286801232 -0.0034461051928662344 0 0.044240467335324357 -0.0020964033184033789 0 0.044777055031654946 -0.0025169545910888338 0 0.046128432301379994 -0.0022843541012526865 0 0.044574961097522521 -0.0006419905941782648 0 0.038951073851439207 0.0013969608498611403 0 0.044387601781119987 -0.0031344873703899536 0 0.044852667380360235 -0.0043887224134210564 0 0.046128432301379994 -0.0022843541012526865 0 0.047487919987832986 -0.0029747741874886721 0 0.046128432301379994 -0.0022843541012526865 0 0.047393370500449297 -0.0019609043963245377 0 0.047145019716954048 -0.00084308047098301362 0 0.043175695370231311 0.0011406944526516259 0 0.045892351053030175 -0.0030243909785822006 0 0.047487919987832986 -0.0029747741874886721 0 0.047393370500449297 -0.0019609043963245377 0 0.048799553938476396 -0.0017447102355644961 0 0.046128432301379994 -0.0022843541012526865 0 0.047487919987832986 -0.0029747741874886721 0 0.047393370500449297 -0.0019609043963245377 0 0.046445400704157799 0.0009425280033477266 0 0.047145019716954048 -0.00084308047098301362 0 0.044574961097522521 -0.0006419905941782648 0 0.047393370500449297 -0.0019609043963245377 0 0.047145019716954048 -0.00084308047098301362 0 0.048799553938476396 -0.0017447102355644961 0 0.044387601781119987 -0.0031344873703899536 0 0.04450457450062497 -0.00055827896363961303 0 0.046128432301379994 -0.0022843541012526865 0 0.047145019716954048 -0.00084308047098301362 0 0.044574961097522521 -0.0006419905941782648 0 0.04289008100387405 -0.00081655428596950463 0 0.044240467335324357 -0.0020964033184033789 0 0.044574961097522521 -0.0006419905941782648 0 0.050395987039359776 -0.0028462545094721579 0 0.048799553938476396 -0.0017447102355644961 0 0.05124088274257188 -0.0010593070414695513 0 0.04782190266088357 -0.0036652450012685444 0 0.047487919987832986 -0.0029747741874886721 0 0.048799553938476396 -0.0017447102355644961 0 0.04782190266088357 -0.0036652450012685444 0 0.050395987039359776 -0.0028462545094721579 0 0.048799553938476396 -0.0017447102355644961 0 0.049669118326702802 0.00084795866753419741 0 0.047145019716954048 -0.00084308047098301362 0 0.048799553938476396 -0.0017447102355644961 0 0.049669118326702802 0.00084795866753419741 0 0.048799553938476396 -0.0017447102355644961 0 0.05124088274257188 -0.0010593070414695513 0 0.052623898989748924 0.0002138980177249198 0 0.05124088274257188 -0.0010593070414695513 0 0.052436339422036099 -0.00082474852239765241 0 0.05124088274257188 -0.0010593070414695513 0 0.0520687313959338 -0.0018637351363810001 0 0.052436339422036099 -0.00082474852239765241 0 0.045035554751866359 0.0019928379771058579 0 0.045714955895614945 0.0024240722535888528 0 0.050395987039359776 -0.0028462545094721579 0 0.05124088274257188 -0.0010593070414695513 0 0.0520687313959338 -0.0018637351363810001 0 0.039453578241626167 0.0067142508434813895 0 0.040081036993040844 0.0068819360351746106 0 0.039730089655178331 0.0065335720072111645 0 0.045714955895614945 0.0024240722535888528 0 0.048025213938908629 0.0032455035746735395 0 0.040081036993040844 0.0068819360351746106 0 0.040659719503690399 0.0069889337040636972 0 0.040353536639137204 0.0066215190887650962 0 0.0520687313959338 -0.0018637351363810001 0 0.052436339422036099 -0.00082474852239765241 0 0.052656954358148579 -0.0011303927953736084 0 0.052845268319186643 -0.00035816067481764702 0 0.052436339422036099 -0.00082474852239765241 0 0.052656954358148579 -0.0011303927953736084 0 0.052963504714349907 -0.00051482817408263074 0 0.052845268319186643 -0.00035816067481764702 0 0.052656954358148579 -0.0011303927953736084 0 0.052963504714349907 -0.00051482817408263074 0 0.052957875624649993 -0.00085192492765024405 0 0.052656954358148579 -0.0011303927953736084 0 0.047038289736446935 -0.0027806559369243618 0 0.040474216986070816 0.0010980896770163759 0 0.040474216986070816 0.0010980896770163759 0 0.032996004690452753 0.0063950134020497604 0 0.028512980954817795 0.0047010650190182704 0 0.026901316032584627 0.0064218228105035824 0 0.026457451444181223 0.0042452636061824922 0 0.041147615855110148 0.0070501850316956544 0 0.040659719503690399 0.0069889337040636972 0 0.040730650080593643 0.0065438465793556059 0 0.040474216986070816 0.0010980896770163759 0 0.048025213938908629 0.0032455035746735395 0 0.040659719503690399 0.0069889337040636972 0 0.040730650080593643 0.0065438465793556059 0 0.040353536639137204 0.0066215190887650962 0 0.040730650080593643 0.0065438465793556059 0 0.040233567890210029 0.0063573435857115701 0 0.040353536639137204 0.0066215190887650962 0 0.033688956525686209 0.004340512398923687 0 0.032996004690452753 0.0063950134020497604 0 0.027712157052675244 0.002783248156812418 0 0.026111090674768109 0.0022560423681444171 0 0.026457451444181223 0.0042452636061824922 0 0.04015283568298917 0.0061488868554931695 0 0.040730650080593643 0.0065438465793556059 0 0.040233567890210029 0.0063573435857115701 0 0.04015283568298917 0.0061488868554931695 0 0.039942298197762516 0.0061373650084623355 0 0.040233567890210029 0.0063573435857115701 0 0.039942298197762516 0.0061373650084623355 0 0.040233567890210029 0.0063573435857115701 0 0.040023353721199417 0.0064029579093466795 0 0.039942298197762516 0.0061373650084623355 0 0.039848373084450536 0.0061612041029691852 0 0.040023353721199417 0.0064029579093466795 0 0.039848373084450536 0.0061612041029691852 0 0.039678070683484071 0.0061279295458334382 0 0.039746426497612383 0.0062982671912619305 0 0.039559765968159744 0.0062385031038696389 0 0.039678070683484071 0.0061279295458334382 0 0.039746426497612383 0.0062982671912619305 0 0.039506405232659907 0.0061087973800290534 0 0.039559765968159744 0.0062385031038696389 0 0.039678070683484071 0.0061279295458334382 0 0.039559765968159744 0.0062385031038696389 0 0.039591083837893108 0.0063824524930801724 0 0.039746426497612383 0.0062982671912619305 0 0.039848373084450536 0.0061612041029691852 0 0.039746426497612383 0.0062982671912619305 0 0.040023353721199417 0.0064029579093466795 0 0.039746426497612383 0.0062982671912619305 0 0.039730089655178331 0.0065335720072111645 0 0.040023353721199417 0.0064029579093466795 0 0.040081036993040844 0.0068819360351746106 0 0.039730089655178331 0.0065335720072111645 0 0.040023353721199417 0.0064029579093466795 0 0.039591083837893108 0.0063824524930801724 0 0.039746426497612383 0.0062982671912619305 0 0.039730089655178331 0.0065335720072111645 0 0.040081036993040844 0.0068819360351746106 0 0.040353536639137204 0.0066215190887650962 0 0.040023353721199417 0.0064029579093466795 0 0.040233567890210029 0.0063573435857115701 0 0.040353536639137204 0.0066215190887650962 0 0.040023353721199417 0.0064029579093466795 0 0.044496252187967288 0.00021462395792193188 0 0.04513668234677131 -0.00023683087786803867 0 0.04486691860611898 -0.00036325687710793246 0 0.043021404443043337 0.00014104366504319151 0 0.044496252187967288 0.00021462395792193188 0 0.04486691860611898 -0.00036325687710793246 0 0.044040530709949587 -9.4626624140364771e-08 0 0.043021404443043337 0.00014104366504319151 0 0.04486691860611898 -0.00036325687710793246 0 0.044040530709949587 -9.4626624140364771e-08 0 0.043021404443043337 0.00014104366504319151 0 0.040874163098445618 9.4527497697453305e-07 0 0.043021404443043337 0.00014104366504319151 0 0.040874163098445618 9.4527497697453305e-07 0 0.040771031138004905 0.0002091695807334744 0 0.043015985877497019 0.00025128753716257239 0 0.040876649339024705 0.0012597293905945205 0 0.044496252187967288 0.00021462395792193188 0 0.044986833936620375 0.0010489775597925966 0 0.044082426106957583 0.0013242345119644134 0 0.043021404443043337 0.00014104366504319151 0 0.044496252187967288 0.00021462395792193188 0 0.044082426106957583 0.0013242345119644134 0 0.043021404443043337 0.00014104366504319151 0 0.041250865537000234 0.0002208297018735255 0 0.040771031138004905 0.0002091695807334744 0 0.044496252187967288 0.00021462395792193188 0 0.04513668234677131 -0.00023683087786803867 0 0.044986833936620375 0.0010489775597925966 0 0.045645233901454245 0.00097417333413419194 0 0.04513668234677131 -0.00023683087786803867 0 0.044986833936620375 0.0010489775597925966 0 0.041852169488241747 0.00073284846381549732 0 0.041386315969873813 0.001915510737603059 0 0.046419095900057945 -0.0018622429676464077 0 0.046078786891002456 -0.00084998131273715082 0 0.047135143308411558 -0.00037926829329040589 0 0.041852169488241747 0.00073284846381549732 0 0.04678046918718648 -0.00038697065869160689 0 0.046078786891002456 -0.00084998131273715082 0 0.047135143308411558 -0.00037926829329040589 0 0.047073393807918799 -0.00018886806145201171 0 0.04602900932772664 -0.001359708015225668 0 0.047073393807918799 -0.00018886806145201171 0 0.046327239272704018 -0.00029461618337438841 0 0.046581944048477118 -0.00093356442820577922 0 0.046810443926690606 -0.00038051271252728767 0 0.04513668234677131 -0.00023683087786803867 0 0.045559816743703532 -0.00019352577141624821 0 0.04486691860611898 -0.00036325687710793246 0 0.04678046918718648 -0.00038697065869160689 0 0.046010843222127847 -0.00012801909234080153 0 0.047135143308411558 -0.00037926829329040589 0 0.047073393807918799 -0.00018886806145201171 0 0.047329145655006039 0.00022880130178989767 0 0.047073393807918799 -0.00018886806145201171 0 0.04708373487123161 3.4168630031595247e-06 0 0.047329145655006039 0.00022880130178989767 0 0.04708373487123161 3.4168630031595247e-06 0 0.046327239272704018 -0.00029461618337438841 0 0.045992623542152722 0.00031621795852664866 0 0.047073393807918799 -0.00018886806145201171 0 0.04708373487123161 3.4168630031595247e-06 0 0.046327239272704018 -0.00029461618337438841 0 0.047028821727367047 5.3295768677319093e-05 0 0.046383174775056407 0.00018091798962088185 0 0.04708373487123161 3.4168630031595247e-06 0 0.047028599325901178 4.1904240934011854e-05 0 0.04715392048733557 0.00015255502760262398 0 0.047028599325901178 4.1904240934011854e-05 0 0.04715392048733557 0.00015255502760262398 0 0.047018261237037014 0.00017179287248835718 0 0.04715392048733557 0.00015255502760262398 0 0.047257288330442723 0.00023312652086514854 0 0.047277678706056293 0.00027589505707442143 0 0.04715392048733557 0.00015255502760262398 0 0.047277678706056293 0.00027589505707442143 0 0.047018261237037014 0.00017179287248835718 0 0.047240972425025042 0.00025362266913225981 0 0.047377469844403178 0.00038789394532030581 0 0.047277678706056293 0.00027589505707442143 0 0.047536221361683575 0.00026380973378113969 0 0.047578178716919474 0.00047760140736241818 0 0.04708373487123161 3.4168630031595247e-06 0 0.04715392048733557 0.00015255502760262398 0 0.047329145655006039 0.00022880130178989767 0 0.04715392048733557 0.00015255502760262398 0 0.047329145655006039 0.00022880130178989767 0 0.047257288330442723 0.00023312652086514854 0 0.047329145655006039 0.00022880130178989767 0 0.047257288330442723 0.00023312652086514854 0 0.047278234063271786 0.0002405658618457513 0 0.045559816743703532 -0.00019352577141624821 0 0.04486691860611898 -0.00036325687710793246 0 0.047207768795229491 -1.9519977975389565e-06 0 0.045559816743703532 -0.00019352577141624821 0 0.047207768795229491 -1.9519977975389565e-06 0 0.047501856112699532 0.00036635872774654603 0 0.044040530709949587 -9.4626624140364771e-08 0 0.04486691860611898 -0.00036325687710793246 0 0.047207768795229491 -1.9519977975389565e-06 0 0.047207768795229491 -1.9519977975389565e-06 0 0.047501856112699532 0.00036635872774654603 0 0.050367398540125355 3.4647412508156131e-06 0 0.046010843222127847 -0.00012801909234080153 0 0.049937750716722913 0.00028308733379124731 0 0.047329145655006039 0.00022880130178989767 0 0.047334564224981043 0.00026717012686400862 0 0.047278234063271786 0.0002405658618457513 0 0.054919447350179534 8.8861044100560946e-05 0 0.054920181129677129 0.00010795793522809715 0 0.054906346437169712 0.00010378588365433752 0 0.049937750716722913 0.00028308733379124731 0 0.052805879534763005 0.00024165302698016432 0 0.054893373950885505 9.8851152580832347e-05 0 0.054919447350179534 8.8861044100560946e-05 0 0.054906346437169712 0.00010378588365433752 0 0.050349462145490742 -9.1798422893327403e-05 0 0.050380245809308319 4.4121677313640616e-07 0 0.050725478724307632 -4.379082552121141e-07 0 0.050349462145490742 -9.1798422893327403e-05 0 0.050725478724307632 -4.379082552121141e-07 0 0.050500898522741616 0.00017877457974828034 0 0.049937750716722913 0.00028308733379124731 0 0.050371633705931035 -1.2067745499885005e-07 0 0.050732209271320335 -3.8865054931648589e-08 0 0.053316662869343064 5.8630044673632956e-05 0 0.054919447350179534 8.8861044100560946e-05 0 0.054956328241685039 6.2539361292764876e-05 0 0.054948102948518145 4.5257951797007173e-05 0 0.050725478724307632 -4.379082552121141e-07 0 0.050500898522741616 0.00017877457974828034 0 0.050653342988348733 0.00047200832451305667 0 0.052805879534763005 0.00024165302698016432 0 0.053316662869343064 5.8630044673632956e-05 0 0.050733496635604051 6.7859569783708392e-08 0 0.05499986211939395 -4.5782691790473544e-08 0 0.053783179144608811 -1.7883555720261536e-08 0 0.054919447350179534 8.8861044100560946e-05 0 0.054956328241685039 6.2539361292764876e-05 0 0.054920181129677129 0.00010795793522809715 0 0.054956328241685039 6.2539361292764876e-05 0 0.054999849853967768 3.1249901523478455e-08 0 0.054999889346976 8.6903837062623673e-08 0 0.054999332524431017 -3.0691836909418939e-07 0 0.053316662869343064 5.8630044673632956e-05 0 0.054956328241685039 6.2539361292764876e-05 0 0.054999849853967768 3.1249901523478455e-08 0 0.054948102948518145 4.5257951797007173e-05 0 0.054999159566185507 1.268944982674284e-07 0 0.053316662869343064 5.8630044673632956e-05 0 0.054999992467185184 8.3083235823010096e-10 0 0.054999996476661178 -6.3157761911732338e-10 0 0.054989448286419607 2.6586606299269074e-07 0 0.05499986211939395 -4.5782691790473544e-08 0 0.05499903579365821 2.4062534680432894e-08 0 0.053783179144608811 -1.7883555720261536e-08 0 0.05499987977533384 1.2606122394140604e-07 0 0.054999889346976 8.6903837062623673e-08 0 0.05491689021416394 0.00012242704631597795 0 0.05499987977533384 1.2606122394140604e-07 0 0.05491689021416394 0.00012242704631597795 0 0.054764447123182944 0.00025809557592407651 0 0.054956328241685039 6.2539361292764876e-05 0 0.054999889346976 8.6903837062623673e-08 0 0.05491689021416394 0.00012242704631597795 0 0.05491689021416394 0.00012242704631597795 0 0.054920181129677129 0.00010795793522809715 0 0.054875153538490547 0.00014971055986666453 0 0.054956328241685039 6.2539361292764876e-05 0 0.05491689021416394 0.00012242704631597795 0 0.054920181129677129 0.00010795793522809715 0 0.05491689021416394 0.00012242704631597795 0 0.054875153538490547 0.00014971055986666453 0 0.054764447123182944 0.00025809557592407651 0 0.054875153538490547 0.00014971055986666453 0 0.054775590867533107 0.00016298661105814977 0 0.054887153610898541 7.4632288755082765e-05 0 0.054875153538490547 0.00014971055986666453 0 0.054775590867533107 0.00016298661105814977 0 0.054764447123182944 0.00025809557592407651 0 0.054893373950885505 9.8851152580832347e-05 0 0.054906346437169712 0.00010378588365433752 0 0.054887153610898541 7.4632288755082765e-05 0 0.054875153538490547 0.00014971055986666453 0 0.054906346437169712 0.00010378588365433752 0 0.054887153610898541 7.4632288755082765e-05 0 0.054920181129677129 0.00010795793522809715 0 0.054875153538490547 0.00014971055986666453 0 0.054906346437169712 0.00010378588365433752 0 0.047334564224981043 0.00026717012686400862 0 0.047257789281951387 0.00019669540953581329 0 0.047278234063271786 0.0002405658618457513 0 0.049937750716722913 0.00028308733379124731 0 0.051334876386145603 0.00013722917783058278 0 0.047257288330442723 0.00023312652086514854 0 0.047278234063271786 0.0002405658618457513 0 0.047277678706056293 0.00027589505707442143 0 0.047257789281951387 0.00019669540953581329 0 0.047278234063271786 0.0002405658618457513 0 0.047277678706056293 0.00027589505707442143 0 0.054775590867533107 0.00016298661105814977 0 0.054887153610898541 7.4632288755082765e-05 0 0.054649327607012167 -0.00012019170811708453 0 0.051334876386145603 0.00013722917783058278 0 0.051123951890384149 -1.2166877062023368e-05 0 0.047257789281951387 0.00019669540953581329 0 0.047277678706056293 0.00027589505707442143 0 0.047536221361683575 0.00026380973378113969 0 0.047257789281951387 0.00019669540953581329 0 0.047536221361683575 0.00026380973378113969 0 0.047740966964190626 0.00011746653638530864 0 0.047536221361683575 0.00026380973378113969 0 0.047740966964190626 0.00011746653638530864 0 0.047912898205472162 0.0003858933665636019 0 0.047740966964190626 0.00011746653638530864 0 0.048310995949454899 0.0001697754514752687 0 0.047912898205472162 0.0003858933665636019 0 0.051123951890384149 -1.2166877062023368e-05 0 0.050674091694765847 -8.0655366912358236e-05 0 0.054649327607012167 -0.00012019170811708453 0 0.053859652682896463 0.00075638710098408488 0 0.053079592492458229 -0.00051378375048900392 0 0.053859652682896463 0.00075638710098408488 0 0.054535836672107152 0.00038342292524823731 0 0.054554842747097827 0.00037283243659271274 0 0.054649327607012167 -0.00012019170811708453 0 0.053859652682896463 0.00075638710098408488 0 0.054535836672107152 0.00038342292524823731 0 0.054775590867533107 0.00016298661105814977 0 0.054649327607012167 -0.00012019170811708453 0 0.054535836672107152 0.00038342292524823731 0 0.054775590867533107 0.00016298661105814977 0 0.054535836672107152 0.00038342292524823731 0 0.054764447123182944 0.00025809557592407651 0 0.054535836672107152 0.00038342292524823731 0 0.054764447123182944 0.00025809557592407651 0 0.054554842747097827 0.00037283243659271274 0 0.054554842747097827 0.00037283243659271274 0 0.054998858660966578 7.11303224790965e-07 0 0.054321602253246996 0.00044641207571894845 0 0.05499987977533384 1.2606122394140604e-07 0 0.054764447123182944 0.00025809557592407651 0 0.054554842747097827 0.00037283243659271274 0 0.05499987977533384 1.2606122394140604e-07 0 0.054554842747097827 0.00037283243659271274 0 0.054998858660966578 7.11303224790965e-07 0 0.055000038829292594 -1.874980708399959e-08 0 0.054947446903819794 -0.00011565163197582189 0 0.055000108558495839 -1.1662115956041913e-07 0 0.055000038829292594 -1.874980708399959e-08 0 0.05508298970459944 -0.00012647912593603475 0 0.054947446903819794 -0.00011565163197582189 0 0.055000091468861714 -4.5199362356077684e-09 0 0.055000038829292594 -1.874980708399959e-08 0 0.05508298970459944 -0.00012647912593603475 0 0.055000017004026923 1.4352322106780553e-07 0 0.054495743084089554 3.6991273524573093e-05 0 0.053859652682896463 0.00075638710098408488 0 0.054554842747097827 0.00037283243659271274 0 0.054321602253246996 0.00044641207571894845 0 0.05508298970459944 -0.00012647912593603475 0 0.054995901437754097 -0.00053480352334202784 0 0.054947446903819794 -0.00011565163197582189 0 0.054495743084089554 3.6991273524573093e-05 0 0.055688045245167114 0.00022952562081049297 0 0.054321602253246996 0.00044641207571894845 0 0.054111337782872332 0.0007624438279025342 0 0.05413320322104017 0.00067841573982448328 0 0.054111337782872332 0.0007624438279025342 0 0.05413320322104017 0.00067841573982448328 0 0.054186334962964516 0.0006625733043449124 0 0.05325851835322342 0.00072542733814557573 0 0.052802629506186007 0.00090461345328802373 0 0.053859652682896463 0.00075638710098408488 0 0.054321602253246996 0.00044641207571894845 0 0.05413320322104017 0.00067841573982448328 0 0.053859652682896463 0.00075638710098408488 0 0.05413320322104017 0.00067841573982448328 0 0.054186334962964516 0.0006625733043449124 0 0.053859652682896463 0.00075638710098408488 0 0.053079592492458229 -0.00051378375048900392 0 0.04981248114078899 0.0010638722669805793 0 0.050674091694765847 -8.0655366912358236e-05 0 0.049220801404881408 0.00014872235517931042 0 0.053079592492458229 -0.00051378375048900392 0 0.04981248114078899 0.0010638722669805793 0 0.049001766134112022 0.00027088725295140042 0 0.048563541442571856 0.00049258571955293343 0 0.048440777147090448 0.00061668872890655556 0 0.048589077577267423 0.00046963272811374241 0 0.049001766134112022 0.00027088725295140042 0 0.048563541442571856 0.00049258571955293343 0 0.048589077577267423 0.00046963272811374241 0 0.048457557881765083 0.00048839601011581009 0 0.048265623753434267 0.00051813366514844158 0 0.039800783194861376 7.4583616596872492e-05 0 0.040999338809785617 -0.0013263465667775081 0 0.048563541442571856 0.00049258571955293343 0 0.048577406135774798 0.00049572841682576636 0 0.04781901060839331 0.00037569077415143689 0 0.048577406135774798 0.00049572841682576636 0 0.047882015093883012 0.00074618033865299924 0 0.04781901060839331 0.00037569077415143689 0 0.048577406135774798 0.00049572841682576636 0 0.047882015093883012 0.00074618033865299924 0 0.047767861681201201 0.0012466000591143391 0 0.047882015093883012 0.00074618033865299924 0 0.04781901060839331 0.00037569077415143689 0 0.047343778047709527 0.0008700272419280221 0 0.048310995949454899 0.0001697754514752687 0 0.048589077577267423 0.00046963272811374241 0 0.048216077427000167 0.00043543857931458986 0 0.048440777147090448 0.00061668872890655556 0 0.048589077577267423 0.00046963272811374241 0 0.048216077427000167 0.00043543857931458986 0 0.048310995949454899 0.0001697754514752687 0 0.049001766134112022 0.00027088725295140042 0 0.048589077577267423 0.00046963272811374241 0 0.048310995949454899 0.0001697754514752687 0 0.047912898205472162 0.0003858933665636019 0 0.048216077427000167 0.00043543857931458986 0 0.048440777147090448 0.00061668872890655556 0 0.048216077427000167 0.00043543857931458986 0 0.047874321914095547 0.00072328916731076963 0 0.047912898205472162 0.0003858933665636019 0 0.048216077427000167 0.00043543857931458986 0 0.047874321914095547 0.00072328916731076963 0 0.047536221361683575 0.00026380973378113969 0 0.047912898205472162 0.0003858933665636019 0 0.047578178716919474 0.00047760140736241818 0 0.047912898205472162 0.0003858933665636019 0 0.047578178716919474 0.00047760140736241818 0 0.047874321914095547 0.00072328916731076963 0 0.047377469844403178 0.00038789394532030581 0 0.046654287598007736 0.00031854950947352907 0 0.047028599325901178 4.1904240934011854e-05 0 0.047018261237037014 0.00017179287248835718 0 0.046879219344243155 5.904655752754385e-05 0 0.046383174775056407 0.00018091798962088185 0 0.046654287598007736 0.00031854950947352907 0 0.045992623542152722 0.00031621795852664866 0 0.04480616326138194 0.00048254617326124534 0 0.045307478410591615 -0.00040634116316088173 0 0.046327239272704018 -0.00029461618337438841 0 0.045992623542152722 0.00031621795852664866 0 0.045307478410591615 -0.00040634116316088173 0 0.048265623753434267 0.00051813366514844158 0 0.046654287598007736 0.00031854950947352907 0 0.04781901060839331 0.00037569077415143689 0 0.046866934200652202 0.00045117572378199165 0 0.047343778047709527 0.0008700272419280221 0 0.04480616326138194 0.00048254617326124534 0 0.043883470817467615 -0.00029248923547561291 0 0.045307478410591615 -0.00040634116316088173 0 0.046654287598007736 0.00031854950947352907 0 0.045991171202185793 0.00068157295630631698 0 0.043883470817467615 -0.00029248923547561291 0 0.045307478410591615 -0.00040634116316088173 0 0.044702520635098726 -0.0013754063260593436 0 0.043883470817467615 -0.00029248923547561291 0 0.043968408086968065 -0.0013117478188592968 0 0.042955810879840503 -0.0010861341674270374 0 0.043883470817467615 -0.00029248923547561291 0 0.043968408086968065 -0.0013117478188592968 0 0.044702520635098726 -0.0013754063260593436 0 0.04602900932772664 -0.001359708015225668 0 0.045307478410591615 -0.00040634116316088173 0 0.044702520635098726 -0.0013754063260593436 0 0.04602900932772664 -0.001359708015225668 0 0.046327239272704018 -0.00029461618337438841 0 0.045307478410591615 -0.00040634116316088173 0 0.046419095900057945 -0.0018622429676464077 0 0.046078786891002456 -0.00084998131273715082 0 0.045075473830224526 -0.0017499021842160413 0 0.04602900932772664 -0.001359708015225668 0 0.044702520635098726 -0.0013754063260593436 0 0.044814722379916669 -0.0025419012521968932 0 0.041852169488241747 0.00073284846381549732 0 0.040598420120952154 -0.0011130074041461801 0 0.046581944048477118 -0.00093356442820577922 0 0.040598420120952154 -0.0011130074041461801 0 0.040598420120952154 -0.0011130074041461801 0 0.034554751752957587 -0.0012050178578489894 0 0.037993550915213531 -0.0029804250646158028 0 0.033759593358628562 -0.003531400941004759 0 0.036884162390189094 -0.0038324166534756858 0 0.03513651912128532 -0.0030011921737281627 0 0.03506190339394992 -0.0019998414830853187 0 0.043968408086968065 -0.0013117478188592968 0 0.044331870554668036 -0.0024950094287858162 0 0.042955810879840503 -0.0010861341674270374 0 0.037993550915213531 -0.0029804250646158028 0 0.040999338809785617 -0.0013263465667775081 0 0.035117187174178742 -0.0035368812096756149 0 0.033802054826694183 -0.0034395380861933049 0 0.034538538601595808 -0.0039329568965180322 0 0.043968408086968065 -0.0013117478188592968 0 0.044702520635098726 -0.0013754063260593436 0 0.044331870554668036 -0.0024950094287858162 0 0.044702520635098726 -0.0013754063260593436 0 0.044814722379916669 -0.0025419012521968932 0 0.044331870554668036 -0.0024950094287858162 0 0.035117187174178742 -0.0035368812096756149 0 0.035310265285665846 -0.0037307761356521114 0 0.034538538601595808 -0.0039329568965180322 0 0.040598420120952154 -0.0011130074041461801 0 0.037993550915213531 -0.0029804250646158028 0 0.036891998257042959 -0.0022108571593764089 0 0.037001131198750765 -0.0022308376907598125 0 0.036938125779231279 -0.0021623719801365936 0 0.037993550915213531 -0.0029804250646158028 0 0.034554751752957587 -0.0012050178578489894 0 0.036884162390189094 -0.0038324166534756858 0 0.03513651912128532 -0.0030011921737281627 0 0.03457144587522705 -0.0035879756830432289 0 0.03513651912128532 -0.0030011921737281627 0 0.034192612070566016 -0.0028025374729210616 0 0.03457144587522705 -0.0035879756830432289 0 0.033759593358628562 -0.003531400941004759 0 0.032904617999302173 -0.003306661212201403 0 0.033802054826694183 -0.0034395380861933049 0 0.032625238888746563 -0.0032675679279416947 0 0.033321121552228342 -0.0038378237956478321 0 0.034192612070566016 -0.0028025374729210616 0 0.03457144587522705 -0.0035879756830432289 0 0.032625238888746563 -0.0032675679279416947 0 0.032625238888746563 -0.0032675679279416947 0 0.032847281180692404 -0.0040480006479522504 0 0.033321121552228342 -0.0038378237956478321 0 0.034192612070566016 -0.0028025374729210616 0 0.033158243730146107 -0.0020580546774809317 0 0.032625238888746563 -0.0032675679279416947 0 0.034192612070566016 -0.0028025374729210616 0 0.033158243730146107 -0.0020580546774809317 0 0.034779330454796309 -0.0022624973443154521 0 0.033446392948125153 -0.0010297499095308243 0 0.033158243730146107 -0.0020580546774809317 0 0.034779330454796309 -0.0022624973443154521 0 0.047882015093883012 0.00074618033865299924 0 0.047343778047709527 0.0008700272419280221 0 0.047767861681201201 0.0012466000591143391 0 0.045991171202185793 0.00068157295630631698 0 0.040999338809785617 -0.0013263465667775081 0 0.03513651912128532 -0.0030011921737281627 0 0.034192612070566016 -0.0028025374729210616 0 0.03506190339394992 -0.0019998414830853187 0 0.034418093920536165 -0.0039779253663429423 0 0.040999338809785617 -0.0013263465667775081 0 0.031419688274459907 -0.0030503233615153075 0 0.029922737100681752 -0.0018788879249270003 0 0.031808877007495177 -0.0014805919948936938 0 0.033158243730146107 -0.0020580546774809317 0 0.031419688274459907 -0.0030503233615153075 0 0.031808877007495177 -0.0014805919948936938 0 0.033158243730146107 -0.0020580546774809317 0 0.032625238888746563 -0.0032675679279416947 0 0.031419688274459907 -0.0030503233615153075 0 0.032625238888746563 -0.0032675679279416947 0 0.031883213766841868 -0.0036198436958732 0 0.031419688274459907 -0.0030503233615153075 0 0.032625238888746563 -0.0032675679279416947 0 0.031883213766841868 -0.0036198436958732 0 0.032218465257261159 -0.0041660611571552658 0 0.031883213766841868 -0.0036198436958732 0 0.031419688274459907 -0.0030503233615153075 0 0.031382677239588951 -0.0040884528517103683 0 0.031419688274459907 -0.0030503233615153075 0 0.02995170157593284 -0.0036672008515682597 0 0.029922737100681752 -0.0018788879249270003 0 0.031419688274459907 -0.0030503233615153075 0 0.02995170157593284 -0.0036672008515682597 0 0.030654308908447572 -0.0041476492413269539 0 0.029538139973070504 -0.0030849081835069765 0 0.029796132966010396 -0.0016206130466405178 0 0.028693540984365256 -0.0015311861078917087 0 0.028882656649131415 -0.0016856796308829932 0 0.029922737100681752 -0.0018788879249270003 0 0.028693540984365256 -0.0015311861078917087 0 0.028882656649131415 -0.0016856796308829932 0 0.028426049631180745 -0.0015779211904464313 0 0.028426049631180745 -0.0015779211904464313 0 0.02862287332715141 -0.0016271835298435364 0 0.027671740979971729 -0.0015541452189952269 0 0.02664380260349657 -4.8657707980487846e-05 0 0.027671740979971729 -0.0015541452189952269 0 0.02668087989691989 -0.0010360744811131358 0 0.035366905499105074 -0.001029392431618421 0 0.026331914058168485 -0.00069518120225101185 0 0.02664380260349657 -4.8657707980487846e-05 0 0.026561354572681377 -0.00020799025723443234 0 0.02668087989691989 -0.0010360744811131358 0 0.028882656649131415 -0.0016856796308829932 0 0.028426049631180745 -0.0015779211904464313 0 0.02862287332715141 -0.0016271835298435364 0 0.035366905499105074 -0.001029392431618421 0 0.030848747319028546 -0.0022859618408052279 0 0.035366905499105074 -0.001029392431618421 0 0.046682931152934731 -0.00013192138512704415 0 0.05036068020415551 -0.00070451782698202538 0 0.051181313760762598 0.00018184826739133281 0 0.050080505088304576 4.6535133278784291e-05 0 0.035366905499105074 -0.001029392431618421 0 0.034830716135026453 -0.001589307163683835 0 0.028882656649131415 -0.0016856796308829932 0 0.02862287332715141 -0.0016271835298435364 0 0.029146516458094955 -0.0014695190917620533 0 0.03900500699716225 -0.0032108362672541397 0 0.04073563759415804 -0.0014132041636016779 0 0.040449433199302852 -0.00099595100483097472 0 0.028882656649131415 -0.0016856796308829932 0 0.029922737100681752 -0.0018788879249270003 0 0.029146516458094955 -0.0014695190917620533 0 0.040449433199302852 -0.00099595100483097472 0 0.041835977081034148 0.0012405448277829107 0 0.042394701869117438 0.00044088555310028548 0 0.046682931152934731 -0.00013192138512704415 0 0.048818444002518481 0.00067175965576647526 0 0.04073563759415804 -0.0014132041636016779 0 0.040449433199302852 -0.00099595100483097472 0 0.042394701869117438 0.00044088555310028548 0 0.051181313760762598 0.00018184826739133281 0 0.05191940831710834 0.00088759864909230483 0 0.051744918504115243 0.0008304695039231606 0 0.029922737100681752 -0.0018788879249270003 0 0.029146516458094955 -0.0014695190917620533 0 0.030702632631299076 -0.00054965896076982455 0 0.034830716135026453 -0.001589307163683835 0 0.035364741235144347 -0.00049048380413833068 0 0.051181313760762598 0.00018184826739133281 0 0.051027926239651522 0.00075126928432075113 0 0.051744918504115243 0.0008304695039231606 0 0.051181313760762598 0.00018184826739133281 0 0.051027926239651522 0.00075126928432075113 0 0.050080505088304576 4.6535133278784291e-05 0 0.053183338239432394 0.0017846533034268843 0 0.040855275535219129 0.0014995802086623647 0 0.052535584931176299 0.0016135390341170854 0 0.052638862872582223 0.00096733805916627462 0 0.052009868813842328 0.00094684773565227468 0 0.052535584931176299 0.0016135390341170854 0 0.052638862872582223 0.00096733805916627462 0 0.052931813410526399 0.0013415061613181727 0 0.053183338239432394 0.0017846533034268843 0 0.051497514154992645 0.00061092225038431611 0 0.051027926239651522 0.00075126928432075113 0 0.051744918504115243 0.0008304695039231606 0 0.052009868813842328 0.00094684773565227468 0 0.048818444002518481 0.00067175965576647526 0 0.050011992636971647 0.0010730426424613241 0 0.051869866643329508 0.00090110692671756384 0 0.051744918504115243 0.0008304695039231606 0 0.052009868813842328 0.00094684773565227468 0 0.048818444002518481 0.00067175965576647526 0 0.052034187494675685 0.0014232361597941035 0 0.051869866643329508 0.00090110692671756384 0 0.051741070123525218 0.00081795023700529821 0 0.052009868813842328 0.00094684773565227468 0 0.041835977081034148 0.0012405448277829107 0 0.042394701869117438 0.00044088555310028548 0 0.044158684403519777 0.0024217508969449617 0 0.048818444002518481 0.00067175965576647526 0 0.046863049549323924 0.00080701198595651115 0 0.052022997938469047 0.0013388049208181891 0 0.051258419949997858 0.00095979376755739537 0 0.051741070123525218 0.00081795023700529821 0 0.035364741235144347 -0.00049048380413833068 0 0.046863049549323924 0.00080701198595651115 0 0.030702632631299076 -0.00054965896076982455 0 0.032143781319958785 -0.00055818385682255655 0 0.032357452673068825 0.00012267320428735424 0 0.029922737100681752 -0.0018788879249270003 0 0.030702632631299076 -0.00054965896076982455 0 0.031808877007495177 -0.0014805919948936938 0 0.030702632631299076 -0.00054965896076982455 0 0.031808877007495177 -0.0014805919948936938 0 0.032143781319958785 -0.00055818385682255655 0 0.033446392948125153 -0.0010297499095308243 0 0.033158243730146107 -0.0020580546774809317 0 0.031808877007495177 -0.0014805919948936938 0 0.033446392948125153 -0.0010297499095308243 0 0.031808877007495177 -0.0014805919948936938 0 0.032143781319958785 -0.00055818385682255655 0 0.039800783194861376 7.4583616596872492e-05 0 0.046863049549323924 0.00080701198595651115 0 0.049001766134112022 0.00027088725295140042 0 0.048563541442571856 0.00049258571955293343 0 0.047781375722012652 0.00063335552117895996 0 0.033446392948125153 -0.0010297499095308243 0 0.032143781319958785 -0.00055818385682255655 0 0.032357452673068825 0.00012267320428735424 0 0.048563541442571856 0.00049258571955293343 0 0.048577406135774798 0.00049572841682576636 0 0.047781375722012652 0.00063335552117895996 0 0.052802629506186007 0.00090461345328802373 0 0.046863049549323924 0.00080701198595651115 0 0.04981248114078899 0.0010638722669805793 0 0.049001766134112022 0.00027088725295140042 0 0.047781375722012652 0.00063335552117895996 0 0.055688045245167114 0.00022952562081049297 0 0.046863049549323924 0.00080701198595651115 0 0.054111337782872332 0.0007624438279025342 0 0.054186334962964516 0.0006625733043449124 0 0.053599887386719614 0.00040498744319865539 0 0.054995901437754097 -0.00053480352334202784 0 0.054564352559381295 -0.0011233329271153731 0 0.054609660993905774 -0.00068692577336610424 0 0.054564352559381295 -0.0011233329271153731 0 0.054609660993905774 -0.00068692577336610424 0 0.054160948959532301 -0.00082789861740052576 0 0.046863049549323924 0.00080701198595651115 0 0.054000483645169149 -0.00074672478438311156 0 0.051258419949997858 0.00095979376755739537 0 0.051741070123525218 0.00081795023700529821 0 0.051909868206934669 0.00031774101489082568 0 0.054408651108570683 -0.00052978405057005047 0 0.054145503599814029 -0.00027795373997750624 0 0.054160948959532301 -0.00082789861740052576 0 0.054408651108570683 -0.00052978405057005047 0 0.054609660993905774 -0.00068692577336610424 0 0.054160948959532301 -0.00082789861740052576 0 0.054408651108570683 -0.00052978405057005047 0 0.054609660993905774 -0.00068692577336610424 0 0.054670575823463803 -0.00030404199607443893 0 0.054408651108570683 -0.00052978405057005047 0 0.054670575823463803 -0.00030404199607443893 0 0.054145503599814029 -0.00027795373997750624 0 0.054995901437754097 -0.00053480352334202784 0 0.054609660993905774 -0.00068692577336610424 0 0.054670575823463803 -0.00030404199607443893 0 0.054995901437754097 -0.00053480352334202784 0 0.054947446903819794 -0.00011565163197582189 0 0.054670575823463803 -0.00030404199607443893 0 0.054947446903819794 -0.00011565163197582189 0 0.054670575823463803 -0.00030404199607443893 0 0.054707588086007043 -5.1175121326778706e-05 0 0.054670575823463803 -0.00030404199607443893 0 0.054707588086007043 -5.1175121326778706e-05 0 0.054145503599814029 -0.00027795373997750624 0 0.054707588086007043 -5.1175121326778706e-05 0 0.053916938950765339 1.1335524815766948e-05 0 0.054145503599814029 -0.00027795373997750624 0 0.054998707936150616 5.1632420863220863e-07 0 0.054707588086007043 -5.1175121326778706e-05 0 0.055000108558495839 -1.1662115956041913e-07 0 0.054998707936150616 5.1632420863220863e-07 0 0.054707588086007043 -5.1175121326778706e-05 0 0.053916938950765339 1.1335524815766948e-05 0 0.054947446903819794 -0.00011565163197582189 0 0.054707588086007043 -5.1175121326778706e-05 0 0.055000108558495839 -1.1662115956041913e-07 0 0.054999972081688477 9.5427857926058656e-08 0 0.054245303618004392 -0.00027385468831371486 0 0.054998859067997549 4.9865351395198014e-07 0 0.055065175209228302 -0.00025302722938791265 0 0.054675347416126237 -0.00034814674691937251 0 0.054998859067997549 4.9865351395198014e-07 0 0.054675347416126237 -0.00034814674691937251 0 0.053773734729630443 -0.00030090347071400785 0 0.054999712887487853 -1.2728201797481186e-07 0 0.054459568263520157 -0.00017177660180830252 0 0.055000828989972453 -3.8713747012942345e-07 0 0.054998859067997549 4.9865351395198014e-07 0 0.055065175209228302 -0.00025302722938791265 0 0.053916938950765339 1.1335524815766948e-05 0 0.054145503599814029 -0.00027795373997750624 0 0.053220802738344695 -0.00010322689320845897 0 0.054459568263520157 -0.00017177660180830252 0 0.053652848157985149 -0.00068977535990201423 0 0.053916938950765339 1.1335524815766948e-05 0 0.053220802738344695 -0.00010322689320845897 0 0.052841581907283074 -9.7783168705932032e-05 0 0.055065175209228302 -0.00025302722938791265 0 0.054675347416126237 -0.00034814674691937251 0 0.054708983550882072 -0.0010549534363182113 0 0.054675347416126237 -0.00034814674691937251 0 0.054708983550882072 -0.0010549534363182113 0 0.053773734729630443 -0.00030090347071400785 0 0.053220802738344695 -0.00010322689320845897 0 0.052841581907283074 -9.7783168705932032e-05 0 0.052506762342901789 0.00039095472835066488 0 0.053652848157985149 -0.00068977535990201423 0 0.054345239269691141 -0.00050143550812415381 0 0.052841581907283074 -9.7783168705932032e-05 0 0.052506762342901789 0.00039095472835066488 0 0.053091845589640467 0.00061264650087143743 0 0.053220802738344695 -0.00010322689320845897 0 0.051909868206934669 0.00031774101489082568 0 0.052506762342901789 0.00039095472835066488 0 0.054145503599814029 -0.00027795373997750624 0 0.053220802738344695 -0.00010322689320845897 0 0.054160948959532301 -0.00082789861740052576 0 0.05281072511662778 0.00015660972039977135 0 0.054000483645169149 -0.00074672478438311156 0 0.051909868206934669 0.00031774101489082568 0 0.052090099421547659 0.00059453644202051351 0 0.052506762342901789 0.00039095472835066488 0 0.051741070123525218 0.00081795023700529821 0 0.051909868206934669 0.00031774101489082568 0 0.052090099421547659 0.00059453644202051351 0 0.052090099421547659 0.00059453644202051351 0 0.052506762342901789 0.00039095472835066488 0 0.052009868813842328 0.00094684773565227468 0 0.051741070123525218 0.00081795023700529821 0 0.052090099421547659 0.00059453644202051351 0 0.052009868813842328 0.00094684773565227468 0 0.052638862872582223 0.00096733805916627462 0 0.052506762342901789 0.00039095472835066488 0 0.053091845589640467 0.00061264650087143743 0 0.052638862872582223 0.00096733805916627462 0 0.052506762342901789 0.00039095472835066488 0 0.052009868813842328 0.00094684773565227468 0 0.054345239269691141 -0.00050143550812415381 0 0.046021335836628222 0.00021930739822547716 0 0.053889510618231412 -0.002106892632805567 0 0.052343294015547562 -0.0020476173895363874 0 0.053435205358466888 -0.0013542584431728507 0 0.053810567792040548 -0.0039214603271724383 0 0.046021335836628222 0.00021930739822547716 0 0.053889510618231412 -0.002106892632805567 0 0.052343294015547562 -0.0020476173895363874 0 0.052912090995831718 -0.0032224251424759699 0 0.052343294015547562 -0.0020476173895363874 0 0.052267226032557595 -0.0013348538040096269 0 0.053435205358466888 -0.0013542584431728507 0 0.052267226032557595 -0.0013348538040096269 0 0.053435205358466888 -0.0013542584431728507 0 0.053773734729630443 -0.00030090347071400785 0 0.054708983550882072 -0.0010549534363182113 0 0.053435205358466888 -0.0013542584431728507 0 0.053773734729630443 -0.00030090347071400785 0 0.054708983550882072 -0.0010549534363182113 0 0.053889510618231412 -0.002106892632805567 0 0.053435205358466888 -0.0013542584431728507 0 0.054299989655140185 -0.00051915962435527532 0 0.054245303618004392 -0.00027385468831371486 0 0.054977005212941826 -0.00014376452272428178 0 0.055016071508508416 -3.7560659852088977e-05 0 0.054993308846516729 -3.030944173268372e-05 0 0.055000018904147019 -1.9141940199936702e-08 0 0.054993308846516729 -3.030944173268372e-05 0 0.055000008284119148 -2.007198452740402e-08 0 0.055016071508508416 -3.7560659852088977e-05 0 0.054993308846516729 -3.030944173268372e-05 0 0.055000008284119148 -2.007198452740402e-08 0 0.05500001989019216 8.2613160061701355e-09 0 0.055016071508508416 -3.7560659852088977e-05 0 0.055000008284119148 -2.007198452740402e-08 0 0.054999819483293896 -2.4896149813932883e-07 0 0.055054630863065952 5.7605427294152997e-05 0 0.054999782494372637 2.3347633598308026e-08 0 0.054951180822597694 -4.6097116446033855e-05 0 0.054847650988986356 -6.1492827369135877e-05 0 0.055000018904147019 -1.9141940199936702e-08 0 0.054999782494372637 2.3347633598308026e-08 0 0.054951180822597694 -4.6097116446033855e-05 0 0.055000018904147019 -1.9141940199936702e-08 0 0.054993308846516729 -3.030944173268372e-05 0 0.054951180822597694 -4.6097116446033855e-05 0 0.054977005212941826 -0.00014376452272428178 0 0.054993308846516729 -3.030944173268372e-05 0 0.054951180822597694 -4.6097116446033855e-05 0 0.054951180822597694 -4.6097116446033855e-05 0 0.054847650988986356 -6.1492827369135877e-05 0 0.054869939176341517 -0.00014300263818910774 0 0.054732727258516183 -0.00019734297030366175 0 0.054847650988986356 -6.1492827369135877e-05 0 0.054869939176341517 -0.00014300263818910774 0 0.054977005212941826 -0.00014376452272428178 0 0.054869939176341517 -0.00014300263818910774 0 0.05482799203441157 -0.00029538917871863783 0 0.054977005212941826 -0.00014376452272428178 0 0.054951180822597694 -4.6097116446033855e-05 0 0.054869939176341517 -0.00014300263818910774 0 0.052267226032557595 -0.0013348538040096269 0 0.051888302203525936 -0.0023317167781527364 0 0.051008182851079734 -0.0024642037655163633 0 0.052343294015547562 -0.0020476173895363874 0 0.052267226032557595 -0.0013348538040096269 0 0.051888302203525936 -0.0023317167781527364 0 0.054299989655140185 -0.00051915962435527532 0 0.049321043102088735 -0.0017341134993330411 0 0.052343294015547562 -0.0020476173895363874 0 0.051888302203525936 -0.0023317167781527364 0 0.052100233542049124 -0.0027398552280684572 0 0.053394861595930675 -0.00078671563406038103 0 0.049321043102088735 -0.0017341134993330411 0 0.054732727258516183 -0.00019734297030366175 0 0.054869939176341517 -0.00014300263818910774 0 0.05482799203441157 -0.00029538917871863783 0 0.04272131300234807 -0.0012730253285278827 0 0.041608666548630331 -0.0024183515285303809 0 0.041556935255391253 -0.0011443897363768573 0 0.041608666548630331 -0.0024183515285303809 0 0.041556935255391253 -0.0011443897363768573 0 0.040862399419987525 -0.0018714608529892393 0 0.045159673300945308 -0.0017663243346885983 0 0.049321043102088735 -0.0017341134993330411 0 0.04272131300234807 -0.0012730253285278827 0 0.041556935255391253 -0.0011443897363768573 0 0.042090547678312329 -0.00030617065994458577 0 0.041556935255391253 -0.0011443897363768573 0 0.042090547678312329 -0.00030617065994458577 0 0.040795515564537796 -0.00042440217125600156 0 0.038682112842888278 -0.00029290876759155334 0 0.034687514517741061 0.00046176508757280669 0 0.041556935255391253 -0.0011443897363768573 0 0.040832425999090628 -0.0011865519283203851 0 0.040795515564537796 -0.00042440217125600156 0 0.040832425999090628 -0.0011865519283203851 0 0.040113775876898801 -0.0013086257878742675 0 0.040795515564537796 -0.00042440217125600156 0 0.046874808604423189 -0.0028960611848423486 0 0.038682112842888278 -0.00029290876759155334 0 0.040832425999090628 -0.0011865519283203851 0 0.040862399419987525 -0.0018714608529892393 0 0.040113775876898801 -0.0013086257878742675 0 0.05169610508030173 -0.0029361470714748639 0 0.052100233542049124 -0.0027398552280684572 0 0.052186746095515379 -0.0033344006492040407 0 0.041556935255391253 -0.0011443897363768573 0 0.040832425999090628 -0.0011865519283203851 0 0.040862399419987525 -0.0018714608529892393 0 0.051888302203525936 -0.0023317167781527364 0 0.051008182851079734 -0.0024642037655163633 0 0.05169610508030173 -0.0029361470714748639 0 0.049321043102088735 -0.0017341134993330411 0 0.046874808604423189 -0.0028960611848423486 0 0.051888302203525936 -0.0023317167781527364 0 0.05169610508030173 -0.0029361470714748639 0 0.052100233542049124 -0.0027398552280684572 0 0.052343294015547562 -0.0020476173895363874 0 0.052100233542049124 -0.0027398552280684572 0 0.052531986309199412 -0.0029548580875412831 0 0.046021335836628222 0.00021930739822547716 0 0.038682112842888278 -0.00029290876759155334 0 0.052100233542049124 -0.0027398552280684572 0 0.052531986309199412 -0.0029548580875412831 0 0.052186746095515379 -0.0033344006492040407 0 0.052638862872582223 0.00096733805916627462 0 0.053091845589640467 0.00061264650087143743 0 0.052931813410526399 0.0013415061613181727 0 0.053091845589640467 0.00061264650087143743 0 0.053435984599444097 0.0013061017565667028 0 0.052931813410526399 0.0013415061613181727 0 0.046021335836628222 0.00021930739822547716 0 0.040855275535219129 0.0014995802086623647 0 0.030500186309454273 0.001629038859820385 0 0.030302078265866381 0.0015754822908541335 0 0.0303009367693317 0.0014993567039993715 0 0.052535584931176299 0.0016135390341170854 0 0.052931813410526399 0.0013415061613181727 0 0.052877537856848782 0.0022565441609021268 0 0.053435984599444097 0.0013061017565667028 0 0.052931813410526399 0.0013415061613181727 0 0.052877537856848782 0.0022565441609021268 0 0.030500186309454273 0.001629038859820385 0 0.030302078265866381 0.0015754822908541335 0 0.030511967857832448 0.0016268833132535511 0 0.028152453974407264 0.0033084072373003753 0 0.038682112842888278 -0.00029290876759155334 0 0.030302078265866381 0.0015754822908541335 0 0.029568052885193742 0.0022478900956117731 0 0.029578940020849941 0.0015494347569002184 0 0.029568052885193742 0.0022478900956117731 0 0.029578940020849941 0.0015494347569002184 0 0.028922346404123285 0.0015307065967159919 0 0.029578940020849941 0.0015494347569002184 0 0.029301339949216795 0.0011849412018605746 0 0.028922346404123285 0.0015307065967159919 0 0.029578940020849941 0.0015494347569002184 0 0.029902177642265916 0.0013528544059541103 0 0.029301339949216795 0.0011849412018605746 0 0.030302078265866381 0.0015754822908541335 0 0.029578940020849941 0.0015494347569002184 0 0.029902177642265916 0.0013528544059541103 0 0.029902177642265916 0.0013528544059541103 0 0.029301339949216795 0.0011849412018605746 0 0.029846460768398007 0.00091801288421841849 0 0.029481882829937921 0.00040355280635867563 0 0.029479590718440654 0.00052483632483989314 0 0.029414614614222796 0.00044144516647545717 0 0.035366905499105074 -0.001029392431618421 0 0.040855275535219129 0.0014995802086623647 0 0.030302078265866381 0.0015754822908541335 0 0.029902177642265916 0.0013528544059541103 0 0.0303009367693317 0.0014993567039993715 0 0.040855275535219129 0.0014995802086623647 0 0.028800571701431018 -0.00031430407167636781 0 0.029479590718440654 0.00052483632483989314 0 0.029414614614222796 0.00044144516647545717 0 0.029262345537808467 0.00047032013625243775 0 0.029902177642265916 0.0013528544059541103 0 0.0303009367693317 0.0014993567039993715 0 0.029846460768398007 0.00091801288421841849 0 0.030848747319028546 -0.0022859618408052279 0 0.027648985529918652 -0.00082167819709799673 0 0.029468266206475087 0.00040178548122171139 0 0.029289835249424724 0.0003877212522203356 0 0.029181249973049363 0.00028286523461053785 0 0.029468266206475087 0.00040178548122171139 0 0.029414614614222796 0.00044144516647545717 0 0.029369359226123635 0.00041585049126658454 0 0.029481882829937921 0.00040355280635867563 0 0.029468266206475087 0.00040178548122171139 0 0.029414614614222796 0.00044144516647545717 0 0.029369359226123635 0.00041585049126658454 0 0.029289835249424724 0.0003877212522203356 0 0.029262345537808467 0.00047032013625243775 0 0.029414614614222796 0.00044144516647545717 0 0.029369359226123635 0.00041585049126658454 0 0.029262345537808467 0.00047032013625243775 0 0.029289835249424724 0.0003877212522203356 0 0.029262345537808467 0.00047032013625243775 0 0.029160003572312673 0.00040652270227972112 0 0.029468266206475087 0.00040178548122171139 0 0.029369359226123635 0.00041585049126658454 0 0.029289835249424724 0.0003877212522203356 0 0.030848747319028546 -0.0022859618408052279 0 0.026240112579375613 -0.0020122465229157403 0 0.026561354572681377 -0.00020799025723443234 0 0.026181360733710909 -0.0015179435622782575 0 0.02668087989691989 -0.0010360744811131358 0 0.029301339949216795 0.0011849412018605746 0 0.029846460768398007 0.00091801288421841849 0 0.028959233022577226 0.00079326710366141523 0 0.029846460768398007 0.00091801288421841849 0 0.029077952776432291 0.00045553813345491158 0 0.028959233022577226 0.00079326710366141523 0 0.029262345537808467 0.00047032013625243775 0 0.029077952776432291 0.00045553813345491158 0 0.029160003572312673 0.00040652270227972112 0 0.028800571701431018 -0.00031430407167636781 0 0.029440782973032025 0.0007840341572499435 0 0.029077952776432291 0.00045553813345491158 0 0.028959233022577226 0.00079326710366141523 0 0.028606038569739159 0.00057015104772234449 0 0.028580581841352502 0.00081376646722486985 0 0.02841612031276762 0.0010200924289497863 0 0.028710784520452882 0.0010422968743081466 0 0.028959233022577226 0.00079326710366141523 0 0.028580581841352502 0.00081376646722486985 0 0.028710784520452882 0.0010422968743081466 0 0.028959233022577226 0.00079326710366141523 0 0.028580581841352502 0.00081376646722486985 0 0.028606038569739159 0.00057015104772234449 0 0.027830697103168333 0.00061376255002316461 0 0.028580581841352502 0.00081376646722486985 0 0.02841612031276762 0.0010200924289497863 0 0.034855126168855825 0.001677300483347458 0 0.034864406218197419 0.0042223517836316275 0 0.03243164352815122 0.0011691956312685253 0 0.027830697103168333 0.00061376255002316461 0 0.028580581841352502 0.00081376646722486985 0 0.028606038569739159 0.00057015104772234449 0 0.028867955409332947 0.0043949721806911726 0 0.033176790886653693 0.0010856864976172289 0 0.039121136735387085 0.0013613738459044729 0 0.033176790886653693 0.0010856864976172289 0 0.04147053948927111 0.00046856800848340971 0 0.042090547678312329 -0.00030617065994458577 0 0.040795515564537796 -0.00042440217125600156 0 0.033176790886653693 0.0010856864976172289 0 0.028728323633163917 0.00059515791569869452 0 0.042351360710694605 0.000666976549216172 0 0.04147053948927111 0.00046856800848340971 0 0.042090547678312329 -0.00030617065994458577 0 0.029301339949216795 0.0011849412018605746 0 0.028959233022577226 0.00079326710366141523 0 0.028710784520452882 0.0010422968743081466 0 0.029301339949216795 0.0011849412018605746 0 0.028922346404123285 0.0015307065967159919 0 0.028710784520452882 0.0010422968743081466 0 0.033176790886653693 0.0010856864976172289 0 0.034687514517741061 0.00046176508757280669 0 0.02841867633064421 0.00097843725292362494 0 0.028922346404123285 0.0015307065967159919 0 0.028710784520452882 0.0010422968743081466 0 0.028654775547733276 8.6057336217070372e-05 0 0.028344458082643877 0.00022656534745994842 0 0.027963229219640787 0.0013931625389324897 0 0.028703726298146451 0.00026212089487165477 0 0.028770673872514405 0.00028687907300054742 0 0.028344458082643877 0.00022656534745994842 0 0.028654775547733276 8.6057336217070372e-05 0 0.028703726298146451 0.00026212089487165477 0 0.028344458082643877 0.00022656534745994842 0 0.020338523142427036 0.0073797917213417625 0 0.020113878432707618 0.0060564997931488842 0 0.021024013854910803 0.0064093780961628558 0 0.028867955409332947 0.0043949721806911726 0 0.023934798068021224 0.0034569418521368002 0 0.027830697103168333 0.00061376255002316461 0 0.028654775547733276 8.6057336217070372e-05 0 0.028703726298146451 0.00026212089487165477 0 0.027830697103168333 0.00061376255002316461 0 0.028606038569739159 0.00057015104772234449 0 0.028703726298146451 0.00026212089487165477 0 0.029077952776432291 0.00045553813345491158 0 0.028606038569739159 0.00057015104772234449 0 0.028703726298146451 0.00026212089487165477 0 0.029077952776432291 0.00045553813345491158 0 0.029160003572312673 0.00040652270227972112 0 0.028770673872514405 0.00028687907300054742 0 0.029077952776432291 0.00045553813345491158 0 0.028703726298146451 0.00026212089487165477 0 0.028770673872514405 0.00028687907300054742 0 0.029160003572312673 0.00040652270227972112 0 0.028770673872514405 0.00028687907300054742 0 0.029181249973049363 0.00028286523461053785 0 0.025826464324368695 -0.0033543620001604039 0 0.026460887114980021 -0.0021688061785474131 0 0.026986718446978877 -0.0018927614193909831 0 0.026181360733710909 -0.0015179435622782575 0 0.026299806579185233 -0.0014743477145605394 0 0.02668087989691989 -0.0010360744811131358 0 0.029289835249424724 0.0003877212522203356 0 0.029160003572312673 0.00040652270227972112 0 0.029181249973049363 0.00028286523461053785 0 0.026181360733710909 -0.0015179435622782575 0 0.026300446553503432 -0.0012915581093643914 0 0.027112157274323805 -0.00071921638599014345 0 0.026240112579375613 -0.0020122465229157403 0 0.027060257909367239 -0.00073432249637197188 0 0.026460887114980021 -0.0021688061785474131 0 0.026986718446978877 -0.0018927614193909831 0 0.027112157274323805 -0.00071921638599014345 0 0.026181360733710909 -0.0015179435622782575 0 0.026300446553503432 -0.0012915581093643914 0 0.026299806579185233 -0.0014743477145605394 0 0.026300446553503432 -0.0012915581093643914 0 0.026299806579185233 -0.0014743477145605394 0 0.026047435162806356 -0.0016756825404962098 0 0.026300446553503432 -0.0012915581093643914 0 0.026179732943813077 -0.00032415702045282058 0 0.026047435162806356 -0.0016756825404962098 0 0.026300446553503432 -0.0012915581093643914 0 0.026179732943813077 -0.00032415702045282058 0 0.027112157274323805 -0.00071921638599014345 0 0.026179732943813077 -0.00032415702045282058 0 0.027112157274323805 -0.00071921638599014345 0 0.027141297021266157 0.00033272560622441997 0 0.026179732943813077 -0.00032415702045282058 0 0.027141297021266157 0.00033272560622441997 0 0.025558698697616837 0.0012300255379355917 0 0.027648985529918652 -0.00082167819709799673 0 0.028515478868231199 0.00018261885467846776 0 0.028770673872514405 0.00028687907300054742 0 0.029181249973049363 0.00028286523461053785 0 0.028344458082643877 0.00022656534745994842 0 0.026986718446978877 -0.0018927614193909831 0 0.027112157274323805 -0.00071921638599014345 0 0.028344458082643877 0.00022656534745994842 0 0.027112157274323805 -0.00071921638599014345 0 0.027141297021266157 0.00033272560622441997 0 0.028344458082643877 0.00022656534745994842 0 0.027141297021266157 0.00033272560622441997 0 0.028344458082643877 0.00022656534745994842 0 0.027963229219640787 0.0013931625389324897 0 0.027141297021266157 0.00033272560622441997 0 0.027963229219640787 0.0013931625389324897 0 0.025558698697616837 0.0012300255379355917 0 0.027963229219640787 0.0013931625389324897 0 0.025558698697616837 0.0012300255379355917 0 0.023948698513404514 0.0038422168982512779 0 0.026179732943813077 -0.00032415702045282058 0 0.025558698697616837 0.0012300255379355917 0 0.024583024772610523 0.00060276943958022786 0 0.025090897778741562 0.0033930389404873075 0 0.02400239526879934 0.003879685063182261 0 0.021982139597774959 0.0056045649427724272 0 0.023948698513404514 0.0038422168982512779 0 0.022314571157896864 0.0040640952475596692 0 0.021982139597774959 0.0056045649427724272 0 0.022314571157896864 0.0040640952475596692 0 0.021389769998344996 0.0047595278624409801 0 0.022314571157896864 0.0040640952475596692 0 0.021389769998344996 0.0047595278624409801 0 0.021318461270809174 0.0038879130773075529 0 0.020595959880691791 0.0045728927568384576 0 0.021389769998344996 0.0047595278624409801 0 0.021318461270809174 0.0038879130773075529 0 0.020595959880691791 0.0045728927568384576 0 0.021389769998344996 0.0047595278624409801 0 0.020853759705143953 0.0054614690866731869 0 0.021982139597774959 0.0056045649427724272 0 0.021389769998344996 0.0047595278624409801 0 0.020853759705143953 0.0054614690866731869 0 0.023934798068021224 0.0034569418521368002 0 0.025090897778741562 0.0033930389404873075 0 0.021024013854910803 0.0064093780961628558 0 0.021982139597774959 0.0056045649427724272 0 0.020853759705143953 0.0054614690866731869 0 0.020113878432707618 0.0060564997931488842 0 0.021024013854910803 0.0064093780961628558 0 0.020853759705143953 0.0054614690866731869 0 0.020113878432707618 0.0060564997931488842 0 0.020853759705143953 0.0054614690866731869 0 0.020054859285447878 0.005205155128050273 0 0.020595959880691791 0.0045728927568384576 0 0.020853759705143953 0.0054614690866731869 0 0.020054859285447878 0.005205155128050273 0 0.020595959880691791 0.0045728927568384576 0 0.020054859285447878 0.005205155128050273 0 0.019761148739129031 0.0043484033761193681 0 0.019314831894246386 0.0033284747372941924 0 0.019761148739129031 0.0043484033761193681 0 0.020329797557939584 0.003720641497681676 0 0.020595959880691791 0.0045728927568384576 0 0.019761148739129031 0.0043484033761193681 0 0.020329797557939584 0.003720641497681676 0 0.020595959880691791 0.0045728927568384576 0 0.020329797557939584 0.003720641497681676 0 0.021318461270809174 0.0038879130773075529 0 0.020329797557939584 0.003720641497681676 0 0.021318461270809174 0.0038879130773075529 0 0.02089429231391908 0.0031366192987426042 0 0.020329797557939584 0.003720641497681676 0 0.02089429231391908 0.0031366192987426042 0 0.019993456539727769 0.0029542881626962781 0 0.02089429231391908 0.0031366192987426042 0 0.019993456539727769 0.0029542881626962781 0 0.020286555814158887 0.0024327378643877059 0 0.019314831894246386 0.0033284747372941924 0 0.019993456539727769 0.0029542881626962781 0 0.019281048448465104 0.0023755576600635424 0 0.019314831894246386 0.0033284747372941924 0 0.020329797557939584 0.003720641497681676 0 0.019993456539727769 0.0029542881626962781 0 0.019993456539727769 0.0029542881626962781 0 0.019281048448465104 0.0023755576600635424 0 0.020286555814158887 0.0024327378643877059 0 0.019281048448465104 0.0023755576600635424 0 0.020286555814158887 0.0024327378643877059 0 0.019657534642016763 0.0017480206620270637 0 0.020286555814158887 0.0024327378643877059 0 0.019657534642016763 0.0017480206620270637 0 0.020580187723458036 0.001971478746945868 0 0.019657534642016763 0.0017480206620270637 0 0.020071049030857668 0.0012688208774477758 0 0.018961892887591068 0.00099142970739909703 0 0.019657534642016763 0.0017480206620270637 0 0.020580187723458036 0.001971478746945868 0 0.020071049030857668 0.0012688208774477758 0 0.018502889105511556 0.0020478813358090833 0 0.019281048448465104 0.0023755576600635424 0 0.018755703529000148 0.0015461028128596693 0 0.019281048448465104 0.0023755576600635424 0 0.019657534642016763 0.0017480206620270637 0 0.018755703529000148 0.0015461028128596693 0 0.019657534642016763 0.0017480206620270637 0 0.018755703529000148 0.0015461028128596693 0 0.018961892887591068 0.00099142970739909703 0 0.021490200805462063 0.0017949184358478888 0 0.022022111343554168 0.0012276698381551183 0 0.02271372218923744 0.002024361401035301 0 0.021490200805462063 0.0017949184358478888 0 0.020580187723458036 0.001971478746945868 0 0.020071049030857668 0.0012688208774477758 0 0.021490200805462063 0.0017949184358478888 0 0.020580187723458036 0.001971478746945868 0 0.021387220107378382 0.002569415747009576 0 0.020286555814158887 0.0024327378643877059 0 0.020580187723458036 0.001971478746945868 0 0.021387220107378382 0.002569415747009576 0 0.02089429231391908 0.0031366192987426042 0 0.020286555814158887 0.0024327378643877059 0 0.021387220107378382 0.002569415747009576 0 0.021490200805462063 0.0017949184358478888 0 0.0223449530839358 0.002629019094436968 0 0.02271372218923744 0.002024361401035301 0 0.021490200805462063 0.0017949184358478888 0 0.021387220107378382 0.002569415747009576 0 0.0223449530839358 0.002629019094436968 0 0.021387220107378382 0.002569415747009576 0 0.0223449530839358 0.002629019094436968 0 0.022125147808111093 0.0033084828355777031 0 0.0223449530839358 0.002629019094436968 0 0.022125147808111093 0.0033084828355777031 0 0.023049404473595613 0.0032368614743967824 0 0.02089429231391908 0.0031366192987426042 0 0.021387220107378382 0.002569415747009576 0 0.022125147808111093 0.0033084828355777031 0 0.021318461270809174 0.0038879130773075529 0 0.02089429231391908 0.0031366192987426042 0 0.022125147808111093 0.0033084828355777031 0 0.022314571157896864 0.0040640952475596692 0 0.021318461270809174 0.0038879130773075529 0 0.022125147808111093 0.0033084828355777031 0 0.023948698513404514 0.0038422168982512779 0 0.022314571157896864 0.0040640952475596692 0 0.023166107793431326 0.0035704768029151783 0 0.022314571157896864 0.0040640952475596692 0 0.022125147808111093 0.0033084828355777031 0 0.023166107793431326 0.0035704768029151783 0 0.022125147808111093 0.0033084828355777031 0 0.023166107793431326 0.0035704768029151783 0 0.023049404473595613 0.0032368614743967824 0 0.023948698513404514 0.0038422168982512779 0 0.023166107793431326 0.0035704768029151783 0 0.023530145797850146 0.0037357684285091015 0 0.023530145797850146 0.0037357684285091015 0 0.023049404473595613 0.0032368614743967824 0 0.023398672797531266 0.0031432554251423629 0 0.023166107793431326 0.0035704768029151783 0 0.023530145797850146 0.0037357684285091015 0 0.023049404473595613 0.0032368614743967824 0 0.023530145797850146 0.0037357684285091015 0 0.023847810142220212 0.0032864195429141195 0 0.023398672797531266 0.0031432554251423629 0 0.023530145797850146 0.0037357684285091015 0 0.023882807734134932 0.0035955343174254107 0 0.023849480335797663 0.003755869145468022 0 0.023530145797850146 0.0037357684285091015 0 0.023847810142220212 0.0032864195429141195 0 0.023882807734134932 0.0035955343174254107 0 0.023847810142220212 0.0032864195429141195 0 0.023398672797531266 0.0031432554251423629 0 0.023576345704927774 0.0025567812338195338 0 0.023847810142220212 0.0032864195429141195 0 0.023576345704927774 0.0025567812338195338 0 0.024063228065421285 0.0028263428564650377 0 0.023398672797531266 0.0031432554251423629 0 0.023002663260796127 0.0026948891460339651 0 0.023576345704927774 0.0025567812338195338 0 0.0223449530839358 0.002629019094436968 0 0.023049404473595613 0.0032368614743967824 0 0.023002663260796127 0.0026948891460339651 0 0.023049404473595613 0.0032368614743967824 0 0.023398672797531266 0.0031432554251423629 0 0.023002663260796127 0.0026948891460339651 0 0.023002663260796127 0.0026948891460339651 0 0.023576345704927774 0.0025567812338195338 0 0.02271372218923744 0.002024361401035301 0 0.0223449530839358 0.002629019094436968 0 0.023002663260796127 0.0026948891460339651 0 0.02271372218923744 0.002024361401035301 0 0.023576345704927774 0.0025567812338195338 0 0.023486446705127766 0.0017769715723159637 0 0.02271372218923744 0.002024361401035301 0 0.023576345704927774 0.0025567812338195338 0 0.02437347706800147 0.0022708683025161771 0 0.024063228065421285 0.0028263428564650377 0 0.023576345704927774 0.0025567812338195338 0 0.023486446705127766 0.0017769715723159637 0 0.02437347706800147 0.0022708683025161771 0 0.023486446705127766 0.0017769715723159637 0 0.02437347706800147 0.0022708683025161771 0 0.024224772269341967 0.0012141831229298809 0 0.023486446705127766 0.0017769715723159637 0 0.024224772269341967 0.0012141831229298809 0 0.023401768786080475 0.00094668105289578345 0 0.023486446705127766 0.0017769715723159637 0 0.022836910555357467 0.0014120393706749446 0 0.023401768786080475 0.00094668105289578345 0 0.022022111343554168 0.0012276698381551183 0 0.022836910555357467 0.0014120393706749446 0 0.02271372218923744 0.002024361401035301 0 0.022022111343554168 0.0012276698381551183 0 0.022836910555357467 0.0014120393706749446 0 0.022525616855780094 0.00099448862013380604 0 0.023486446705127766 0.0017769715723159637 0 0.022836910555357467 0.0014120393706749446 0 0.02271372218923744 0.002024361401035301 0 0.020094957137381807 0.0013911274476884562 0 0.020144795104111043 0.0013349067062082139 0 0.020146631197950165 0.0013321052675628396 0 0.020001986390354727 0.0014082857256490502 0 0.020094957137381807 0.0013911274476884562 0 0.020322643239272853 0.001469027180704398 0 0.020001986390354727 0.0014082857256490502 0 0.020094957137381807 0.0013911274476884562 0 0.019708403363142356 0.0012938802701199287 0 0.020094957137381807 0.0013911274476884562 0 0.020160559347746694 0.0013303361962361316 0 0.020144795104111043 0.0013349067062082139 0 0.022377041392783865 0.0017583863614780164 0 0.021188574543238067 0.0016453727230716531 0 0.020094957137381807 0.0013911274476884562 0 0.020160559347746694 0.0013303361962361316 0 0.020322643239272853 0.001469027180704398 0 0.019657467971176068 0.0013377421822305157 0 0.021188574543238067 0.0016453727230716531 0 0.02023340204941014 0.001317120993420535 0 0.020160559347746694 0.0013303361962361316 0 0.020322643239272853 0.001469027180704398 0 0.022377041392783865 0.0017583863614780164 0 0.022290991142074348 0.0022487455509884046 0 0.02023340204941014 0.001317120993420535 0 0.02018837189147378 0.0013112944215626788 0 0.020160559347746694 0.0013303361962361316 0 0.02023340204941014 0.001317120993420535 0 0.02018837189147378 0.0013112944215626788 0 0.020213784978724614 0.001309696308675863 0 0.02018837189147378 0.0013112944215626788 0 0.020160559347746694 0.0013303361962361316 0 0.020144795104111043 0.0013349067062082139 0 0.02018837189147378 0.0013112944215626788 0 0.020144795104111043 0.0013349067062082139 0 0.020172791794944592 0.0013146541421042888 0 0.02018837189147378 0.0013112944215626788 0 0.020213784978724614 0.001309696308675863 0 0.020230596489465014 0.0013118681779187022 0 0.02018837189147378 0.0013112944215626788 0 0.020230596489465014 0.0013118681779187022 0 0.020172791794944592 0.0013146541421042888 0 0.02437347706800147 0.0022708683025161771 0 0.024063228065421285 0.0028263428564650377 0 0.02445366488103207 0.003174072946499362 0 0.023847810142220212 0.0032864195429141195 0 0.024063228065421285 0.0028263428564650377 0 0.02445366488103207 0.003174072946499362 0 0.023847810142220212 0.0032864195429141195 0 0.02445366488103207 0.003174072946499362 0 0.024473942528947121 0.0038777049956976953 0 0.02445366488103207 0.003174072946499362 0 0.024473942528947121 0.0038777049956976953 0 0.024568971605595343 0.0039771822443588406 0 0.02399818920502169 0.00343956069511695 0 0.023922578429135199 0.0034754180395637677 0 0.023847810142220212 0.0032864195429141195 0 0.024071398124916387 0.003657153276345772 0 0.023882807734134932 0.0035955343174254107 0 0.022290991142074348 0.0022487455509884046 0 0.022950671525214336 0.0025716018638597478 0 0.023922578429135199 0.0034754180395637677 0 0.022950671525214336 0.0025716018638597478 0 0.024071398124916387 0.003657153276345772 0 0.023882807734134932 0.0035955343174254107 0 0.023971949901633427 0.0036919347714262471 0 0.022600192409209179 0.00072580394879649668 0 0.022721974896817241 0.0021058612962103311 0 0.020213784978724614 0.001309696308675863 0 0.020230596489465014 0.0013118681779187022 0 0.02023604563535401 0.0013444126476443497 0 0.020230596489465014 0.0013118681779187022 0 0.020259300991896066 0.0013605515348337029 0 0.02023604563535401 0.0013444126476443497 0 0.024963787421935186 0.00035767795485237657 0 0.024675987325560072 0.0012747029480518939 0 0.025078895536588302 0.0010706292296045804 0 0.024097239869343808 0.003741199117754365 0 0.024157037848649868 0.0037343874099077358 0 0.024087752944459809 0.0036789212005723044 0 0.022721974896817241 0.0021058612962103311 0 0.022950671525214336 0.0025716018638597478 0 0.024097239869343808 0.003741199117754365 0 0.024157037848649868 0.0037343874099077358 0 0.024226594450384685 0.0037727633016133404 0 0.024097239869343808 0.003741199117754365 0 0.024118716182087541 0.0037988191972269073 0 0.024226594450384685 0.0037727633016133404 0 0.024097239869343808 0.003741199117754365 0 0.024118716182087541 0.0037988191972269073 0 0.024039464027277222 0.0037749438033846932 0 0.024675987325560072 0.0012747029480518939 0 0.024948365758285736 0.0015398291695207921 0 0.025078895536588302 0.0010706292296045804 0 0.022721974896817241 0.0021058612962103311 0 0.024272773998850968 0.0028767873507933106 0 0.024226594450384685 0.0037727633016133404 0 0.024172291450686331 0.0038476187502306568 0 0.024252533232294669 0.0038972738636905212 0 0.024252533232294669 0.0038972738636905212 0 0.024119965180502662 0.0039569189366500113 0 0.024356290652909465 0.0039710837928231459 0 0.024118716182087541 0.0037988191972269073 0 0.024226594450384685 0.0037727633016133404 0 0.024172291450686331 0.0038476187502306568 0 0.024118716182087541 0.0037988191972269073 0 0.024172291450686331 0.0038476187502306568 0 0.024114095043463773 0.0038699582664853864 0 0.024118716182087541 0.0037988191972269073 0 0.024114095043463773 0.0038699582664853864 0 0.024044956426753052 0.0038337811768227336 0 0.024172291450686331 0.0038476187502306568 0 0.024114095043463773 0.0038699582664853864 0 0.024163320332513939 0.0038924646849683611 0 0.024114095043463773 0.0038699582664853864 0 0.024048570259090404 0.0038932229297100412 0 0.024119965180502662 0.0039569189366500113 0 0.024114095043463773 0.0038699582664853864 0 0.024163320332513939 0.0038924646849683611 0 0.024119965180502662 0.0039569189366500113 0 0.024163320332513939 0.0038924646849683611 0 0.024252533232294669 0.0038972738636905212 0 0.024119965180502662 0.0039569189366500113 0 0.024172291450686331 0.0038476187502306568 0 0.024163320332513939 0.0038924646849683611 0 0.024252533232294669 0.0038972738636905212 0 0.024005784849120582 0.0039243483264705748 0 0.024048570259090404 0.0038932229297100412 0 0.024119965180502662 0.0039569189366500113 0 0.024223608260204008 0.0039126465337716012 0 0.023930136711032241 0.0038759653135171392 0 0.024005784849120582 0.0039243483264705748 0 0.024048570259090404 0.0038932229297100412 0 0.023972535126701895 0.003863018233431912 0 0.024048570259090404 0.0038932229297100412 0 0.024044956426753052 0.0038337811768227336 0 0.023972535126701895 0.003863018233431912 0 0.024114095043463773 0.0038699582664853864 0 0.024048570259090404 0.0038932229297100412 0 0.024044956426753052 0.0038337811768227336 0 0.024044956426753052 0.0038337811768227336 0 0.023972535126701895 0.003863018233431912 0 0.023947789347667465 0.0038066347509629638 0 0.023947789347667465 0.0038066347509629638 0 0.023977072530999052 0.0037453814053043859 0 0.023849480335797663 0.003755869145468022 0 0.023947789347667465 0.0038066347509629638 0 0.024039464027277222 0.0037749438033846932 0 0.023977072530999052 0.0037453814053043859 0 0.024118716182087541 0.0037988191972269073 0 0.024044956426753052 0.0038337811768227336 0 0.024039464027277222 0.0037749438033846932 0 0.024044956426753052 0.0038337811768227336 0 0.023947789347667465 0.0038066347509629638 0 0.024039464027277222 0.0037749438033846932 0 0.024097239869343808 0.003741199117754365 0 0.024039464027277222 0.0037749438033846932 0 0.02403860841288365 0.0037223507575558862 0 0.024071398124916387 0.003657153276345772 0 0.024097239869343808 0.003741199117754365 0 0.024087752944459809 0.0036789212005723044 0 0.024071398124916387 0.003657153276345772 0 0.024097239869343808 0.003741199117754365 0 0.02403860841288365 0.0037223507575558862 0 0.02403860841288365 0.0037223507575558862 0 0.023977072530999052 0.0037453814053043859 0 0.023971949901633427 0.0036919347714262471 0 0.024039464027277222 0.0037749438033846932 0 0.02403860841288365 0.0037223507575558862 0 0.023977072530999052 0.0037453814053043859 0 0.024071398124916387 0.003657153276345772 0 0.02403860841288365 0.0037223507575558862 0 0.023971949901633427 0.0036919347714262471 0 0.023882807734134932 0.0035955343174254107 0 0.023971949901633427 0.0036919347714262471 0 0.023849480335797663 0.003755869145468022 0 0.023977072530999052 0.0037453814053043859 0 0.023971949901633427 0.0036919347714262471 0 0.023849480335797663 0.003755869145468022 0 0.023530145797850146 0.0037357684285091015 0 0.023849480335797663 0.003755869145468022 0 0.023796938228902269 0.0038425427546353837 0 0.023523656160695475 0.0034474694318873309 0 0.023077001821096878 0.0034810355422300191 0 0.023947789347667465 0.0038066347509629638 0 0.023849480335797663 0.003755869145468022 0 0.023796938228902269 0.0038425427546353837 0 0.023530145797850146 0.0037357684285091015 0 0.02404383482279198 0.002494799457860315 0 0.02286372365313254 0.0021335923535360526 0 0.025558698697616837 0.0012300255379355917 0 0.023948698513404514 0.0038422168982512779 0 0.02404383482279198 0.002494799457860315 0 0.023948698513404514 0.0038422168982512779 0 0.023530145797850146 0.0037357684285091015 0 0.02404383482279198 0.002494799457860315 0 0.02404383482279198 0.002494799457860315 0 0.024583024772610523 0.00060276943958022786 0 0.02286372365313254 0.0021335923535360526 0 0.025558698697616837 0.0012300255379355917 0 0.02404383482279198 0.002494799457860315 0 0.024583024772610523 0.00060276943958022786 0 0.023077001821096878 0.0034810355422300191 0 0.026533074915126593 -0.00113391184589798 0 0.024005784849120582 0.0039243483264705748 0 0.023796938228902269 0.0038425427546353837 0 0.023815838952936395 0.0041126707779513333 0 0.024583024772610523 0.00060276943958022786 0 0.02286372365313254 0.0021335923535360526 0 0.022371076766769901 -0.00095194441848949732 0 0.023972535126701895 0.003863018233431912 0 0.023947789347667465 0.0038066347509629638 0 0.023796938228902269 0.0038425427546353837 0 0.024005784849120582 0.0039243483264705748 0 0.023972535126701895 0.003863018233431912 0 0.023796938228902269 0.0038425427546353837 0 0.026179732943813077 -0.00032415702045282058 0 0.024583024772610523 0.00060276943958022786 0 0.026047435162806356 -0.0016756825404962098 0 0.026533074915126593 -0.00113391184589798 0 0.025641428023291443 -0.0017739678932213088 0 0.024583024772610523 0.00060276943958022786 0 0.022371076766769901 -0.00095194441848949732 0 0.026047435162806356 -0.0016756825404962098 0 0.028567194273936503 -0.0025856222751903901 0 0.026047435162806356 -0.0016756825404962098 0 0.027671740979971729 -0.0015541452189952269 0 0.026299806579185233 -0.0014743477145605394 0 0.026047435162806356 -0.0016756825404962098 0 0.027671740979971729 -0.0015541452189952269 0 0.026299806579185233 -0.0014743477145605394 0 0.027671740979971729 -0.0015541452189952269 0 0.02668087989691989 -0.0010360744811131358 0 0.02995170157593284 -0.0036672008515682597 0 0.02983806192786391 -0.0051090745063776567 0 0.030654308908447572 -0.0041476492413269539 0 0.028693540984365256 -0.0015311861078917087 0 0.028567194273936503 -0.0025856222751903901 0 0.027671740979971729 -0.0015541452189952269 0 0.029538139973070504 -0.0030849081835069765 0 0.026533074915126593 -0.00113391184589798 0 0.028693540984365256 -0.0015311861078917087 0 0.028426049631180745 -0.0015779211904464313 0 0.027671740979971729 -0.0015541452189952269 0 0.02983806192786391 -0.0051090745063776567 0 0.030654308908447572 -0.0041476492413269539 0 0.030974329958792002 -0.0047038831468797547 0 0.031419688274459907 -0.0030503233615153075 0 0.030654308908447572 -0.0041476492413269539 0 0.031382677239588951 -0.0040884528517103683 0 0.030654308908447572 -0.0041476492413269539 0 0.030974329958792002 -0.0047038831468797547 0 0.031382677239588951 -0.0040884528517103683 0 0.030974329958792002 -0.0047038831468797547 0 0.031382677239588951 -0.0040884528517103683 0 0.031673047980573771 -0.0047370929926315889 0 0.031883213766841868 -0.0036198436958732 0 0.031382677239588951 -0.0040884528517103683 0 0.032218465257261159 -0.0041660611571552658 0 0.032625238888746563 -0.0032675679279416947 0 0.032218465257261159 -0.0041660611571552658 0 0.032847281180692404 -0.0040480006479522504 0 0.032218465257261159 -0.0041660611571552658 0 0.032286377696798471 -0.0048452414143002409 0 0.032772181803948496 -0.0045944492391898602 0 0.032218465257261159 -0.0041660611571552658 0 0.031673047980573771 -0.0047370929926315889 0 0.032286377696798471 -0.0048452414143002409 0 0.031382677239588951 -0.0040884528517103683 0 0.032218465257261159 -0.0041660611571552658 0 0.031673047980573771 -0.0047370929926315889 0 0.031673047980573771 -0.0047370929926315889 0 0.031925827415250012 -0.0050669097467118699 0 0.032286377696798471 -0.0048452414143002409 0 0.031673047980573771 -0.0047370929926315889 0 0.031925827415250012 -0.0050669097467118699 0 0.031438035646312215 -0.005390876895414563 0 0.032256275436820026 -0.0052038679920039547 0 0.031438035646312215 -0.005390876895414563 0 0.032895915681191205 -0.005572326928355997 0 0.024676726020509264 0.0037990600606340936 0 0.024433590546787173 0.0040746594957027614 0 0.025610106126922178 0.0038136525708429422 0 0.028312764960348881 -0.00082262523542577697 0 0.027792907413182008 0.0010898584232887532 0 0.031925827415250012 -0.0050669097467118699 0 0.032256275436820026 -0.0052038679920039547 0 0.031438035646312215 -0.005390876895414563 0 0.023930136711032241 0.0038759653135171392 0 0.027792907413182008 0.0010898584232887532 0 0.031925827415250012 -0.0050669097467118699 0 0.032286377696798471 -0.0048452414143002409 0 0.032256275436820026 -0.0052038679920039547 0 0.032286377696798471 -0.0048452414143002409 0 0.032256275436820026 -0.0052038679920039547 0 0.032728514389567066 -0.0051439469420681743 0 0.02983806192786391 -0.0051090745063776567 0 0.030974329958792002 -0.0047038831468797547 0 0.031438035646312215 -0.005390876895414563 0 0.024005784849120582 0.0039243483264705748 0 0.024676726020509264 0.0037990600606340936 0 0.024433590546787173 0.0040746594957027614 0 0.026533074915126593 -0.00113391184589798 0 0.028312764960348881 -0.00082262523542577697 0 0.024005784849120582 0.0039243483264705748 0 0.023815838952936395 0.0041126707779513333 0 0.024433590546787173 0.0040746594957027614 0 0.030974329958792002 -0.0047038831468797547 0 0.031673047980573771 -0.0047370929926315889 0 0.031438035646312215 -0.005390876895414563 0 0.027743919000989683 0.0021898573364076764 0 0.027676242900179299 0.0021455921423390277 0 0.027659083965243116 0.0022031093058816819 0 0.028217858875427691 0.0010646828068597203 0 0.026931665070052648 0.0022793355265829465 0 0.025867017262925986 0.0023566696851158378 0 0.026727249264190067 0.0023607538076669443 0 0.026252456605977994 0.0021409506686865211 0 0.033709485566129023 -0.0049520951384502236 0 0.033205020977220057 -0.0050280080546263439 0 0.033681052790687109 -0.0046548487459387288 0 0.033709485566129023 -0.0049520951384502236 0 0.033524988833881879 -0.0055123805650378194 0 0.034422506242090443 -0.0046146068817001359 0 0.033709485566129023 -0.0049520951384502236 0 0.033681052790687109 -0.0046548487459387288 0 0.034422506242090443 -0.0046146068817001359 0 0.028217858875427691 0.0010646828068597203 0 0.030817770301751056 -0.0015705790990634327 0 0.028217858875427691 0.0010646828068597203 0 0.027792907413182008 0.0010898584232887532 0 0.033524988833881879 -0.0055123805650378194 0 0.032895915681191205 -0.005572326928355997 0 0.033205020977220057 -0.0050280080546263439 0 0.027792907413182008 0.0010898584232887532 0 0.02647013856330176 0.0020417398646753885 0 0.02739757104167884 0.0010619231197303608 0 0.027616550649382014 0.0010662001220623177 0 0.027444118066812819 0.0011080900493103656 0 0.033709485566129023 -0.0049520951384502236 0 0.033524988833881879 -0.0055123805650378194 0 0.033205020977220057 -0.0050280080546263439 0 0.028217858875427691 0.0010646828068597203 0 0.02647013856330176 0.0020417398646753885 0 0.032895915681191205 -0.005572326928355997 0 0.032728514389567066 -0.0051439469420681743 0 0.033205020977220057 -0.0050280080546263439 0 0.032256275436820026 -0.0052038679920039547 0 0.032895915681191205 -0.005572326928355997 0 0.032728514389567066 -0.0051439469420681743 0 0.032728514389567066 -0.0051439469420681743 0 0.033205020977220057 -0.0050280080546263439 0 0.032772181803948496 -0.0045944492391898602 0 0.032286377696798471 -0.0048452414143002409 0 0.032728514389567066 -0.0051439469420681743 0 0.032772181803948496 -0.0045944492391898602 0 0.033205020977220057 -0.0050280080546263439 0 0.03328262121564849 -0.0043955983215684469 0 0.033681052790687109 -0.0046548487459387288 0 0.033205020977220057 -0.0050280080546263439 0 0.03328262121564849 -0.0043955983215684469 0 0.032772181803948496 -0.0045944492391898602 0 0.03328262121564849 -0.0043955983215684469 0 0.032772181803948496 -0.0045944492391898602 0 0.032847281180692404 -0.0040480006479522504 0 0.032218465257261159 -0.0041660611571552658 0 0.032772181803948496 -0.0045944492391898602 0 0.032847281180692404 -0.0040480006479522504 0 0.03328262121564849 -0.0043955983215684469 0 0.033321121552228342 -0.0038378237956478321 0 0.033881748347019035 -0.0041441894308058263 0 0.03328262121564849 -0.0043955983215684469 0 0.032847281180692404 -0.0040480006479522504 0 0.033321121552228342 -0.0038378237956478321 0 0.033802054826694183 -0.0034395380861933049 0 0.033321121552228342 -0.0038378237956478321 0 0.033881748347019035 -0.0041441894308058263 0 0.03328262121564849 -0.0043955983215684469 0 0.033881748347019035 -0.0041441894308058263 0 0.033681052790687109 -0.0046548487459387288 0 0.033881748347019035 -0.0041441894308058263 0 0.033681052790687109 -0.0046548487459387288 0 0.034422506242090443 -0.0046146068817001359 0 0.033881748347019035 -0.0041441894308058263 0 0.034538538601595808 -0.0039329568965180322 0 0.034422506242090443 -0.0046146068817001359 0 0.033802054826694183 -0.0034395380861933049 0 0.033881748347019035 -0.0041441894308058263 0 0.034538538601595808 -0.0039329568965180322 0 0.034554751752957587 -0.0012050178578489894 0 0.030817770301751056 -0.0015705790990634327 0 0.035310265285665846 -0.0037307761356521114 0 0.034538538601595808 -0.0039329568965180322 0 0.034422506242090443 -0.0046146068817001359 0 0.027664268961213139 0.0021405514089960116 0 0.027628638732041553 0.0021785195368949528 0 0.027676242900179299 0.0021455921423390277 0 0.034554751752957587 -0.0012050178578489894 0 0.031652852229671596 0.0030254354187251331 0 0.036940217593165459 0.00074881520930086842 0 0.037661427498339242 0.00066369543715546705 0 0.037155459624519944 0.0013611813892241869 0 0.027664268961213139 0.0021405514089960116 0 0.027628638732041553 0.0021785195368949528 0 0.027685145789370837 0.0022651145002866887 0 0.037661427498339242 0.00066369543715546705 0 0.037752643999049935 0.00075939369605109537 0 0.037155459624519944 0.0013611813892241869 0 0.026281621987853696 0.0030356950236205948 0 0.031652852229671596 0.0030254354187251331 0 0.027540437619492902 0.0021517146966708966 0 0.027503545278896913 0.0019051689305513578 0 0.027685145789370837 0.0022651145002866887 0 0.027628638732041553 0.0021785195368949528 0 0.027540437619492902 0.0021517146966708966 0 0.027685145789370837 0.0022651145002866887 0 0.027628638732041553 0.0021785195368949528 0 0.027540437619492902 0.0021517146966708966 0 0.027626368200400792 0.0021699979547850274 0 0.027540437619492902 0.0021517146966708966 0 0.027626368200400792 0.0021699979547850274 0 0.027659083965243116 0.0022031093058816819 0 0.027579942164195424 0.0021966075480995325 0 0.026931665070052648 0.0022793355265829465 0 0.027540437619492902 0.0021517146966708966 0 0.026727249264190067 0.0023607538076669443 0 0.027063688649880346 0.0020256882600659019 0 0.027676242900179299 0.0021455921423390277 0 0.027626368200400792 0.0021699979547850274 0 0.027659083965243116 0.0022031093058816819 0 0.027628638732041553 0.0021785195368949528 0 0.027676242900179299 0.0021455921423390277 0 0.027626368200400792 0.0021699979547850274 0 0.026727249264190067 0.0023607538076669443 0 0.026631876355346119 0.0019780340750855632 0 0.027063688649880346 0.0020256882600659019 0 0.027063688649880346 0.0020256882600659019 0 0.026799663328908523 0.0016611576344533346 0 0.027503545278896913 0.0019051689305513578 0 0.026631876355346119 0.0019780340750855632 0 0.026799663328908523 0.0016611576344533346 0 0.026319334499499313 0.0016893976571114837 0 0.026631876355346119 0.0019780340750855632 0 0.027063688649880346 0.0020256882600659019 0 0.026799663328908523 0.0016611576344533346 0 0.027540437619492902 0.0021517146966708966 0 0.027063688649880346 0.0020256882600659019 0 0.027503545278896913 0.0019051689305513578 0 0.026281621987853696 0.0030356950236205948 0 0.025973411733670349 0.0013060068955943133 0 0.026079966188122469 0.0040458688809084714 0 0.024913123327847429 0.0016853731257576731 0 0.027400383870157415 0.0028199994597996325 0 0.026799663328908523 0.0016611576344533346 0 0.026479953147915045 0.001140788435388853 0 0.027014435951750279 0.00080737336534636905 0 0.026799663328908523 0.0016611576344533346 0 0.027503545278896913 0.0019051689305513578 0 0.027014435951750279 0.00080737336534636905 0 0.026799663328908523 0.0016611576344533346 0 0.026479953147915045 0.001140788435388853 0 0.026319334499499313 0.0016893976571114837 0 0.026479953147915045 0.001140788435388853 0 0.02583796372084356 0.0013493039454038132 0 0.026120386541274569 0.00064757994142432989 0 0.02583796372084356 0.0013493039454038132 0 0.025430900198866947 0.00087527618466426232 0 0.026120386541274569 0.00064757994142432989 0 0.026479953147915045 0.001140788435388853 0 0.02583796372084356 0.0013493039454038132 0 0.026319334499499313 0.0016893976571114837 0 0.02583796372084356 0.0013493039454038132 0 0.026319334499499313 0.0016893976571114837 0 0.025905373854565313 0.001854312834977394 0 0.026319334499499313 0.0016893976571114837 0 0.025905373854565313 0.001854312834977394 0 0.026252456605977994 0.0021409506686865211 0 0.025867017262925986 0.0023566696851158378 0 0.026252456605977994 0.0021409506686865211 0 0.02576520070916289 0.0022541434128812918 0 0.026016843780626946 0.0021791027555919233 0 0.02647013856330176 0.0020417398646753885 0 0.025905373854565313 0.001854312834977394 0 0.026252456605977994 0.0021409506686865211 0 0.025721487363602774 0.0022753492411305902 0 0.026631876355346119 0.0019780340750855632 0 0.026319334499499313 0.0016893976571114837 0 0.026252456605977994 0.0021409506686865211 0 0.026727249264190067 0.0023607538076669443 0 0.026631876355346119 0.0019780340750855632 0 0.026252456605977994 0.0021409506686865211 0 0.024272773998850968 0.0028767873507933106 0 0.02647013856330176 0.0020417398646753885 0 0.024948365758285736 0.0015398291695207921 0 0.025721487363602774 0.0022753492411305902 0 0.025545767750473933 0.001675991937215484 0 0.024226594450384685 0.0037727633016133404 0 0.024252533232294669 0.0038972738636905212 0 0.024470680006259789 0.0039375469078385874 0 0.024252533232294669 0.0038972738636905212 0 0.024356290652909465 0.0039710837928231459 0 0.024470680006259789 0.0039375469078385874 0 0.025905373854565313 0.001854312834977394 0 0.025721487363602774 0.0022753492411305902 0 0.025545767750473933 0.001675991937215484 0 0.02583796372084356 0.0013493039454038132 0 0.025905373854565313 0.001854312834977394 0 0.025545767750473933 0.001675991937215484 0 0.024948365758285736 0.0015398291695207921 0 0.025545767750473933 0.001675991937215484 0 0.025356898783019374 0.0013322646914939807 0 0.024948365758285736 0.0015398291695207921 0 0.025356898783019374 0.0013322646914939807 0 0.025078895536588302 0.0010706292296045804 0 0.02583796372084356 0.0013493039454038132 0 0.025545767750473933 0.001675991937215484 0 0.025356898783019374 0.0013322646914939807 0 0.02583796372084356 0.0013493039454038132 0 0.025356898783019374 0.0013322646914939807 0 0.025430900198866947 0.00087527618466426232 0 0.025356898783019374 0.0013322646914939807 0 0.025078895536588302 0.0010706292296045804 0 0.025430900198866947 0.00087527618466426232 0 0.025430900198866947 0.00087527618466426232 0 0.026120386541274569 0.00064757994142432989 0 0.025659434946584733 6.9702706155386516e-05 0 0.024963787421935186 0.00035767795485237657 0 0.025430900198866947 0.00087527618466426232 0 0.025659434946584733 6.9702706155386516e-05 0 0.024963787421935186 0.00035767795485237657 0 0.025078895536588302 0.0010706292296045804 0 0.025430900198866947 0.00087527618466426232 0 0.025659434946584733 6.9702706155386516e-05 0 0.02574671526929603 -0.00066995724361943517 0 0.02648649362012058 -0.00025151675961156871 0 0.026120386541274569 0.00064757994142432989 0 0.025659434946584733 6.9702706155386516e-05 0 0.02648649362012058 -0.00025151675961156871 0 0.022600192409209179 0.00072580394879649668 0 0.022797357861437027 0.00032196422118864503 0 0.025659434946584733 6.9702706155386516e-05 0 0.025211693419110871 -0.00051651443979817155 0 0.02574671526929603 -0.00066995724361943517 0 0.024963787421935186 0.00035767795485237657 0 0.025659434946584733 6.9702706155386516e-05 0 0.025211693419110871 -0.00051651443979817155 0 0.025211693419110871 -0.00051651443979817155 0 0.02574671526929603 -0.00066995724361943517 0 0.025440039033318131 -0.0013742205441429581 0 0.022797357861437027 0.00032196422118864503 0 0.021378445688618075 0.00023657199973432905 0 0.020144795104111043 0.0013349067062082139 0 0.020172791794944592 0.0013146541421042888 0 0.020146631197950165 0.0013321052675628396 0 0.02574671526929603 -0.00066995724361943517 0 0.02597064597679152 -0.0012668734079295024 0 0.02648649362012058 -0.00025151675961156871 0 0.019457702857211878 0.00064564274977172635 0 0.025653259342985339 -0.00090397193318752589 0 0.02574671526929603 -0.00066995724361943517 0 0.02597064597679152 -0.0012668734079295024 0 0.025440039033318131 -0.0013742205441429581 0 0.019457702857211878 0.00064564274977172635 0 0.021378445688618075 0.00023657199973432905 0 0.010479924349373579 0.0068973319895225043 0 0.0098140031832769144 0.0053128008096102559 0 0.01111507457047115 0.0055321627611694124 0 0.017448580171502311 0.0011578016184197674 0 0.018493996832241271 0.0013850415397021476 0 0.018069170794736526 0.0026981595620419151 0 0.019457702857211878 0.00064564274977172635 0 0.013926370223470654 0.0038057735585607442 0 0.019619180410981495 0.0014221680680863774 0 0.021378445688618075 0.00023657199973432905 0 0.021378445688618075 0.00023657199973432905 0 0.013926370223470654 0.0038057735585607442 0 0.019788404867473228 0.0014724011398795469 0 0.019708403363142356 0.0012938802701199287 0 0.019602506484348386 0.0015795534376601885 0 0.020001986390354727 0.0014082857256490502 0 0.019788404867473228 0.0014724011398795469 0 0.019708403363142356 0.0012938802701199287 0 0.012194569864521365 0.0060983415018972869 0 0.012611289558035945 0.0074424109088324138 0 0.013619152143453654 0.0057086555853344519 0 0.012611289558035945 0.0074424109088324138 0 0.015097098735383323 0.0079036258686093087 0 0.013619152143453654 0.0057086555853344519 0 0.019457702857211878 0.00064564274977172635 0 0.018347047562721881 0.002431035557444262 0 0.010479924349373579 0.0068973319895225043 0 0.012194569864521365 0.0060983415018972869 0 0.012611289558035945 0.0074424109088324138 0 0.010479924349373579 0.0068973319895225043 0 0.012194569864521365 0.0060983415018972869 0 0.01111507457047115 0.0055321627611694124 0 0.022706107687096626 -0.003144093083720391 0 0.025083096290910725 -0.0026725231025794623 0 0.023785427442776404 -0.00076695227838435409 0 0.025083096290910725 -0.0026725231025794623 0 0.026122817090749026 -0.00072475962339893279 0 0.023785427442776404 -0.00076695227838435409 0 0.025083096290910725 -0.0026725231025794623 0 0.026122817090749026 -0.00072475962339893279 0 0.027478100160981796 -0.002220392870207226 0 0.018347047562721881 0.002431035557444262 0 0.021139665005124323 0.0028860659162888587 0 0.026122817090749026 -0.00072475962339893279 0 0.023785427442776404 -0.00076695227838435409 0 0.024913123327847429 0.0016853731257576731 0 0.026120386541274569 0.00064757994142432989 0 0.02648649362012058 -0.00025151675961156871 0 0.027014435951750279 0.00080737336534636905 0 0.025653259342985339 -0.00090397193318752589 0 0.025973411733670349 0.0013060068955943133 0 0.026479953147915045 0.001140788435388853 0 0.026120386541274569 0.00064757994142432989 0 0.027014435951750279 0.00080737336534636905 0 0.026122817090749026 -0.00072475962339893279 0 0.024913123327847429 0.0016853731257576731 0 0.027313865171505587 0.0007089258266821804 0 0.024913123327847429 0.0016853731257576731 0 0.027313865171505587 0.0007089258266821804 0 0.027400383870157415 0.0028199994597996325 0 0.027313865171505587 0.0007089258266821804 0 0.028932944176221276 0.0017242870555383078 0 0.027400383870157415 0.0028199994597996325 0 0.027313865171505587 0.0007089258266821804 0 0.028932944176221276 0.0017242870555383078 0 0.028825230359393737 0.00026942582946156882 0 0.028932944176221276 0.0017242870555383078 0 0.030012641305153187 0.0005449938094237636 0 0.03099509199426111 0.0028176571501888413 0 0.028932944176221276 0.0017242870555383078 0 0.028825230359393737 0.00026942582946156882 0 0.030012641305153187 0.0005449938094237636 0 0.029643004176337459 -0.00058403780627461872 0 0.028222233762196673 -0.00087480733166943304 0 0.030002590304027826 -0.0017238950276973254 0 0.028825230359393737 0.00026942582946156882 0 0.030012641305153187 0.0005449938094237636 0 0.029643004176337459 -0.00058403780627461872 0 0.030012641305153187 0.0005449938094237636 0 0.029643004176337459 -0.00058403780627461872 0 0.031024437351403894 -0.00035924277453223421 0 0.028825230359393737 0.00026942582946156882 0 0.029643004176337459 -0.00058403780627461872 0 0.028222233762196673 -0.00087480733166943304 0 0.029643004176337459 -0.00058403780627461872 0 0.030286996063320033 -0.0015060868008437713 0 0.031024437351403894 -0.00035924277453223421 0 0.029314297413384007 -0.001981033705566077 0 0.025106583424662147 0.0022638262161424039 0 0.026122817090749026 -0.00072475962339893279 0 0.027313865171505587 0.0007089258266821804 0 0.028222233762196673 -0.00087480733166943304 0 0.026122817090749026 -0.00072475962339893279 0 0.028222233762196673 -0.00087480733166943304 0 0.027478100160981796 -0.002220392870207226 0 0.027313865171505587 0.0007089258266821804 0 0.028825230359393737 0.00026942582946156882 0 0.028222233762196673 -0.00087480733166943304 0 0.015097098735383323 0.0079036258686093087 0 0.017610048590231159 0.0080254194934248155 0 0.015982310470342469 0.0060222192465892001 0 0.028222233762196673 -0.00087480733166943304 0 0.027478100160981796 -0.002220392870207226 0 0.030002590304027826 -0.0017238950276973254 0 0.021139665005124323 0.0028860659162888587 0 0.025106583424662147 0.0022638262161424039 0 0.017610048590231159 0.0080254194934248155 0 0.015982310470342469 0.0060222192465892001 0 0.01844728463903424 0.0061567001856751994 0 0.015097098735383323 0.0079036258686093087 0 0.015982310470342469 0.0060222192465892001 0 0.013619152143453654 0.0057086555853344519 0 0.028557855058339913 -1.019704532347241e-06 0 0.028561234576232556 9.1198497629721626e-05 0 0.027258825565723246 -0.00010652487293706862 0 0.027847661910600358 -6.966985183636383e-05 0 0.028561234576232556 9.1198497629721626e-05 0 0.027258825565723246 -0.00010652487293706862 0 0.025106583424662147 0.0022638262161424039 0 0.030598611403633607 0.00015852786408766716 0 0.025106583424662147 0.0022638262161424039 0 0.022691821414018796 0.0036074404164710802 0 0.027351578352368108 0.0011074002671839255 0 0.028561234576232556 9.1198497629721626e-05 0 0.028620105181090292 0.00093046707575514666 0 0.027351578352368108 0.0011074002671839255 0 0.027847661910600358 -6.966985183636383e-05 0 0.028561234576232556 9.1198497629721626e-05 0 0.028557855058339913 -1.019704532347241e-06 0 0.028561234576232556 9.1198497629721626e-05 0 0.031370940060058715 2.9262976571112549e-06 0 0.028561234576232556 9.1198497629721626e-05 0 0.031370940060058715 2.9262976571112549e-06 0 0.028620105181090292 0.00093046707575514666 0 0.031373936811984554 -4.7214116406839413e-08 0 0.030598611403633607 0.00015852786408766716 0 0.031379070343948802 -1.7463076642368418e-07 0 0.032236768151375869 -0.00024884412307676202 0 0.031957989218541524 -0.00072261141937188396 0 0.031379070343948802 -1.7463076642368418e-07 0 0.032236768151375869 -0.00024884412307676202 0 0.033369244715998815 0.00021837433158636808 0 0.030286996063320033 -0.0015060868008437713 0 0.031957989218541524 -0.00072261141937188396 0 0.031024437351403894 -0.00035924277453223421 0 0.032236768151375869 -0.00024884412307676202 0 0.031957989218541524 -0.00072261141937188396 0 0.031024437351403894 -0.00035924277453223421 0 0.032236768151375869 -0.00024884412307676202 0 0.031024437351403894 -0.00035924277453223421 0 0.031456023163438429 0.00039569259473551946 0 0.030012641305153187 0.0005449938094237636 0 0.031024437351403894 -0.00035924277453223421 0 0.031456023163438429 0.00039569259473551946 0 0.030012641305153187 0.0005449938094237636 0 0.031456023163438429 0.00039569259473551946 0 0.03099509199426111 0.0028176571501888413 0 0.031456023163438429 0.00039569259473551946 0 0.033369244715998815 0.00021837433158636808 0 0.03099509199426111 0.0028176571501888413 0 0.033369244715998815 0.00021837433158636808 0 0.034541070940951747 8.837249577213861e-07 0 0.037343299656395046 0.00011817923969264752 0 0.031379070343948802 -1.7463076642368418e-07 0 0.033369244715998815 0.00021837433158636808 0 0.034541070940951747 8.837249577213861e-07 0 0.032236768151375869 -0.00024884412307676202 0 0.031456023163438429 0.00039569259473551946 0 0.033369244715998815 0.00021837433158636808 0 0.03361683975358274 0.00033846611454912295 0 0.034183305300910259 0.0012771067566354326 0 0.034541070940951747 8.837249577213861e-07 0 0.036814379045409427 -0.00018141466396918437 0 0.037343299656395046 0.00011817923969264752 0 0.03770842634732538 -1.4140182999509746e-06 0 0.036814379045409427 -0.00018141466396918437 0 0.037893234032448403 -0.0003320918227999276 0 0.034541070940951747 8.837249577213861e-07 0 0.03770842634732538 -1.4140182999509746e-06 0 0.036814379045409427 -0.00018141466396918437 0 0.036814379045409427 -0.00018141466396918437 0 0.037893234032448403 -0.0003320918227999276 0 0.037343299656395046 0.00011817923969264752 0 0.037893234032448403 -0.0003320918227999276 0 0.037343299656395046 0.00011817923969264752 0 0.038121998048153742 -0.0002428305222308061 0 0.028932944176221276 0.0017242870555383078 0 0.03099509199426111 0.0028176571501888413 0 0.029044824016477958 0.0030747441055442937 0 0.028932944176221276 0.0017242870555383078 0 0.029044824016477958 0.0030747441055442937 0 0.027400383870157415 0.0028199994597996325 0 0.026628722001284841 0.0032470776858280412 0 0.033126681410109549 0.0025693217505508592 0 0.026079966188122469 0.0040458688809084714 0 0.027400383870157415 0.0028199994597996325 0 0.028686015807746882 0.0046647955692907432 0 0.029044824016477958 0.0030747441055442937 0 0.027400383870157415 0.0028199994597996325 0 0.028855819985434319 0.0049443380248592279 0 0.034183305300910259 0.0012771067566354326 0 0.033126681410109549 0.0025693217505508592 0 0.03099509199426111 0.0028176571501888413 0 0.029044824016477958 0.0030747441055442937 0 0.028855819985434319 0.0049443380248592279 0 0.03745524716440396 0.00087476592779810929 0 0.038153275344639068 0.0018457794986146017 0 0.037373211149871653 0.0021182655299581774 0 0.033126681410109549 0.0025693217505508592 0 0.038266129968932305 0.00073285193323924605 0 0.037893234032448403 -0.0003320918227999276 0 0.038121998048153742 -0.0002428305222308061 0 0.038170002678268408 -0.00026943854090091563 0 0.03745524716440396 0.00087476592779810929 0 0.036432454897122608 0.0019242870573311158 0 0.037373211149871653 0.0021182655299581774 0 0.026079966188122469 0.0040458688809084714 0 0.028686015807746882 0.0046647955692907432 0 0.027116709033114583 0.006242011297837885 0 0.033126681410109549 0.0025693217505508592 0 0.031652852229671596 0.0030254354187251331 0 0.036941599607414763 0.0030196513268781989 0 0.036432454897122608 0.0019242870573311158 0 0.037373211149871653 0.0021182655299581774 0 0.041852169488241747 0.00073284846381549732 0 0.031652852229671596 0.0030254354187251331 0 0.036941599607414763 0.0030196513268781989 0 0.037373211149871653 0.0021182655299581774 0 0.037888695703474314 0.0029300558071990159 0 0.038153275344639068 0.0018457794986146017 0 0.037373211149871653 0.0021182655299581774 0 0.037888695703474314 0.0029300558071990159 0 0.038153275344639068 0.0018457794986146017 0 0.037888695703474314 0.0029300558071990159 0 0.038851255591167831 0.0028315603091689304 0 0.041386315969873813 0.001915510737603059 0 0.040876649339024705 0.0012597293905945205 0 0.038266129968932305 0.00073285193323924605 0 0.040876649339024705 0.0012597293905945205 0 0.038170002678268408 -0.00026943854090091563 0 0.039059911206525251 0.00051060624695846793 0 0.039238591824804617 -0.00020761626296271672 0 0.040876649339024705 0.0012597293905945205 0 0.04053885024061224 0.00051941529817420729 0 0.039059911206525251 0.00051060624695846793 0 0.040771031138004905 0.0002091695807334744 0 0.039238591824804617 -0.00020761626296271672 0 0.040874163098445618 9.4527497697453305e-07 0 0.040771031138004905 0.0002091695807334744 0 0.039238591824804617 -0.00020761626296271672 0 0.03770842634732538 -1.4140182999509746e-06 0 0.037893234032448403 -0.0003320918227999276 0 0.039238591824804617 -0.00020761626296271672 0 0.03770842634732538 -1.4140182999509746e-06 0 0.040874163098445618 9.4527497697453305e-07 0 0.039238591824804617 -0.00020761626296271672 0 0.037893234032448403 -0.0003320918227999276 0 0.038170002678268408 -0.00026943854090091563 0 0.039238591824804617 -0.00020761626296271672 0 0.014007385278633818 -0.0002510100510431438 0 0.012227199942705819 -0.00047008506916556035 0 0.01522225021448558 -0.00022728933980817965 0 0.016809770077907099 3.4794196774019875e-08 0 0.014007385278633818 -0.0002510100510431438 0 0.01522225021448558 -0.00022728933980817965 0 0.016809770077907099 3.4794196774019875e-08 0 0.014007385278633818 -0.0002510100510431438 0 0.013754947484682471 -6.8674291854072695e-07 0 0.014007385278633818 -0.0002510100510431438 0 0.013754947484682471 -6.8674291854072695e-07 0 0.010714485885813425 -0.00033543656637490015 0 0.014007385278633818 -0.0002510100510431438 0 0.012227199942705819 -0.00047008506916556035 0 0.010714485885813425 -0.00033543656637490015 0 0.012227199942705819 -0.00047008506916556035 0 0.011024474589901466 -0.00055753756072500135 0 0.010291093937976316 -0.00054015519261496983 0 0.011024474589901466 -0.00055753756072500135 0 0.0095514058973939411 -0.0007132206420279283 0 0.010291093937976316 -0.00054015519261496983 0 0.012227199942705819 -0.00047008506916556035 0 0.011024474589901466 -0.00055753756072500135 0 0.012375447129214031 -0.00029343753321175916 0 0.011024474589901466 -0.00055753756072500135 0 0.012375447129214031 -0.00029343753321175916 0 0.010347585441545839 -0.00062189643949413904 0 0.012227199942705819 -0.00047008506916556035 0 0.012375447129214031 -0.00029343753321175916 0 0.01522225021448558 -0.00022728933980817965 0 0.012375447129214031 -0.00029343753321175916 0 0.013995526229431119 0.00057999649999366924 0 0.01522225021448558 -0.00022728933980817965 0 0.012375447129214031 -0.00029343753321175916 0 0.013995526229431119 0.00057999649999366924 0 0.011521232450815971 6.6178175501007555e-05 0 0.013995526229431119 0.00057999649999366924 0 0.01522225021448558 -0.00022728933980817965 0 0.017609806699053435 0.00029173382604459586 0 0.016809770077907099 3.4794196774019875e-08 0 0.01522225021448558 -0.00022728933980817965 0 0.019866844944501843 -2.0899631802892081e-06 0 0.01522225021448558 -0.00022728933980817965 0 0.019866844944501843 -2.0899631802892081e-06 0 0.017609806699053435 0.00029173382604459586 0 0.022912815768680775 7.8657693801253291e-06 0 0.020049208091412942 0.0043329934528701106 0 0.016480966655215548 0.0019824579471677799 0 0.019866844944501843 -2.0899631802892081e-06 0 0.017609806699053435 0.00029173382604459586 0 0.022912815768680775 7.8657693801253291e-06 0 0.017609806699053435 0.00029173382604459586 0 0.022912815768680775 7.8657693801253291e-06 0 0.016480966655215548 0.0019824579471677799 0 0.022922653933992537 1.8847134780453983e-07 0 0.023299327912764633 0.0018305021668226337 0 0.022923871363106071 7.4054267018035251e-07 0 0.025740352066402898 -1.2707471827412363e-07 0 0.026339819177948795 6.6498264268830437e-05 0 0.020049208091412942 0.0043329934528701106 0 0.016693646538887674 0.0043088182996436171 0 0.016480966655215548 0.0019824579471677799 0 0.022691821414018796 0.0036074404164710802 0 0.023299327912764633 0.0018305021668226337 0 0.01844728463903424 0.0061567001856751994 0 0.020049208091412942 0.0043329934528701106 0 0.016693646538887674 0.0043088182996436171 0 0.028557855058339913 -1.019704532347241e-06 0 0.025740352066402898 -1.2707471827412363e-07 0 0.027258825565723246 -0.00010652487293706862 0 0.027847661910600358 -6.966985183636383e-05 0 0.026339819177948795 6.6498264268830437e-05 0 0.027258825565723246 -0.00010652487293706862 0 0.025740352066402898 -1.2707471827412363e-07 0 0.026339819177948795 6.6498264268830437e-05 0 0.027258825565723246 -0.00010652487293706862 0 0.015982310470342469 0.0060222192465892001 0 0.014222870237292958 0.0038990237844216927 0 0.013619152143453654 0.0057086555853344519 0 0.015982310470342469 0.0060222192465892001 0 0.01844728463903424 0.0061567001856751994 0 0.016693646538887674 0.0043088182996436171 0 0.015982310470342469 0.0060222192465892001 0 0.016693646538887674 0.0043088182996436171 0 0.014222870237292958 0.0038990237844216927 0 0.016693646538887674 0.0043088182996436171 0 0.01527112158557512 0.0030073855616333241 0 0.016480966655215548 0.0019824579471677799 0 0.016693646538887674 0.0043088182996436171 0 0.01527112158557512 0.0030073855616333241 0 0.014222870237292958 0.0038990237844216927 0 0.01527112158557512 0.0030073855616333241 0 0.014222870237292958 0.0038990237844216927 0 0.013838762882986853 0.0019310286102577803 0 0.01527112158557512 0.0030073855616333241 0 0.013838762882986853 0.0019310286102577803 0 0.016480966655215548 0.0019824579471677799 0 0.013995526229431119 0.00057999649999366924 0 0.017609806699053435 0.00029173382604459586 0 0.016480966655215548 0.0019824579471677799 0 0.013995526229431119 0.00057999649999366924 0 0.013838762882986853 0.0019310286102577803 0 0.016480966655215548 0.0019824579471677799 0 0.013995526229431119 0.00057999649999366924 0 0.013838762882986853 0.0019310286102577803 0 0.012006433706059519 0.0013274315968372129 0 0.012006433706059519 0.0013274315968372129 0 0.010692566120112844 0.0014178001773193427 0 0.010650678581474494 0.00054071145562664257 0 0.012006433706059519 0.0013274315968372129 0 0.011356608355955792 0.0025008429901378719 0 0.010692566120112844 0.0014178001773193427 0 0.012006433706059519 0.0013274315968372129 0 0.011356608355955792 0.0025008429901378719 0 0.012555403882444442 0.0028896552437790556 0 0.011356608355955792 0.0025008429901378719 0 0.012555403882444442 0.0028896552437790556 0 0.011634138984432663 0.0036447084495931877 0 0.011356608355955792 0.0025008429901378719 0 0.011634138984432663 0.0036447084495931877 0 0.010417002942318523 0.0031957116693963673 0 0.014222870237292958 0.0038990237844216927 0 0.013838762882986853 0.0019310286102577803 0 0.012555403882444442 0.0028896552437790556 0 0.013838762882986853 0.0019310286102577803 0 0.012006433706059519 0.0013274315968372129 0 0.012555403882444442 0.0028896552437790556 0 0.014222870237292958 0.0038990237844216927 0 0.012555403882444442 0.0028896552437790556 0 0.012836457152460425 0.0040835244255028064 0 0.012555403882444442 0.0028896552437790556 0 0.012836457152460425 0.0040835244255028064 0 0.011634138984432663 0.0036447084495931877 0 0.011634138984432663 0.0036447084495931877 0 0.012042378425220428 0.0048725400915944099 0 0.010945332188725379 0.0045203918395971395 0 0.012836457152460425 0.0040835244255028064 0 0.011634138984432663 0.0036447084495931877 0 0.012042378425220428 0.0048725400915944099 0 0.012042378425220428 0.0048725400915944099 0 0.01111507457047115 0.0055321627611694124 0 0.010945332188725379 0.0045203918395971395 0 0.012194569864521365 0.0060983415018972869 0 0.012042378425220428 0.0048725400915944099 0 0.01111507457047115 0.0055321627611694124 0 0.012194569864521365 0.0060983415018972869 0 0.012042378425220428 0.0048725400915944099 0 0.013619152143453654 0.0057086555853344519 0 0.014222870237292958 0.0038990237844216927 0 0.012836457152460425 0.0040835244255028064 0 0.013619152143453654 0.0057086555853344519 0 0.012836457152460425 0.0040835244255028064 0 0.012042378425220428 0.0048725400915944099 0 0.013619152143453654 0.0057086555853344519 0 0.01984210288568989 0.001598615611312906 0 0.019602506484348386 0.0015795534376601885 0 0.019690118082962862 0.0018039330989636641 0 0.013926370223470654 0.0038057735585607442 0 0.01458523884531886 0.0027203093330026178 0 0.019844556622603614 0.0017320473776002347 0 0.01984210288568989 0.001598615611312906 0 0.019690118082962862 0.0018039330989636641 0 0.019788404867473228 0.0014724011398795469 0 0.01984210288568989 0.001598615611312906 0 0.019602506484348386 0.0015795534376601885 0 0.020001986390354727 0.0014082857256490502 0 0.019788404867473228 0.0014724011398795469 0 0.01984210288568989 0.001598615611312906 0 0.0098140031832769144 0.0053128008096102559 0 0.01111507457047115 0.0055321627611694124 0 0.010945332188725379 0.0045203918395971395 0 0.013926370223470654 0.0038057735585607442 0 0.0097486244573318365 0.0033411599706294876 0 0.011634138984432663 0.0036447084495931877 0 0.010945332188725379 0.0045203918395971395 0 0.010417002942318523 0.0031957116693963673 0 0.009891435801572734 0.0041282248768646458 0 0.010233160459274308 0.0028737318388293307 0 0.0095547802169203729 0.0034108914734597554 0 0.0098140031832769144 0.0053128008096102559 0 0.010945332188725379 0.0045203918395971395 0 0.010417002942318523 0.0031957116693963673 0 0.0097850251717745314 0.002905178803850046 0 0.009500254657969498 0.0028853337489826432 0 0.0095547802169203729 0.0034108914734597554 0 0.010233160459274308 0.0028737318388293307 0 0.0097850251717745314 0.002905178803850046 0 0.0095547802169203729 0.0034108914734597554 0 0.0097850251717745314 0.002905178803850046 0 0.009500254657969498 0.0028853337489826432 0 0.0095622676453042173 0.0027152476679604323 0 0.019844556622603614 0.0017320473776002347 0 0.019690118082962862 0.0018039330989636641 0 0.019872633680547404 0.0018490447555722072 0 0.01458523884531886 0.0027203093330026178 0 0.012690894891937057 0.0018686065548961541 0 0.019690118082962862 0.0018039330989636641 0 0.019760726262790063 0.0020367642586511278 0 0.019872633680547404 0.0018490447555722072 0 0.009500254657969498 0.0028853337489826432 0 0.0095547802169203729 0.0034108914734597554 0 0.0092208749291848094 0.0026723466379144556 0 0.0026434561667896131 0.0043120107456089286 0 0.0028137087375416552 0.0042443910378336695 0 0.0018009520101802503 0.0028918774398365692 0 0.0093583582779187269 0.0026286975756223338 0 0.0093799743068162088 0.002721723876113696 0 0.0095622676453042173 0.0027152476679604323 0 0.009500254657969498 0.0028853337489826432 0 0.0092208749291848094 0.0026723466379144556 0 0.0093799743068162088 0.002721723876113696 0 0.008880742734414292 0.0032119906789332977 0 0.0088914427733352841 0.0031458474951551541 0 0.0092208749291848094 0.0026723466379144556 0 0.009358610095086305 0.0026169471740634066 0 0.0093799743068162088 0.002721723876113696 0 0.012690894891937057 0.0018686065548961541 0 0.008880742734414292 0.0032119906789332977 0 0.008880742734414292 0.0032119906789332977 0 0.0097173051856141047 0.0026455040024243193 0 0.009500254657969498 0.0028853337489826432 0 0.0093799743068162088 0.002721723876113696 0 0.0095622676453042173 0.0027152476679604323 0 0.0097850251717745314 0.002905178803850046 0 0.0095622676453042173 0.0027152476679604323 0 0.0097529878378354376 0.0024343679180582945 0 0.0092155989673877586 0.0026280013370589372 0 0.0097529878378354376 0.0024343679180582945 0 0.0094601017154494847 0.002236071393811758 0 0.0093583582779187269 0.0026286975756223338 0 0.0095622676453042173 0.0027152476679604323 0 0.0097529878378354376 0.0024343679180582945 0 0.0097529878378354376 0.0024343679180582945 0 0.0095547779079423155 0.0020562441773686671 0 0.0098636555445105415 0.0017707846008148112 0 0.0097529878378354376 0.0024343679180582945 0 0.0094601017154494847 0.002236071393811758 0 0.0095547779079423155 0.0020562441773686671 0 0.0094601017154494847 0.002236071393811758 0 0.0095547779079423155 0.0020562441773686671 0 0.0093230366072678209 0.0018308215767657598 0 0.0092155989673877586 0.0026280013370589372 0 0.0094601017154494847 0.002236071393811758 0 0.0093230366072678209 0.0018308215767657598 0 0.010233160459274308 0.0028737318388293307 0 0.0098636555445105415 0.0017707846008148112 0 0.010692566120112844 0.0014178001773193427 0 0.010233160459274308 0.0028737318388293307 0 0.0097529878378354376 0.0024343679180582945 0 0.0098636555445105415 0.0017707846008148112 0 0.011356608355955792 0.0025008429901378719 0 0.010417002942318523 0.0031957116693963673 0 0.010692566120112844 0.0014178001773193427 0 0.0097486244573318365 0.0033411599706294876 0 0.010858185756657033 0.0013295539513961036 0 0.010233160459274308 0.0028737318388293307 0 0.0097850251717745314 0.002905178803850046 0 0.0097529878378354376 0.0024343679180582945 0 0.0098636555445105415 0.0017707846008148112 0 0.010692566120112844 0.0014178001773193427 0 0.0099229941554476262 0.00098405741593509733 0 0.0092155989673877586 0.0026280013370589372 0 0.0093230366072678209 0.0018308215767657598 0 0.0089046363093986149 0.0010167186861471513 0 0.008880742734414292 0.0032119906789332977 0 0.0051040280256561561 0.0017951085705047002 0 0.0098636555445105415 0.0017707846008148112 0 0.0093230366072678209 0.0018308215767657598 0 0.0094652932461253766 0.0012662153152893864 0 0.0095547779079423155 0.0020562441773686671 0 0.0098636555445105415 0.0017707846008148112 0 0.0093230366072678209 0.0018308215767657598 0 0.0098636555445105415 0.0017707846008148112 0 0.0094652932461253766 0.0012662153152893864 0 0.0099229941554476262 0.00098405741593509733 0 0.0093230366072678209 0.0018308215767657598 0 0.0094652932461253766 0.0012662153152893864 0 0.0089046363093986149 0.0010167186861471513 0 0.0094432290504177282 0.00075085142207988479 0 0.0092109904321526388 0.00029565876861736726 0 0.0089046363093986149 0.0010167186861471513 0 0.0094652932461253766 0.0012662153152893864 0 0.0094432290504177282 0.00075085142207988479 0 0.0089046363093986149 0.0010167186861471513 0 0.0094652932461253766 0.0012662153152893864 0 0.0094432290504177282 0.00075085142207988479 0 0.0099229941554476262 0.00098405741593509733 0 0.0094432290504177282 0.00075085142207988479 0 0.0092109904321526388 0.00029565876861736726 0 0.0097093721521765205 0.00027510355477535994 0 0.0094432290504177282 0.00075085142207988479 0 0.0097093721521765205 0.00027510355477535994 0 0.0099229941554476262 0.00098405741593509733 0 0.0092109904321526388 0.00029565876861736726 0 0.0092799677277659778 -0.00026698199584450816 0 0.0087780981412604007 -0.0001743129490372101 0 0.0092109904321526388 0.00029565876861736726 0 0.0097093721521765205 0.00027510355477535994 0 0.0092799677277659778 -0.00026698199584450816 0 0.0097093721521765205 0.00027510355477535994 0 0.0092799677277659778 -0.00026698199584450816 0 0.0099910897176218802 -0.00037454247044775536 0 0.0097093721521765205 0.00027510355477535994 0 0.010650678581474494 0.00054071145562664257 0 0.0099910897176218802 -0.00037454247044775536 0 0.0097093721521765205 0.00027510355477535994 0 0.0099229941554476262 0.00098405741593509733 0 0.010650678581474494 0.00054071145562664257 0 0.010692566120112844 0.0014178001773193427 0 0.0099229941554476262 0.00098405741593509733 0 0.010650678581474494 0.00054071145562664257 0 0.012006433706059519 0.0013274315968372129 0 0.010650678581474494 0.00054071145562664257 0 0.011521232450815971 6.6178175501007555e-05 0 0.013995526229431119 0.00057999649999366924 0 0.012006433706059519 0.0013274315968372129 0 0.011521232450815971 6.6178175501007555e-05 0 0.010650678581474494 0.00054071145562664257 0 0.011521232450815971 6.6178175501007555e-05 0 0.0099910897176218802 -0.00037454247044775536 0 0.011521232450815971 6.6178175501007555e-05 0 0.010347585441545839 -0.00062189643949413904 0 0.0099910897176218802 -0.00037454247044775536 0 0.010347585441545839 -0.00062189643949413904 0 0.0095162380021565161 -0.00073617685377784362 0 0.0099910897176218802 -0.00037454247044775536 0 0.012375447129214031 -0.00029343753321175916 0 0.011521232450815971 6.6178175501007555e-05 0 0.010347585441545839 -0.00062189643949413904 0 0.011024474589901466 -0.00055753756072500135 0 0.010347585441545839 -0.00062189643949413904 0 0.0095514058973939411 -0.0007132206420279283 0 0.010347585441545839 -0.00062189643949413904 0 0.0091318314011968483 -0.00082100663340616269 0 0.0095514058973939411 -0.0007132206420279283 0 0.010347585441545839 -0.00062189643949413904 0 0.0095162380021565161 -0.00073617685377784362 0 0.0091318314011968483 -0.00082100663340616269 0 0.0095162380021565161 -0.00073617685377784362 0 0.0092867605236184019 -0.00066827413539401485 0 0.0090750421832372242 -0.00086450391171476572 0 0.0090701420896709562 -0.00077438310463698225 0 0.0092867605236184019 -0.00066827413539401485 0 0.0090750421832372242 -0.00086450391171476572 0 0.0090701420896709562 -0.00077438310463698225 0 0.0092867605236184019 -0.00066827413539401485 0 0.0090278297945807565 -0.00056326751406303834 0 0.0092867605236184019 -0.00066827413539401485 0 0.0092799677277659778 -0.00026698199584450816 0 0.0090278297945807565 -0.00056326751406303834 0 0.0092799677277659778 -0.00026698199584450816 0 0.0090278297945807565 -0.00056326751406303834 0 0.0087780981412604007 -0.0001743129490372101 0 0.0095162380021565161 -0.00073617685377784362 0 0.0092867605236184019 -0.00066827413539401485 0 0.0099910897176218802 -0.00037454247044775536 0 0.0092867605236184019 -0.00066827413539401485 0 0.0092799677277659778 -0.00026698199584450816 0 0.0099910897176218802 -0.00037454247044775536 0 0.00070293585337366179 0.00079788678143236482 0 0.00062257164056505742 0.00083054229530357942 0 0.0010733948139109621 0.0016685242532001056 0 0.0036562821835977809 -6.3957809098830968e-05 0 0.0053312284055470616 0.00061329764191744157 0 0.00070293585337366179 0.00079788678143236482 0 0.00081537108803168249 0.00086502288831579355 0 0.0014237170132324454 0.0012105983262404721 0 0.0090278297945807565 -0.00056326751406303834 0 0.0087880608341012571 -0.00077459599908044478 0 0.0087780981412604007 -0.0001743129490372101 0 0.00081537108803168249 0.00086502288831579355 0 0.00084169370059862547 0.00081600579977557234 0 0.0014237170132324454 0.0012105983262404721 0 0.0090701420896709562 -0.00077438310463698225 0 0.0090278297945807565 -0.00056326751406303834 0 0.0087880608341012571 -0.00077459599908044478 0 0.00081537108803168249 0.00086502288831579355 0 0.00083180889895763323 0.0008969799365582859 0 0.00088935799897754968 0.0010981082678267994 0 0.0027329988120700227 0.00064395432014390972 0 0.0036562821835977809 -6.3957809098830968e-05 0 0.00070293585337366179 0.00079788678143236482 0 0.0003235365250229802 0.00016128677840273744 0 0.00026088393739903199 -7.2538259280122196e-05 0 0.00065925616076012927 0.00081217747186417195 0 0.00054903224784228627 0.00056301991139500363 0 0.00070293585337366179 0.00079788678143236482 0 0.00081537108803168249 0.00086502288831579355 0 0.00088935799897754968 0.0010981082678267994 0 0.00062257164056505742 0.00083054229530357942 0 0.0003235365250229802 0.00016128677840273744 0 2.0267962821260715e-05 9.7508925267468182e-05 0 0.00070293585337366179 0.00079788678143236482 0 0.00062257164056505742 0.00083054229530357942 0 0.0003235365250229802 0.00016128677840273744 0 0.016678920474230832 0.00068092810263709936 0 0.016540879992550397 0.00053808994108679243 0 0.016726373987597562 0.00044180619561420392 0 0.0088497535949122619 0.00087370497916488784 0 0.0069546198980348787 0.00016683660311672663 0 0.016766208850421266 0.00080985320747678101 0 0.016678920474230832 0.00068092810263709936 0 0.016726373987597562 0.00044180619561420392 0 0.016540879992550397 0.00053808994108679243 0 0.016601205908675556 0.00074488652186079313 0 0.016315035140552828 0.00056901054815125822 0 0.016678920474230832 0.00068092810263709936 0 0.016540879992550397 0.00053808994108679243 0 0.016601205908675556 0.00074488652186079313 0 0.016601205908675556 0.00074488652186079313 0 0.016742025566650283 0.0009658233450989764 0 0.016483098881806726 0.00081629503535394794 0 0.016601205908675556 0.00074488652186079313 0 0.016718356696314461 0.00085815167182304829 0 0.016742025566650283 0.0009658233450989764 0 0.016766208850421266 0.00080985320747678101 0 0.016718356696314461 0.00085815167182304829 0 0.016712168379875922 0.00090044474373331812 0 0.016766208850421266 0.00080985320747678101 0 0.016678920474230832 0.00068092810263709936 0 0.016718356696314461 0.00085815167182304829 0 0.016678920474230832 0.00068092810263709936 0 0.016601205908675556 0.00074488652186079313 0 0.016718356696314461 0.00085815167182304829 0 0.016718356696314461 0.00085815167182304829 0 0.016750371034205052 0.00092947645263044662 0 0.016742025566650283 0.0009658233450989764 0 0.016718356696314461 0.00085815167182304829 0 0.016712168379875922 0.00090044474373331812 0 0.016750371034205052 0.00092947645263044662 0 0.016712168379875922 0.00090044474373331812 0 0.016750371034205052 0.00092947645263044662 0 0.016697418613057294 0.00090063179204565187 0 0.016750371034205052 0.00092947645263044662 0 0.016742025566650283 0.0009658233450989764 0 0.016951598273342548 0.00088266685316084671 0 0.016742025566650283 0.0009658233450989764 0 0.016951598273342548 0.00088266685316084671 0 0.016864693635200836 0.0011013624562821972 0 0.016750371034205052 0.00092947645263044662 0 0.016951598273342548 0.00088266685316084671 0 0.016768121259894953 0.0008554051663163402 0 0.016750371034205052 0.00092947645263044662 0 0.016768121259894953 0.0008554051663163402 0 0.016697418613057294 0.00090063179204565187 0 0.016768121259894953 0.0008554051663163402 0 0.016637430334171588 0.0008245905290995343 0 0.016697418613057294 0.00090063179204565187 0 0.016637430334171588 0.0008245905290995343 0 0.016697418613057294 0.00090063179204565187 0 0.016610708915759276 0.00092755810676172445 0 0.016637430334171588 0.0008245905290995343 0 0.016610708915759276 0.00092755810676172445 0 0.016418463356965854 0.00077568177814470196 0 0.0088497535949122619 0.00087370497916488784 0 0.0088707534973189762 0.0012818457763248408 0 0.00070293585337366179 0.00079788678143236482 0 0.0010733948139109621 0.0016685242532001056 0 0.0014237170132324454 0.0012105983262404721 0 0.016766208850421266 0.00080985320747678101 0 0.016712168379875922 0.00090044474373331812 0 0.016610708915759276 0.00092755810676172445 0 0.016712168379875922 0.00090044474373331812 0 0.016697418613057294 0.00090063179204565187 0 0.016610708915759276 0.00092755810676172445 0 0.0010733948139109621 0.0016685242532001056 0 0.0014237170132324454 0.0012105983262404721 0 0.0021477541968607629 0.0025521673206671362 0 0.0092109904321526388 0.00029565876861736726 0 0.0087780981412604007 -0.0001743129490372101 0 0.0089046363093986149 0.0010167186861471513 0 0.0010733948139109621 0.0016685242532001056 0 0.0021477541968607629 0.0025521673206671362 0 0.0018009520101802503 0.0028918774398365692 0 0.0088707534973189762 0.0012818457763248408 0 0.0087214549904850759 0.0018063361329562445 0 0.0053312284055470616 0.00061329764191744157 0 0.0051040280256561561 0.0017951085705047002 0 0.016418463356965854 0.00077568177814470196 0 0.016575785199426086 0.00070113377308163359 0 0.016477730287654792 0.00059952369435954797 0 0.0028137087375416552 0.0042443910378336695 0 0.0021477541968607629 0.0025521673206671362 0 0.0018009520101802503 0.0028918774398365692 0 0.016637430334171588 0.0008245905290995343 0 0.016418463356965854 0.00077568177814470196 0 0.016575785199426086 0.00070113377308163359 0 0.016637430334171588 0.0008245905290995343 0 0.016575785199426086 0.00070113377308163359 0 0.016755849649126471 0.00068916427884499931 0 0.016575785199426086 0.00070113377308163359 0 0.016609596136069243 0.00055534773014314493 0 0.016755849649126471 0.00068916427884499931 0 0.016609596136069243 0.00055534773014314493 0 0.01672523606719286 0.00034873739430025472 0 0.016755849649126471 0.00068916427884499931 0 0.016575785199426086 0.00070113377308163359 0 0.016609596136069243 0.00055534773014314493 0 0.016477730287654792 0.00059952369435954797 0 0.016609596136069243 0.00055534773014314493 0 0.016477730287654792 0.00059952369435954797 0 0.016508217873196625 0.00042351294829963632 0 0.016263082383438245 0.00051191054402752981 0 0.016477730287654792 0.00059952369435954797 0 0.016508217873196625 0.00042351294829963632 0 0.016263082383438245 0.00051191054402752981 0 0.016418463356965854 0.00077568177814470196 0 0.016477730287654792 0.00059952369435954797 0 0.012690894891937057 0.0018686065548961541 0 0.0087214549904850759 0.0018063361329562445 0 0.012690894891937057 0.0018686065548961541 0 0.019170198562748875 0.00086517674563149703 0 0.019760726262790063 0.0020367642586511278 0 0.019872633680547404 0.0018490447555722072 0 0.020074767704012939 0.0019164495650641948 0 0.019844556622603614 0.0017320473776002347 0 0.019872633680547404 0.0018490447555722072 0 0.019973245151275014 0.0016777160301419964 0 0.019872633680547404 0.0018490447555722072 0 0.020074767704012939 0.0019164495650641948 0 0.019973245151275014 0.0016777160301419964 0 0.020074767704012939 0.0019164495650641948 0 0.020164301310253173 0.0016822536290890513 0 0.019973245151275014 0.0016777160301419964 0 0.019170198562748875 0.00086517674563149703 0 0.018259891570695939 0.00080681669598340797 0 0.020074767704012939 0.0019164495650641948 0 0.020164301310253173 0.0016822536290890513 0 0.020333177695616642 0.0018001479297294163 0 0.016609596136069243 0.00055534773014314493 0 0.016508217873196625 0.00042351294829963632 0 0.01672523606719286 0.00034873739430025472 0 0.021188574543238067 0.0016453727230716531 0 0.018259891570695939 0.00080681669598340797 0 0.020164301310253173 0.0016822536290890513 0 0.020281376416170713 0.0015152155609400874 0 0.020333177695616642 0.0018001479297294163 0 0.020164301310253173 0.0016822536290890513 0 0.020281376416170713 0.0015152155609400874 0 0.020083695655121872 0.0015624447201786171 0 0.020001986390354727 0.0014082857256490502 0 0.020281376416170713 0.0015152155609400874 0 0.020083695655121872 0.0015624447201786171 0 0.020083695655121872 0.0015624447201786171 0 0.019976735041452698 0.0015618786855324256 0 0.019973245151275014 0.0016777160301419964 0 0.01984210288568989 0.001598615611312906 0 0.019976735041452698 0.0015618786855324256 0 0.019973245151275014 0.0016777160301419964 0 0.020001986390354727 0.0014082857256490502 0 0.020083695655121872 0.0015624447201786171 0 0.019976735041452698 0.0015618786855324256 0 0.020001986390354727 0.0014082857256490502 0 0.01984210288568989 0.001598615611312906 0 0.019976735041452698 0.0015618786855324256 0 0.019844556622603614 0.0017320473776002347 0 0.01984210288568989 0.001598615611312906 0 0.019973245151275014 0.0016777160301419964 0 0.020164301310253173 0.0016822536290890513 0 0.020083695655121872 0.0015624447201786171 0 0.019973245151275014 0.0016777160301419964 0 0.022395807781240954 0.00058072132878653193 0 0.022525616855780094 0.00099448862013380604 0 0.023401768786080475 0.00094668105289578345 0 0.01977844881221226 0.00069061856298437759 0 0.022036721812134692 0.001126656469171966 0 0.019812340508601166 0.0011070983276158194 0 0.019973104131282751 0.0011550831263155176 0 0.019949845057149036 0.0010599745837545529 0 0.01977844881221226 0.00069061856298437759 0 0.018353987481877217 0.00058790364488759306 0 0.022836910555357467 0.0014120393706749446 0 0.022525616855780094 0.00099448862013380604 0 0.023401768786080475 0.00094668105289578345 0 0.021188574543238067 0.0016453727230716531 0 0.022036721812134692 0.001126656469171966 0 0.02013840238580596 0.0012005687308727594 0 0.019973104131282751 0.0011550831263155176 0 0.02003907623267695 0.001101456017478791 0 0.02013840238580596 0.0012005687308727594 0 0.02003907623267695 0.001101456017478791 0 0.02008696007300266 0.0010052326713968162 0 0.02003907623267695 0.001101456017478791 0 0.019949845057149036 0.0010599745837545529 0 0.02008696007300266 0.0010052326713968162 0 0.019973104131282751 0.0011550831263155176 0 0.02003907623267695 0.001101456017478791 0 0.019949845057149036 0.0010599745837545529 0 0.016981774301745637 1.5106554855543483e-06 0 0.016674767360635192 0.000147584577985317 0 0.016949568639144198 0.00036852187607281208 0 0.018353987481877217 0.00058790364488759306 0 0.018259891570695939 0.00080681669598340797 0 0.016981774301745637 1.5106554855543483e-06 0 0.017228487173772761 0.00018616418236107958 0 0.016949568639144198 0.00036852187607281208 0 0.017228487173772761 0.00018616418236107958 0 0.016949568639144198 0.00036852187607281208 0 0.017340939715953376 0.00052151820500063268 0 0.017361491361737643 -0.00019741899669409356 0 0.016981774301745637 1.5106554855543483e-06 0 0.017228487173772761 0.00018616418236107958 0 0.016949568639144198 0.00036852187607281208 0 0.016755849649126471 0.00068916427884499931 0 0.017340939715953376 0.00052151820500063268 0 0.016674767360635192 0.000147584577985317 0 0.016949568639144198 0.00036852187607281208 0 0.016755849649126471 0.00068916427884499931 0 0.018259891570695939 0.00080681669598340797 0 0.016311938762772586 0.00038204692563644838 0 0.016768121259894953 0.0008554051663163402 0 0.016637430334171588 0.0008245905290995343 0 0.016755849649126471 0.00068916427884499931 0 0.016951598273342548 0.00088266685316084671 0 0.016768121259894953 0.0008554051663163402 0 0.016755849649126471 0.00068916427884499931 0 0.016951598273342548 0.00088266685316084671 0 0.016755849649126471 0.00068916427884499931 0 0.017340939715953376 0.00052151820500063268 0 0.016951598273342548 0.00088266685316084671 0 0.017483888358770981 0.00077511809177373422 0 0.017340939715953376 0.00052151820500063268 0 0.017483888358770981 0.00077511809177373422 0 0.018004489901039027 0.00062787254271757132 0 0.017900142293325393 0.00070902245529217811 0 0.018004489901039027 0.00062787254271757132 0 0.017340939715953376 0.00052151820500063268 0 0.017956961526714211 0.00040043059984353233 0 0.017483888358770981 0.00077511809177373422 0 0.018004489901039027 0.00062787254271757132 0 0.017340939715953376 0.00052151820500063268 0 0.017340939715953376 0.00052151820500063268 0 0.017553083206978834 0.00016060455928584212 0 0.017956961526714211 0.00040043059984353233 0 0.017228487173772761 0.00018616418236107958 0 0.017340939715953376 0.00052151820500063268 0 0.017553083206978834 0.00016060455928584212 0 0.017361491361737643 -0.00019741899669409356 0 0.017228487173772761 0.00018616418236107958 0 0.017553083206978834 0.00016060455928584212 0 0.017553083206978834 0.00016060455928584212 0 0.017956961526714211 0.00040043059984353233 0 0.01793517603893403 -0.00011502011387136288 0 0.018004489901039027 0.00062787254271757132 0 0.017956961526714211 0.00040043059984353233 0 0.018970626822306717 0.00036847244853167437 0 0.017956961526714211 0.00040043059984353233 0 0.01793517603893403 -0.00011502011387136288 0 0.018970626822306717 0.00036847244853167437 0 0.021032621241972162 0.00033466821607978025 0 0.020071049030857668 0.0012688208774477758 0 0.018970626822306717 0.00036847244853167437 0 0.021490200805462063 0.0017949184358478888 0 0.021032621241972162 0.00033466821607978025 0 0.020071049030857668 0.0012688208774477758 0 0.019473161407005449 0.00016676277346515687 0 0.019073774140619455 0.00026673689266379006 0 0.022022111343554168 0.0012276698381551183 0 0.022395807781240954 0.00058072132878653193 0 0.021032621241972162 0.00033466821607978025 0 0.01977844881221226 0.00069061856298437759 0 0.019473161407005449 0.00016676277346515687 0 0.017361491361737643 -0.00019741899669409356 0 0.017553083206978834 0.00016060455928584212 0 0.01793517603893403 -0.00011502011387136288 0 0.021490200805462063 0.0017949184358478888 0 0.022022111343554168 0.0012276698381551183 0 0.021032621241972162 0.00033466821607978025 0 0.022022111343554168 0.0012276698381551183 0 0.022395807781240954 0.00058072132878653193 0 0.022525616855780094 0.00099448862013380604 0 0.018755703529000148 0.0015461028128596693 0 0.018277720843362259 0.00099494480329521528 0 0.018961892887591068 0.00099142970739909703 0 0.020071049030857668 0.0012688208774477758 0 0.018961892887591068 0.00099142970739909703 0 0.018970626822306717 0.00036847244853167437 0 0.018004489901039027 0.00062787254271757132 0 0.018970626822306717 0.00036847244853167437 0 0.01844163316712959 0.00063692644262035531 0 0.018961892887591068 0.00099142970739909703 0 0.018970626822306717 0.00036847244853167437 0 0.01844163316712959 0.00063692644262035531 0 0.018277720843362259 0.00099494480329521528 0 0.01844163316712959 0.00063692644262035531 0 0.017869297945313164 0.00080469157895138928 0 0.018277720843362259 0.00099494480329521528 0 0.018961892887591068 0.00099142970739909703 0 0.01844163316712959 0.00063692644262035531 0 0.01844163316712959 0.00063692644262035531 0 0.01802562241460141 0.00073468255165803692 0 0.017869297945313164 0.00080469157895138928 0 0.01802562241460141 0.00073468255165803692 0 0.017301279645874364 0.00084909413201261156 0 0.017869297945313164 0.00080469157895138928 0 0.018004489901039027 0.00062787254271757132 0 0.01844163316712959 0.00063692644262035531 0 0.01802562241460141 0.00073468255165803692 0 0.018004489901039027 0.00062787254271757132 0 0.01802562241460141 0.00073468255165803692 0 0.017900142293325393 0.00070902245529217811 0 0.01802562241460141 0.00073468255165803692 0 0.017900142293325393 0.00070902245529217811 0 0.017586819402974369 0.00046496359282595942 0 0.01802562241460141 0.00073468255165803692 0 0.017586819402974369 0.00046496359282595942 0 0.017301279645874364 0.00084909413201261156 0 0.016526648948154594 0.000738252593457256 0 0.016778977945075553 0.00099872507616200726 0 0.015478015854043216 0.00093620934624424846 0 0.015503952484151862 0.00091741277464020532 0 0.015784227323228248 0.001202111134332667 0 0.015478015854043216 0.00093620934624424846 0 0.015503952484151862 0.00091741277464020532 0 0.015432232721992191 0.0010001409160630198 0 0.015503952484151862 0.00091741277464020532 0 0.015784227323228248 0.001202111134332667 0 0.015767710225221079 0.00083875214152605304 0 0.015784227323228248 0.001202111134332667 0 0.016183479121737357 0.00087586790525871685 0 0.015767710225221079 0.00083875214152605304 0 0.017900142293325393 0.00070902245529217811 0 0.017586819402974369 0.00046496359282595942 0 0.017793019133562283 0.00085017008561592052 0 0.017483888358770981 0.00077511809177373422 0 0.017900142293325393 0.00070902245529217811 0 0.017793019133562283 0.00085017008561592052 0 0.017483888358770981 0.00077511809177373422 0 0.017793019133562283 0.00085017008561592052 0 0.016864693635200836 0.0011013624562821972 0 0.016951598273342548 0.00088266685316084671 0 0.017483888358770981 0.00077511809177373422 0 0.016864693635200836 0.0011013624562821972 0 0.016742025566650283 0.0009658233450989764 0 0.016864693635200836 0.0011013624562821972 0 0.016483098881806726 0.00081629503535394794 0 0.016864693635200836 0.0011013624562821972 0 0.016183479121737357 0.00087586790525871685 0 0.016483098881806726 0.00081629503535394794 0 0.015784227323228248 0.001202111134332667 0 0.016864693635200836 0.0011013624562821972 0 0.016183479121737357 0.00087586790525871685 0 0.016778977945075553 0.00099872507616200726 0 0.016859823259272703 0.0010922538512324052 0 0.016183479121737357 0.00087586790525871685 0 0.015960680198651867 0.00064363309218356439 0 0.015767710225221079 0.00083875214152605304 0 0.016183479121737357 0.00087586790525871685 0 0.015960680198651867 0.00064363309218356439 0 0.016483098881806726 0.00081629503535394794 0 0.015960680198651867 0.00064363309218356439 0 0.016483098881806726 0.00081629503535394794 0 0.016315035140552828 0.00056901054815125822 0 0.016601205908675556 0.00074488652186079313 0 0.016483098881806726 0.00081629503535394794 0 0.016315035140552828 0.00056901054815125822 0 0.016315035140552828 0.00056901054815125822 0 0.015926208847497243 0.00040262720041134249 0 0.016324318008556295 0.00021664230328484203 0 0.016540879992550397 0.00053808994108679243 0 0.016315035140552828 0.00056901054815125822 0 0.016324318008556295 0.00021664230328484203 0 0.015960680198651867 0.00064363309218356439 0 0.015926208847497243 0.00040262720041134249 0 0.01559386623897153 0.00044117789340411713 0 0.015960680198651867 0.00064363309218356439 0 0.016315035140552828 0.00056901054815125822 0 0.015926208847497243 0.00040262720041134249 0 0.015960680198651867 0.00064363309218356439 0 0.01559386623897153 0.00044117789340411713 0 0.015603342532469852 0.00064741314556748732 0 0.01559386623897153 0.00044117789340411713 0 0.01543941760306008 0.0005173092746927388 0 0.015603342532469852 0.00064741314556748732 0 0.01559386623897153 0.00044117789340411713 0 0.01543941760306008 0.0005173092746927388 0 0.01535568833831719 0.00024458975955538454 0 0.01543941760306008 0.0005173092746927388 0 0.015323234558857915 0.00055391131468281337 0 0.015284325488969616 0.00040522789554706004 0 0.015323234558857915 0.00055391131468281337 0 0.015284325488969616 0.00040522789554706004 0 0.015221910836695109 0.0004533736028516136 0 0.01543941760306008 0.0005173092746927388 0 0.015323234558857915 0.00055391131468281337 0 0.015415603323344422 0.00072108867362810506 0 0.01543941760306008 0.0005173092746927388 0 0.015415603323344422 0.00072108867362810506 0 0.015603342532469852 0.00064741314556748732 0 0.015503952484151862 0.00091741277464020532 0 0.015415603323344422 0.00072108867362810506 0 0.015432232721992191 0.0010001409160630198 0 0.015503952484151862 0.00091741277464020532 0 0.015415603323344422 0.00072108867362810506 0 0.015603342532469852 0.00064741314556748732 0 0.015960680198651867 0.00064363309218356439 0 0.015767710225221079 0.00083875214152605304 0 0.015603342532469852 0.00064741314556748732 0 0.015503952484151862 0.00091741277464020532 0 0.015767710225221079 0.00083875214152605304 0 0.015603342532469852 0.00064741314556748732 0 0.0053625922488502878 -0.0021986511019373763 0 0.0054313008120087511 -0.0026605528703140886 0 0.0057091974803486923 -0.0017919748745942705 0 0.0053625922488502878 -0.0021986511019373763 0 0.0057091974803486923 -0.0017919748745942705 0 0.0055080095451084266 -0.0022761827137245238 0 0.010550395020985138 -0.0014027890443599486 0 0.010362838273638647 -0.00088115066573010953 0 0.0053625922488502878 -0.0021986511019373763 0 0.005298150279153039 -0.0021872669333544243 0 0.0051352893722690102 -0.0023949561241550081 0 0.0053625922488502878 -0.0021986511019373763 0 0.005298150279153039 -0.0021872669333544243 0 0.0054313008120087511 -0.0026605528703140886 0 0.0053003515861896845 -0.0022240295200130445 0 0.0056149502399455396 -0.0019823266324604846 0 0.0050479726443942146 -0.0024397636797662604 0 0.0056149502399455396 -0.0019823266324604846 0 0.0054313008120087511 -0.0026605528703140886 0 0.0078633996608129825 -0.0014187085029018132 0 0.005298150279153039 -0.0021872669333544243 0 0.0056149502399455396 -0.0019823266324604846 0 0.0054313008120087511 -0.0026605528703140886 0 0.005298150279153039 -0.0021872669333544243 0 0.0053003515861896845 -0.0022240295200130445 0 0.0056149502399455396 -0.0019823266324604846 0 0.015092465284923411 0.00017146239953081944 0 0.015211873382102073 0.0002690415055162534 0 0.01535568833831719 0.00024458975955538454 0 0.015092465284923411 0.00017146239953081944 0 0.015211873382102073 0.0002690415055162534 0 0.015131826126606993 0.00028790705437683702 0 0.015211873382102073 0.0002690415055162534 0 0.015284325488969616 0.00040522789554706004 0 0.015131826126606993 0.00028790705437683702 0 0.015211873382102073 0.0002690415055162534 0 0.015284325488969616 0.00040522789554706004 0 0.01535568833831719 0.00024458975955538454 0 0.01543941760306008 0.0005173092746927388 0 0.015284325488969616 0.00040522789554706004 0 0.01535568833831719 0.00024458975955538454 0 0.015092465284923411 0.00017146239953081944 0 0.01535568833831719 0.00024458975955538454 0 0.01550959572750933 5.5380173585648339e-05 0 0.01559386623897153 0.00044117789340411713 0 0.01535568833831719 0.00024458975955538454 0 0.01550959572750933 5.5380173585648339e-05 0 0.015926208847497243 0.00040262720041134249 0 0.01559386623897153 0.00044117789340411713 0 0.01550959572750933 5.5380173585648339e-05 0 0.010362838273638647 -0.00088115066573010953 0 0.012487904055221094 -0.0006546267675413464 0 0.015926208847497243 0.00040262720041134249 0 0.01550959572750933 5.5380173585648339e-05 0 0.016324318008556295 0.00021664230328484203 0 0.0057091974803486923 -0.0017919748745942705 0 0.0064489353112319832 -0.0015347822209995506 0 0.0061192011319047938 -0.0022068352362565936 0 0.0057091974803486923 -0.0017919748745942705 0 0.0055080095451084266 -0.0022761827137245238 0 0.0061192011319047938 -0.0022068352362565936 0 0.0055080095451084266 -0.0022761827137245238 0 0.0057129086984067951 -0.002549041370443858 0 0.0061192011319047938 -0.0022068352362565936 0 0.0055080095451084266 -0.0022761827137245238 0 0.0057129086984067951 -0.002549041370443858 0 0.0051280747336681313 -0.0026230492662773159 0 0.0061192011319047938 -0.0022068352362565936 0 0.0060968453244554252 -0.0028665040370287167 0 0.0065847733772315103 -0.0026617925735067964 0 0.0057129086984067951 -0.002549041370443858 0 0.0061192011319047938 -0.0022068352362565936 0 0.0060968453244554252 -0.0028665040370287167 0 0.0060968453244554252 -0.0028665040370287167 0 0.006269139656307438 -0.0034775552958623696 0 0.0065847733772315103 -0.0026617925735067964 0 0.0060968453244554252 -0.0028665040370287167 0 0.005589773471931501 -0.0029913393877214626 0 0.006269139656307438 -0.0034775552958623696 0 0.0057129086984067951 -0.002549041370443858 0 0.005589773471931501 -0.0029913393877214626 0 0.0051280747336681313 -0.0026230492662773159 0 0.0057129086984067951 -0.002549041370443858 0 0.0060968453244554252 -0.0028665040370287167 0 0.005589773471931501 -0.0029913393877214626 0 0.005589773471931501 -0.0029913393877214626 0 0.0047559888586409761 -0.0029825660847604936 0 0.0051280747336681313 -0.0026230492662773159 0 0.0047559888586409761 -0.0029825660847604936 0 0.0047579162950124824 -0.0028074468851043439 0 0.0043289610391281539 -0.0029972368190940464 0 0.0047579162950124824 -0.0028074468851043439 0 0.0051280747336681313 -0.0026230492662773159 0 0.0048001038696477037 -0.0026867716297282757 0 0.0047579162950124824 -0.0028074468851043439 0 0.0048001038696477037 -0.0026867716297282757 0 0.0043289610391281539 -0.0029972368190940464 0 0.0047559888586409761 -0.0029825660847604936 0 0.0047579162950124824 -0.0028074468851043439 0 0.0051280747336681313 -0.0026230492662773159 0 0.0055080095451084266 -0.0022761827137245238 0 0.0051280747336681313 -0.0026230492662773159 0 0.0051352893722690102 -0.0023949561241550081 0 0.0051280747336681313 -0.0026230492662773159 0 0.0051352893722690102 -0.0023949561241550081 0 0.0048001038696477037 -0.0026867716297282757 0 0.0053625922488502878 -0.0021986511019373763 0 0.0055080095451084266 -0.0022761827137245238 0 0.0051352893722690102 -0.0023949561241550081 0 0.0050479726443942146 -0.0024397636797662604 0 0.0051182647580198318 -0.0023710232284429259 0 0.004817123458812053 -0.0026446946090533268 0 0.0053003515861896845 -0.0022240295200130445 0 0.0050479726443942146 -0.0024397636797662604 0 0.0051182647580198318 -0.0023710232284429259 0 0.005298150279153039 -0.0021872669333544243 0 0.0051352893722690102 -0.0023949561241550081 0 0.0051182647580198318 -0.0023710232284429259 0 0.005298150279153039 -0.0021872669333544243 0 0.0053003515861896845 -0.0022240295200130445 0 0.0051182647580198318 -0.0023710232284429259 0 0.0051352893722690102 -0.0023949561241550081 0 0.0048474699416898859 -0.0026277310789395779 0 0.0048001038696477037 -0.0026867716297282757 0 0.0051352893722690102 -0.0023949561241550081 0 0.0051182647580198318 -0.0023710232284429259 0 0.0048474699416898859 -0.0026277310789395779 0 0.0051182647580198318 -0.0023710232284429259 0 0.0048474699416898859 -0.0026277310789395779 0 0.004817123458812053 -0.0026446946090533268 0 0.0048474699416898859 -0.0026277310789395779 0 0.004817123458812053 -0.0026446946090533268 0 0.0046296688324282218 -0.0028170394361028742 0 0.004817123458812053 -0.0026446946090533268 0 0.0046296688324282218 -0.0028170394361028742 0 0.0045275385086592608 -0.0028841445364297239 0 0.0046296688324282218 -0.0028170394361028742 0 0.0045225958276607038 -0.0028916998725087152 0 0.0043836526437225432 -0.0030325907242489507 0 0.0048474699416898859 -0.0026277310789395779 0 0.0046296688324282218 -0.0028170394361028742 0 0.0045225958276607038 -0.0028916998725087152 0 0.0045225958276607038 -0.0028916998725087152 0 0.0048001038696477037 -0.0026867716297282757 0 0.0043289610391281539 -0.0029972368190940464 0 0.0048474699416898859 -0.0026277310789395779 0 0.0045225958276607038 -0.0028916998725087152 0 0.0048001038696477037 -0.0026867716297282757 0 0.0045225958276607038 -0.0028916998725087152 0 0.0043289610391281539 -0.0029972368190940464 0 0.0042366652911791543 -0.0030823742376338355 0 0.0043289610391281539 -0.0029972368190940464 0 0.0042366652911791543 -0.0030823742376338355 0 0.0039812465363037236 -0.0031796769088346926 0 0.0045225958276607038 -0.0028916998725087152 0 0.0042366652911791543 -0.0030823742376338355 0 0.0043836526437225432 -0.0030325907242489507 0 0.0042366652911791543 -0.0030823742376338355 0 0.0039978715402318853 -0.0030405986379103064 0 0.0042958348319543961 -0.0030011624374944 0 0.0042366652911791543 -0.0030823742376338355 0 0.0039812465363037236 -0.0031796769088346926 0 0.0039978715402318853 -0.0030405986379103064 0 0.0043289610391281539 -0.0029972368190940464 0 0.0039812465363037236 -0.0031796769088346926 0 0.0034896861285612299 -0.0034437571594553278 0 0.0039978715402318853 -0.0030405986379103064 0 0.0034896861285612299 -0.0034437571594553278 0 0.0034534972535899145 -0.0022654778442320902 0 0.0039812465363037236 -0.0031796769088346926 0 0.0039978715402318853 -0.0030405986379103064 0 0.0034896861285612299 -0.0034437571594553278 0 0.0047559888586409761 -0.0029825660847604936 0 0.0034896861285612299 -0.0034437571594553278 0 0.0054030185296923454 -0.0036223105162481203 0 0.0033299447614167418 -0.0035258183793476141 0 0.002897710963617284 -0.0039298248728833734 0 0.0034896861285612299 -0.0034437571594553278 0 0.0014517375270529985 -0.0025734284556082161 0 -9.669811712396614e-05 -0.0040876918847341515 0 0.0047559888586409761 -0.0029825660847604936 0 0.0043289610391281539 -0.0029972368190940464 0 0.0034896861285612299 -0.0034437571594553278 0 0.0014517375270529985 -0.0025734284556082161 0 0.0034534972535899145 -0.0022654778442320902 0 0.0018653485009733595 -0.0013638256885942536 0 0.0034896861285612299 -0.0034437571594553278 0 0.0014517375270529985 -0.0025734284556082161 0 0.0034534972535899145 -0.0022654778442320902 0 0.0039978715402318853 -0.0030405986379103064 0 0.0034534972535899145 -0.0022654778442320902 0 0.0044077714600966704 -0.0025762156154624078 0 0.0034534972535899145 -0.0022654778442320902 0 0.0033528520906993295 -0.00084858967785455446 0 0.0018653485009733595 -0.0013638256885942536 0 0.0033528520906993295 -0.00084858967785455446 0 0.0018653485009733595 -0.0013638256885942536 0 0.0022834704473292406 -0.00045833050002358407 0 0.0034534972535899145 -0.0022654778442320902 0 0.0033528520906993295 -0.00084858967785455446 0 0.0042432405800118178 -0.0014610509547990415 0 0.0012333169833069549 -0.0025591509865585476 0 -0.00016107524691591726 -0.00076561439745399188 0 0.0014517375270529985 -0.0025734284556082161 0 0.0018653485009733595 -0.0013638256885942536 0 0.0003600954540665167 -0.00062337780557706148 0 0.0018653485009733595 -0.0013638256885942536 0 0.0013675817750186058 -0.00052778797528673358 0 0.0003600954540665167 -0.00062337780557706148 0 0.0018653485009733595 -0.0013638256885942536 0 0.0013675817750186058 -0.00052778797528673358 0 0.0022834704473292406 -0.00045833050002358407 0 0.0013675817750186058 -0.00052778797528673358 0 0.0016345016553059861 8.7950700342902144e-05 0 0.0022834704473292406 -0.00045833050002358407 0 0.0013675817750186058 -0.00052778797528673358 0 0.00067276376638571416 -0.00019266266831343911 0 0.0016345016553059861 8.7950700342902144e-05 0 0.0013675817750186058 -0.00052778797528673358 0 0.00067276376638571416 -0.00019266266831343911 0 0.0003600954540665167 -0.00062337780557706148 0 0.00067276376638571416 -0.00019266266831343911 0 0.00091300843002811098 0.00045615483596561201 0 0.0016345016553059861 8.7950700342902144e-05 0 0.00067276376638571416 -0.00019266266831343911 0 0.00091300843002811098 0.00045615483596561201 0 -0.00042574653277734732 0.00055909022265609001 0 0.00091300843002811098 0.00045615483596561201 0 0.0016345016553059861 8.7950700342902144e-05 0 0.001860364878091033 0.0015626988525282224 0 0.0016345016553059861 8.7950700342902144e-05 0 0.0030556023328843153 0.00043501829952754341 0 0.001860364878091033 0.0015626988525282224 0 0.0033528520906993295 -0.00084858967785455446 0 0.0030556023328843153 0.00043501829952754341 0 0.0022834704473292406 -0.00045833050002358407 0 0.0016345016553059861 8.7950700342902144e-05 0 0.0030556023328843153 0.00043501829952754341 0 0.0022834704473292406 -0.00045833050002358407 0 -0.0010769798567893873 -0.00082478588981628714 0 -0.0019819636774180477 -0.0010098779128868487 0 -0.0022567188774705134 -0.00058835717896310992 0 -0.0010769798567893873 -0.00082478588981628714 0 -0.002193920707419915 -0.00097699795619844796 0 -0.0015721675032644941 -0.00068805339658094733 0 -0.0011920153718864882 -0.00087507329968006362 0 -0.002198230833561768 -0.00076136674749266854 0 -0.0010769798567893873 -0.00082478588981628714 0 -0.00082695610094024098 -0.00076574846262444289 0 -0.0015721675032644941 -0.00068805339658094733 0 0.0003600954540665167 -0.00062337780557706148 0 -0.00042574653277734732 0.00055909022265609001 0 -0.00098857127904856804 0.00070789980383639318 0 -0.00016107524691591726 -0.00076561439745399188 0 -0.0012938838717210448 3.5235643522161303e-05 0 0.00067276376638571416 -0.00019266266831343911 0 0.0003600954540665167 -0.00062337780557706148 0 -0.00042574653277734732 0.00055909022265609001 0 0.0014517375270529985 -0.0025734284556082161 0 -0.00082695610094024098 -0.00076574846262444289 0 -0.00074109095443661743 -0.0014712465410449309 0 -0.0010769798567893873 -0.00082478588981628714 0 -0.00082695610094024098 -0.00076574846262444289 0 -0.00074109095443661743 -0.0014712465410449309 0 -0.0010769798567893873 -0.00082478588981628714 0 -0.00074109095443661743 -0.0014712465410449309 0 -0.0014654312057955964 -0.0011826813215631731 0 -0.00074109095443661743 -0.0014712465410449309 0 -0.0014654312057955964 -0.0011826813215631731 0 -0.0017923455111223514 -0.0016448156533846229 0 -0.0019819636774180477 -0.0010098779128868487 0 -0.0017923455111223514 -0.0016448156533846229 0 -0.00238900163180011 -0.0014361889292602706 0 -0.0014654312057955964 -0.0011826813215631731 0 -0.0019819636774180477 -0.0010098779128868487 0 -0.0017923455111223514 -0.0016448156533846229 0 -0.0010769798567893873 -0.00082478588981628714 0 -0.0014654312057955964 -0.0011826813215631731 0 -0.0019819636774180477 -0.0010098779128868487 0 -0.0017923455111223514 -0.0016448156533846229 0 -0.0022095747586471856 -0.0016618350719511061 0 -0.00238900163180011 -0.0014361889292602706 0 -0.0025031646671686857 -0.0023500908747484503 0 0.00045901056416837249 -0.001839284861292494 0 -0.0017923455111223514 -0.0016448156533846229 0 -0.00084184899689620628 -0.0027148740111713802 0 -0.0028956020906665842 -0.0041768501419008047 0 0.0014517375270529985 -0.0025734284556082161 0 -0.00084184899689620628 -0.0027148740111713802 0 -9.669811712396614e-05 -0.0040876918847341515 0 0.0014517375270529985 -0.0025734284556082161 0 -0.00074109095443661743 -0.0014712465410449309 0 -0.00084184899689620628 -0.0027148740111713802 0 -0.00074109095443661743 -0.0014712465410449309 0 -0.0017923455111223514 -0.0016448156533846229 0 -0.00084184899689620628 -0.0027148740111713802 0 -0.00084184899689620628 -0.0027148740111713802 0 -9.669811712396614e-05 -0.0040876918847341515 0 -0.0028956020906665842 -0.0041768501419008047 0 0.005589773471931501 -0.0029913393877214626 0 0.0054030185296923454 -0.0036223105162481203 0 0.006269139656307438 -0.0034775552958623696 0 0.005589773471931501 -0.0029913393877214626 0 0.0047559888586409761 -0.0029825660847604936 0 0.0054030185296923454 -0.0036223105162481203 0 0.002897710963617284 -0.0039298248728833734 0 0.00045901056416837249 -0.001839284861292494 0 0.00045901056416837249 -0.001839284861292494 0 -0.0015444042391918097 -0.00041117841592124384 0 -0.0022095747586471856 -0.0016618350719511061 0 -0.0026565973360167645 -0.0012889365939966165 0 -0.00238900163180011 -0.0014361889292602706 0 -0.0026565973360167645 -0.0012889365939966165 0 -0.0026761074909637688 -0.0012591845475914451 0 -0.00238900163180011 -0.0014361889292602706 0 -0.0026565973360167645 -0.0012889365939966165 0 -0.0026761074909637688 -0.0012591845475914451 0 -0.0026254584492259149 -0.0011012552582020593 0 -0.0026761074909637688 -0.0012591845475914451 0 -0.0028483118732311181 -0.0011612111019647388 0 -0.0026254584492259149 -0.0011012552582020593 0 -0.0026761074909637688 -0.0012591845475914451 0 -0.00238900163180011 -0.0014361889292602706 0 -0.0026247653962953492 -0.0011583850779196471 0 -0.0019819636774180477 -0.0010098779128868487 0 -0.0026247653962953492 -0.0011583850779196471 0 -0.0026163637229249647 -0.00087304281547757553 0 -0.0019819636774180477 -0.0010098779128868487 0 -0.00238900163180011 -0.0014361889292602706 0 -0.0026247653962953492 -0.0011583850779196471 0 -0.0026247653962953492 -0.0011583850779196471 0 -0.0029940189549971965 -0.00093804939892288078 0 -0.0028483118732311181 -0.0011612111019647388 0 -0.0026761074909637688 -0.0012591845475914451 0 -0.0026247653962953492 -0.0011583850779196471 0 -0.0028483118732311181 -0.0011612111019647388 0 -0.0026247653962953492 -0.0011583850779196471 0 -0.0029940189549971965 -0.00093804939892288078 0 -0.0026163637229249647 -0.00087304281547757553 0 -0.0029940189549971965 -0.00093804939892288078 0 -0.0026163637229249647 -0.00087304281547757553 0 -0.0029986431394364329 -0.00057971586674582308 0 -0.0019819636774180477 -0.0010098779128868487 0 -0.0022567188774705134 -0.00058835717896310992 0 -0.0026163637229249647 -0.00087304281547757553 0 -0.0027303308257583506 -0.0012887235952701466 0 -0.0031523425568675007 -0.0013006902133309546 0 -0.0021944798768944395 -0.0015018360350593282 0 -0.0017354202577966197 -0.001390263468022712 0 -0.0025181260706355693 -0.0016589739374657274 0 -0.0032290821120841977 -0.0011242543515854642 0 -0.0034204199872831598 -0.00080883598051521019 0 -0.0037047864874620228 -0.00088216024276492719 0 -0.0029940189549971965 -0.00093804939892288078 0 -0.0032290821120841977 -0.0011242543515854642 0 -0.0034204199872831598 -0.00080883598051521019 0 -0.0027303308257583506 -0.0012887235952701466 0 -0.0026644840898748089 -0.0010842135683335789 0 -0.0029940189549971965 -0.00093804939892288078 0 -0.0028483118732311181 -0.0011612111019647388 0 -0.0032290821120841977 -0.0011242543515854642 0 -0.0028483118732311181 -0.0011612111019647388 0 -0.0032290821120841977 -0.0011242543515854642 0 -0.0026254584492259149 -0.0011012552582020593 0 -0.0021944798768944395 -0.0015018360350593282 0 -0.001952896868979138 -0.0010024720396996337 0 -0.0017354202577966197 -0.001390263468022712 0 -0.0021944798768944395 -0.0015018360350593282 0 -0.001952896868979138 -0.0010024720396996337 0 -0.0026254584492259149 -0.0011012552582020593 0 -0.001952896868979138 -0.0010024720396996337 0 -0.0026254584492259149 -0.0011012552582020593 0 -0.0024287491731511718 -0.00056811978891233082 0 -0.0026565973360167645 -0.0012889365939966165 0 -0.0026254584492259149 -0.0011012552582020593 0 -0.0024287491731511718 -0.00056811978891233082 0 8.1520325839823241e-05 0.00022518981254168684 0 -0.00024085184613947144 0.00029830882326219328 0 -4.6608666272432244e-05 0.00010779869748161196 0 -0.0015444042391918097 -0.00041117841592124384 0 -0.0012224358965550115 -0.00016230900238294903 0 -0.001952896868979138 -0.0010024720396996337 0 -0.0024287491731511718 -0.00056811978891233082 0 -0.0016340181625025879 -0.00054282008024121337 0 -0.0024287491731511718 -0.00056811978891233082 0 -0.0016340181625025879 -0.00054282008024121337 0 -0.001074847469091659 4.735305519515699e-05 0 -0.0012224358965550115 -0.00016230900238294903 0 -0.0010816265788203003 1.9373660676310219e-05 0 -0.00024085184613947144 0.00029830882326219328 0 -0.00058425097157504581 9.6430890894475308e-05 0 -0.001074847469091659 4.735305519515699e-05 0 -0.00024085184613947144 0.00029830882326219328 0 -0.00058425097157504581 9.6430890894475308e-05 0 -0.00028145928210058499 -4.0040347200622568e-06 0 -0.00058425097157504581 9.6430890894475308e-05 0 -0.00060642572792396661 4.6624157054275002e-07 0 -0.00083558924308426883 7.3989753016550467e-05 0 -0.00058425097157504581 9.6430890894475308e-05 0 -0.00028145928210058499 -4.0040347200622568e-06 0 -0.00060642572792396661 4.6624157054275002e-07 0 -0.00060642572792396661 4.6624157054275002e-07 0 -0.00021926307288295488 -0.00012274914100140422 0 -0.00038731865702815529 -0.00018987945503091508 0 -0.00028145928210058499 -4.0040347200622568e-06 0 -0.00060642572792396661 4.6624157054275002e-07 0 -0.00021926307288295488 -0.00012274914100140422 0 -0.00021926307288295488 -0.00012274914100140422 0 -4.0613697785365776e-05 -0.00015083472541289081 0 -0.00038731865702815529 -0.00018987945503091508 0 -0.00021926307288295488 -0.00012274914100140422 0 -3.3112612323031734e-05 -0.0001206162161997642 0 -4.0613697785365776e-05 -0.00015083472541289081 0 -0.00028145928210058499 -4.0040347200622568e-06 0 -0.00021926307288295488 -0.00012274914100140422 0 -3.3112612323031734e-05 -0.0001206162161997642 0 -0.00024085184613947144 0.00029830882326219328 0 -0.00028145928210058499 -4.0040347200622568e-06 0 -4.6608666272432244e-05 0.00010779869748161196 0 -0.00028145928210058499 -4.0040347200622568e-06 0 -3.3112612323031734e-05 -0.0001206162161997642 0 -4.6608666272432244e-05 0.00010779869748161196 0 8.1520325839823241e-05 0.00022518981254168684 0 -4.6608666272432244e-05 0.00010779869748161196 0 6.5398711508524583e-05 -7.8932428069902956e-06 0 8.1520325839823241e-05 0.00022518981254168684 0 6.5398711508524583e-05 -7.8932428069902956e-06 0 0.00022172284135063319 -1.7312062444442665e-06 0 0.00045901056416837249 -0.001839284861292494 0 0.0038055521176008208 -0.0011021974822641612 0 0.00032008496721743288 0.00021260651658903357 0 8.1520325839823241e-05 0.00022518981254168684 0 0.00022172284135063319 -1.7312062444442665e-06 0 6.5398711508524583e-05 -7.8932428069902956e-06 0 0.00022172284135063319 -1.7312062444442665e-06 0 8.5203772732059672e-05 -0.00015622587417370802 0 0.0061192011319047938 -0.0022068352362565936 0 0.0065847733772315103 -0.0026617925735067964 0 0.0069002486454397072 -0.0019927884565454027 0 0.0038055521176008208 -0.0011021974822641612 0 0.0030242322175444013 -0.0014062948584389258 0 -3.3112612323031734e-05 -0.0001206162161997642 0 -4.6608666272432244e-05 0.00010779869748161196 0 6.5398711508524583e-05 -7.8932428069902956e-06 0 -3.3112612323031734e-05 -0.0001206162161997642 0 6.5398711508524583e-05 -7.8932428069902956e-06 0 8.5203772732059672e-05 -0.00015622587417370802 0 -3.3112612323031734e-05 -0.0001206162161997642 0 8.5203772732059672e-05 -0.00015622587417370802 0 9.683918800242206e-05 -0.00012049322320145066 0 0.0064489353112319832 -0.0015347822209995506 0 0.0061192011319047938 -0.0022068352362565936 0 0.0069002486454397072 -0.0019927884565454027 0 0.016540879992550397 0.00053808994108679243 0 0.016324318008556295 0.00021664230328484203 0 0.016726373987597562 0.00044180619561420392 0 0.012487904055221094 -0.0006546267675413464 0 0.0069546198980348787 0.00016683660311672663 0 0.0064489353112319832 -0.0015347822209995506 0 0.0069002486454397072 -0.0019927884565454027 0 0.0071805542600029797 -0.0013647215971245652 0 8.5203772732059672e-05 -0.00015622587417370802 0 6.9292567422001529e-05 3.7570561998810574e-05 0 9.683918800242206e-05 -0.00012049322320145066 0 0.0030242322175444013 -0.0014062948584389258 0 0.0069546198980348787 0.00016683660311672663 0 -0.0015325284818203848 -0.00036910773344333328 0 0.0069546198980348787 0.00016683660311672663 0 0.0003235365250229802 0.00016128677840273744 0 6.9292567422001529e-05 3.7570561998810574e-05 0 9.683918800242206e-05 -0.00012049322320145066 0 0.0003235365250229802 0.00016128677840273744 0 0.00026088393739903199 -7.2538259280122196e-05 0 9.683918800242206e-05 -0.00012049322320145066 0 0.0090701420896709562 -0.00077438310463698225 0 0.0087880608341012571 -0.00077459599908044478 0 0.0090663311740345424 -0.00082891702746704338 0 0.0036562821835977809 -6.3957809098830968e-05 0 0.0049592443414173473 0.00018869689969766744 0 0.00083180889895763323 0.0008969799365582859 0 0.00088935799897754968 0.0010981082678267994 0 0.00054869527996727503 0.0012879100505446969 0 0.00088935799897754968 0.0010981082678267994 0 0.00054869527996727503 0.0012879100505446969 0 0.00047524951823889094 0.0018199163021300506 0 0.00026088393739903199 -7.2538259280122196e-05 0 -4.0613697785365776e-05 -0.00015083472541289081 0 -0.00038731865702815529 -0.00018987945503091508 0 0.00054903224784228627 0.00056301991139500363 0 3.3875651260504188e-05 0.00081253055472255175 0 -3.3112612323031734e-05 -0.0001206162161997642 0 -4.0613697785365776e-05 -0.00015083472541289081 0 9.683918800242206e-05 -0.00012049322320145066 0 0.00026088393739903199 -7.2538259280122196e-05 0 -4.0613697785365776e-05 -0.00015083472541289081 0 9.683918800242206e-05 -0.00012049322320145066 0 0.0088081560395632426 -0.00054169212211265373 0 0.0090750421832372242 -0.00086450391171476572 0 0.0084861894819361905 -0.00069719901284729909 0 0.0046396616505109322 0.00061916686421183023 0 0.0049592443414173473 0.00018869689969766744 0 0.00048912176895146069 0.0018212233045414926 0 0.00054869527996727503 0.0012879100505446969 0 0.00047524951823889094 0.0018199163021300506 0 0.0090701420896709562 -0.00077438310463698225 0 0.0090663311740345424 -0.00082891702746704338 0 0.0090750421832372242 -0.00086450391171476572 0 0.0088081560395632426 -0.00054169212211265373 0 0.0090663311740345424 -0.00082891702746704338 0 0.0090750421832372242 -0.00086450391171476572 0 0.0095162380021565161 -0.00073617685377784362 0 0.0090750421832372242 -0.00086450391171476572 0 0.0091318314011968483 -0.00082100663340616269 0 0.0090750421832372242 -0.00086450391171476572 0 0.0091318314011968483 -0.00082100663340616269 0 0.0084861894819361905 -0.00069719901284729909 0 0.0091318314011968483 -0.00082100663340616269 0 0.0095514058973939411 -0.0007132206420279283 0 0.0080739763395816424 -0.00065218121915027816 0 0.0095514058973939411 -0.0007132206420279283 0 0.0080739763395816424 -0.00065218121915027816 0 0.0084795192507725117 -0.00046394469427878571 0 0.0080739763395816424 -0.00065218121915027816 0 0.0084861894819361905 -0.00069719901284729909 0 0.0073031149613718436 -3.1360999826064183e-05 0 0.0091318314011968483 -0.00082100663340616269 0 0.0080739763395816424 -0.00065218121915027816 0 0.0084861894819361905 -0.00069719901284729909 0 0.0080739763395816424 -0.00065218121915027816 0 0.0073031149613718436 -3.1360999826064183e-05 0 0.0060092004655302907 -1.5908708832539076e-05 0 0.0040661914596660451 0.00044479583100112327 0 0.0036200255322340878 -0.00018271903109376477 0 0.0060092004655302907 -1.5908708832539076e-05 0 0.0073031149613718436 -3.1360999826064183e-05 0 0.0040661914596660451 0.00044479583100112327 0 0.0060092004655302907 -1.5908708832539076e-05 0 0.0013647047504200735 0.0019648227862300543 0 0.0010777411047299286 0.00051116375381449154 0 0.0040661914596660451 0.00044479583100112327 0 0.004393179478262484 0.00079842418449800276 0 0.0042688298850377376 0.00041843930560616629 0 0.0013647047504200735 0.0019648227862300543 0 0.00073893705971594037 0.0012754501342400618 0 0.0010777411047299286 0.00051116375381449154 0 0.00073893705971594037 0.0012754501342400618 0 0.0001502003044142496 0.00095050925534128521 0 0.0010777411047299286 0.00051116375381449154 0 0.0013647047504200735 0.0019648227862300543 0 0.00073893705971594037 0.0012754501342400618 0 0.00055294537840720683 0.0016299261899995847 0 0.00073893705971594037 0.0012754501342400618 0 0.00055294537840720683 0.0016299261899995847 0 0.0001502003044142496 0.00095050925534128521 0 0.0046396616505109322 0.00061916686421183023 0 0.004393179478262484 0.00079842418449800276 0 0.0088081560395632426 -0.00054169212211265373 0 0.0084861894819361905 -0.00069719901284729909 0 0.0073031149613718436 -3.1360999826064183e-05 0 0.00048912176895146069 0.0018212233045414926 0 0.0013647047504200735 0.0019648227862300543 0 0.00055294537840720683 0.0016299261899995847 0 0.00055294537840720683 0.0016299261899995847 0 0.00047524951823889094 0.0018199163021300506 0 0.0001502003044142496 0.00095050925534128521 0 0.00048912176895146069 0.0018212233045414926 0 0.00055294537840720683 0.0016299261899995847 0 0.00047524951823889094 0.0018199163021300506 0 -0.00060642572792396661 4.6624157054275002e-07 0 -0.00038731865702815529 -0.00018987945503091508 0 -0.00095887849713779114 0.00016104197162010458 0 3.3875651260504188e-05 0.00081253055472255175 0 -0.00037875808365121782 0.00048154403890201625 0 -0.00095887849713779114 0.00016104197162010458 0 -0.00083558924308426883 7.3989753016550467e-05 0 -0.001074847469091659 4.735305519515699e-05 0 -0.00058425097157504581 9.6430890894475308e-05 0 -0.00083558924308426883 7.3989753016550467e-05 0 -0.001074847469091659 4.735305519515699e-05 0 -0.00060642572792396661 4.6624157054275002e-07 0 -0.00095887849713779114 0.00016104197162010458 0 -0.00083558924308426883 7.3989753016550467e-05 0 -0.00095887849713779114 0.00016104197162010458 0 -0.001074847469091659 4.735305519515699e-05 0 -0.0010838412209430504 -0.0006291316669486647 0 -0.0016340181625025879 -0.00054282008024121337 0 -0.001074847469091659 4.735305519515699e-05 0 -0.0010838412209430504 -0.0006291316669486647 0 -0.00095887849713779114 0.00016104197162010458 0 -0.0002965802156309332 -0.00086939408895834276 0 -0.0010838412209430504 -0.0006291316669486647 0 -0.00037875808365121782 0.00048154403890201625 0 -0.0002317055490567702 -0.00083071570682209108 0 0.0001502003044142496 0.00095050925534128521 0 0.0010777411047299286 0.00051116375381449154 0 -0.0002965802156309332 -0.00086939408895834276 0 -0.001952896868979138 -0.0010024720396996337 0 -0.0010838412209430504 -0.0006291316669486647 0 -0.0017354202577966197 -0.001390263468022712 0 -0.001952896868979138 -0.0010024720396996337 0 -0.0016340181625025879 -0.00054282008024121337 0 -0.0010838412209430504 -0.0006291316669486647 0 -0.0002965802156309332 -0.00086939408895834276 0 -0.0010838412209430504 -0.0006291316669486647 0 -0.0017354202577966197 -0.001390263468022712 0 -0.0002965802156309332 -0.00086939408895834276 0 -0.0017354202577966197 -0.001390263468022712 0 -0.0018069723653166172 -0.0015463268861316039 0 -0.0017354202577966197 -0.001390263468022712 0 -0.0018069723653166172 -0.0015463268861316039 0 -0.0025181260706355693 -0.0016589739374657274 0 0.00046773989349424983 -0.0010114649248508646 0 -0.000241429189344972 -0.0010795344472777589 0 -0.0021026510574174337 -0.0015449255472985417 0 -0.0018069723653166172 -0.0015463268861316039 0 0.00046773989349424983 -0.0010114649248508646 0 -0.0021026510574174337 -0.0015449255472985417 0 -0.0002965802156309332 -0.00086939408895834276 0 -0.0018069723653166172 -0.0015463268861316039 0 0.00046773989349424983 -0.0010114649248508646 0 0.00046773989349424983 -0.0010114649248508646 0 0.0017335190107042346 -0.00041658300353634639 0 0.0036200255322340878 -0.00018271903109376477 0 -0.0002965802156309332 -0.00086939408895834276 0 0.00046773989349424983 -0.0010114649248508646 0 0.0017335190107042346 -0.00041658300353634639 0 0.0010777411047299286 0.00051116375381449154 0 0.0017335190107042346 -0.00041658300353634639 0 0.0040661914596660451 0.00044479583100112327 0 0.0010777411047299286 0.00051116375381449154 0 -0.0002965802156309332 -0.00086939408895834276 0 0.0017335190107042346 -0.00041658300353634639 0 0.0017335190107042346 -0.00041658300353634639 0 0.0040661914596660451 0.00044479583100112327 0 0.0036200255322340878 -0.00018271903109376477 0 0.0036200255322340878 -0.00018271903109376477 0 0.0020769921617901838 -0.00057528608048968018 0 0.0041546952080104239 -0.00025036210148938798 0 0.0036200255322340878 -0.00018271903109376477 0 0.0041546952080104239 -0.00025036210148938798 0 0.0056951293053441685 -0.00018303145590757393 0 0.00046773989349424983 -0.0010114649248508646 0 0.0036200255322340878 -0.00018271903109376477 0 0.0020769921617901838 -0.00057528608048968018 0 0.00046773989349424983 -0.0010114649248508646 0 0.0020769921617901838 -0.00057528608048968018 0 -0.000241429189344972 -0.0010795344472777589 0 0.0020769921617901838 -0.00057528608048968018 0 -0.000241429189344972 -0.0010795344472777589 0 0.00080248979626254568 -0.00055329885827585168 0 -0.000241429189344972 -0.0010795344472777589 0 0.00080248979626254568 -0.00055329885827585168 0 -0.0011630537678221859 -0.0009712585492245478 0 0.0015340623505463778 -5.9723367863347578e-07 0 0.00080248979626254568 -0.00055329885827585168 0 -0.0012454465507003539 -0.00054791043956051676 0 0.0020769921617901838 -0.00057528608048968018 0 0.00080248979626254568 -0.00055329885827585168 0 0.0027082597762391612 -0.0002813675031856639 0 0.0015340623505463778 -5.9723367863347578e-07 0 0.0027082597762391612 -0.0002813675031856639 0 0.0045893365519225652 -3.8454034209978577e-07 0 0.0015340623505463778 -5.9723367863347578e-07 0 0.00080248979626254568 -0.00055329885827585168 0 0.0027082597762391612 -0.0002813675031856639 0 0.0027082597762391612 -0.0002813675031856639 0 0.0045893365519225652 -3.8454034209978577e-07 0 0.0041546952080104239 -0.00025036210148938798 0 0.0020769921617901838 -0.00057528608048968018 0 0.0027082597762391612 -0.0002813675031856639 0 0.0041546952080104239 -0.00025036210148938798 0 0.0041546952080104239 -0.00025036210148938798 0 0.0060926123772850381 -0.00014530304515850828 0 0.0056951293053441685 -0.00018303145590757393 0 0.0045893365519225652 -3.8454034209978577e-07 0 0.0060926123772850381 -0.00014530304515850828 0 0.0076445637621231572 -2.6486408498481407e-07 0 0.0045893365519225652 -3.8454034209978577e-07 0 0.0041546952080104239 -0.00025036210148938798 0 0.0060926123772850381 -0.00014530304515850828 0 0.0060926123772850381 -0.00014530304515850828 0 0.0076445637621231572 -2.6486408498481407e-07 0 0.0082078366087278542 -0.00019568881753386836 0 0.0076445637621231572 -2.6486408498481407e-07 0 0.0082078366087278542 -0.00019568881753386836 0 0.010699687594479758 -3.4089374336500889e-07 0 0.0060926123772850381 -0.00014530304515850828 0 0.0082078366087278542 -0.00019568881753386836 0 0.0056951293053441685 -0.00018303145590757393 0 0.0082078366087278542 -0.00019568881753386836 0 0.0056951293053441685 -0.00018303145590757393 0 0.0070708741601253518 -0.00019256631817017478 0 0.0056951293053441685 -0.00018303145590757393 0 0.0060092004655302907 -1.5908708832539076e-05 0 0.0070708741601253518 -0.00019256631817017478 0 0.0036200255322340878 -0.00018271903109376477 0 0.0056951293053441685 -0.00018303145590757393 0 0.0060092004655302907 -1.5908708832539076e-05 0 0.0080739763395816424 -0.00065218121915027816 0 0.0060092004655302907 -1.5908708832539076e-05 0 0.0084795192507725117 -0.00046394469427878571 0 0.0060092004655302907 -1.5908708832539076e-05 0 0.0070708741601253518 -0.00019256631817017478 0 0.0084795192507725117 -0.00046394469427878571 0 0.0082078366087278542 -0.00019568881753386836 0 0.0070708741601253518 -0.00019256631817017478 0 0.0084795192507725117 -0.00046394469427878571 0 0.0082078366087278542 -0.00019568881753386836 0 0.0084795192507725117 -0.00046394469427878571 0 0.010714485885813425 -0.00033543656637490015 0 0.0095514058973939411 -0.0007132206420279283 0 0.0084795192507725117 -0.00046394469427878571 0 0.010291093937976316 -0.00054015519261496983 0 0.012227199942705819 -0.00047008506916556035 0 0.010291093937976316 -0.00054015519261496983 0 0.010714485885813425 -0.00033543656637490015 0 0.0084795192507725117 -0.00046394469427878571 0 0.010291093937976316 -0.00054015519261496983 0 0.010714485885813425 -0.00033543656637490015 0 0.013754947484682471 -6.8674291854072695e-07 0 0.010714485885813425 -0.00033543656637490015 0 0.010699687594479758 -3.4089374336500889e-07 0 0.0082078366087278542 -0.00019568881753386836 0 0.010714485885813425 -0.00033543656637490015 0 0.010699687594479758 -3.4089374336500889e-07 0 0.017320434278499691 0.0018466598442944051 0 0.017167027927993524 0.0012833297300818842 0 0.016642330416894082 0.0015107266095732181 0 0.021660567064952639 0.0015658508235831083 0 0.021734202416841417 0.0014506910970205197 0 0.025983671310926153 0.0012688057753354781 0 0.025922766339628978 0.0014756668320393639 0 0.025516995816270364 0.0011730561688303718 0 0.025983671310926153 0.0012688057753354781 0 0.025922766339628978 0.0014756668320393639 0 0.026285039864567639 0.001579040578573467 0 0.025922766339628978 0.0014756668320393639 0 0.026285039864567639 0.001579040578573467 0 0.026256057644314306 0.0016622278315543302 0 0.025922766339628978 0.0014756668320393639 0 0.025959632802172311 0.0016726622611914948 0 0.026256057644314306 0.0016622278315543302 0 0.017167027927993524 0.0012833297300818842 0 0.016642330416894082 0.0015107266095732181 0 0.016873805646468024 0.001156867352849216 0 0.016642330416894082 0.0015107266095732181 0 0.016569005663629954 0.0011963127297711022 0 0.016273653734248935 0.0014272475477813545 0 0.016642330416894082 0.0015107266095732181 0 0.016569005663629954 0.0011963127297711022 0 0.016873805646468024 0.001156867352849216 0 0.016642330416894082 0.0015107266095732181 0 0.01604994919579104 0.0017683574356838663 0 0.016273653734248935 0.0014272475477813545 0 0.016642330416894082 0.0015107266095732181 0 0.016354921698920562 0.0019337233477482534 0 0.01604994919579104 0.0017683574356838663 0 0.017320434278499691 0.0018466598442944051 0 0.016642330416894082 0.0015107266095732181 0 0.016897659308273239 0.0021536517706096147 0 0.016642330416894082 0.0015107266095732181 0 0.016897659308273239 0.0021536517706096147 0 0.016354921698920562 0.0019337233477482534 0 0.016897659308273239 0.0021536517706096147 0 0.016354921698920562 0.0019337233477482534 0 0.01656550929894441 0.0024980315263543238 0 0.016354921698920562 0.0019337233477482534 0 0.015848714117540217 0.002250044361247352 0 0.01604994919579104 0.0017683574356838663 0 0.016301381708286981 0.0019597908708093147 0 0.016284100683360742 0.0024092329191282426 0 0.016354921698920562 0.0019337233477482534 0 0.015848714117540217 0.002250044361247352 0 0.016000245660675812 0.0023981028290678721 0 0.016000245660675812 0.0023981028290678721 0 0.01552212170094573 0.0029113786790505428 0 0.015492197462734305 0.0026575827516186093 0 0.015848714117540217 0.002250044361247352 0 0.016000245660675812 0.0023981028290678721 0 0.015492197462734305 0.0026575827516186093 0 0.016897659308273239 0.0021536517706096147 0 0.01656550929894441 0.0024980315263543238 0 0.016985148428859384 0.0026983444653663098 0 0.016897659308273239 0.0021536517706096147 0 0.016985148428859384 0.0026983444653663098 0 0.017516137129632424 0.0025793624860543903 0 0.021660567064952639 0.0015658508235831083 0 0.021547882148285596 0.0018053053147982473 0 0.017320434278499691 0.0018466598442944051 0 0.016897659308273239 0.0021536517706096147 0 0.017516137129632424 0.0025793624860543903 0 0.025983671310926153 0.0012688057753354781 0 0.025679767680014162 0.00094542566615877328 0 0.025516995816270364 0.0011730561688303718 0 0.025679767680014162 0.00094542566615877328 0 0.025574378255534755 0.00094453839475941068 0 0.025516995816270364 0.0011730561688303718 0 0.025147752902918825 0.00092699215621117438 0 0.024995473075718477 0.0009404178322615337 0 0.025516995816270364 0.0011730561688303718 0 0.025266913976786459 0.0011272822541555615 0 0.02550518027308453 0.0011055506166812187 0 0.025516995816270364 0.0011730561688303718 0 0.024905020653032021 0.0010836633579266015 0 0.025083703939951837 0.0013468257068124903 0 0.024995473075718477 0.0009404178322615337 0 0.025516995816270364 0.0011730561688303718 0 0.024905020653032021 0.0010836633579266015 0 0.024448639603604341 0.0011879746184679952 0 0.024663379343315743 0.0009534131230113476 0 0.024905020653032021 0.0010836633579266015 0 0.024995473075718477 0.0009404178322615337 0 0.024663379343315743 0.0009534131230113476 0 0.024905020653032021 0.0010836633579266015 0 0.025309709341221925 0.0013081649368451198 0 0.023032983236395826 0.00041588516369510826 0 0.024448639603604341 0.0011879746184679952 0 0.024905020653032021 0.0010836633579266015 0 0.024663297779812483 0.0013999132258787211 0 0.017515645695158805 -0.00054762014695766052 0 0.017513583571275762 -0.00060168115455532607 0 0.017507021964759055 -0.0005957726574284416 0 0.017513583571275762 -0.00060168115455532607 0 0.017507021964759055 -0.0005957726574284416 0 0.017507106136237429 -0.00065386118201800911 0 0.021161782638093003 0.00048734348625844643 0 0.023032983236395826 0.00041588516369510826 0 0.023032983236395826 0.00041588516369510826 0 0.020354862601639424 0.0005593238274829021 0 0.024905020653032021 0.0010836633579266015 0 0.024744341296802235 0.0013874080145388175 0 0.025083703939951837 0.0013468257068124903 0 0.024744341296802235 0.0013874080145388175 0 0.024923999113509301 0.0015892393818551641 0 0.025083703939951837 0.0013468257068124903 0 0.023032983236395826 0.00041588516369510826 0 0.024844650783935707 0.0013368968910145796 0 0.024586218825396827 0.00085948692847303361 0 0.025284851008728564 0.0015617447303377086 0 0.024017969940658496 0.001688555061588519 0 0.02563772462665952 0.0016324633844075182 0 0.025202973555561038 0.0016443141772704275 0 0.024844650783935707 0.0013368968910145796 0 0.02563772462665952 0.0016324633844075182 0 0.02388879804843724 0.00016225201091509179 0 0.024586218825396827 0.00085948692847303361 0 0.023322638366624831 0.00098989117384360543 0 0.022762281373104133 0.0018079352491525958 0 0.023322638366624831 0.00098989117384360543 0 0.024017969940658496 0.001688555061588519 0 0.024586218825396827 0.00085948692847303361 0 0.023322638366624831 0.00098989117384360543 0 0.024017969940658496 0.001688555061588519 0 0.02325602411675267 0.00073377201079684372 0 0.020354862601639424 0.0005593238274829021 0 0.025922766339628978 0.0014756668320393639 0 0.025516995816270364 0.0011730561688303718 0 0.025496235078775159 0.0014213465220425997 0 0.025496235078775159 0.0014213465220425997 0 0.025083703939951837 0.0013468257068124903 0 0.025296915399623941 0.0015719404054769998 0 0.024923999113509301 0.0015892393818551641 0 0.025083703939951837 0.0013468257068124903 0 0.025296915399623941 0.0015719404054769998 0 0.025516995816270364 0.0011730561688303718 0 0.025496235078775159 0.0014213465220425997 0 0.025083703939951837 0.0013468257068124903 0 0.025296915399623941 0.0015719404054769998 0 0.025164313174333 0.001880017556213679 0 0.025959632802172311 0.0016726622611914948 0 0.024923999113509301 0.0015892393818551641 0 0.025296915399623941 0.0015719404054769998 0 0.025164313174333 0.001880017556213679 0 0.025922766339628978 0.0014756668320393639 0 0.025496235078775159 0.0014213465220425997 0 0.025959632802172311 0.0016726622611914948 0 0.02563772462665952 0.0016324633844075182 0 0.025971119879449812 0.0017275176289889727 0 0.025496235078775159 0.0014213465220425997 0 0.025296915399623941 0.0015719404054769998 0 0.025959632802172311 0.0016726622611914948 0 0.025959632802172311 0.0016726622611914948 0 0.026177934056542642 0.0016341987626298734 0 0.026212035643091575 0.0016607460752204382 0 0.025959632802172311 0.0016726622611914948 0 0.026212035643091575 0.0016607460752204382 0 0.026290895388880259 0.0016806816316201493 0 0.026177934056542642 0.0016341987626298734 0 0.026191464451014435 0.0017074460457442505 0 0.026106194806720742 0.0016526959925312239 0 0.02563772462665952 0.0016324633844075182 0 0.026149944943770886 0.001764534080357752 0 0.026177934056542642 0.0016341987626298734 0 0.026191464451014435 0.0017074460457442505 0 0.026212035643091575 0.0016607460752204382 0 0.02626501049674004 0.0017272751639483585 0 0.025959632802172311 0.0016726622611914948 0 0.026177934056542642 0.0016341987626298734 0 0.026136932792939507 0.0015713687336530037 0 0.026177934056542642 0.0016341987626298734 0 0.026106194806720742 0.0016526959925312239 0 0.026191464451014435 0.0017074460457442505 0 0.026106194806720742 0.0016526959925312239 0 0.026172851609716018 0.0018213653823359185 0 0.026212035643091575 0.0016607460752204382 0 0.026328980550712512 0.0018013733719505134 0 0.026290895388880259 0.0016806816316201493 0 0.026191464451014435 0.0017074460457442505 0 0.026212035643091575 0.0016607460752204382 0 0.026328980550712512 0.0018013733719505134 0 0.026328980550712512 0.0018013733719505134 0 0.026455853745817052 0.0017595718136776664 0 0.026290895388880259 0.0016806816316201493 0 0.025843011659456488 0.0015569999502463025 0 0.026009234372969016 0.0015575072336648577 0 0.026019727019790811 0.0017106914858438112 0 0.025882822837695933 -0.00031072344427241042 0 0.02856842548939751 0.00037261443158904267 0 0.025843011659456488 0.0015569999502463025 0 0.025827905694084351 0.0015783147695744237 0 0.026019727019790811 0.0017106914858438112 0 0.02325602411675267 0.00073377201079684372 0 0.025202973555561038 0.0016443141772704275 0 0.026136932792939507 0.0015713687336530037 0 0.026009234372969016 0.0015575072336648577 0 0.026106194806720742 0.0016526959925312239 0 0.026009234372969016 0.0015575072336648577 0 0.026106194806720742 0.0016526959925312239 0 0.026019727019790811 0.0017106914858438112 0 0.02856842548939751 0.00037261443158904267 0 0.029257452661358384 0.00086671509150248679 0 0.026106194806720742 0.0016526959925312239 0 0.026019727019790811 0.0017106914858438112 0 0.026172851609716018 0.0018213653823359185 0 0.029596382924799807 -0.0010903237193831978 0 0.030612916338538174 -0.0011025768012655 0 0.030536503126063895 5.1446401527927425e-05 0 0.029191833035281171 -0.0021919972815501636 0 0.029596382924799807 -0.0010903237193831978 0 0.030612916338538174 -0.0011025768012655 0 0.029596382924799807 -0.0010903237193831978 0 0.029350722145753648 -0.0001105874103371462 0 0.030536503126063895 5.1446401527927425e-05 0 0.029350722145753648 -0.0001105874103371462 0 0.030536503126063895 5.1446401527927425e-05 0 0.029946632926074992 0.00092495537033960608 0 0.030536503126063895 5.1446401527927425e-05 0 0.031469183873103844 0.0011931260678983611 0 0.031953141538143347 -3.6102276561341042e-05 0 0.030612916338538174 -0.0011025768012655 0 0.030536503126063895 5.1446401527927425e-05 0 0.031953141538143347 -3.6102276561341042e-05 0 0.030463801419597647 0.0022652811327344906 0 0.031469183873103844 0.0011931260678983611 0 0.029946632926074992 0.00092495537033960608 0 0.030536503126063895 5.1446401527927425e-05 0 0.031469183873103844 0.0011931260678983611 0 0.029946632926074992 0.00092495537033960608 0 0.026328980550712512 0.0018013733719505134 0 0.026529969992987144 0.0020213324039707269 0 0.026716129563117769 0.0018401803061051645 0 0.026328980550712512 0.0018013733719505134 0 0.026172851609716018 0.0018213653823359185 0 0.026400965232505329 0.0019910026148015673 0 0.026205343111795038 0.0016994974228382947 0 0.02833908817033115 0.0019383573650228194 0 0.026191464451014435 0.0017074460457442505 0 0.026328980550712512 0.0018013733719505134 0 0.026172851609716018 0.0018213653823359185 0 0.029257452661358384 0.00086671509150248679 0 0.02833908817033115 0.0019383573650228194 0 0.031469183873103844 0.0011931260678983611 0 0.031953141538143347 -3.6102276561341042e-05 0 0.033248649455305576 0.00097477257919067301 0 0.032597005550175383 0.0019141886297730044 0 0.031469183873103844 0.0011931260678983611 0 0.033248649455305576 0.00097477257919067301 0 0.026529969992987144 0.0020213324039707269 0 0.026956985243890022 0.0019627091726507752 0 0.026716129563117769 0.0018401803061051645 0 0.027370937710478226 0.0020719596000904322 0 0.026529969992987144 0.0020213324039707269 0 0.026956985243890022 0.0019627091726507752 0 0.026956985243890022 0.0019627091726507752 0 0.026716129563117769 0.0018401803061051645 0 0.027065601180281677 0.0019337864389871026 0 0.027370937710478226 0.0020719596000904322 0 0.026956985243890022 0.0019627091726507752 0 0.027065601180281677 0.0019337864389871026 0 0.026716129563117769 0.0018401803061051645 0 0.026637647961783018 0.0017160383123314728 0 0.027065601180281677 0.0019337864389871026 0 0.021865560146880358 0.0013568476807031789 0 0.022201758814160578 0.0014975410268326435 0 0.026328980550712512 0.0018013733719505134 0 0.026716129563117769 0.0018401803061051645 0 0.026455853745817052 0.0017595718136776664 0 0.026716129563117769 0.0018401803061051645 0 0.026455853745817052 0.0017595718136776664 0 0.026464468950853002 0.0017131453548740354 0 0.026455853745817052 0.0017595718136776664 0 0.026290895388880259 0.0016806816316201493 0 0.026464468950853002 0.0017131453548740354 0 0.026716129563117769 0.0018401803061051645 0 0.026464468950853002 0.0017131453548740354 0 0.026637647961783018 0.0017160383123314728 0 0.026464468950853002 0.0017131453548740354 0 0.026637647961783018 0.0017160383123314728 0 0.026256057644314306 0.0016622278315543302 0 0.021734202416841417 0.0014506910970205197 0 0.021865560146880358 0.0013568476807031789 0 0.026285039864567639 0.001579040578573467 0 0.026637647961783018 0.0017160383123314728 0 0.026256057644314306 0.0016622278315543302 0 0.025959632802172311 0.0016726622611914948 0 0.026290895388880259 0.0016806816316201493 0 0.026256057644314306 0.0016622278315543302 0 0.026290895388880259 0.0016806816316201493 0 0.026464468950853002 0.0017131453548740354 0 0.026256057644314306 0.0016622278315543302 0 0.016569005663629954 0.0011963127297711022 0 0.016873805646468024 0.001156867352849216 0 0.016921888725060376 0.0009786969236998933 0 0.017167027927993524 0.0012833297300818842 0 0.017099304246706311 0.0010032161853106556 0 0.016873805646468024 0.001156867352849216 0 0.017099304246706311 0.0010032161853106556 0 0.016873805646468024 0.001156867352849216 0 0.016921888725060376 0.0009786969236998933 0 0.016921888725060376 0.0009786969236998933 0 0.017159515533023771 0.00087546780829029776 0 0.017163695166834605 0.0008680006475402899 0 0.016921888725060376 0.0009786969236998933 0 0.017163695166834605 0.0008680006475402899 0 0.016936209331338464 0.00096430289330478518 0 0.017099304246706311 0.0010032161853106556 0 0.016921888725060376 0.0009786969236998933 0 0.017159515533023771 0.00087546780829029776 0 0.021643804433259473 0.0011665995319631844 0 0.022201758814160578 0.0014975410268326435 0 0.017237073786981898 0.00094402302559088856 0 0.017159515533023771 0.00087546780829029776 0 0.017163695166834605 0.0008680006475402899 0 0.017380637383382021 0.00087784921207887756 0 0.017163695166834605 0.0008680006475402899 0 0.01733231646168526 0.00086119838779963797 0 0.017163695166834605 0.0008680006475402899 0 0.01733231646168526 0.00086119838779963797 0 0.016936209331338464 0.00096430289330478518 0 0.016936209331338464 0.00096430289330478518 0 0.017043793463736599 0.0010258755827513889 0 0.016608942067476193 0.0010606938899089056 0 0.01778650275807539 0.00076857505887124563 0 0.01733231646168526 0.00086119838779963797 0 0.017043793463736599 0.0010258755827513889 0 0.01733231646168526 0.00086119838779963797 0 0.016936209331338464 0.00096430289330478518 0 0.017043793463736599 0.0010258755827513889 0 0.01778650275807539 0.00076857505887124563 0 0.017043793463736599 0.0010258755827513889 0 0.016877311695212505 0.0011133002198587987 0 0.017043793463736599 0.0010258755827513889 0 0.016877311695212505 0.0011133002198587987 0 0.016649734340186267 0.0010899207855693991 0 0.016877311695212505 0.0011133002198587987 0 0.016649734340186267 0.0010899207855693991 0 0.01668777299289962 0.0011683101933997696 0 0.016649734340186267 0.0010899207855693991 0 0.016341678576635901 0.0010683655621859767 0 0.016507918988709448 0.0010652096998791485 0 0.016649734340186267 0.0010899207855693991 0 0.01668777299289962 0.0011683101933997696 0 0.016507918988709448 0.0010652096998791485 0 0.017043793463736599 0.0010258755827513889 0 0.016649734340186267 0.0010899207855693991 0 0.016608942067476193 0.0010606938899089056 0 0.016649734340186267 0.0010899207855693991 0 0.016608942067476193 0.0010606938899089056 0 0.016341678576635901 0.0010683655621859767 0 0.016608942067476193 0.0010606938899089056 0 0.016341678576635901 0.0010683655621859767 0 0.016216099342264034 0.0011404648329108472 0 0.016341678576635901 0.0010683655621859767 0 0.016507918988709448 0.0010652096998791485 0 0.016291919675755769 0.001006735617526875 0 0.016341678576635901 0.0010683655621859767 0 0.015976167558841105 0.0011049363543924489 0 0.016216099342264034 0.0011404648329108472 0 0.016341678576635901 0.0010683655621859767 0 0.015976167558841105 0.0011049363543924489 0 0.016291919675755769 0.001006735617526875 0 0.016216099342264034 0.0011404648329108472 0 0.016559080954673618 0.0010931669877121545 0 0.016230928067274313 0.0012532459391393169 0 0.016569005663629954 0.0011963127297711022 0 0.016559080954673618 0.0010931669877121545 0 0.016230928067274313 0.0012532459391393169 0 0.016569005663629954 0.0011963127297711022 0 0.016921888725060376 0.0009786969236998933 0 0.016559080954673618 0.0010931669877121545 0 0.016921888725060376 0.0009786969236998933 0 0.016936209331338464 0.00096430289330478518 0 0.016559080954673618 0.0010931669877121545 0 0.016608942067476193 0.0010606938899089056 0 0.016216099342264034 0.0011404648329108472 0 0.016559080954673618 0.0010931669877121545 0 0.016936209331338464 0.00096430289330478518 0 0.016608942067476193 0.0010606938899089056 0 0.016559080954673618 0.0010931669877121545 0 0.018277720843362259 0.00099494480329521528 0 0.017547693145701364 0.00096219668184167634 0 0.017869297945313164 0.00080469157895138928 0 0.018755703529000148 0.0015461028128596693 0 0.018277720843362259 0.00099494480329521528 0 0.017917604699472019 0.0013755557071677066 0 0.018277720843362259 0.00099494480329521528 0 0.017547693145701364 0.00096219668184167634 0 0.017917604699472019 0.0013755557071677066 0 0.017917604699472019 0.0013755557071677066 0 0.01718433510254095 0.0011111718211444454 0 0.017245605124180743 0.001358758064709436 0 0.017547693145701364 0.00096219668184167634 0 0.017917604699472019 0.0013755557071677066 0 0.01718433510254095 0.0011111718211444454 0 0.017547693145701364 0.00096219668184167634 0 0.01718433510254095 0.0011111718211444454 0 0.016659591122327032 0.00092411192648099785 0 0.01718433510254095 0.0011111718211444454 0 0.016746122154175737 0.0010615072138382992 0 0.016659591122327032 0.00092411192648099785 0 0.016746122154175737 0.0010615072138382992 0 0.017245605124180743 0.001358758064709436 0 0.01668777299289962 0.0011683101933997696 0 0.01718433510254095 0.0011111718211444454 0 0.016746122154175737 0.0010615072138382992 0 0.017245605124180743 0.001358758064709436 0 0.016746122154175737 0.0010615072138382992 0 0.01668777299289962 0.0011683101933997696 0 0.016507918988709448 0.0010652096998791485 0 0.016746122154175737 0.0010615072138382992 0 0.016507918988709448 0.0010652096998791485 0 0.016291919675755769 0.001006735617526875 0 0.015976167558841105 0.0011049363543924489 0 0.016291919675755769 0.001006735617526875 0 0.015896932290243332 0.00097003221442779877 0 0.016659591122327032 0.00092411192648099785 0 0.016111190169604796 0.00075489942368352127 0 0.015896932290243332 0.00097003221442779877 0 0.016291919675755769 0.001006735617526875 0 0.016659591122327032 0.00092411192648099785 0 0.015896932290243332 0.00097003221442779877 0 0.016746122154175737 0.0010615072138382992 0 0.016291919675755769 0.001006735617526875 0 0.016659591122327032 0.00092411192648099785 0 0.017547693145701364 0.00096219668184167634 0 0.016659591122327032 0.00092411192648099785 0 0.017301279645874364 0.00084909413201261156 0 0.016659591122327032 0.00092411192648099785 0 0.017301279645874364 0.00084909413201261156 0 0.016111190169604796 0.00075489942368352127 0 0.017547693145701364 0.00096219668184167634 0 0.017301279645874364 0.00084909413201261156 0 0.017869297945313164 0.00080469157895138928 0 0.016526648948154594 0.000738252593457256 0 0.016146888472880754 0.00074350684851358221 0 0.015478015854043216 0.00093620934624424846 0 0.015432232721992191 0.0010001409160630198 0 0.016111190169604796 0.00075489942368352127 0 0.017586819402974369 0.00046496359282595942 0 0.017301279645874364 0.00084909413201261156 0 0.016111190169604796 0.00075489942368352127 0 0.015432232721992191 0.0010001409160630198 0 0.016111190169604796 0.00075489942368352127 0 0.015067462913465734 0.0011131050995906461 0 0.016111190169604796 0.00075489942368352127 0 0.015466757094992576 0.0010729257001036666 0 0.015067462913465734 0.0011131050995906461 0 0.016111190169604796 0.00075489942368352127 0 0.015466757094992576 0.0010729257001036666 0 0.015896932290243332 0.00097003221442779877 0 0.015976167558841105 0.0011049363543924489 0 0.015896932290243332 0.00097003221442779877 0 0.015551453873145269 0.0012414507422877292 0 0.015466757094992576 0.0010729257001036666 0 0.015896932290243332 0.00097003221442779877 0 0.015551453873145269 0.0012414507422877292 0 0.015466757094992576 0.0010729257001036666 0 0.014969429675676169 0.0015136114271131584 0 0.015551453873145269 0.0012414507422877292 0 0.014969429675676169 0.0015136114271131584 0 0.014391874721683491 0.0018314837015137679 0 0.014491030152325477 0.0021677489786540321 0 0.014969429675676169 0.0015136114271131584 0 0.015045121649001186 0.0018824390899278237 0 0.014491030152325477 0.0021677489786540321 0 0.014391874721683491 0.0018314837015137679 0 0.015067462913465734 0.0011131050995906461 0 0.013623446074913141 0.0020110355986001625 0 0.014969429675676169 0.0015136114271131584 0 0.014391874721683491 0.0018314837015137679 0 0.015067462913465734 0.0011131050995906461 0 0.015466757094992576 0.0010729257001036666 0 0.014969429675676169 0.0015136114271131584 0 0.015067462913465734 0.0011131050995906461 0 0.015432232721992191 0.0010001409160630198 0 0.015067462913465734 0.0011131050995906461 0 0.015248962095303308 0.00063985151566963415 0 0.015067462913465734 0.0011131050995906461 0 0.014961988521857244 0.00049773604284227414 0 0.015248962095303308 0.00063985151566963415 0 0.014961988521857244 0.00049773604284227414 0 0.015248962095303308 0.00063985151566963415 0 0.015104141561892126 0.0003781202142406084 0 0.014906515224506882 0.0010742106525699364 0 0.014416484653315324 0.0014852518872968447 0 0.015248962095303308 0.00063985151566963415 0 0.015221910836695109 0.0004533736028516136 0 0.015104141561892126 0.0003781202142406084 0 0.015323234558857915 0.00055391131468281337 0 0.015248962095303308 0.00063985151566963415 0 0.015221910836695109 0.0004533736028516136 0 0.015323234558857915 0.00055391131468281337 0 0.015415603323344422 0.00072108867362810506 0 0.015248962095303308 0.00063985151566963415 0 0.015415603323344422 0.00072108867362810506 0 0.015432232721992191 0.0010001409160630198 0 0.015248962095303308 0.00063985151566963415 0 0.015992757530518553 0.0014891466109986987 0 0.01576723108595933 0.0013869583459957991 0 0.015699090796039407 0.0017717731426391355 0 0.015992757530518553 0.0014891466109986987 0 0.01604994919579104 0.0017683574356838663 0 0.015699090796039407 0.0017717731426391355 0 0.015992757530518553 0.0014891466109986987 0 0.01604994919579104 0.0017683574356838663 0 0.016273653734248935 0.0014272475477813545 0 0.016569005663629954 0.0011963127297711022 0 0.016273653734248935 0.0014272475477813545 0 0.016230928067274313 0.0012532459391393169 0 0.015992757530518553 0.0014891466109986987 0 0.016273653734248935 0.0014272475477813545 0 0.016230928067274313 0.0012532459391393169 0 0.015992757530518553 0.0014891466109986987 0 0.016230928067274313 0.0012532459391393169 0 0.01576723108595933 0.0013869583459957991 0 0.016216099342264034 0.0011404648329108472 0 0.016230928067274313 0.0012532459391393169 0 0.01576723108595933 0.0013869583459957991 0 0.015976167558841105 0.0011049363543924489 0 0.016216099342264034 0.0011404648329108472 0 0.01576723108595933 0.0013869583459957991 0 0.015976167558841105 0.0011049363543924489 0 0.015551453873145269 0.0012414507422877292 0 0.01576723108595933 0.0013869583459957991 0 0.015551453873145269 0.0012414507422877292 0 0.01576723108595933 0.0013869583459957991 0 0.015346828265755369 0.0015589431179774773 0 0.014969429675676169 0.0015136114271131584 0 0.015551453873145269 0.0012414507422877292 0 0.015346828265755369 0.0015589431179774773 0 0.01576723108595933 0.0013869583459957991 0 0.015395224392848289 0.0018220003536900567 0 0.015346828265755369 0.0015589431179774773 0 0.01576723108595933 0.0013869583459957991 0 0.015395224392848289 0.0018220003536900567 0 0.015699090796039407 0.0017717731426391355 0 0.015395224392848289 0.0018220003536900567 0 0.015045121649001186 0.0018824390899278237 0 0.015135276539011115 0.0020981969312051942 0 0.015395224392848289 0.0018220003536900567 0 0.015346828265755369 0.0015589431179774773 0 0.015045121649001186 0.0018824390899278237 0 0.014969429675676169 0.0015136114271131584 0 0.015346828265755369 0.0015589431179774773 0 0.015045121649001186 0.0018824390899278237 0 0.015045121649001186 0.0018824390899278237 0 0.014781035239867475 0.0022438893964829157 0 0.015135276539011115 0.0020981969312051942 0 0.015045121649001186 0.0018824390899278237 0 0.014781035239867475 0.0022438893964829157 0 0.014491030152325477 0.0021677489786540321 0 0.015395224392848289 0.0018220003536900567 0 0.015135276539011115 0.0020981969312051942 0 0.015265514402029036 0.002242422767358115 0 0.014781035239867475 0.0022438893964829157 0 0.015135276539011115 0.0020981969312051942 0 0.014917074954011655 0.0024019347054563167 0 0.015135276539011115 0.0020981969312051942 0 0.015265514402029036 0.002242422767358115 0 0.014917074954011655 0.0024019347054563167 0 0.015265514402029036 0.002242422767358115 0 0.015467460343492459 0.0024194020341261804 0 0.015097208700285948 0.002774733365118057 0 0.015265514402029036 0.002242422767358115 0 0.014976043189342357 0.0026088882284877909 0 0.014917074954011655 0.0024019347054563167 0 0.015395224392848289 0.0018220003536900567 0 0.015265514402029036 0.002242422767358115 0 0.015699090796039407 0.0017717731426391355 0 0.015265514402029036 0.002242422767358115 0 0.015699090796039407 0.0017717731426391355 0 0.015667826712419106 0.0020787962448481317 0 0.01604994919579104 0.0017683574356838663 0 0.015699090796039407 0.0017717731426391355 0 0.015667826712419106 0.0020787962448481317 0 0.015848714117540217 0.002250044361247352 0 0.01604994919579104 0.0017683574356838663 0 0.015667826712419106 0.0020787962448481317 0 0.015848714117540217 0.002250044361247352 0 0.015667826712419106 0.0020787962448481317 0 0.015467460343492459 0.0024194020341261804 0 0.015265514402029036 0.002242422767358115 0 0.015667826712419106 0.0020787962448481317 0 0.015467460343492459 0.0024194020341261804 0 0.015848714117540217 0.002250044361247352 0 0.015467460343492459 0.0024194020341261804 0 0.015492197462734305 0.0026575827516186093 0 0.015114181976665133 0.0031266862241656284 0 0.015097208700285948 0.002774733365118057 0 0.015492197462734305 0.0026575827516186093 0 0.015467460343492459 0.0024194020341261804 0 0.015097208700285948 0.002774733365118057 0 0.015492197462734305 0.0026575827516186093 0 0.015114181976665133 0.0031266862241656284 0 0.014826138092167098 0.0032191416625626692 0 0.015097208700285948 0.002774733365118057 0 0.015114181976665133 0.0031266862241656284 0 0.014826138092167098 0.0032191416625626692 0 0.014736211846743218 0.0035965445731196209 0 0.014826138092167098 0.0032191416625626692 0 0.014736211846743218 0.0035965445731196209 0 0.014600697398827378 0.0034893299663847129 0 0.014629168088663835 0.0032842205456609995 0 0.014759058350300414 0.0029991635003864398 0 0.014493432328574593 0.0032398240232805022 0 0.014826138092167098 0.0032191416625626692 0 0.014629168088663835 0.0032842205456609995 0 0.014600697398827378 0.0034893299663847129 0 0.014826138092167098 0.0032191416625626692 0 0.014629168088663835 0.0032842205456609995 0 0.014759058350300414 0.0029991635003864398 0 0.015265514402029036 0.002242422767358115 0 0.015097208700285948 0.002774733365118057 0 0.014976043189342357 0.0026088882284877909 0 0.014759058350300414 0.0029991635003864398 0 0.014976043189342357 0.0026088882284877909 0 0.014707544649582139 0.002763774142907789 0 0.014759058350300414 0.0029991635003864398 0 0.015097208700285948 0.002774733365118057 0 0.014976043189342357 0.0026088882284877909 0 0.014826138092167098 0.0032191416625626692 0 0.014759058350300414 0.0029991635003864398 0 0.015097208700285948 0.002774733365118057 0 0.014976043189342357 0.0026088882284877909 0 0.014917074954011655 0.0024019347054563167 0 0.014707544649582139 0.002763774142907789 0 0.014917074954011655 0.0024019347054563167 0 0.014707544649582139 0.002763774142907789 0 0.014617781189730608 0.0025730033420195242 0 0.014781035239867475 0.0022438893964829157 0 0.014917074954011655 0.0024019347054563167 0 0.014617781189730608 0.0025730033420195242 0 0.014707544649582139 0.002763774142907789 0 0.014617781189730608 0.0025730033420195242 0 0.014429783509986549 0.002833344917304434 0 0.014781035239867475 0.0022438893964829157 0 0.014335251896826709 0.0026145619966046318 0 0.014491030152325477 0.0021677489786540321 0 0.014781035239867475 0.0022438893964829157 0 0.014617781189730608 0.0025730033420195242 0 0.014335251896826709 0.0026145619966046318 0 0.014617781189730608 0.0025730033420195242 0 0.014335251896826709 0.0026145619966046318 0 0.014429783509986549 0.002833344917304434 0 0.014335251896826709 0.0026145619966046318 0 0.014192821685198219 0.0029312518118394942 0 0.013980780022488981 0.0029513065095812066 0 0.014335251896826709 0.0026145619966046318 0 0.014192821685198219 0.0029312518118394942 0 0.014429783509986549 0.002833344917304434 0 0.014429783509986549 0.002833344917304434 0 0.014235128229703591 0.0030940697507242832 0 0.014449715507917561 0.003032264841420833 0 0.014192821685198219 0.0029312518118394942 0 0.014429783509986549 0.002833344917304434 0 0.014235128229703591 0.0030940697507242832 0 0.014192821685198219 0.0029312518118394942 0 0.013998728473995664 0.003140992278651525 0 0.013980780022488981 0.0029513065095812066 0 0.014192821685198219 0.0029312518118394942 0 0.014235128229703591 0.0030940697507242832 0 0.013998728473995664 0.003140992278651525 0 0.014235128229703591 0.0030940697507242832 0 0.013998728473995664 0.003140992278651525 0 0.014010204524583706 0.0033658262188523392 0 0.014707544649582139 0.002763774142907789 0 0.014604008919661269 0.0030036916858672282 0 0.014449715507917561 0.003032264841420833 0 0.014759058350300414 0.0029991635003864398 0 0.014604008919661269 0.0030036916858672282 0 0.014493432328574593 0.0032398240232805022 0 0.014759058350300414 0.0029991635003864398 0 0.014707544649582139 0.002763774142907789 0 0.014604008919661269 0.0030036916858672282 0 0.014707544649582139 0.002763774142907789 0 0.014429783509986549 0.002833344917304434 0 0.014449715507917561 0.003032264841420833 0 0.014449715507917561 0.003032264841420833 0 0.014493432328574593 0.0032398240232805022 0 0.014249232692081103 0.0032904414401670815 0 0.014235128229703591 0.0030940697507242832 0 0.014449715507917561 0.003032264841420833 0 0.014249232692081103 0.0032904414401670815 0 0.014604008919661269 0.0030036916858672282 0 0.014449715507917561 0.003032264841420833 0 0.014493432328574593 0.0032398240232805022 0 0.014493432328574593 0.0032398240232805022 0 0.014259349141904139 0.0034838199021895162 0 0.014249232692081103 0.0032904414401670815 0 0.014493432328574593 0.0032398240232805022 0 0.014259349141904139 0.0034838199021895162 0 0.014392109684266905 0.0035733018758545487 0 0.014259349141904139 0.0034838199021895162 0 0.014249232692081103 0.0032904414401670815 0 0.014043163911632765 0.0035655635239477527 0 0.014259349141904139 0.0034838199021895162 0 0.014043163911632765 0.0035655635239477527 0 0.014071767095027755 0.0037395230155102977 0 0.014259349141904139 0.0034838199021895162 0 0.014071767095027755 0.0037395230155102977 0 0.014392109684266905 0.0035733018758545487 0 0.013998728473995664 0.003140992278651525 0 0.014010204524583706 0.0033658262188523392 0 0.013745655335710731 0.0034176394214238937 0 0.014249232692081103 0.0032904414401670815 0 0.014043163911632765 0.0035655635239477527 0 0.014010204524583706 0.0033658262188523392 0 0.014235128229703591 0.0030940697507242832 0 0.014249232692081103 0.0032904414401670815 0 0.014010204524583706 0.0033658262188523392 0 0.014043163911632765 0.0035655635239477527 0 0.014010204524583706 0.0033658262188523392 0 0.013795387575696082 0.0036374022802892177 0 0.014010204524583706 0.0033658262188523392 0 0.013795387575696082 0.0036374022802892177 0 0.013745655335710731 0.0034176394214238937 0 0.013795387575696082 0.0036374022802892177 0 0.0135575254411612 0.0039016154487989153 0 0.013501324742126166 0.0037265625372169195 0 0.013795387575696082 0.0036374022802892177 0 0.01382651482185468 0.0038256549058593458 0 0.0135575254411612 0.0039016154487989153 0 0.014043163911632765 0.0035655635239477527 0 0.013795387575696082 0.0036374022802892177 0 0.01382651482185468 0.0038256549058593458 0 0.01382651482185468 0.0038256549058593458 0 0.0135575254411612 0.0039016154487989153 0 0.013578307406513725 0.0040453821631939273 0 0.0135575254411612 0.0039016154487989153 0 0.013350653640634057 0.0041077402657824554 0 0.013578307406513725 0.0040453821631939273 0 0.014071767095027755 0.0037395230155102977 0 0.013874669745818524 0.0040113092728848217 0 0.014191513894567803 0.0038265780863956139 0 0.014043163911632765 0.0035655635239477527 0 0.01382651482185468 0.0038256549058593458 0 0.014071767095027755 0.0037395230155102977 0 0.01382651482185468 0.0038256549058593458 0 0.013874669745818524 0.0040113092728848217 0 0.013578307406513725 0.0040453821631939273 0 0.01382651482185468 0.0038256549058593458 0 0.014071767095027755 0.0037395230155102977 0 0.013874669745818524 0.0040113092728848217 0 0.013874669745818524 0.0040113092728848217 0 0.014037431873412453 0.0040213096269267846 0 0.014191513894567803 0.0038265780863956139 0 0.014037431873412453 0.0040213096269267846 0 0.014191513894567803 0.0038265780863956139 0 0.014167466144021888 0.0040255905408980155 0 0.014191513894567803 0.0038265780863956139 0 0.014167466144021888 0.0040255905408980155 0 0.014407670725766673 0.0037797296075613891 0 0.014167466144021888 0.0040255905408980155 0 0.014253051341614939 0.0040496487419162458 0 0.014080118379944622 0.0042377211805217545 0 0.014253051341614939 0.0040496487419162458 0 0.014444216304792526 0.0038750450307429027 0 0.014282256256777891 0.0040392975058014865 0 0.014253051341614939 0.0040496487419162458 0 0.014407670725766673 0.0037797296075613891 0 0.014444216304792526 0.0038750450307429027 0 0.014167466144021888 0.0040255905408980155 0 0.014253051341614939 0.0040496487419162458 0 0.014407670725766673 0.0037797296075613891 0 0.014444216304792526 0.0038750450307429027 0 0.014736211846743218 0.0035965445731196209 0 0.014559749607024539 0.0038273894454572779 0 0.014407670725766673 0.0037797296075613891 0 0.014444216304792526 0.0038750450307429027 0 0.014736211846743218 0.0035965445731196209 0 0.014407670725766673 0.0037797296075613891 0 0.014736211846743218 0.0035965445731196209 0 0.014600697398827378 0.0034893299663847129 0 0.014629168088663835 0.0032842205456609995 0 0.014600697398827378 0.0034893299663847129 0 0.014392109684266905 0.0035733018758545487 0 0.014629168088663835 0.0032842205456609995 0 0.014493432328574593 0.0032398240232805022 0 0.014392109684266905 0.0035733018758545487 0 0.014071767095027755 0.0037395230155102977 0 0.014191513894567803 0.0038265780863956139 0 0.014392109684266905 0.0035733018758545487 0 0.014191513894567803 0.0038265780863956139 0 0.014407670725766673 0.0037797296075613891 0 0.014392109684266905 0.0035733018758545487 0 0.014407670725766673 0.0037797296075613891 0 0.014600697398827378 0.0034893299663847129 0 0.014392109684266905 0.0035733018758545487 0 0.0054313008120087511 -0.0026605528703140886 0 0.0093138539521832632 -0.0015541073432950709 0 0.012307205232659336 -0.0019684010043692171 0 0.015092465284923411 0.00017146239953081944 0 0.015131826126606993 0.00028790705437683702 0 0.015004729062494714 0.00020559674138177235 0 0.010550395020985138 -0.0014027890443599486 0 0.013080001426314204 0.00061588074744985545 0 0.0056149502399455396 -0.0019823266324604846 0 0.0078633996608129825 -0.0014187085029018132 0 0.0083222142506849794 -0.00053773064880734947 0 0.0054313008120087511 -0.0026605528703140886 0 0.0078633996608129825 -0.0014187085029018132 0 0.0093138539521832632 -0.0015541073432950709 0 0.0078633996608129825 -0.0014187085029018132 0 0.0083222142506849794 -0.00053773064880734947 0 0.0090371000622916104 -0.00082182154916900045 0 0.0078633996608129825 -0.0014187085029018132 0 0.0090371000622916104 -0.00082182154916900045 0 0.0093138539521832632 -0.0015541073432950709 0 0.0083222142506849794 -0.00053773064880734947 0 0.0090371000622916104 -0.00082182154916900045 0 0.0095071104665294861 -1.0537644997353763e-05 0 0.0090371000622916104 -0.00082182154916900045 0 0.010120791114137414 -0.00064311848825944517 0 0.0095071104665294861 -1.0537644997353763e-05 0 0.0090371000622916104 -0.00082182154916900045 0 0.010120791114137414 -0.00064311848825944517 0 0.0093138539521832632 -0.0015541073432950709 0 0.010120791114137414 -0.00064311848825944517 0 0.0093138539521832632 -0.0015541073432950709 0 0.010784958796483555 -0.0010620570151000249 0 0.015131826126606993 0.00028790705437683702 0 0.015104141561892126 0.0003781202142406084 0 0.015004729062494714 0.00020559674138177235 0 0.015221910836695109 0.0004533736028516136 0 0.015131826126606993 0.00028790705437683702 0 0.015104141561892126 0.0003781202142406084 0 0.015284325488969616 0.00040522789554706004 0 0.015221910836695109 0.0004533736028516136 0 0.015131826126606993 0.00028790705437683702 0 0.013623446074913141 0.0020110355986001625 0 0.013237224089807697 0.0025601369605320521 0 0.012752025454573471 0.0027385455176446613 0 0.014961988521857244 0.00049773604284227414 0 0.015104141561892126 0.0003781202142406084 0 0.015004729062494714 0.00020559674138177235 0 0.014416484653315324 0.0014852518872968447 0 0.013080001426314204 0.00061588074744985545 0 0.013237224089807697 0.0025601369605320521 0 0.012828791506926281 0.0027342097244840323 0 0.013067541964541542 0.0028089286285255493 0 0.013237224089807697 0.0025601369605320521 0 0.012752025454573471 0.0027385455176446613 0 0.012828791506926281 0.0027342097244840323 0 0.0093138539521832632 -0.0015541073432950709 0 0.012307205232659336 -0.0019684010043692171 0 0.010784958796483555 -0.0010620570151000249 0 0.012307205232659336 -0.0019684010043692171 0 0.010784958796483555 -0.0010620570151000249 0 0.011398663970514408 -9.6155361150701985e-05 0 0.010120791114137414 -0.00064311848825944517 0 0.010784958796483555 -0.0010620570151000249 0 0.011398663970514408 -9.6155361150701985e-05 0 0.012578849453913698 0.0025936562442297317 0 0.012661106297081549 0.0028107457425696532 0 0.012432552217239037 0.0029435080200938975 0 0.012661106297081549 0.0028107457425696532 0 0.012770916674982841 0.0029501215818377264 0 0.012828791506926281 0.0027342097244840323 0 0.012661106297081549 0.0028107457425696532 0 0.012770916674982841 0.0029501215818377264 0 0.012432552217239037 0.0029435080200938975 0 0.012770916674982841 0.0029501215818377264 0 0.012828791506926281 0.0027342097244840323 0 0.013067541964541542 0.0028089286285255493 0 0.012578849453913698 0.0025936562442297317 0 0.012661106297081549 0.0028107457425696532 0 0.012828791506926281 0.0027342097244840323 0 0.013080001426314204 0.00061588074744985545 0 0.013047202247353236 0.00098788697382633131 0 0.013067541964541542 0.0028089286285255493 0 0.013351437682168519 0.002757772796278275 0 0.013161528776586278 0.0030876015734126244 0 0.012770916674982841 0.0029501215818377264 0 0.013067541964541542 0.0028089286285255493 0 0.013161528776586278 0.0030876015734126244 0 0.013577400935352205 0.002906381019452918 0 0.013351437682168519 0.002757772796278275 0 0.013161528776586278 0.0030876015734126244 0 0.013577400935352205 0.002906381019452918 0 0.013351437682168519 0.002757772796278275 0 0.013787783748462318 0.0024768467087795463 0 0.013237224089807697 0.0025601369605320521 0 0.013351437682168519 0.002757772796278275 0 0.013787783748462318 0.0024768467087795463 0 0.013237224089807697 0.0025601369605320521 0 0.013067541964541542 0.0028089286285255493 0 0.013351437682168519 0.002757772796278275 0 0.013623446074913141 0.0020110355986001625 0 0.013237224089807697 0.0025601369605320521 0 0.013787783748462318 0.0024768467087795463 0 0.014391874721683491 0.0018314837015137679 0 0.013623446074913141 0.0020110355986001625 0 0.013787783748462318 0.0024768467087795463 0 0.014335251896826709 0.0026145619966046318 0 0.014491030152325477 0.0021677489786540321 0 0.013976047092732773 0.0027100063656534802 0 0.014391874721683491 0.0018314837015137679 0 0.013787783748462318 0.0024768467087795463 0 0.014491030152325477 0.0021677489786540321 0 0.013787783748462318 0.0024768467087795463 0 0.014491030152325477 0.0021677489786540321 0 0.013976047092732773 0.0027100063656534802 0 0.014335251896826709 0.0026145619966046318 0 0.013976047092732773 0.0027100063656534802 0 0.013980780022488981 0.0029513065095812066 0 0.013577400935352205 0.002906381019452918 0 0.013787783748462318 0.0024768467087795463 0 0.013976047092732773 0.0027100063656534802 0 0.013577400935352205 0.002906381019452918 0 0.013976047092732773 0.0027100063656534802 0 0.013750923418357505 0.0031050754554125741 0 0.013998728473995664 0.003140992278651525 0 0.013750923418357505 0.0031050754554125741 0 0.013980780022488981 0.0029513065095812066 0 0.013976047092732773 0.0027100063656534802 0 0.013750923418357505 0.0031050754554125741 0 0.013980780022488981 0.0029513065095812066 0 0.013998728473995664 0.003140992278651525 0 0.013750923418357505 0.0031050754554125741 0 0.013745655335710731 0.0034176394214238937 0 0.013577400935352205 0.002906381019452918 0 0.013750923418357505 0.0031050754554125741 0 0.01343910466734142 0.0033887874370074718 0 0.013750923418357505 0.0031050754554125741 0 0.01343910466734142 0.0033887874370074718 0 0.013745655335710731 0.0034176394214238937 0 0.013795387575696082 0.0036374022802892177 0 0.013745655335710731 0.0034176394214238937 0 0.013501324742126166 0.0037265625372169195 0 0.01343910466734142 0.0033887874370074718 0 0.013745655335710731 0.0034176394214238937 0 0.013501324742126166 0.0037265625372169195 0 0.01327235617837313 0.0040369888461799152 0 0.013172709584497845 0.0038282288401508863 0 0.0130452004125406 0.004239376954504828 0 0.0135575254411612 0.0039016154487989153 0 0.01327235617837313 0.0040369888461799152 0 0.013350653640634057 0.0041077402657824554 0 0.0135575254411612 0.0039016154487989153 0 0.013501324742126166 0.0037265625372169195 0 0.01327235617837313 0.0040369888461799152 0 0.01343910466734142 0.0033887874370074718 0 0.013501324742126166 0.0037265625372169195 0 0.013172709584497845 0.0038282288401508863 0 0.013501324742126166 0.0037265625372169195 0 0.01327235617837313 0.0040369888461799152 0 0.013172709584497845 0.0038282288401508863 0 0.012698182652442895 0.0037982032481774152 0 0.012100410509562561 0.0045776270836180638 0 0.012940902633590599 0.0051837945736661652 0 0.012649299570599994 0.0037703444006608649 0 0.013125279665312607 0.0048584935862700969 0 0.013172709584497845 0.0038282288401508863 0 0.012698182652442895 0.0037982032481774152 0 0.013078364380004068 0.0034991545614370613 0 0.013172709584497845 0.0038282288401508863 0 0.012698182652442895 0.0037982032481774152 0 0.0130452004125406 0.004239376954504828 0 0.012698182652442895 0.0037982032481774152 0 0.013078364380004068 0.0034991545614370613 0 0.01276999085864201 0.0033104491191187301 0 0.01343910466734142 0.0033887874370074718 0 0.013172709584497845 0.0038282288401508863 0 0.013078364380004068 0.0034991545614370613 0 0.01343910466734142 0.0033887874370074718 0 0.013078364380004068 0.0034991545614370613 0 0.013161528776586278 0.0030876015734126244 0 0.013577400935352205 0.002906381019452918 0 0.01343910466734142 0.0033887874370074718 0 0.013161528776586278 0.0030876015734126244 0 0.013078364380004068 0.0034991545614370613 0 0.013161528776586278 0.0030876015734126244 0 0.01276999085864201 0.0033104491191187301 0 0.012770916674982841 0.0029501215818377264 0 0.013161528776586278 0.0030876015734126244 0 0.01276999085864201 0.0033104491191187301 0 0.013080001426314204 0.00061588074744985545 0 0.011136603186948072 0.003708252285836754 0 0.011398663970514408 -9.6155361150701985e-05 0 0.011171936968216872 0.0038995953329310873 0 0.010746301064145689 0.0025112577288683162 0 0.012307205232659336 -0.0019684010043692171 0 0.011398663970514408 -9.6155361150701985e-05 0 0.011171936968216872 0.0038995953329310873 0 0.012578849453913698 0.0025936562442297317 0 0.012054680952501829 0.0032692914750316721 0 0.011171936968216872 0.0038995953329310873 0 0.012770916674982841 0.0029501215818377264 0 0.01276999085864201 0.0033104491191187301 0 0.012492039060650524 0.0031736698988985824 0 0.012492039060650524 0.0031736698988985824 0 0.012054680952501829 0.0032692914750316721 0 0.012388985038341934 0.0034213944743350898 0 0.012492039060650524 0.0031736698988985824 0 0.012432552217239037 0.0029435080200938975 0 0.012054680952501829 0.0032692914750316721 0 0.01276999085864201 0.0033104491191187301 0 0.012492039060650524 0.0031736698988985824 0 0.012388985038341934 0.0034213944743350898 0 0.012770916674982841 0.0029501215818377264 0 0.012492039060650524 0.0031736698988985824 0 0.012432552217239037 0.0029435080200938975 0 0.012578849453913698 0.0025936562442297317 0 0.012432552217239037 0.0029435080200938975 0 0.012054680952501829 0.0032692914750316721 0 0.012054680952501829 0.0032692914750316721 0 0.012063535349646387 0.0036905538378581341 0 0.011171936968216872 0.0038995953329310873 0 0.012698182652442895 0.0037982032481774152 0 0.012063535349646387 0.0036905538378581341 0 0.012388985038341934 0.0034213944743350898 0 0.012054680952501829 0.0032692914750316721 0 0.012063535349646387 0.0036905538378581341 0 0.012388985038341934 0.0034213944743350898 0 0.012698182652442895 0.0037982032481774152 0 0.01276999085864201 0.0033104491191187301 0 0.012388985038341934 0.0034213944743350898 0 0.012100410509562561 0.0045776270836180638 0 0.010281458494840986 0.0038616312813332899 0 0.012160301525864737 0.0055356462786994853 0 0.012698182652442895 0.0037982032481774152 0 0.011999335528975547 0.0040326358282062975 0 0.012100410509562561 0.0045776270836180638 0 0.0071803069375520516 0.00025118978740737262 0 0.0090541792790900175 0.00166901907345482 0 0.012698182652442895 0.0037982032481774152 0 0.012063535349646387 0.0036905538378581341 0 0.011999335528975547 0.0040326358282062975 0 0.011999335528975547 0.0040326358282062975 0 0.012100410509562561 0.0045776270836180638 0 0.011171936968216872 0.0038995953329310873 0 0.012063535349646387 0.0036905538378581341 0 0.011999335528975547 0.0040326358282062975 0 0.011171936968216872 0.0038995953329310873 0 0.012100410509562561 0.0045776270836180638 0 0.011171936968216872 0.0038995953329310873 0 0.010281458494840986 0.0038616312813332899 0 0.011171936968216872 0.0038995953329310873 0 0.010281458494840986 0.0038616312813332899 0 0.010746301064145689 0.0025112577288683162 0 0.0042527016805110418 -0.0030035187883670771 0 0.0043836526437225432 -0.0030325907242489507 0 0.0045802188114701398 -0.0029258757129651744 0 0.0042366652911791543 -0.0030823742376338355 0 0.0043836526437225432 -0.0030325907242489507 0 0.0042958348319543961 -0.0030011624374944 0 0.0043836526437225432 -0.0030325907242489507 0 0.0042958348319543961 -0.0030011624374944 0 0.0045802188114701398 -0.0029258757129651744 0 0.0042527016805110418 -0.0030035187883670771 0 0.0043836526437225432 -0.0030325907242489507 0 0.0045275385086592608 -0.0028841445364297239 0 0.004817123458812053 -0.0026446946090533268 0 0.0042527016805110418 -0.0030035187883670771 0 0.0045275385086592608 -0.0028841445364297239 0 0.0046296688324282218 -0.0028170394361028742 0 0.0043836526437225432 -0.0030325907242489507 0 0.0045275385086592608 -0.0028841445364297239 0 0.0056149502399455396 -0.0019823266324604846 0 0.0050479726443942146 -0.0024397636797662604 0 0.0042527016805110418 -0.0030035187883670771 0 0.0056903249465667079 -0.0019115486275431096 0 0.0071803069375520516 0.00025118978740737262 0 0.0056149502399455396 -0.0019823266324604846 0 0.010281458494840986 0.0038616312813332899 0 0.0095231910805672823 0.0015476777622396483 0 0.0050479726443942146 -0.0024397636797662604 0 0.004817123458812053 -0.0026446946090533268 0 0.0042527016805110418 -0.0030035187883670771 0 0.010281458494840986 0.0038616312813332899 0 0.010312390803041126 0.0024805763788209537 0 0.0095231910805672823 0.0015476777622396483 0 0.010281458494840986 0.0038616312813332899 0 0.010312390803041126 0.0024805763788209537 0 0.010746301064145689 0.0025112577288683162 0 0.010312390803041126 0.0024805763788209537 0 0.010468199840869595 0.001556530471096365 0 0.0095231910805672823 0.0015476777622396483 0 0.010312390803041126 0.0024805763788209537 0 0.010746301064145689 0.0025112577288683162 0 0.010468199840869595 0.001556530471096365 0 0.0083222142506849794 -0.00053773064880734947 0 0.0095231910805672823 0.0015476777622396483 0 0.0095071104665294861 -1.0537644997353763e-05 0 0.0095231910805672823 0.0015476777622396483 0 0.010193379314119488 0.00047489547195739555 0 0.0095071104665294861 -1.0537644997353763e-05 0 0.011398663970514408 -9.6155361150701985e-05 0 0.010746301064145689 0.0025112577288683162 0 0.010468199840869595 0.001556530471096365 0 0.011398663970514408 -9.6155361150701985e-05 0 0.010468199840869595 0.001556530471096365 0 0.010193379314119488 0.00047489547195739555 0 0.010468199840869595 0.001556530471096365 0 0.0095231910805672823 0.0015476777622396483 0 0.010193379314119488 0.00047489547195739555 0 0.010120791114137414 -0.00064311848825944517 0 0.011398663970514408 -9.6155361150701985e-05 0 0.010193379314119488 0.00047489547195739555 0 0.010120791114137414 -0.00064311848825944517 0 0.010193379314119488 0.00047489547195739555 0 0.0095071104665294861 -1.0537644997353763e-05 0 0.0056149502399455396 -0.0019823266324604846 0 0.0083222142506849794 -0.00053773064880734947 0 0.0095231910805672823 0.0015476777622396483 0 0.0044077714600966704 -0.0025762156154624078 0 0.0050725334463163794 -0.0016171269443540166 0 0.0042432405800118178 -0.0014610509547990415 0 0.0034534972535899145 -0.0022654778442320902 0 0.0044077714600966704 -0.0025762156154624078 0 0.0042432405800118178 -0.0014610509547990415 0 0.0044077714600966704 -0.0025762156154624078 0 0.0045802188114701398 -0.0029258757129651744 0 0.005251171766102472 -0.0027527743479380598 0 0.0044077714600966704 -0.0025762156154624078 0 0.0042958348319543961 -0.0030011624374944 0 0.0045802188114701398 -0.0029258757129651744 0 0.0039978715402318853 -0.0030405986379103064 0 0.0044077714600966704 -0.0025762156154624078 0 0.0042958348319543961 -0.0030011624374944 0 0.0042527016805110418 -0.0030035187883670771 0 0.0045802188114701398 -0.0029258757129651744 0 0.005251171766102472 -0.0027527743479380598 0 0.012100410509562561 0.0045776270836180638 0 0.012160301525864737 0.0055356462786994853 0 0.012940902633590599 0.0051837945736661652 0 0.0044077714600966704 -0.0025762156154624078 0 0.005251171766102472 -0.0027527743479380598 0 0.0050725334463163794 -0.0016171269443540166 0 0.005251171766102472 -0.0027527743479380598 0 0.0050725334463163794 -0.0016171269443540166 0 0.0064919345664531591 -0.0010992830895782341 0 0.012715535765780443 0.0057072522717084148 0 0.013042579427571801 0.0058782000814482059 0 0.012712453261141008 0.0061260661466330133 0 0.012715535765780443 0.0057072522717084148 0 0.012940902633590599 0.0051837945736661652 0 0.013042579427571801 0.0058782000814482059 0 0.012160301525864737 0.0055356462786994853 0 0.012715535765780443 0.0057072522717084148 0 0.012712453261141008 0.0061260661466330133 0 0.013125279665312607 0.0048584935862700969 0 0.011870718397186664 0.0044197003420174434 0 0.0090541792790900175 0.00166901907345482 0 0.0074519564050271048 0.0017782116171554774 0 0.012160301525864737 0.0055356462786994853 0 0.012715535765780443 0.0057072522717084148 0 0.012940902633590599 0.0051837945736661652 0 0.0130452004125406 0.004239376954504828 0 0.013136981759488206 0.0042641790267080202 0 0.013046284238022897 0.0043758998787196222 0 0.01327235617837313 0.0040369888461799152 0 0.0130452004125406 0.004239376954504828 0 0.013136981759488206 0.0042641790267080202 0 0.01327235617837313 0.0040369888461799152 0 0.013136981759488206 0.0042641790267080202 0 0.013350653640634057 0.0041077402657824554 0 0.013136981759488206 0.0042641790267080202 0 0.013350653640634057 0.0041077402657824554 0 0.01326859810047977 0.0042389560210980039 0 0.013136981759488206 0.0042641790267080202 0 0.01301320029252637 0.0043503207828431744 0 0.01326859810047977 0.0042389560210980039 0 0.013136981759488206 0.0042641790267080202 0 0.01301320029252637 0.0043503207828431744 0 0.013046284238022897 0.0043758998787196222 0 0.012866475831734109 0.0041656700812814822 0 0.011870718397186664 0.0044197003420174434 0 0.01301320029252637 0.0043503207828431744 0 0.012523607650971212 0.0045884703790415905 0 0.012804852651358119 0.0046904718661680963 0 0.0098117387802955022 0.0024254139961612628 0 0.0098235916282701698 0.0020709514062540019 0 0.0099946777660538024 0.0025999247522694412 0 0.012523607650971212 0.0045884703790415905 0 0.012804852651358119 0.0046904718661680963 0 0.012448461043196657 0.0054479695502406477 0 0.009760650455898582 0.0029038628071769226 0 0.0098117387802955022 0.0024254139961612628 0 0.0099946777660538024 0.0025999247522694412 0 0.010027641838478639 0.0018770537141248953 0 0.0098090182672431921 0.0024164491581202801 0 0.009760650455898582 0.0029038628071769226 0 0.0098117387802955022 0.0024254139961612628 0 0.0096053266362457774 0.0022481596255730899 0 0.011870718397186664 0.0044197003420174434 0 0.010922758263076641 0.0037115824616871951 0 0.0098117387802955022 0.0024254139961612628 0 0.0096053266362457774 0.0022481596255730899 0 0.0098235916282701698 0.0020709514062540019 0 0.0092763455475056659 0.0013457453079781169 0 0.009116468906364774 0.0013896339524200041 0 0.0099946777660538024 0.0025999247522694412 0 0.0096053266362457774 0.0022481596255730899 0 0.0098235916282701698 0.0020709514062540019 0 0.0096182782100507572 0.0018556518432328579 0 0.0019462282109825484 0.0012315611933624163 0 0.0015449657877077377 0.00046150626903401467 0 0.001308494290286523 0.001493768788672757 0 0.0056589889873473855 0.0012022367614878996 0 0.0074519564050271048 0.0017782116171554774 0 0.0015449657877077377 0.00046150626903401467 0 0.00069780125959071845 0.0011964246557796606 0 0.001308494290286523 0.001493768788672757 0 0.0092763455475056659 0.0013457453079781169 0 0.0099946777660538024 0.0025999247522694412 0 0.010171146100769099 0.0025599518826131488 0 0.011870718397186664 0.0044197003420174434 0 0.0074519564050271048 0.0017782116171554774 0 0.009760650455898582 0.0029038628071769226 0 0.0099946777660538024 0.0025999247522694412 0 0.010171146100769099 0.0025599518826131488 0 0.0050725334463163794 -0.0016171269443540166 0 0.0064919345664531591 -0.0010992830895782341 0 0.0051461222408784747 0.00029147201015388655 0 0.0074519564050271048 0.0017782116171554774 0 0.0026304444950798712 0.00059027978909290645 0 0.0033528520906993295 -0.00084858967785455446 0 0.0030556023328843153 0.00043501829952754341 0 0.0051461222408784747 0.00029147201015388655 0 0.0033528520906993295 -0.00084858967785455446 0 0.0051461222408784747 0.00029147201015388655 0 0.0042432405800118178 -0.0014610509547990415 0 0.0050725334463163794 -0.0016171269443540166 0 0.0051461222408784747 0.00029147201015388655 0 0.0042432405800118178 -0.0014610509547990415 0 0.013709264291119169 0.0044292934102349718 0 0.013942574260953069 0.0044091424275279172 0 0.013980833688356866 0.0041996504872312494 0 0.013709264291119169 0.0044292934102349718 0 0.013942574260953069 0.0044091424275279172 0 0.013709183492116958 0.0046937137883635068 0 0.013965476964336978 0.004401242711468069 0 0.013942574260953069 0.0044091424275279172 0 0.014016582328757835 0.0042839221008935816 0 0.013965476964336978 0.004401242711468069 0 0.013942574260953069 0.0044091424275279172 0 0.014080118379944622 0.0042377211805217545 0 0.013965476964336978 0.004401242711468069 0 0.014080118379944622 0.0042377211805217545 0 0.01399803988539502 0.0043032895796055216 0 0.014253051341614939 0.0040496487419162458 0 0.014080118379944622 0.0042377211805217545 0 0.01399803988539502 0.0043032895796055216 0 0.014167466144021888 0.0040255905408980155 0 0.014080118379944622 0.0042377211805217545 0 0.013980833688356866 0.0041996504872312494 0 0.014037431873412453 0.0040213096269267846 0 0.014167466144021888 0.0040255905408980155 0 0.013980833688356866 0.0041996504872312494 0 0.013942574260953069 0.0044091424275279172 0 0.014080118379944622 0.0042377211805217545 0 0.013980833688356866 0.0041996504872312494 0 0.013709264291119169 0.0044292934102349718 0 0.013980833688356866 0.0041996504872312494 0 0.01376226694248339 0.0042187019479306333 0 0.014037431873412453 0.0040213096269267846 0 0.013980833688356866 0.0041996504872312494 0 0.01376226694248339 0.0042187019479306333 0 0.013874669745818524 0.0040113092728848217 0 0.014037431873412453 0.0040213096269267846 0 0.01376226694248339 0.0042187019479306333 0 0.013874669745818524 0.0040113092728848217 0 0.01376226694248339 0.0042187019479306333 0 0.013501114383618538 0.0042314016887810913 0 0.013874669745818524 0.0040113092728848217 0 0.013578307406513725 0.0040453821631939273 0 0.013501114383618538 0.0042314016887810913 0 0.013350653640634057 0.0041077402657824554 0 0.013578307406513725 0.0040453821631939273 0 0.01326859810047977 0.0042389560210980039 0 0.013501114383618538 0.0042314016887810913 0 0.01326859810047977 0.0042389560210980039 0 0.013137622725402968 0.0044413166389449775 0 0.013578307406513725 0.0040453821631939273 0 0.013501114383618538 0.0042314016887810913 0 0.01326859810047977 0.0042389560210980039 0 0.01301320029252637 0.0043503207828431744 0 0.01326859810047977 0.0042389560210980039 0 0.013137622725402968 0.0044413166389449775 0 0.013501114383618538 0.0042314016887810913 0 0.013137622725402968 0.0044413166389449775 0 0.013338208480368203 0.0045105406612764411 0 0.013137622725402968 0.0044413166389449775 0 0.013338208480368203 0.0045105406612764411 0 0.012898517729944154 0.0048198750429693368 0 0.012804852651358119 0.0046904718661680963 0 0.013137622725402968 0.0044413166389449775 0 0.012898517729944154 0.0048198750429693368 0 0.01301320029252637 0.0043503207828431744 0 0.012804852651358119 0.0046904718661680963 0 0.013137622725402968 0.0044413166389449775 0 0.013709264291119169 0.0044292934102349718 0 0.01376226694248339 0.0042187019479306333 0 0.013338208480368203 0.0045105406612764411 0 0.01376226694248339 0.0042187019479306333 0 0.013501114383618538 0.0042314016887810913 0 0.013338208480368203 0.0045105406612764411 0 0.013709264291119169 0.0044292934102349718 0 0.013397162353592765 0.004695030351586792 0 0.013709183492116958 0.0046937137883635068 0 0.013709264291119169 0.0044292934102349718 0 0.013338208480368203 0.0045105406612764411 0 0.013397162353592765 0.004695030351586792 0 0.013397162353592765 0.004695030351586792 0 0.013385088523023982 0.0050149699729139458 0 0.013709183492116958 0.0046937137883635068 0 0.013397162353592765 0.004695030351586792 0 0.012971011042729252 0.0050843362500025769 0 0.013074482025128991 0.0048370172067173992 0 0.013338208480368203 0.0045105406612764411 0 0.013397162353592765 0.004695030351586792 0 0.013074482025128991 0.0048370172067173992 0 0.013397162353592765 0.004695030351586792 0 0.012971011042729252 0.0050843362500025769 0 0.013385088523023982 0.0050149699729139458 0 0.012448461043196657 0.0054479695502406477 0 0.012898517729944154 0.0048198750429693368 0 0.012772051787693061 0.0051233075840057037 0 0.012804852651358119 0.0046904718661680963 0 0.012448461043196657 0.0054479695502406477 0 0.012898517729944154 0.0048198750429693368 0 0.013338208480368203 0.0045105406612764411 0 0.012898517729944154 0.0048198750429693368 0 0.013074482025128991 0.0048370172067173992 0 0.012898517729944154 0.0048198750429693368 0 0.013074482025128991 0.0048370172067173992 0 0.012772051787693061 0.0051233075840057037 0 0.012971011042729252 0.0050843362500025769 0 0.013074482025128991 0.0048370172067173992 0 0.012772051787693061 0.0051233075840057037 0 0.012971011042729252 0.0050843362500025769 0 0.012772051787693061 0.0051233075840057037 0 0.012555826620428983 0.0054249542966253025 0 0.0096053266362457774 0.0022481596255730899 0 0.0096182782100507572 0.0018556518432328579 0 0.0094175007265755121 0.0016364336665201226 0 0.010922758263076641 0.0037115824616871951 0 0.010855036385852579 0.0036308765367655694 0 0.012448461043196657 0.0054479695502406477 0 0.012772051787693061 0.0051233075840057037 0 0.012555826620428983 0.0054249542966253025 0 0.012448461043196657 0.0054479695502406477 0 0.012555826620428983 0.0054249542966253025 0 0.012075122586263219 0.0059972216217571202 0 0.012931728253962051 0.0053096553862438693 0 0.013831692020962816 0.0051316357670574278 0 0.012075122586263219 0.0059972216217571202 0 0.011425727573266641 0.0061861328879360801 0 0.012032930619610688 0.006032711205714348 0 0.010151851746904408 0.0065840294789897185 0 0.0089880079675760012 0.0074033151113141642 0 0.012075122586263219 0.0059972216217571202 0 0.012971011042729252 0.0050843362500025769 0 0.013385088523023982 0.0050149699729139458 0 0.012931728253962051 0.0053096553862438693 0 0.012971011042729252 0.0050843362500025769 0 0.012555826620428983 0.0054249542966253025 0 0.012931728253962051 0.0053096553862438693 0 0.012555826620428983 0.0054249542966253025 0 0.012931728253962051 0.0053096553862438693 0 0.012075122586263219 0.0059972216217571202 0 0.013385088523023982 0.0050149699729139458 0 0.012931728253962051 0.0053096553862438693 0 0.013831692020962816 0.0051316357670574278 0 0.010151851746904408 0.0065840294789897185 0 0.0089880079675760012 0.0074033151113141642 0 0.0092163682672750415 0.0070765345345175099 0 0.013942574260953069 0.0044091424275279172 0 0.013709183492116958 0.0046937137883635068 0 0.014016582328757835 0.0042839221008935816 0 0.013831692020962816 0.0051316357670574278 0 0.013709183492116958 0.0046937137883635068 0 0.014016582328757835 0.0042839221008935816 0 0.013385088523023982 0.0050149699729139458 0 0.013831692020962816 0.0051316357670574278 0 0.013709183492116958 0.0046937137883635068 0 0.011425727573266641 0.0061861328879360801 0 0.011737325110128854 0.0052293729125864287 0 0.0089880079675760012 0.0074033151113141642 0 0.0091292939492864829 0.0070790341465576017 0 0.0094173225614720048 0.0060958295177327322 0 0.0089880079675760012 0.0074033151113141642 0 0.0091292939492864829 0.0070790341465576017 0 0.0092163682672750415 0.0070765345345175099 0 0.0091292939492864829 0.0070790341465576017 0 0.0094173225614720048 0.0060958295177327322 0 0.0092442029449917307 0.0074326288563887101 0 0.010287073590828187 0.006974149424125011 0 0.0094173225614720048 0.0060958295177327322 0 0.0092442029449917307 0.0074326288563887101 0 0.010287073590828187 0.006974149424125011 0 0.0094173225614720048 0.0060958295177327322 0 0.011670575144821269 0.005803481727730664 0 0.0094173225614720048 0.0060958295177327322 0 0.011670575144821269 0.005803481727730664 0 0.012283920043232633 0.0045945889312973632 0 0.011737325110128854 0.0052293729125864287 0 0.012253611521862821 0.0046427902432930237 0 0.012234840990419823 0.0073173421712286529 0 0.01245725512919257 0.0081050044780990455 0 0.010217652484445935 0.0095082828517959548 0 0.012234840990419823 0.0073173421712286529 0 0.01211323437169514 0.0070341550286856652 0 0.010217652484445935 0.0095082828517959548 0 0.0039746322374682088 0.014083519409100716 0 0.0029428179956292517 0.013939048902201852 0 0.0033784073815940653 0.013080042939623112 0 0.012429586154525236 0.0072196047949178044 0 0.012082720833839189 0.0070697476462568678 0 0.012234840990419823 0.0073173421712286529 0 0.01211323437169514 0.0070341550286856652 0 0.01181032536728548 0.0072041846326968036 0 0.012380790649647368 0.0062113690193565567 0 0.011570214974549898 0.006637777664247879 0 0.01181032536728548 0.0072041846326968036 0 0.012234840990419823 0.0073173421712286529 0 0.012451172605413599 0.0073705542080092536 0 0.01181032536728548 0.0072041846326968036 0 0.012408595193624198 0.007346635763057381 0 0.012429586154525236 0.0072196047949178044 0 0.010287073590828187 0.006974149424125011 0 0.011570214974549898 0.006637777664247879 0 0.011670575144821269 0.005803481727730664 0 0.010287073590828187 0.006974149424125011 0 0.011570214974549898 0.006637777664247879 0 0.010893809554708858 0.0072958914021132365 0 0.012380790649647368 0.0062113690193565567 0 0.011570214974549898 0.006637777664247879 0 0.011670575144821269 0.005803481727730664 0 0.011570214974549898 0.006637777664247879 0 0.010893809554708858 0.0072958914021132365 0 0.01181032536728548 0.0072041846326968036 0 0.012380790649647368 0.0062113690193565567 0 0.011670575144821269 0.005803481727730664 0 0.012745765451257388 0.0043588432847695745 0 0.012959880874737682 0.0074117463489963009 0 0.013002992335949764 0.0070493102735044409 0 0.012824281464205247 0.0069327519085419769 0 0.01245725512919257 0.0081050044780990455 0 0.012111913218186467 0.011070889198857698 0 0.010309392247847701 0.0099729557838895509 0 0.012429586154525236 0.0072196047949178044 0 0.013013874093929441 0.0087146313768127585 0 0.012429586154525236 0.0072196047949178044 0 0.013247998021470966 0.0056641830722210587 0 0.013013874093929441 0.0087146313768127585 0 0.01327062676173244 0.007279882066037623 0 0.014651603131811713 0.0069844456621802305 0 0.014245541618133239 0.0067186029191637969 0 0.014746362235018738 0.0062486630384084888 0 0.013013874093929441 0.0087146313768127585 0 0.0087179715171511133 0.011890484514678092 0 0.013013874093929441 0.0087146313768127585 0 0.013247998021470966 0.0056641830722210587 0 0.011670575144821269 0.005803481727730664 0 0.012745765451257388 0.0043588432847695745 0 0.012283920043232633 0.0045945889312973632 0 0.012745765451257388 0.0043588432847695745 0 0.012283920043232633 0.0045945889312973632 0 0.013245688833704973 0.0045090364008348923 0 0.013247998021470966 0.0056641830722210587 0 0.012972253451648281 0.0045249032351889103 0 0.013247998021470966 0.0056641830722210587 0 0.013861267787281908 0.0049451050471858689 0 0.014245541618133239 0.0067186029191637969 0 0.013986910055207852 0.0057363585593447211 0 0.014455113825336267 0.0059552966494876214 0 0.013449014151669856 0.004685768186599916 0 0.013245688833704973 0.0045090364008348923 0 0.013860286687627135 0.0041477291374159451 0 0.01189983956495831 0.0084750486244374347 0 0.012103901627336535 0.0071276217191020034 0 0.012341747678300324 0.0087621316130182172 0 0.011735969300619894 0.0097847257591766514 0 0.01189983956495831 0.0084750486244374347 0 0.012341747678300324 0.0087621316130182172 0 0.014245541618133239 0.0067186029191637969 0 0.014746362235018738 0.0062486630384084888 0 0.014455113825336267 0.0059552966494876214 0 0.013965476964336978 0.004401242711468069 0 0.014016582328757835 0.0042839221008935816 0 0.01352997637092645 0.0045580647978826902 0 0.012283920043232633 0.0045945889312973632 0 0.013245688833704973 0.0045090364008348923 0 0.01352997637092645 0.0045580647978826902 0 0.014016582328757835 0.0042839221008935816 0 0.012283920043232633 0.0045945889312973632 0 0.01352997637092645 0.0045580647978826902 0 0.013245688833704973 0.0045090364008348923 0 0.013669863721890508 0.004407507509918405 0 0.013860286687627135 0.0041477291374159451 0 0.013245688833704973 0.0045090364008348923 0 0.01352997637092645 0.0045580647978826902 0 0.013669863721890508 0.004407507509918405 0 0.013965476964336978 0.004401242711468069 0 0.01352997637092645 0.0045580647978826902 0 0.01399803988539502 0.0043032895796055216 0 0.013669863721890508 0.004407507509918405 0 0.01399803988539502 0.0043032895796055216 0 0.014034170192795356 0.0041787838759081092 0 0.01352997637092645 0.0045580647978826902 0 0.013669863721890508 0.004407507509918405 0 0.01399803988539502 0.0043032895796055216 0 0.014253051341614939 0.0040496487419162458 0 0.01399803988539502 0.0043032895796055216 0 0.014282256256777891 0.0040392975058014865 0 0.01399803988539502 0.0043032895796055216 0 0.014282256256777891 0.0040392975058014865 0 0.014034170192795356 0.0041787838759081092 0 0.014282256256777891 0.0040392975058014865 0 0.014358592566350695 0.0039565147802280978 0 0.014034170192795356 0.0041787838759081092 0 0.014444216304792526 0.0038750450307429027 0 0.014282256256777891 0.0040392975058014865 0 0.014559749607024539 0.0038273894454572779 0 0.014282256256777891 0.0040392975058014865 0 0.014559749607024539 0.0038273894454572779 0 0.014358592566350695 0.0039565147802280978 0 0.014559749607024539 0.0038273894454572779 0 0.014733862600790357 0.0037485653757114339 0 0.014358592566350695 0.0039565147802280978 0 0.014736211846743218 0.0035965445731196209 0 0.014559749607024539 0.0038273894454572779 0 0.014733862600790357 0.0037485653757114339 0 0.014733862600790357 0.0037485653757114339 0 0.014358592566350695 0.0039565147802280978 0 0.014520099790577796 0.0038813494008115824 0 0.014358592566350695 0.0039565147802280978 0 0.013860286687627135 0.0041477291374159451 0 0.014520099790577796 0.0038813494008115824 0 0.013669863721890508 0.004407507509918405 0 0.014034170192795356 0.0041787838759081092 0 0.013860286687627135 0.0041477291374159451 0 0.014358592566350695 0.0039565147802280978 0 0.014034170192795356 0.0041787838759081092 0 0.013860286687627135 0.0041477291374159451 0 0.013986910055207852 0.0057363585593447211 0 0.014455144087849833 0.0055565504871551872 0 0.014273075764733942 0.0050955723059861648 0 0.013986910055207852 0.0057363585593447211 0 0.014455113825336267 0.0059552966494876214 0 0.014455144087849833 0.0055565504871551872 0 0.015233232594033315 0.0065894613346819467 0 0.011259378125265687 0.010014009319021269 0 0.01327062676173244 0.007279882066037623 0 0.015233232594033315 0.0065894613346819467 0 0.014746362235018738 0.0062486630384084888 0 0.014455113825336267 0.0059552966494876214 0 0.014841925626536873 0.0055179359785978103 0 0.014455113825336267 0.0059552966494876214 0 0.014455144087849833 0.0055565504871551872 0 0.014841925626536873 0.0055179359785978103 0 0.014455144087849833 0.0055565504871551872 0 0.014841925626536873 0.0055179359785978103 0 0.014852321522651759 0.0054362046267126965 0 0.015233232594033315 0.0065894613346819467 0 0.017964975834787539 0.0038743052138509844 0 0.017964975834787539 0.0038743052138509844 0 0.026002831991930122 0.0002656586336023056 0 0.017868690819802011 0.0041928900760656064 0 0.017372372590349835 0.0039159578661192218 0 0.017690285895631097 0.0033673081478819934 0 0.017964975834787539 0.0038743052138509844 0 0.015685696432750539 0.0044571979090196213 0 0.014455144087849833 0.0055565504871551872 0 0.014852321522651759 0.0054362046267126965 0 0.014273075764733942 0.0050955723059861648 0 0.017964975834787539 0.0038743052138509844 0 0.022017090643803198 0.0020527949078125583 0 0.013986910055207852 0.0057363585593447211 0 0.014273075764733942 0.0050955723059861648 0 0.013733398318587669 0.004770994456756621 0 0.013861267787281908 0.0049451050471858689 0 0.015225658927355095 0.0041173339530693707 0 0.015685696432750539 0.0044571979090196213 0 0.015225658927355095 0.0041173339530693707 0 0.017372372590349835 0.0039159578661192218 0 0.017690285895631097 0.0033673081478819934 0 0.017208921258648861 0.0032026216623602288 0 0.017372372590349835 0.0039159578661192218 0 0.017208921258648861 0.0032026216623602288 0 0.016906504274758587 0.0036513560754565613 0 0.025307683905908453 0.0014444026663754624 0 0.025463338675653518 0.0010155685453857798 0 0.025528790311649247 0.0010414053297257944 0 0.017516137129632424 0.0025793624860543903 0 0.017690285895631097 0.0033673081478819934 0 0.017208921258648861 0.0032026216623602288 0 0.025679767680014162 0.00094542566615877328 0 0.025574378255534755 0.00094453839475941068 0 0.025463338675653518 0.0010155685453857798 0 0.021547882148285596 0.0018053053147982473 0 0.022017090643803198 0.0020527949078125583 0 0.025574378255534755 0.00094453839475941068 0 0.025463338675653518 0.0010155685453857798 0 0.025528790311649247 0.0010414053297257944 0 0.016985148428859384 0.0026983444653663098 0 0.017516137129632424 0.0025793624860543903 0 0.017208921258648861 0.0032026216623602288 0 0.016985148428859384 0.0026983444653663098 0 0.017208921258648861 0.0032026216623602288 0 0.016741122827187687 0.003063549462322577 0 0.016000245660675812 0.0023981028290678721 0 0.0159246759597911 0.002998998952187647 0 0.01552212170094573 0.0029113786790505428 0 0.016284100683360742 0.0024092329191282426 0 0.016418491964813514 0.0030439509392819943 0 0.01656550929894441 0.0024980315263543238 0 0.016985148428859384 0.0026983444653663098 0 0.016741122827187687 0.003063549462322577 0 0.015114181976665133 0.0031266862241656284 0 0.01552212170094573 0.0029113786790505428 0 0.015492197462734305 0.0026575827516186093 0 0.015114181976665133 0.0031266862241656284 0 0.01552212170094573 0.0029113786790505428 0 0.015167258373312344 0.0034806378452193905 0 0.0159246759597911 0.002998998952187647 0 0.01552212170094573 0.0029113786790505428 0 0.015167258373312344 0.0034806378452193905 0 0.015114181976665133 0.0031266862241656284 0 0.014736211846743218 0.0035965445731196209 0 0.015167258373312344 0.0034806378452193905 0 0.014736211846743218 0.0035965445731196209 0 0.014733862600790357 0.0037485653757114339 0 0.015167258373312344 0.0034806378452193905 0 0.017208921258648861 0.0032026216623602288 0 0.016741122827187687 0.003063549462322577 0 0.016906504274758587 0.0036513560754565613 0 0.01513450588085539 0.0035479806337986265 0 0.015225658927355095 0.0041173339530693707 0 0.014733862600790357 0.0037485653757114339 0 0.015167258373312344 0.0034806378452193905 0 0.014520099790577796 0.0038813494008115824 0 0.016418491964813514 0.0030439509392819943 0 0.015225658927355095 0.0041173339530693707 0 0.0159246759597911 0.002998998952187647 0 0.015167258373312344 0.0034806378452193905 0 0.016222500823794499 0.0041083239433789484 0 0.024769762014253054 0.00083169312535229419 0 0.024741619405439536 0.00082015046220533625 0 0.024641342156958831 0.00080418598200915174 0 0.018269494105916096 2.0438999379242674e-05 0 0.018547686372656885 0.00016908837443855968 0 0.024521071972315261 0.00080889944380665123 0 0.024769762014253054 0.00083169312535229419 0 0.024641342156958831 0.00080418598200915174 0 0.024521071972315261 0.00080889944380665123 0 0.024663379343315743 0.0009534131230113476 0 0.024769762014253054 0.00083169312535229419 0 0.024995473075718477 0.0009404178322615337 0 0.024663379343315743 0.0009534131230113476 0 0.024769762014253054 0.00083169312535229419 0 0.024995473075718477 0.0009404178322615337 0 0.024769762014253054 0.00083169312535229419 0 0.024939410031240311 0.00086123203342760701 0 0.025266913976786459 0.0011272822541555615 0 0.026002831991930122 0.0002656586336023056 0 0.025147752902918825 0.00092699215621117438 0 0.024995473075718477 0.0009404178322615337 0 0.024939410031240311 0.00086123203342760701 0 0.025147752902918825 0.00092699215621117438 0 0.024939410031240311 0.00086123203342760701 0 0.024876943768674456 0.00082955593597609074 0 0.024876943768674456 0.00082955593597609074 0 0.024811008678759097 0.00083136507637130363 0 0.024834340631848553 0.00082971927635069496 0 0.024939410031240311 0.00086123203342760701 0 0.024876943768674456 0.00082955593597609074 0 0.024834340631848553 0.00082971927635069496 0 0.024811008678759097 0.00083136507637130363 0 0.024834340631848553 0.00082971927635069496 0 0.024764252661965531 0.00082996310880736153 0 0.024876943768674456 0.00082955593597609074 0 0.024811008678759097 0.00083136507637130363 0 0.024776232754168584 0.0008347665044840379 0 0.024769762014253054 0.00083169312535229419 0 0.024834340631848553 0.00082971927635069496 0 0.024741619405439536 0.00082015046220533625 0 0.024769762014253054 0.00083169312535229419 0 0.024939410031240311 0.00086123203342760701 0 0.024834340631848553 0.00082971927635069496 0 0.024834340631848553 0.00082971927635069496 0 0.024741619405439536 0.00082015046220533625 0 0.024764252661965531 0.00082996310880736153 0 0.024741619405439536 0.00082015046220533625 0 0.024686115582010865 0.00083429457376414131 0 0.024764252661965531 0.00082996310880736153 0 0.024686115582010865 0.00083429457376414131 0 0.024764252661965531 0.00082996310880736153 0 0.024727389514370226 0.00083765855460948336 0 0.024720245562862977 0.00084494711673649458 0 0.024876943768674456 0.00082955593597609074 0 0.024776232754168584 0.0008347665044840379 0 0.024811008678759097 0.00083136507637130363 0 0.024776232754168584 0.0008347665044840379 0 0.024764252661965531 0.00082996310880736153 0 0.024776232754168584 0.0008347665044840379 0 0.024764252661965531 0.00082996310880736153 0 0.024727389514370226 0.00083765855460948336 0 0.024720245562862977 0.00084494711673649458 0 0.024776232754168584 0.0008347665044840379 0 0.024727389514370226 0.00083765855460948336 0 0.01018753250156146 0.009406622941281197 0 0.010209032257902604 0.0092746732464199094 0 0.011112978694621321 0.0098544578600589273 0 0.01018753250156146 0.009406622941281197 0 0.011112978694621321 0.0098544578600589273 0 0.010367614932299832 0.010864442250455346 0 0.017964975834787539 0.0038743052138509844 0 0.018815340798713096 0.0058072970130790174 0 0.024720245562862977 0.00084494711673649458 0 0.024727389514370226 0.00083765855460948336 0 0.024672086633719902 0.00084798946901151707 0 0.024686115582010865 0.00083429457376414131 0 0.024672086633719902 0.00084798946901151707 0 0.024578534056262431 0.00089159845040019908 0 0.018815340798713096 0.0058072970130790174 0 0.01112434189789242 0.0067413498180341706 0 0.024686115582010865 0.00083429457376414131 0 0.024727389514370226 0.00083765855460948336 0 0.024672086633719902 0.00084798946901151707 0 0.024686115582010865 0.00083429457376414131 0 0.024641342156958831 0.00080418598200915174 0 0.024578534056262431 0.00089159845040019908 0 0.018547686372656885 0.00016908837443855968 0 0.01112434189789242 0.0067413498180341706 0 0.010327257842978268 0.0016105042433671691 0 0.010541186911833549 0.0036857475232487231 0 0.0086592315963370074 0.0041645010614980533 0 0.024741619405439536 0.00082015046220533625 0 0.024686115582010865 0.00083429457376414131 0 0.024641342156958831 0.00080418598200915174 0 0.012492380132904915 0.0037239688984156208 0 0.010327257842978268 0.0016105042433671691 0 0.010541186911833549 0.0036857475232487231 0 0.012492380132904915 0.0037239688984156208 0 0.010541186911833549 0.0036857475232487231 0 0.011019517418001312 0.0056102304018726045 0 0.0037811563943295156 0.010383633148339493 0 0.01112434189789242 0.0067413498180341706 0 0.010541186911833549 0.0036857475232487231 0 0.011019517418001312 0.0056102304018726045 0 0.0086592315963370074 0.0041645010614980533 0 -0.0010662498124409318 0.014211971925247816 0 -0.0017819041316576216 0.014654854973839245 0 -0.0017337411816515452 0.013848061575723975 0 -0.0010662498124409318 0.014211971925247816 0 -0.0017819041316576216 0.014654854973839245 0 -0.00074533055415537241 0.015097844035927236 0 0.011112978694621321 0.0098544578600589273 0 0.010367614932299832 0.010864442250455346 0 0.011366755083997291 0.011420674300306096 0 0.011112978694621321 0.0098544578600589273 0 0.012022930526422089 0.01043128249832671 0 0.011366755083997291 0.011420674300306096 0 0.01112434189789242 0.0067413498180341706 0 0.0045343871436510927 0.014346239078571811 0 -0.0010662498124409318 0.014211971925247816 0 -0.00074533055415537241 0.015097844035927236 0 -0.00042096694831056689 0.014559787318550043 0 -0.00042096694831056689 0.014559787318550043 0 -1.9595475758234259e-05 0.013983693295871303 0 -0.00059743434494722843 0.014080842509081181 0 -0.0010662498124409318 0.014211971925247816 0 -0.00042096694831056689 0.014559787318550043 0 -0.00059743434494722843 0.014080842509081181 0 0.011259378125265687 0.010014009319021269 0 0.0087179715171511133 0.011890484514678092 0 0.010367614932299832 0.010864442250455346 0 0.011366755083997291 0.011420674300306096 0 0.01057526347898698 0.012323411355556153 0 0.0045343871436510927 0.014346239078571811 0 0.0059117369039766599 0.012286600574224007 0 0.011735969300619894 0.0097847257591766514 0 0.012341747678300324 0.0087621316130182172 0 0.012598261114365761 0.010345668622593987 0 0.011366755083997291 0.011420674300306096 0 0.01057526347898698 0.012323411355556153 0 0.010699138740730793 0.012404611440406117 0 0.01245725512919257 0.0081050044780990455 0 0.010309392247847701 0.0099729557838895509 0 0.010217652484445935 0.0095082828517959548 0 0.0026648534193733841 0.015364515646885683 0 0.0025507828327484658 0.01600810777825093 0 0.0030390495685520859 0.014877857232060877 0 0.0026648534193733841 0.015364515646885683 0 0.0020844901048299161 0.0152432946619792 0 0.0030390495685520859 0.014877857232060877 0 0.0087179715171511133 0.011890484514678092 0 0.0069499511582396456 0.012012680463171992 0 0.0087179715171511133 0.011890484514678092 0 0.0059117369039766599 0.012286600574224007 0 0.0075506617788052583 0.010775986382545419 0 0.0078979252125598708 0.012592445266731592 0 0.0086445922563055701 0.01145526423809257 0 0.0069499511582396456 0.012012680463171992 0 0.0059117369039766599 0.012286600574224007 0 0.0025507828327484658 0.01600810777825093 0 0.0023990451568654584 0.016250125850663273 0 0.0020844901048299161 0.0152432946619792 0 0.0026648534193733841 0.015364515646885683 0 0.0025507828327484658 0.01600810777825093 0 0.0020844901048299161 0.0152432946619792 0 0.0059117369039766599 0.012286600574224007 0 -0.0011040296376561207 0.014301589368820944 0 0.0023990451568654584 0.016250125850663273 0 0.0020844901048299161 0.0152432946619792 0 0.00012227554426212704 0.014854651099953261 0 -1.9595475758234259e-05 0.013983693295871303 0 -0.00059743434494722843 0.014080842509081181 0 -0.00088011059557076331 0.01355876924251429 0 -0.0010662498124409318 0.014211971925247816 0 -0.00059743434494722843 0.014080842509081181 0 -0.00088011059557076331 0.01355876924251429 0 0.0020844901048299161 0.0152432946619792 0 0.00012227554426212704 0.014854651099953261 0 0.0017531001605360359 0.014164471202709352 0 0.00012227554426212704 0.014854651099953261 0 0.0017531001605360359 0.014164471202709352 0 0.00011548502848077078 0.012888314848071847 0 0.0078918229326560337 0.010764737131406228 0 0.0069499511582396456 0.012012680463171992 0 0.0039746322374682088 0.014083519409100716 0 0.0025507828327484658 0.01600810777825093 0 0.0030390495685520859 0.014877857232060877 0 0.0020844901048299161 0.0152432946619792 0 0.0017531001605360359 0.014164471202709352 0 0.0030390495685520859 0.014877857232060877 0 0.0017531001605360359 0.014164471202709352 0 0.0029428179956292517 0.013939048902201852 0 0.0022038353524800719 0.012933724400232842 0 0.0017531001605360359 0.014164471202709352 0 0.0029428179956292517 0.013939048902201852 0 0.0030390495685520859 0.014877857232060877 0 0.0039746322374682088 0.014083519409100716 0 0.0029428179956292517 0.013939048902201852 0 0.0030390495685520859 0.014877857232060877 0 -0.0021763631475183801 0.014039261838285215 0 -0.0017819041316576216 0.014654854973839245 0 -0.0017337411816515452 0.013848061575723975 0 -0.0021763631475183801 0.014039261838285215 0 -0.0024929256738948262 0.013499778366679746 0 -0.0017337411816515452 0.013848061575723975 0 -0.0010662498124409318 0.014211971925247816 0 -0.00088011059557076331 0.01355876924251429 0 -0.0017337411816515452 0.013848061575723975 0 -0.0011040296376561207 0.014301589368820944 0 -0.0014468718131297827 0.013374178140869608 0 -0.00088011059557076331 0.01355876924251429 0 -0.0017337411816515452 0.013848061575723975 0 -0.0018074064860064811 0.013237705693479491 0 0.00012227554426212704 0.014854651099953261 0 -0.0018074064860064811 0.013237705693479491 0 0.00011548502848077078 0.012888314848071847 0 -0.0024929256738948262 0.013499778366679746 0 -0.0017337411816515452 0.013848061575723975 0 -0.0018074064860064811 0.013237705693479491 0 -0.0024929256738948262 0.013499778366679746 0 -0.0018074064860064811 0.013237705693479491 0 -0.0024555014167642903 0.012386678909769673 0 -0.0018074064860064811 0.013237705693479491 0 -0.0024555014167642903 0.012386678909769673 0 -0.0014303880570621711 0.012107798866816129 0 -0.0018074064860064811 0.013237705693479491 0 -0.0014303880570621711 0.012107798866816129 0 0.00011548502848077078 0.012888314848071847 0 -0.0014303880570621711 0.012107798866816129 0 -0.00049770402035292092 0.011402709060510994 0 0.00011548502848077078 0.012888314848071847 0 -0.0014303880570621711 0.012107798866816129 0 -0.00049770402035292092 0.011402709060510994 0 -0.002248687095201431 0.010492569897018083 0 -0.00049770402035292092 0.011402709060510994 0 -0.00022622756868593248 0.0096005197176080182 0 -0.002248687095201431 0.010492569897018083 0 -0.0028202292506458353 0.012424869082911507 0 -0.0022833648118006809 0.010728525900516849 0 -0.0034428941474265603 0.013029947003930268 0 -0.002248687095201431 0.010492569897018083 0 -0.0038654375188534088 0.011474405557930235 0 -0.0024555014167642903 0.012386678909769673 0 -0.0014303880570621711 0.012107798866816129 0 -0.002248687095201431 0.010492569897018083 0 0.0022038353524800719 0.012933724400232842 0 0.0014594685042989466 0.011094058721150993 0 0.0031530625149780644 0.011795780342613809 0 0.0022038353524800719 0.012933724400232842 0 0.0031530625149780644 0.011795780342613809 0 0.0033784073815940653 0.013080042939623112 0 0.0029428179956292517 0.013939048902201852 0 0.0022038353524800719 0.012933724400232842 0 0.0033784073815940653 0.013080042939623112 0 0.0022038353524800719 0.012933724400232842 0 0.00011548502848077078 0.012888314848071847 0 0.0014594685042989466 0.011094058721150993 0 0.0017531001605360359 0.014164471202709352 0 0.0022038353524800719 0.012933724400232842 0 0.00011548502848077078 0.012888314848071847 0 -0.00049770402035292092 0.011402709060510994 0 0.00011548502848077078 0.012888314848071847 0 0.0014594685042989466 0.011094058721150993 0 -0.00049770402035292092 0.011402709060510994 0 0.0014594685042989466 0.011094058721150993 0 -0.00022622756868593248 0.0096005197176080182 0 0.0014594685042989466 0.011094058721150993 0 0.0031530625149780644 0.011795780342613809 0 0.002889078084972933 0.0099758583166824882 0 0.0014594685042989466 0.011094058721150993 0 0.0015118518928632751 0.0086212837762529339 0 0.002889078084972933 0.0099758583166824882 0 0.0015118518928632751 0.0086212837762529339 0 0.002889078084972933 0.0099758583166824882 0 0.0036649386226690578 0.0081825427859967634 0 0.0014594685042989466 0.011094058721150993 0 0.0015118518928632751 0.0086212837762529339 0 -0.00022622756868593248 0.0096005197176080182 0 0.0015118518928632751 0.0086212837762529339 0 -0.00022622756868593248 0.0096005197176080182 0 0.0001048531340678114 0.0072185303136482245 0 0.0015118518928632751 0.0086212837762529339 0 0.0024398280105670253 0.0065857055156424227 0 0.0036649386226690578 0.0081825427859967634 0 0.0015118518928632751 0.0086212837762529339 0 0.0001048531340678114 0.0072185303136482245 0 0.0024398280105670253 0.0065857055156424227 0 -0.002248687095201431 0.010492569897018083 0 -0.0038654375188534088 0.011474405557930235 0 -0.0044195145625314227 0.0092182703672285468 0 -0.002248687095201431 0.010492569897018083 0 -0.0020603882715122669 0.0080822811131259897 0 -0.0044195145625314227 0.0092182703672285468 0 -0.00022622756868593248 0.0096005197176080182 0 -0.002248687095201431 0.010492569897018083 0 -0.0020603882715122669 0.0080822811131259897 0 -0.00022622756868593248 0.0096005197176080182 0 0.0001048531340678114 0.0072185303136482245 0 -0.0020603882715122669 0.0080822811131259897 0 0.0001048531340678114 0.0072185303136482245 0 -0.0020603882715122669 0.0080822811131259897 0 -0.0015700748731686778 0.005529868364914683 0 -0.0020603882715122669 0.0080822811131259897 0 -0.0040363955584491341 0.0064563749618283262 0 -0.0044195145625314227 0.0092182703672285468 0 -0.0040363955584491341 0.0064563749618283262 0 -0.0034192175195727655 0.0043590299256898862 0 -0.0015700748731686778 0.005529868364914683 0 -0.0040363955584491341 0.0064563749618283262 0 -0.0034192175195727655 0.0043590299256898862 0 -0.0064553732203772767 0.0042732164147026791 0 -0.0034192175195727655 0.0043590299256898862 0 -0.0050424840665110292 0.0028605920357865728 0 -0.0064553732203772767 0.0042732164147026791 0 -0.0034192175195727655 0.0043590299256898862 0 -0.0050424840665110292 0.0028605920357865728 0 -0.003458746110889433 0.0026674981938511256 0 -0.0034192175195727655 0.0043590299256898862 0 -0.0018720840922524409 0.0034218766809272494 0 -0.0015700748731686778 0.005529868364914683 0 -0.0034192175195727655 0.0043590299256898862 0 -0.0018720840922524409 0.0034218766809272494 0 -0.003458746110889433 0.0026674981938511256 0 -0.0020603882715122669 0.0080822811131259897 0 -0.0040363955584491341 0.0064563749618283262 0 -0.0015700748731686778 0.005529868364914683 0 -0.0015700748731686778 0.005529868364914683 0 0.00071114922686236137 0.0054294628377011631 0 -0.00026670935454274012 0.0039988188555289995 0 0.0001048531340678114 0.0072185303136482245 0 -0.0015700748731686778 0.005529868364914683 0 0.00071114922686236137 0.0054294628377011631 0 0.0001048531340678114 0.0072185303136482245 0 0.0024398280105670253 0.0065857055156424227 0 0.00071114922686236137 0.0054294628377011631 0 0.0024398280105670253 0.0065857055156424227 0 0.0021826030834174604 0.0051400000613349558 0 0.0036934209029902869 0.0053836909160058528 0 0.0024398280105670253 0.0065857055156424227 0 0.00071114922686236137 0.0054294628377011631 0 0.0021826030834174604 0.0051400000613349558 0 0.00071114922686236137 0.0054294628377011631 0 0.0021826030834174604 0.0051400000613349558 0 0.001289066860049452 0.0041253350366242123 0 0.0021826030834174604 0.0051400000613349558 0 0.001289066860049452 0.0041253350366242123 0 0.0027963505407515988 0.0041590974361020014 0 0.001289066860049452 0.0041253350366242123 0 0.0018356357572669457 0.0028365083473763588 0 0.00057033857685623312 0.0030618459138009838 0 0.001289066860049452 0.0041253350366242123 0 0.0018356357572669457 0.0028365083473763588 0 0.0027963505407515988 0.0041590974361020014 0 -0.0018720840922524409 0.0034218766809272494 0 -0.0015700748731686778 0.005529868364914683 0 -0.00026670935454274012 0.0039988188555289995 0 0.00071114922686236137 0.0054294628377011631 0 0.001289066860049452 0.0041253350366242123 0 -0.00026670935454274012 0.0039988188555289995 0 0.001289066860049452 0.0041253350366242123 0 -0.00026670935454274012 0.0039988188555289995 0 0.00057033857685623312 0.0030618459138009838 0 -0.0018720840922524409 0.0034218766809272494 0 -0.00026670935454274012 0.0039988188555289995 0 -0.00079183229557867375 0.002317241993099981 0 -0.00079183229557867375 0.002317241993099981 0 0.00057033857685623312 0.0030618459138009838 0 0.00049580119285654175 0.0020610653993018853 0 -0.00026670935454274012 0.0039988188555289995 0 -0.00079183229557867375 0.002317241993099981 0 0.00057033857685623312 0.0030618459138009838 0 -0.00079183229557867375 0.002317241993099981 0 0.00049580119285654175 0.0020610653993018853 0 1.6184489161460947e-05 0.0010090675565573937 0 -0.00079183229557867375 0.002317241993099981 0 -0.001185209055106005 0.0011890765834955764 0 1.6184489161460947e-05 0.0010090675565573937 0 -0.00079183229557867375 0.002317241993099981 0 -0.001185209055106005 0.0011890765834955764 0 -0.0025438224954197294 0.0013165463124847501 0 0.0018356357572669457 0.0028365083473763588 0 0.00057033857685623312 0.0030618459138009838 0 0.00049580119285654175 0.0020610653993018853 0 0.00049580119285654175 0.0020610653993018853 0 0.0014847774366418842 0.0015055240142967223 0 1.6184489161460947e-05 0.0010090675565573937 0 0.0018356357572669457 0.0028365083473763588 0 0.00049580119285654175 0.0020610653993018853 0 0.0014847774366418842 0.0015055240142967223 0 0.0018356357572669457 0.0028365083473763588 0 0.0014847774366418842 0.0015055240142967223 0 0.0027795638711601719 0.0018361981540535 0 0.0014847774366418842 0.0015055240142967223 0 0.0023457348235036879 0.00077508456983141902 0 0.0027795638711601719 0.0018361981540535 0 0.0011356636632229974 0.00046718166184055914 0 0.0017224346642278367 -0.00039679339867657618 0 0.0023457348235036879 0.00077508456983141902 0 0.0014847774366418842 0.0015055240142967223 0 0.0011356636632229974 0.00046718166184055914 0 0.0023457348235036879 0.00077508456983141902 0 0.0011356636632229974 0.00046718166184055914 0 1.9004965396578559e-05 -7.2591432197569525e-06 0 1.6184489161460947e-05 0.0010090675565573937 0 0.0014847774366418842 0.0015055240142967223 0 0.0011356636632229974 0.00046718166184055914 0 1.6184489161460947e-05 0.0010090675565573937 0 1.9004965396578559e-05 -7.2591432197569525e-06 0 0.00099052722175673271 -0.00026342468235268543 0 0.00054750011870524477 -0.00094819462413636235 0 0.0011356636632229974 0.00046718166184055914 0 1.9004965396578559e-05 -7.2591432197569525e-06 0 0.00099052722175673271 -0.00026342468235268543 0 0.00099052722175673271 -0.00026342468235268543 0 0.0017224346642278367 -0.00039679339867657618 0 0.00054750011870524477 -0.00094819462413636235 0 0.0011356636632229974 0.00046718166184055914 0 0.00099052722175673271 -0.00026342468235268543 0 0.0017224346642278367 -0.00039679339867657618 0 -0.001185209055106005 0.0011890765834955764 0 -0.0014159944006114072 0.00011610471470623704 0 -0.0025438224954197294 0.0013165463124847501 0 -0.001185209055106005 0.0011890765834955764 0 1.6184489161460947e-05 0.0010090675565573937 0 -0.0014159944006114072 0.00011610471470623704 0 1.9004965396578559e-05 -7.2591432197569525e-06 0 1.6184489161460947e-05 0.0010090675565573937 0 -0.0014159944006114072 0.00011610471470623704 0 1.9004965396578559e-05 -7.2591432197569525e-06 0 -0.0014159944006114072 0.00011610471470623704 0 -0.00083999692822558849 -0.001367311995420529 0 -0.0014159944006114072 0.00011610471470623704 0 -0.0025438224954197294 0.0013165463124847501 0 -0.003533974134752039 -8.0264818065941691e-05 0 -0.0025438224954197294 0.0013165463124847501 0 -0.003533974134752039 -8.0264818065941691e-05 0 -0.004365607946268917 0.0013670033070787486 0 -0.003533974134752039 -8.0264818065941691e-05 0 -0.0053253696313193969 1.7619778564781837e-05 0 -0.004365607946268917 0.0013670033070787486 0 -0.0053253696313193969 1.7619778564781837e-05 0 -0.0066002173610726182 4.0259195073369298e-05 0 -0.0061552884087916039 0.0012450171234218033 0 -0.0053253696313193969 1.7619778564781837e-05 0 -0.004365607946268917 0.0013670033070787486 0 -0.0061552884087916039 0.0012450171234218033 0 -0.004365607946268917 0.0013670033070787486 0 -0.0050424840665110292 0.0028605920357865728 0 -0.003458746110889433 0.0026674981938511256 0 -0.004365607946268917 0.0013670033070787486 0 -0.0050424840665110292 0.0028605920357865728 0 -0.0061552884087916039 0.0012450171234218033 0 -0.0018720840922524409 0.0034218766809272494 0 -0.00079183229557867375 0.002317241993099981 0 -0.0025438224954197294 0.0013165463124847501 0 -0.0018720840922524409 0.0034218766809272494 0 -0.0025438224954197294 0.0013165463124847501 0 -0.003458746110889433 0.0026674981938511256 0 -0.0025438224954197294 0.0013165463124847501 0 -0.004365607946268917 0.0013670033070787486 0 -0.003458746110889433 0.0026674981938511256 0 -0.007134085984035401 0.0039431180170716278 0 -0.0070557078582810092 0.0017893610919369383 0 -0.0091467689426403976 0.0022503492830463537 0 -0.014097340203443205 -0.00096973433972113239 0 -0.014049043452034437 -0.00095956737152445837 0 -0.014034822619865177 -0.0011795179651770014 0 -0.0080704999540831511 0.0018747265184618888 0 -0.0080199175052154559 0.00063099600408153349 0 -0.0071876267051219338 0.0022643230214035759 0 -0.011051458145862581 0.00021173867999791442 0 -0.0093353234909315311 0.0011507661221173862 0 -0.0023181893858238533 0.0031716896925406348 0 -0.011051458145862581 0.00021173867999791442 0 -0.014034822619865177 -0.0011795179651770014 0 -0.014445845298778766 -0.0010591850963717459 0 -0.014251486984802152 -0.0010161624846552436 0 -0.014150587758013254 -0.0010254708914528062 0 -0.014097340203443205 -0.00096973433972113239 0 -0.014034822619865177 -0.0011795179651770014 0 -0.0093353234909315311 0.0011507661221173862 0 -0.012467772676499237 -0.0011983344016644176 0 -0.014150587758013254 -0.0010254708914528062 0 -0.014034822619865177 -0.0011795179651770014 0 -0.014251486984802152 -0.0010161624846552436 0 -0.014150587758013254 -0.0010254708914528062 0 -0.014097340203443205 -0.00096973433972113239 0 -0.0141695444103848 -0.00094766874287979602 0 -0.014150587758013254 -0.0010254708914528062 0 -0.0141695444103848 -0.00094766874287979602 0 -0.014251486984802152 -0.0010161624846552436 0 -0.0141695444103848 -0.00094766874287979602 0 -0.014251486984802152 -0.0010161624846552436 0 -0.014274199163089675 -0.0009018248550954059 0 -0.0141695444103848 -0.00094766874287979602 0 -0.014274199163089675 -0.0009018248550954059 0 -0.014175458956868186 -0.00090903545284351343 0 -0.0141695444103848 -0.00094766874287979602 0 -0.014097370346171874 -0.00095865342712265328 0 -0.014175458956868186 -0.00090903545284351343 0 -0.014097340203443205 -0.00096973433972113239 0 -0.0141695444103848 -0.00094766874287979602 0 -0.014097370346171874 -0.00095865342712265328 0 -0.011051458145862581 0.00021173867999791442 0 -0.011489457252281302 -0.00087095071360888477 0 -0.014097340203443205 -0.00096973433972113239 0 -0.014097370346171874 -0.00095865342712265328 0 -0.014049043452034437 -0.00095956737152445837 0 -0.0070557078582810092 0.0017893610919369383 0 -0.0096476955895900777 0.00068144193062855325 0 -0.0091467689426403976 0.0022503492830463537 0 -0.0070557078582810092 0.0017893610919369383 0 -0.0096476955895900777 0.00068144193062855325 0 -0.0087435772410812893 -0.0011833756247010662 0 -0.0096476955895900777 0.00068144193062855325 0 -0.0091467689426403976 0.0022503492830463537 0 -0.011142133611050299 0.00043729713945817988 0 0.0017224346642278367 -0.00039679339867657618 0 0.0030410445339595004 -0.00066706558006563734 0 0.0031843114012062991 0.00034662705882893956 0 -0.0096476955895900777 0.00068144193062855325 0 -0.011142133611050299 0.00043729713945817988 0 -0.010858001428903067 -0.00035576295871538337 0 0.0052499267830841976 0.00087686608930882402 0 0.0030410445339595004 -0.00066706558006563734 0 0.0031843114012062991 0.00034662705882893956 0 0.0052499267830841976 0.00087686608930882402 0 0.0031843114012062991 0.00034662705882893956 0 0.0035142699247189026 0.0011538724436123699 0 -0.0016669332785946591 0.001717065572197436 0 -0.0037747742560353191 -7.8561218677083981e-06 0 0.0031843114012062991 0.00034662705882893956 0 0.0023457348235036879 0.00077508456983141902 0 0.0035142699247189026 0.0011538724436123699 0 0.0017224346642278367 -0.00039679339867657618 0 0.0031843114012062991 0.00034662705882893956 0 0.0023457348235036879 0.00077508456983141902 0 0.0023457348235036879 0.00077508456983141902 0 0.0027795638711601719 0.0018361981540535 0 0.0035142699247189026 0.0011538724436123699 0 0.0052499267830841976 0.00087686608930882402 0 0.0035142699247189026 0.0011538724436123699 0 0.0040838002234108127 0.0020755087974022369 0 0.0027795638711601719 0.0018361981540535 0 0.0035142699247189026 0.0011538724436123699 0 0.0040838002234108127 0.0020755087974022369 0 0.0040838002234108127 0.0020755087974022369 0 0.0046660440282001898 0.0030034768512780504 0 0.0034292044195817638 0.0030231670761491532 0 0.0018356357572669457 0.0028365083473763588 0 0.0027795638711601719 0.0018361981540535 0 0.0034292044195817638 0.0030231670761491532 0 0.0027795638711601719 0.0018361981540535 0 0.0040838002234108127 0.0020755087974022369 0 0.0034292044195817638 0.0030231670761491532 0 -0.0023181893858238533 0.0031716896925406348 0 -0.0016669332785946591 0.001717065572197436 0 0.0073282773997083292 0.0025158157047562527 0 0.0052499267830841976 0.00087686608930882402 0 0.0054236513145284075 0.0022919978045250872 0 0.0052499267830841976 0.00087686608930882402 0 0.0040838002234108127 0.0020755087974022369 0 0.0054236513145284075 0.0022919978045250872 0 0.0040838002234108127 0.0020755087974022369 0 0.0054236513145284075 0.0022919978045250872 0 0.0046660440282001898 0.0030034768512780504 0 0.0054236513145284075 0.0022919978045250872 0 0.0054505992170391241 0.0029483306388881384 0 0.0046660440282001898 0.0030034768512780504 0 0.0054236513145284075 0.0022919978045250872 0 0.006170092419395274 0.0030796247008396905 0 0.0054505992170391241 0.0029483306388881384 0 0.0073282773997083292 0.0025158157047562527 0 0.0054236513145284075 0.0022919978045250872 0 0.006170092419395274 0.0030796247008396905 0 0.0059761686887549442 0.0042032065787931637 0 0.0054795378969371925 0.0054210583164189668 0 0.0073194048125297829 0.0040523587785186712 0 0.006170092419395274 0.0030796247008396905 0 0.0062164803345252208 0.003708109773918777 0 0.0071111469176576778 0.0039841808289643758 0 0.006170092419395274 0.0030796247008396905 0 0.0062164803345252208 0.003708109773918777 0 0.0055062782308888374 0.0035032747369264706 0 0.0062164803345252208 0.003708109773918777 0 0.0055062782308888374 0.0035032747369264706 0 0.0059761686887549442 0.0042032065787931637 0 0.006170092419395274 0.0030796247008396905 0 0.0054505992170391241 0.0029483306388881384 0 0.0055062782308888374 0.0035032747369264706 0 0.0046660440282001898 0.0030034768512780504 0 0.0055062782308888374 0.0035032747369264706 0 0.004528148907887674 0.0041136626690069789 0 0.0054505992170391241 0.0029483306388881384 0 0.0046660440282001898 0.0030034768512780504 0 0.0055062782308888374 0.0035032747369264706 0 0.0055062782308888374 0.0035032747369264706 0 0.0059761686887549442 0.0042032065787931637 0 0.004528148907887674 0.0041136626690069789 0 0.0059761686887549442 0.0042032065787931637 0 0.004528148907887674 0.0041136626690069789 0 0.0054795378969371925 0.0054210583164189668 0 0.0062164803345252208 0.003708109773918777 0 0.0059761686887549442 0.0042032065787931637 0 0.0071111469176576778 0.0039841808289643758 0 0.0018356357572669457 0.0028365083473763588 0 0.0034292044195817638 0.0030231670761491532 0 0.0027963505407515988 0.0041590974361020014 0 0.0034292044195817638 0.0030231670761491532 0 0.004528148907887674 0.0041136626690069789 0 0.0027963505407515988 0.0041590974361020014 0 0.0046660440282001898 0.0030034768512780504 0 0.0034292044195817638 0.0030231670761491532 0 0.004528148907887674 0.0041136626690069789 0 0.004528148907887674 0.0041136626690069789 0 0.0027963505407515988 0.0041590974361020014 0 0.0036934209029902869 0.0053836909160058528 0 0.0024398280105670253 0.0065857055156424227 0 0.0036934209029902869 0.0053836909160058528 0 0.0047293764815661771 0.00677459988856924 0 0.0021826030834174604 0.0051400000613349558 0 0.0027963505407515988 0.0041590974361020014 0 0.0036934209029902869 0.0053836909160058528 0 0.004528148907887674 0.0041136626690069789 0 0.0036934209029902869 0.0053836909160058528 0 0.0054795378969371925 0.0054210583164189668 0 0.0036934209029902869 0.0053836909160058528 0 0.0054795378969371925 0.0054210583164189668 0 0.0047293764815661771 0.00677459988856924 0 0.0054795378969371925 0.0054210583164189668 0 0.0073194048125297829 0.0040523587785186712 0 0.0077239581618021051 0.0067756998703381475 0 0.0054795378969371925 0.0054210583164189668 0 0.0077239581618021051 0.0067756998703381475 0 0.0047293764815661771 0.00677459988856924 0 0.008314930895632424 0.0061956842076560017 0 0.0077494999184479826 0.0053105909201864639 0 0.0077239581618021051 0.0067756998703381475 0 0.0053631185244730631 0.0036553436734882449 0 0.0081078049821816343 0.0070879951578680439 0 0.008314930895632424 0.0061956842076560017 0 0.0077494999184479826 0.0053105909201864639 0 0.0089756405506826696 0.0058055509871027906 0 -0.00061268020441090519 0.0024555528971465851 0 -0.00097867836133515122 0.0026539534317938074 0 -0.0015647290850348901 0.0020905647663737076 0 0.0059761686887549442 0.0042032065787931637 0 0.0071111469176576778 0.0039841808289643758 0 0.0073194048125297829 0.0040523587785186712 0 0.0055750386303247143 0.0037259284340365791 0 0.0053631185244730631 0.0036553436734882449 0 -0.0080704999540831511 0.0018747265184618888 0 -0.0074257682567366373 0.0024318145066855299 0 -0.0071876267051219338 0.0022643230214035759 0 -0.00066286572572956239 0.0030617501033274493 0 -0.00061268020441090519 0.0024555528971465851 0 -0.00097867836133515122 0.0026539534317938074 0 -0.00066286572572956239 0.0030617501033274493 0 -0.00097867836133515122 0.0026539534317938074 0 -0.0010680197485123479 0.0027132307430537367 0 -0.0023181893858238533 0.0031716896925406348 0 -0.0061588578599292045 0.0011718306093585972 0 -0.005552390639211216 0.00099491004519367985 0 -0.0061588578599292045 0.0011718306093585972 0 0.0073282773997083292 0.0025158157047562527 0 0.006170092419395274 0.0030796247008396905 0 0.0071111469176576778 0.0039841808289643758 0 0.0073282773997083292 0.0025158157047562527 0 0.0071111469176576778 0.0039841808289643758 0 0.0073065642389541783 0.0040604965988141279 0 -0.0023181893858238533 0.0031716896925406348 0 0.0053631185244730631 0.0036553436734882449 0 -0.0093353234909315311 0.0011507661221173862 0 0.00043762874967792886 0.0017478454461147986 0 -0.0010688872793447348 0.0027131712711297123 0 -0.0012259820155798458 0.0028132363517922748 0 -0.0015647290850348901 0.0020905647663737076 0 -0.01168981495864518 0.00081877409486744775 0 -0.010670065746864313 0.0031010048255129792 0 -0.0093369273415553119 0.0012756050817732828 0 0.0053631185244730631 0.0036553436734882449 0 0.00043762874967792886 0.0017478454461147986 0 -0.0061588578599292045 0.0011718306093585972 0 -0.0093353234909315311 0.0011507661221173862 0 -0.00097867836133515122 0.0026539534317938074 0 -0.0010688872793447348 0.0027131712711297123 0 -0.0015647290850348901 0.0020905647663737076 0 0.008314930895632424 0.0061956842076560017 0 0.0089756405506826696 0.0058055509871027906 0 0.0088353658216060345 0.0069221279852232026 0 0.0089756405506826696 0.0058055509871027906 0 0.0088353658216060345 0.0069221279852232026 0 0.0093926372309346678 0.0073613749731527072 0 0.0088353658216060345 0.0069221279852232026 0 0.008748100598404503 0.0077659675611365664 0 0.0093926372309346678 0.0073613749731527072 0 0.008314930895632424 0.0061956842076560017 0 0.0088353658216060345 0.0069221279852232026 0 0.0077239581618021051 0.0067756998703381475 0 0.0088353658216060345 0.0069221279852232026 0 0.0077239581618021051 0.0067756998703381475 0 0.008748100598404503 0.0077659675611365664 0 0.008748100598404503 0.0077659675611365664 0 0.0084008057171476112 0.0087862445564174507 0 0.0091200659711486581 0.0079210309456127989 0 0.0077239581618021051 0.0067756998703381475 0 0.008748100598404503 0.0077659675611365664 0 0.0084008057171476112 0.0087862445564174507 0 0.008748100598404503 0.0077659675611365664 0 0.0091200659711486581 0.0079210309456127989 0 0.0093926372309346678 0.0073613749731527072 0 0.0047293764815661771 0.00677459988856924 0 0.0060247141365663316 0.0080523966198839114 0 0.0036649386226690578 0.0081825427859967634 0 0.0024398280105670253 0.0065857055156424227 0 0.0047293764815661771 0.00677459988856924 0 0.0036649386226690578 0.0081825427859967634 0 0.0077239581618021051 0.0067756998703381475 0 0.0047293764815661771 0.00677459988856924 0 0.0060247141365663316 0.0080523966198839114 0 0.0077239581618021051 0.0067756998703381475 0 0.0084008057171476112 0.0087862445564174507 0 0.0060247141365663316 0.0080523966198839114 0 0.0084008057171476112 0.0087862445564174507 0 0.0060247141365663316 0.0080523966198839114 0 0.0047507424894272805 0.010198382532434646 0 0.002889078084972933 0.0099758583166824882 0 0.0036649386226690578 0.0081825427859967634 0 0.0047507424894272805 0.010198382532434646 0 0.0060247141365663316 0.0080523966198839114 0 0.0036649386226690578 0.0081825427859967634 0 0.0047507424894272805 0.010198382532434646 0 0.0047507424894272805 0.010198382532434646 0 0.0058801417383025625 0.012110373005197314 0 0.0042321295075493908 0.012339268867265822 0 0.0031530625149780644 0.011795780342613809 0 0.0047507424894272805 0.010198382532434646 0 0.0042321295075493908 0.012339268867265822 0 0.0031530625149780644 0.011795780342613809 0 0.002889078084972933 0.0099758583166824882 0 0.0047507424894272805 0.010198382532434646 0 0.0085489842518419491 0.0088640242834166442 0 0.0084593735013235079 0.0098060486129485768 0 0.0084008057171476112 0.0087862445564174507 0 0.011007276779609056 0.0078828022675011041 0 0.0095644679768196669 0.0078532179365406549 0 0.0084008057171476112 0.0087862445564174507 0 0.0047507424894272805 0.010198382532434646 0 0.0058801417383025625 0.012110373005197314 0 0.010893809554708858 0.0072958914021132365 0 0.011007276779609056 0.0078828022675011041 0 0.0095644679768196669 0.0078532179365406549 0 0.010893809554708858 0.0072958914021132365 0 0.011007276779609056 0.0078828022675011041 0 0.01181032536728548 0.0072041846326968036 0 0.0078918229326560337 0.010764737131406228 0 0.0084593735013235079 0.0098060486129485768 0 0.01211323437169514 0.0070341550286856652 0 0.011007276779609056 0.0078828022675011041 0 0.01181032536728548 0.0072041846326968036 0 0.0039746322374682088 0.014083519409100716 0 0.0058801417383025625 0.012110373005197314 0 0.0042321295075493908 0.012339268867265822 0 0.0039746322374682088 0.014083519409100716 0 0.0033784073815940653 0.013080042939623112 0 0.0042321295075493908 0.012339268867265822 0 0.0031530625149780644 0.011795780342613809 0 0.0033784073815940653 0.013080042939623112 0 0.0042321295075493908 0.012339268867265822 0 0.0091200659711486581 0.0079210309456127989 0 0.0095644679768196669 0.0078532179365406549 0 0.0092442029449917307 0.0074326288563887101 0 0.0084008057171476112 0.0087862445564174507 0 0.0091200659711486581 0.0079210309456127989 0 0.0095644679768196669 0.0078532179365406549 0 0.010287073590828187 0.006974149424125011 0 0.010893809554708858 0.0072958914021132365 0 0.0095644679768196669 0.0078532179365406549 0 0.010287073590828187 0.006974149424125011 0 0.0095644679768196669 0.0078532179365406549 0 0.0092442029449917307 0.0074326288563887101 0 0.0091292939492864829 0.0070790341465576017 0 0.0092442029449917307 0.0074326288563887101 0 0.0092163682672750415 0.0070765345345175099 0 0.0092442029449917307 0.0074326288563887101 0 0.0091960322590572893 0.0074054176243767717 0 0.0092163682672750415 0.0070765345345175099 0 0.0091200659711486581 0.0079210309456127989 0 0.0092442029449917307 0.0074326288563887101 0 0.0091960322590572893 0.0074054176243767717 0 0.0076262905139726942 0.0037117606413635874 0 0.0093203095795776972 0.0032355775986873023 0 0.0080920310145478364 0.0016137643137700394 0 0.0076262905139726942 0.0037117606413635874 0 0.010080441531621673 0.0045667812378220379 0 0.0093203095795776972 0.0032355775986873023 0 0.0099898397556378998 0.0066427790337651458 0 0.0083694460551585435 0.0054784296638085081 0 0.010151851746904408 0.0065840294789897185 0 0.0076262905139726942 0.0037117606413635874 0 0.010080441531621673 0.0045667812378220379 0 0.010151851746904408 0.0065840294789897185 0 0.0091960322590572893 0.0074054176243767717 0 0.0092163682672750415 0.0070765345345175099 0 0.010151851746904408 0.0065840294789897185 0 0.011286527333828279 0.0053630860119993099 0 0.010080441531621673 0.0045667812378220379 0 0.010151851746904408 0.0065840294789897185 0 0.011286527333828279 0.0053630860119993099 0 0.012075122586263219 0.0059972216217571202 0 0.012448461043196657 0.0054479695502406477 0 0.012075122586263219 0.0059972216217571202 0 0.012240175799571323 0.0056465697007315489 0 0.0096182782100507572 0.0018556518432328579 0 0.0094175007265755121 0.0016364336665201226 0 0.0095694088144664801 0.0016301335675026547 0 0.011286527333828279 0.0053630860119993099 0 0.012240175799571323 0.0056465697007315489 0 0.011288658811850654 0.0044846284816610254 0 0.011286527333828279 0.0053630860119993099 0 0.012075122586263219 0.0059972216217571202 0 0.012240175799571323 0.0056465697007315489 0 0.0096182782100507572 0.0018556518432328579 0 0.0095694088144664801 0.0016301335675026547 0 0.0096500071507548881 0.0015156779384669263 0 0.0094175007265755121 0.0016364336665201226 0 0.0095652427833642362 0.0015152961133836351 0 0.0095694088144664801 0.0016301335675026547 0 0.0095652427833642362 0.0015152961133836351 0 0.0095694088144664801 0.0016301335675026547 0 0.0096500071507548881 0.0015156779384669263 0 0.0071550682771305465 0.00096095876363398681 0 0.0027289430309563063 0.0014255273244235186 0 0.0094175007265755121 0.0016364336665201226 0 0.0095652427833642362 0.0015152961133836351 0 0.0091644996200095849 0.00063800731414204138 0 0.012240175799571323 0.0056465697007315489 0 0.011288658811850654 0.0044846284816610254 0 0.010904880590080582 0.0024695420430877742 0 -0.0090570528188789259 0.0014640702887833306 0 -0.0085309062990770058 0.0024363198745963044 0 -0.0085404585617556081 0.0016891984226787681 0 0.0055289011809752237 0.00068531434743962841 0 0.0027289430309563063 0.0014255273244235186 0 0.0095652427833642362 0.0015152961133836351 0 0.0091644996200095849 0.00063800731414204138 0 0.0094928998346108726 0.00044890603079445602 0 0.0095652427833642362 0.0015152961133836351 0 0.0094928998346108726 0.00044890603079445602 0 0.0097605983904872108 0.0014795910946598446 0 -0.0051302680876501201 0.0011835210072882751 0 0.0027289430309563063 0.0014255273244235186 0 0.010855036385852579 0.0036308765367655694 0 0.010001483810144174 0.0015391197442326462 0 -0.00036778550049744148 0.0010574699799285252 0 -0.00016722743335556992 0.0011291196647251443 0 0.00056192112483874216 0.0024135894946221781 0 0.010080441531621673 0.0045667812378220379 0 0.0093203095795776972 0.0032355775986873023 0 0.010356942558481285 0.0037175241196693719 0 0.010080441531621673 0.0045667812378220379 0 0.010838898624595706 0.0042899813519564076 0 0.010356942558481285 0.0037175241196693719 0 0.011286527333828279 0.0053630860119993099 0 0.010080441531621673 0.0045667812378220379 0 0.010838898624595706 0.0042899813519564076 0 0.011286527333828279 0.0053630860119993099 0 0.011288658811850654 0.0044846284816610254 0 0.010838898624595706 0.0042899813519564076 0 0.011288658811850654 0.0044846284816610254 0 0.010838898624595706 0.0042899813519564076 0 0.010904880590080582 0.0024695420430877742 0 0.010838898624595706 0.0042899813519564076 0 0.010356942558481285 0.0037175241196693719 0 0.010904880590080582 0.0024695420430877742 0 0.0093203095795776972 0.0032355775986873023 0 0.010356942558481285 0.0037175241196693719 0 0.010904880590080582 0.0024695420430877742 0 0.010001483810144174 0.0015391197442326462 0 0.0089696147871894567 -0.000695614900712219 0 0.010904880590080582 0.0024695420430877742 0 0.008764593325401129 0.00074776232031869921 0 0.0080920310145478364 0.0016137643137700394 0 0.010904880590080582 0.0024695420430877742 0 0.0088609716516597943 -0.00089135678494218183 0 0.008764593325401129 0.00074776232031869921 0 0.0093203095795776972 0.0032355775986873023 0 0.010904880590080582 0.0024695420430877742 0 0.0080920310145478364 0.0016137643137700394 0 0.0091644996200095849 0.00063800731414204138 0 0.0094928998346108726 0.00044890603079445602 0 0.0088609716516597943 -0.00089135678494218183 0 -0.00036778550049744148 0.0010574699799285252 0 -0.00016722743335556992 0.0011291196647251443 0 -0.00084987813648069153 -0.0002029711787537702 0 -0.0051302680876501201 0.0011835210072882751 0 -0.0068905983347749391 0.00054292837337562786 0 -0.0090570528188789259 0.0014640702887833306 0 -0.0087268642017688143 0.0010494809823348827 0 -0.0092802957017582184 0.00049052281631845268 0 -0.0090570528188789259 0.0014640702887833306 0 -0.0087268642017688143 0.0010494809823348827 0 -0.0085404585617556081 0.0016891984226787681 0 -0.0090570528188789259 0.0014640702887833306 0 -0.0092802957017582184 0.00049052281631845268 0 -0.0095091153907070156 0.0003957415250324592 0 -0.0087268642017688143 0.0010494809823348827 0 -0.0092802957017582184 0.00049052281631845268 0 -0.0089035939606784669 0.00055405478633182073 0 -0.0087268642017688143 0.0010494809823348827 0 -0.0089035939606784669 0.00055405478633182073 0 -0.0086172858493512323 0.00056231545821534379 0 -0.0092802957017582184 0.00049052281631845268 0 -0.0091046754644708554 0.00032060252256625016 0 -0.0094660273760601311 0.00035213557234055429 0 -0.0092802957017582184 0.00049052281631845268 0 -0.0091046754644708554 0.00032060252256625016 0 -0.0089035939606784669 0.00055405478633182073 0 -0.0091046754644708554 0.00032060252256625016 0 -0.0094660273760601311 0.00035213557234055429 0 -0.0091822182283533699 -4.2201285922645868e-05 0 -0.0088251694667764707 0.00034809442353218585 0 -0.0086172858493512323 0.00056231545821534379 0 -0.0086733303854484075 0.00016299272475611055 0 -0.0091046754644708554 0.00032060252256625016 0 -0.0089035939606784669 0.00055405478633182073 0 -0.0088251694667764707 0.00034809442353218585 0 -0.0091046754644708554 0.00032060252256625016 0 -0.0088251694667764707 0.00034809442353218585 0 -0.0089584828100707052 0.00012336658986261377 0 -0.0088251694667764707 0.00034809442353218585 0 -0.0086733303854484075 0.00016299272475611055 0 -0.0089584828100707052 0.00012336658986261377 0 -0.0089035939606784669 0.00055405478633182073 0 -0.0088251694667764707 0.00034809442353218585 0 -0.0086172858493512323 0.00056231545821534379 0 0.0094928998346108726 0.00044890603079445602 0 0.0088609716516597943 -0.00089135678494218183 0 0.0092274322885832656 -0.0012331511039370005 0 0.0055289011809752237 0.00068531434743962841 0 -0.0011511507890612175 0.0015332655111188176 0 -0.00036778550049744148 0.0010574699799285252 0 -0.00084987813648069153 -0.0002029711787537702 0 -0.001247030007026555 -0.00035029725753776966 0 -0.0068905983347749391 0.00054292837337562786 0 -0.0011511507890612175 0.0015332655111188176 0 -0.0083220360413400647 0.00018834348577069347 0 -0.0068905983347749391 0.00054292837337562786 0 0.0072292006990610997 -0.00018789203048378441 0 0.005085215883703453 0.00012640620863525401 0 0.0080920310145478364 0.0016137643137700394 0 0.0088609716516597943 -0.00089135678494218183 0 0.0092274322885832656 -0.0012331511039370005 0 0.0062109832876010296 -0.0027014727344251465 0 0.0088609716516597943 -0.00089135678494218183 0 0.0072292006990610997 -0.00018789203048378441 0 0.0062109832876010296 -0.0027014727344251465 0 0.0088609716516597943 -0.00089135678494218183 0 0.0072292006990610997 -0.00018789203048378441 0 0.008764593325401129 0.00074776232031869921 0 0.0072292006990610997 -0.00018789203048378441 0 0.005085215883703453 0.00012640620863525401 0 0.0062109832876010296 -0.0027014727344251465 0 0.0083694460551585435 0.0054784296638085081 0 0.0079910247727249719 0.0037052723042076676 0 0.0091200659711486581 0.0079210309456127989 0 0.0091960322590572893 0.0074054176243767717 0 0.0093926372309346678 0.0073613749731527072 0 0.0076262905139726942 0.0037117606413635874 0 0.005085215883703453 0.00012640620863525401 0 0.0080920310145478364 0.0016137643137700394 0 0.0072292006990610997 -0.00018789203048378441 0 0.008764593325401129 0.00074776232031869921 0 0.0080920310145478364 0.0016137643137700394 0 -0.0046197388237589664 0.001967819590795815 0 -0.0036877710941239194 0.002086701295192268 0 -0.0026176264343114597 0.0015888076529881733 0 -0.003178390136185386 0.0016723648774414357 0 -0.002480652395604866 0.0019047198080279436 0 -0.0036877710941239194 0.002086701295192268 0 0.00029085180113250388 0.0014031510360505463 0 -0.0063269280984878887 0.0018515969008499778 0 -0.0059629585626209732 0.0022450038880189572 0 -0.0068066412804585041 0.0022788606529653131 0 -0.0063269280984878887 0.0018515969008499778 0 -0.0059629585626209732 0.0022450038880189572 0 -0.0058328061389714917 0.0017057087870650731 0 0.0026304444950798712 0.00059027978909290645 0 0.00029085180113250388 0.0014031510360505463 0 0.0030556023328843153 0.00043501829952754341 0 0.0051461222408784747 0.00029147201015388655 0 0.0035126396215771349 0.0020102854244233377 0 0.00069780125959071845 0.0011964246557796606 0 0.00072019744264882981 0.0022435582452302329 0 -0.00012394928993670896 0.0019444324587470001 0 0.00069780125959071845 0.0011964246557796606 0 0.00072019744264882981 0.0022435582452302329 0 0.001308494290286523 0.001493768788672757 0 -0.0068066412804585041 0.0022788606529653131 0 -0.0074941906919741372 0.0019481717591590306 0 -0.0071275596799497106 0.0016830007901537775 0 -0.0036877710941239194 0.002086701295192268 0 -0.0082710138574039003 0.0016768967770367897 0 -0.0063269280984878887 0.0018515969008499778 0 -0.0068066412804585041 0.0022788606529653131 0 -0.0066936046430949763 0.0015139814144984924 0 -0.0068066412804585041 0.0022788606529653131 0 -0.0071275596799497106 0.0016830007901537775 0 -0.0066936046430949763 0.0015139814144984924 0 -0.0066819154277149963 0.0022194590224217229 0 -0.0074941906919741372 0.0019481717591590306 0 -0.0076829147521696294 0.002329498845776377 0 -0.0036877710941239194 0.002086701295192268 0 -0.0040486355169331448 0.0023757648336752554 0 -0.0074941906919741372 0.0019481717591590306 0 -0.0078585501921701068 0.0018566816536383468 0 -0.0077293883698240648 0.001536491496023941 0 -0.0074941906919741372 0.0019481717591590306 0 -0.0078585501921701068 0.0018566816536383468 0 -0.0076829147521696294 0.002329498845776377 0 0.00072019744264882981 0.0022435582452302329 0 0.0015376771189362013 0.0021205259636387108 0 0.001308494290286523 0.001493768788672757 0 0.0019462282109825484 0.0012315611933624163 0 0.0015376771189362013 0.0021205259636387108 0 0.001308494290286523 0.001493768788672757 0 0.0056589889873473855 0.0012022367614878996 0 0.0027289430309563063 0.0014255273244235186 0 0.0019462282109825484 0.0012315611933624163 0 0.0015376771189362013 0.0021205259636387108 0 0.0023606858451627041 0.0020001775040519782 0 0.0098235916282701698 0.0020709514062540019 0 0.0096182782100507572 0.0018556518432328579 0 0.0096500071507548881 0.0015156779384669263 0 0.010027641838478639 0.0018770537141248953 0 0.0027289430309563063 0.0014255273244235186 0 0.0092763455475056659 0.0013457453079781169 0 0.009116468906364774 0.0013896339524200041 0 0.0079430715199211126 -0.0002731752268924456 0 -0.0076829147521696294 0.002329498845776377 0 -0.0085309062990770058 0.0024363198745963044 0 -0.0082203007237316023 0.0020207868498397551 0 -0.0040486355169331448 0.0023757648336752554 0 0.0027289430309563063 0.0014255273244235186 0 -0.0085309062990770058 0.0024363198745963044 0 -0.0082203007237316023 0.0020207868498397551 0 -0.0085404585617556081 0.0016891984226787681 0 -0.0078585501921701068 0.0018566816536383468 0 -0.0076829147521696294 0.002329498845776377 0 -0.0082203007237316023 0.0020207868498397551 0 -0.0078585501921701068 0.0018566816536383468 0 -0.0082203007237316023 0.0020207868498397551 0 -0.0081665743618926905 0.0014428637090924854 0 -0.0082203007237316023 0.0020207868498397551 0 -0.0085404585617556081 0.0016891984226787681 0 -0.0081665743618926905 0.0014428637090924854 0 -0.0087268642017688143 0.0010494809823348827 0 -0.0085404585617556081 0.0016891984226787681 0 -0.0081665743618926905 0.0014428637090924854 0 -0.0081665743618926905 0.0014428637090924854 0 -0.0082288147516710701 0.00088776157912272898 0 -0.0078952904615769148 0.0012041543190262228 0 -0.0087268642017688143 0.0010494809823348827 0 -0.0081665743618926905 0.0014428637090924854 0 -0.0082288147516710701 0.00088776157912272898 0 -0.0087268642017688143 0.0010494809823348827 0 -0.0086172858493512323 0.00056231545821534379 0 -0.0082288147516710701 0.00088776157912272898 0 -0.0086172858493512323 0.00056231545821534379 0 -0.0083542365408252606 0.00049309849998222096 0 -0.0082288147516710701 0.00088776157912272898 0 -0.0086172858493512323 0.00056231545821534379 0 -0.0083542365408252606 0.00049309849998222096 0 -0.0086733303854484075 0.00016299272475611055 0 -0.0083542365408252606 0.00049309849998222096 0 -0.008348278027717853 0.00022022086035424293 0 -0.0086733303854484075 0.00016299272475611055 0 -0.0083542365408252606 0.00049309849998222096 0 -0.0080128261820905586 0.00051900140112537006 0 -0.008348278027717853 0.00022022086035424293 0 -0.0080128261820905586 0.00051900140112537006 0 -0.0080577685364732719 0.00015881454644163954 0 -0.008348278027717853 0.00022022086035424293 0 -0.0082288147516710701 0.00088776157912272898 0 -0.0078624373888507831 0.000882574055604633 0 -0.0078952904615769148 0.0012041543190262228 0 -0.0083542365408252606 0.00049309849998222096 0 -0.0082288147516710701 0.00088776157912272898 0 -0.0080128261820905586 0.00051900140112537006 0 -0.0082288147516710701 0.00088776157912272898 0 -0.0078624373888507831 0.000882574055604633 0 -0.0080128261820905586 0.00051900140112537006 0 -0.0078624373888507831 0.000882574055604633 0 -0.0080128261820905586 0.00051900140112537006 0 -0.0076267770215020904 0.00066035738285558315 0 -0.0078624373888507831 0.000882574055604633 0 -0.0076267770215020904 0.00066035738285558315 0 -0.0075751891191089766 0.0011427521840015832 0 -0.0077461274329055354 0.00035251714586240223 0 -0.0080128261820905586 0.00051900140112537006 0 -0.0080577685364732719 0.00015881454644163954 0 -0.0077461274329055354 0.00035251714586240223 0 -0.0080128261820905586 0.00051900140112537006 0 -0.0076267770215020904 0.00066035738285558315 0 -0.0076267770215020904 0.00066035738285558315 0 -0.0073779263953018641 0.00041499888602675828 0 -0.0072653293396239722 0.00084163716306128497 0 -0.0077461274329055354 0.00035251714586240223 0 -0.0076267770215020904 0.00066035738285558315 0 -0.0073779263953018641 0.00041499888602675828 0 -0.0076267770215020904 0.00066035738285558315 0 -0.0075751891191089766 0.0011427521840015832 0 -0.0072653293396239722 0.00084163716306128497 0 -0.0075751891191089766 0.0011427521840015832 0 -0.0074192223726395933 0.0015277080874648405 0 -0.0071631309413382506 0.0013089425152042762 0 -0.0075751891191089766 0.0011427521840015832 0 -0.0071631309413382506 0.0013089425152042762 0 -0.0072653293396239722 0.00084163716306128497 0 -0.0075751891191089766 0.0011427521840015832 0 -0.0078952904615769148 0.0012041543190262228 0 -0.0077293883698240648 0.001536491496023941 0 -0.0078624373888507831 0.000882574055604633 0 -0.0075751891191089766 0.0011427521840015832 0 -0.0078952904615769148 0.0012041543190262228 0 -0.0081665743618926905 0.0014428637090924854 0 -0.0078952904615769148 0.0012041543190262228 0 -0.0077293883698240648 0.001536491496023941 0 -0.0078585501921701068 0.0018566816536383468 0 -0.0081665743618926905 0.0014428637090924854 0 -0.0077293883698240648 0.001536491496023941 0 -0.0074941906919741372 0.0019481717591590306 0 -0.0074192223726395933 0.0015277080874648405 0 -0.0071275596799497106 0.0016830007901537775 0 -0.0074941906919741372 0.0019481717591590306 0 -0.0077293883698240648 0.001536491496023941 0 -0.0074192223726395933 0.0015277080874648405 0 -0.0075751891191089766 0.0011427521840015832 0 -0.0077293883698240648 0.001536491496023941 0 -0.0074192223726395933 0.0015277080874648405 0 -0.0071275596799497106 0.0016830007901537775 0 -0.0066936046430949763 0.0015139814144984924 0 -0.0071631309413382506 0.0013089425152042762 0 -0.0074192223726395933 0.0015277080874648405 0 -0.0071275596799497106 0.0016830007901537775 0 -0.0071631309413382506 0.0013089425152042762 0 -0.0066936046430949763 0.0015139814144984924 0 -0.0071631309413382506 0.0013089425152042762 0 -0.0068710272768468675 0.0010087355973209605 0 -0.0066936046430949763 0.0015139814144984924 0 -0.0068710272768468675 0.0010087355973209605 0 -0.0064910070237319036 0.0010592094323106094 0 -0.0071631309413382506 0.0013089425152042762 0 -0.0072653293396239722 0.00084163716306128497 0 -0.0068710272768468675 0.0010087355973209605 0 -0.0072653293396239722 0.00084163716306128497 0 -0.0069872342957632907 0.00055124189779427865 0 -0.0068710272768468675 0.0010087355973209605 0 -0.0073779263953018641 0.00041499888602675828 0 -0.0072653293396239722 0.00084163716306128497 0 -0.0069872342957632907 0.00055124189779427865 0 -0.0073779263953018641 0.00041499888602675828 0 -0.0069872342957632907 0.00055124189779427865 0 -0.0071436376175908149 0.00015971926155000537 0 -0.0069872342957632907 0.00055124189779427865 0 -0.0065911462216990549 0.00063954139046764485 0 -0.0066827725786964094 0.00026817166112836033 0 -0.0068710272768468675 0.0010087355973209605 0 -0.0064910070237319036 0.0010592094323106094 0 -0.0065911462216990549 0.00063954139046764485 0 -0.0069872342957632907 0.00055124189779427865 0 -0.0068710272768468675 0.0010087355973209605 0 -0.0065911462216990549 0.00063954139046764485 0 -0.0064910070237319036 0.0010592094323106094 0 -0.0065911462216990549 0.00063954139046764485 0 -0.0061824699975468744 0.00080900383535494785 0 -0.0065911462216990549 0.00063954139046764485 0 -0.0061598762787935784 0.00027268107066816548 0 -0.0066827725786964094 0.00026817166112836033 0 -0.0065911462216990549 0.00063954139046764485 0 -0.0061824699975468744 0.00080900383535494785 0 -0.0061598762787935784 0.00027268107066816548 0 -0.0058613494378340304 0.00056621819169672529 0 -0.0061598762787935784 0.00027268107066816548 0 -0.005592817828619273 0.00026740021416161238 0 -0.0058613494378340304 0.00056621819169672529 0 -0.0061824699975468744 0.00080900383535494785 0 -0.0061598762787935784 0.00027268107066816548 0 -0.0061824699975468744 0.00080900383535494785 0 -0.005792394865890553 0.0012894722052498417 0 -0.0056458455905523926 0.0008950039471756347 0 -0.0058613494378340304 0.00056621819169672529 0 -0.0061824699975468744 0.00080900383535494785 0 -0.0056458455905523926 0.0008950039471756347 0 -0.0061824699975468744 0.00080900383535494785 0 -0.005792394865890553 0.0012894722052498417 0 -0.0062317414984707541 0.0013677922358967154 0 -0.0066936046430949763 0.0015139814144984924 0 -0.0064910070237319036 0.0010592094323106094 0 -0.0062317414984707541 0.0013677922358967154 0 -0.0064910070237319036 0.0010592094323106094 0 -0.0061824699975468744 0.00080900383535494785 0 -0.0062317414984707541 0.0013677922358967154 0 -0.0063269280984878887 0.0018515969008499778 0 -0.0066936046430949763 0.0015139814144984924 0 -0.0062317414984707541 0.0013677922358967154 0 -0.0063269280984878887 0.0018515969008499778 0 -0.0062317414984707541 0.0013677922358967154 0 -0.0058328061389714917 0.0017057087870650731 0 -0.005792394865890553 0.0012894722052498417 0 -0.0062317414984707541 0.0013677922358967154 0 -0.0058328061389714917 0.0017057087870650731 0 -0.0064446093122738834 -0.00094985838205661826 0 -0.0063028151922493586 -0.00052139579198488579 0 -0.0058694897601587288 -0.00070500942765120192 0 -0.0064446093122738834 -0.00094985838205661826 0 -0.0058694897601587288 -0.00070500942765120192 0 -0.0058409747859558721 -0.0011341387536013352 0 -0.0064446093122738834 -0.00094985838205661826 0 -0.0063028151922493586 -0.00052139579198488579 0 -0.0067858074655996513 -0.00053299769098143885 0 -0.0064446093122738834 -0.00094985838205661826 0 -0.0067858074655996513 -0.00053299769098143885 0 -0.0069618032260449726 -0.00090226042684052104 0 -0.0063028151922493586 -0.00052139579198488579 0 -0.0065338629955013997 -0.00028225650090013435 0 -0.0067858074655996513 -0.00053299769098143885 0 -0.0063028151922493586 -0.00052139579198488579 0 -0.0059008838898943639 -0.0003564661480682122 0 -0.006155276468239896 -0.00018423380568042473 0 -0.0063028151922493586 -0.00052139579198488579 0 -0.0059008838898943639 -0.0003564661480682122 0 -0.0058694897601587288 -0.00070500942765120192 0 -0.0059008838898943639 -0.0003564661480682122 0 -0.006155276468239896 -0.00018423380568042473 0 -0.0057364351877713634 -5.4744332614115744e-05 0 -0.0061598762787935784 0.00027268107066816548 0 -0.005592817828619273 0.00026740021416161238 0 -0.0057364351877713634 -5.4744332614115744e-05 0 -0.006155276468239896 -0.00018423380568042473 0 -0.0061598762787935784 0.00027268107066816548 0 -0.0057364351877713634 -5.4744332614115744e-05 0 -0.0061598762787935784 0.00027268107066816548 0 -0.0064824085333497665 -1.3050762889771712e-05 0 -0.0066827725786964094 0.00026817166112836033 0 -0.006155276468239896 -0.00018423380568042473 0 -0.0061598762787935784 0.00027268107066816548 0 -0.0064824085333497665 -1.3050762889771712e-05 0 -0.0064824085333497665 -1.3050762889771712e-05 0 -0.0065338629955013997 -0.00028225650090013435 0 -0.0068598128233279699 -0.00013435506389385736 0 -0.0063028151922493586 -0.00052139579198488579 0 -0.006155276468239896 -0.00018423380568042473 0 -0.0065338629955013997 -0.00028225650090013435 0 -0.006155276468239896 -0.00018423380568042473 0 -0.0064824085333497665 -1.3050762889771712e-05 0 -0.0065338629955013997 -0.00028225650090013435 0 -0.0065338629955013997 -0.00028225650090013435 0 -0.0068598128233279699 -0.00013435506389385736 0 -0.0067858074655996513 -0.00053299769098143885 0 -0.0069872342957632907 0.00055124189779427865 0 -0.0066827725786964094 0.00026817166112836033 0 -0.0071436376175908149 0.00015971926155000537 0 -0.0064824085333497665 -1.3050762889771712e-05 0 -0.0068598128233279699 -0.00013435506389385736 0 -0.0066827725786964094 0.00026817166112836033 0 -0.0068598128233279699 -0.00013435506389385736 0 -0.0066827725786964094 0.00026817166112836033 0 -0.0071436376175908149 0.00015971926155000537 0 -0.0071436376175908149 0.00015971926155000537 0 -0.0073345216989246656 -0.00016238987179880755 0 -0.0076535916408806285 6.1611749623267055e-05 0 -0.0068598128233279699 -0.00013435506389385736 0 -0.0071436376175908149 0.00015971926155000537 0 -0.0073345216989246656 -0.00016238987179880755 0 -0.0068598128233279699 -0.00013435506389385736 0 -0.0073345216989246656 -0.00016238987179880755 0 -0.0072715042970317306 -0.0005285819861956169 0 -0.0073345216989246656 -0.00016238987179880755 0 -0.0072715042970317306 -0.0005285819861956169 0 -0.0077192695534716218 -0.00030921805310328419 0 -0.0068598128233279699 -0.00013435506389385736 0 -0.0072715042970317306 -0.0005285819861956169 0 -0.0067858074655996513 -0.00053299769098143885 0 -0.0072715042970317306 -0.0005285819861956169 0 -0.0067858074655996513 -0.00053299769098143885 0 -0.0069618032260449726 -0.00090226042684052104 0 -0.0072715042970317306 -0.0005285819861956169 0 -0.0077285526402799997 -0.00063395470031734149 0 -0.007489896619410602 -0.0010256584529734498 0 -0.0072715042970317306 -0.0005285819861956169 0 -0.0069618032260449726 -0.00090226042684052104 0 -0.007489896619410602 -0.0010256584529734498 0 -0.0077285526402799997 -0.00063395470031734149 0 -0.0080599159274935619 -0.00084705574478382878 0 -0.007489896619410602 -0.0010256584529734498 0 -0.0080599159274935619 -0.00084705574478382878 0 -0.008144422517351025 -0.00050853445370042894 0 -0.0083748610397988855 -0.00075959473620288906 0 -0.0077285526402799997 -0.00063395470031734149 0 -0.0080599159274935619 -0.00084705574478382878 0 -0.008144422517351025 -0.00050853445370042894 0 -0.0077285526402799997 -0.00063395470031734149 0 -0.008144422517351025 -0.00050853445370042894 0 -0.0077192695534716218 -0.00030921805310328419 0 -0.0072715042970317306 -0.0005285819861956169 0 -0.0077285526402799997 -0.00063395470031734149 0 -0.0077192695534716218 -0.00030921805310328419 0 -0.0073345216989246656 -0.00016238987179880755 0 -0.0077192695534716218 -0.00030921805310328419 0 -0.0076535916408806285 6.1611749623267055e-05 0 -0.0073779263953018641 0.00041499888602675828 0 -0.0071436376175908149 0.00015971926155000537 0 -0.0076535916408806285 6.1611749623267055e-05 0 -0.0077461274329055354 0.00035251714586240223 0 -0.0073779263953018641 0.00041499888602675828 0 -0.0076535916408806285 6.1611749623267055e-05 0 -0.0076535916408806285 6.1611749623267055e-05 0 -0.0080577685364732719 0.00015881454644163954 0 -0.0081071478842894441 -0.00015061754890875856 0 -0.0077461274329055354 0.00035251714586240223 0 -0.0076535916408806285 6.1611749623267055e-05 0 -0.0080577685364732719 0.00015881454644163954 0 -0.008144422517351025 -0.00050853445370042894 0 -0.0077192695534716218 -0.00030921805310328419 0 -0.0081071478842894441 -0.00015061754890875856 0 -0.0077192695534716218 -0.00030921805310328419 0 -0.0076535916408806285 6.1611749623267055e-05 0 -0.0081071478842894441 -0.00015061754890875856 0 -0.0081071478842894441 -0.00015061754890875856 0 -0.0084607519930221826 -5.9583681287269603e-05 0 -0.0084841246649737852 -0.00032396478344156823 0 -0.008144422517351025 -0.00050853445370042894 0 -0.0081071478842894441 -0.00015061754890875856 0 -0.0084841246649737852 -0.00032396478344156823 0 -0.0080577685364732719 0.00015881454644163954 0 -0.008348278027717853 0.00022022086035424293 0 -0.0084607519930221826 -5.9583681287269603e-05 0 -0.0080577685364732719 0.00015881454644163954 0 -0.0081071478842894441 -0.00015061754890875856 0 -0.0084607519930221826 -5.9583681287269603e-05 0 -0.008348278027717853 0.00022022086035424293 0 -0.0086733303854484075 0.00016299272475611055 0 -0.0084607519930221826 -5.9583681287269603e-05 0 -0.0086733303854484075 0.00016299272475611055 0 -0.0084607519930221826 -5.9583681287269603e-05 0 -0.0087334198170877508 -0.00015879762569013243 0 -0.0084607519930221826 -5.9583681287269603e-05 0 -0.0087334198170877508 -0.00015879762569013243 0 -0.0084841246649737852 -0.00032396478344156823 0 -0.0087334198170877508 -0.00015879762569013243 0 -0.0084841246649737852 -0.00032396478344156823 0 -0.0087302669700488281 -0.00039480019407119206 0 -0.0084841246649737852 -0.00032396478344156823 0 -0.0087302669700488281 -0.00039480019407119206 0 -0.0087528015783907061 -0.00061667591644062815 0 -0.0084841246649737852 -0.00032396478344156823 0 -0.0087528015783907061 -0.00061667591644062815 0 -0.008487582632595584 -0.00060065360452250848 0 -0.008144422517351025 -0.00050853445370042894 0 -0.0084841246649737852 -0.00032396478344156823 0 -0.008487582632595584 -0.00060065360452250848 0 -0.008144422517351025 -0.00050853445370042894 0 -0.008487582632595584 -0.00060065360452250848 0 -0.0083748610397988855 -0.00075959473620288906 0 -0.0083748610397988855 -0.00075959473620288906 0 -0.0086727109555374115 -0.00083179544373315859 0 -0.0085820756810475966 -0.0010709082746780886 0 -0.0080599159274935619 -0.00084705574478382878 0 -0.0083748610397988855 -0.00075959473620288906 0 -0.0085820756810475966 -0.0010709082746780886 0 -0.008487582632595584 -0.00060065360452250848 0 -0.0083748610397988855 -0.00075959473620288906 0 -0.0086727109555374115 -0.00083179544373315859 0 -0.0087528015783907061 -0.00061667591644062815 0 -0.0086727109555374115 -0.00083179544373315859 0 -0.0090436707893722951 -0.00084712717426337221 0 -0.0086727109555374115 -0.00083179544373315859 0 -0.0089178659696073706 -0.001039116948578885 0 -0.0090436707893722951 -0.00084712717426337221 0 -0.0087528015783907061 -0.00061667591644062815 0 -0.008487582632595584 -0.00060065360452250848 0 -0.0086727109555374115 -0.00083179544373315859 0 -0.0086727109555374115 -0.00083179544373315859 0 -0.0089178659696073706 -0.001039116948578885 0 -0.0085820756810475966 -0.0010709082746780886 0 -0.0089178659696073706 -0.001039116948578885 0 -0.0085820756810475966 -0.0010709082746780886 0 -0.0090262057540820857 -0.0012759975810857638 0 -0.0085820756810475966 -0.0010709082746780886 0 -0.0084648018685114911 -0.0013144853662965027 0 -0.0087888960579800592 -0.0013680121261236066 0 -0.0084648018685114911 -0.0013144853662965027 0 -0.0087888960579800592 -0.0013680121261236066 0 -0.0087070913975878742 -0.0015651380098555935 0 -0.0087888960579800592 -0.0013680121261236066 0 -0.0090262057540820857 -0.0012759975810857638 0 -0.0090701171396374326 -0.0015361268058446903 0 -0.0085820756810475966 -0.0010709082746780886 0 -0.0087888960579800592 -0.0013680121261236066 0 -0.0090262057540820857 -0.0012759975810857638 0 -0.0090262057540820857 -0.0012759975810857638 0 -0.0090701171396374326 -0.0015361268058446903 0 -0.0092861879306386941 -0.0014522762647586212 0 -0.00908938639006307 -0.0018401924331436545 0 -0.0094226827580118772 -0.0017307895062474835 0 -0.0096160359894264316 -0.0021105926797621148 0 -0.0090701171396374326 -0.0015361268058446903 0 -0.00908938639006307 -0.0018401924331436545 0 -0.0094226827580118772 -0.0017307895062474835 0 -0.00908938639006307 -0.0018401924331436545 0 -0.0087070913975878742 -0.0015651380098555935 0 -0.0085738674604831869 -0.0018395899860562965 0 -0.00908938639006307 -0.0018401924331436545 0 -0.0085738674604831869 -0.0018395899860562965 0 -0.0089630716045108853 -0.0022148077392442826 0 -0.0090701171396374326 -0.0015361268058446903 0 -0.00908938639006307 -0.0018401924331436545 0 -0.0087070913975878742 -0.0015651380098555935 0 -0.0087888960579800592 -0.0013680121261236066 0 -0.0090701171396374326 -0.0015361268058446903 0 -0.0087070913975878742 -0.0015651380098555935 0 -0.0087070913975878742 -0.0015651380098555935 0 -0.0082638722891526274 -0.0015200879962604002 0 -0.0085738674604831869 -0.0018395899860562965 0 -0.0082638722891526274 -0.0015200879962604002 0 -0.0085738674604831869 -0.0018395899860562965 0 -0.0079742865011673148 -0.0018333234523843899 0 -0.0085738674604831869 -0.0018395899860562965 0 -0.0084187129495280292 -0.0021113453090566437 0 -0.0079742865011673148 -0.0018333234523843899 0 -0.0085738674604831869 -0.0018395899860562965 0 -0.0084187129495280292 -0.0021113453090566437 0 -0.0089630716045108853 -0.0022148077392442826 0 -0.0084187129495280292 -0.0021113453090566437 0 -0.0078283362880399946 -0.0021368915124146248 0 -0.0079742865011673148 -0.0018333234523843899 0 -0.0079742865011673148 -0.0018333234523843899 0 -0.0078016940371123901 -0.0014339139533801584 0 -0.0073793242150300671 -0.0016913763937606175 0 -0.0082638722891526274 -0.0015200879962604002 0 -0.0079742865011673148 -0.0018333234523843899 0 -0.0078016940371123901 -0.0014339139533801584 0 -0.0082638722891526274 -0.0015200879962604002 0 -0.0078016940371123901 -0.0014339139533801584 0 -0.0080997414334707668 -0.0011562560354763871 0 -0.0084648018685114911 -0.0013144853662965027 0 -0.0082638722891526274 -0.0015200879962604002 0 -0.0080997414334707668 -0.0011562560354763871 0 -0.0084648018685114911 -0.0013144853662965027 0 -0.0087070913975878742 -0.0015651380098555935 0 -0.0082638722891526274 -0.0015200879962604002 0 -0.0080599159274935619 -0.00084705574478382878 0 -0.0085820756810475966 -0.0010709082746780886 0 -0.0080997414334707668 -0.0011562560354763871 0 -0.0085820756810475966 -0.0010709082746780886 0 -0.0084648018685114911 -0.0013144853662965027 0 -0.0080997414334707668 -0.0011562560354763871 0 -0.0080599159274935619 -0.00084705574478382878 0 -0.0080997414334707668 -0.0011562560354763871 0 -0.007489896619410602 -0.0010256584529734498 0 -0.0078016940371123901 -0.0014339139533801584 0 -0.0080997414334707668 -0.0011562560354763871 0 -0.007489896619410602 -0.0010256584529734498 0 -0.007489896619410602 -0.0010256584529734498 0 -0.0069650133938587815 -0.0013296501875037577 0 -0.0073956668257789985 -0.0013646540983779292 0 -0.0064446093122738834 -0.00094985838205661826 0 -0.0069618032260449726 -0.00090226042684052104 0 -0.0069650133938587815 -0.0013296501875037577 0 -0.0069618032260449726 -0.00090226042684052104 0 -0.007489896619410602 -0.0010256584529734498 0 -0.0069650133938587815 -0.0013296501875037577 0 -0.0069650133938587815 -0.0013296501875037577 0 -0.0073793242150300671 -0.0016913763937606175 0 -0.0068591384634639147 -0.0018155929131789062 0 -0.0078016940371123901 -0.0014339139533801584 0 -0.0073956668257789985 -0.0013646540983779292 0 -0.0073793242150300671 -0.0016913763937606175 0 -0.0069650133938587815 -0.0013296501875037577 0 -0.0073956668257789985 -0.0013646540983779292 0 -0.0073793242150300671 -0.0016913763937606175 0 -0.0078016940371123901 -0.0014339139533801584 0 -0.007489896619410602 -0.0010256584529734498 0 -0.0073956668257789985 -0.0013646540983779292 0 -0.0079742865011673148 -0.0018333234523843899 0 -0.0073793242150300671 -0.0016913763937606175 0 -0.0073289928568031062 -0.0020689103558624465 0 -0.0073289928568031062 -0.0020689103558624465 0 -0.0062895912552350091 -0.0023025801921656951 0 -0.0076191572254608111 -0.0025608284049993069 0 -0.0078283362880399946 -0.0021368915124146248 0 -0.0073289928568031062 -0.0020689103558624465 0 -0.0076191572254608111 -0.0025608284049993069 0 -0.0078283362880399946 -0.0021368915124146248 0 -0.0079742865011673148 -0.0018333234523843899 0 -0.0073289928568031062 -0.0020689103558624465 0 -0.0073793242150300671 -0.0016913763937606175 0 -0.0073289928568031062 -0.0020689103558624465 0 -0.0068591384634639147 -0.0018155929131789062 0 -0.0068591384634639147 -0.0018155929131789062 0 -0.0062895912552350091 -0.0023025801921656951 0 -0.0063684331216291206 -0.0015153285968560249 0 -0.0062895912552350091 -0.0023025801921656951 0 -0.0063684331216291206 -0.0015153285968560249 0 -0.0057622615093205999 -0.0016040207633570148 0 -0.0073289928568031062 -0.0020689103558624465 0 -0.0068591384634639147 -0.0018155929131789062 0 -0.0062895912552350091 -0.0023025801921656951 0 -0.0063684331216291206 -0.0015153285968560249 0 -0.0057622615093205999 -0.0016040207633570148 0 -0.0058409747859558721 -0.0011341387536013352 0 -0.0069650133938587815 -0.0013296501875037577 0 -0.0068591384634639147 -0.0018155929131789062 0 -0.0063684331216291206 -0.0015153285968560249 0 -0.0064446093122738834 -0.00094985838205661826 0 -0.0069650133938587815 -0.0013296501875037577 0 -0.0063684331216291206 -0.0015153285968560249 0 -0.0064446093122738834 -0.00094985838205661826 0 -0.0063684331216291206 -0.0015153285968560249 0 -0.0058409747859558721 -0.0011341387536013352 0 -0.0063410595335437548 0.0022517508701319906 0 -0.0083592745538243959 0.0008958162231277962 0 -0.0090995706380478381 -0.00081873564857456538 0 -0.0086924039526544983 0.00076555807202120113 0 -0.008788785727061774 -0.00062200843635731948 0 -0.0096484002841079816 -0.00081615790174824918 0 -0.0094809896437582867 -0.00091581300894465548 0 -0.0093476090135041906 -0.00092208266575263505 0 -0.0063410595335437548 0.0022517508701319906 0 -0.0081930183472460633 0.0016209760323271311 0 -0.0083908329264259889 0.0025547250435783656 0 -0.0096484002841079816 -0.00081615790174824918 0 -0.0095291206919082948 -0.00085983105232651598 0 -0.0094937135867183293 -0.00055137909397096757 0 -0.0096484002841079816 -0.00081615790174824918 0 -0.0094809896437582867 -0.00091581300894465548 0 -0.0095291206919082948 -0.00085983105232651598 0 -0.0094809896437582867 -0.00091581300894465548 0 -0.0095291206919082948 -0.00085983105232651598 0 -0.0094656319783947233 -0.00098879798236925324 0 -0.0063410595335437548 0.0022517508701319906 0 -0.0083592745538243959 0.0008958162231277962 0 -0.0081930183472460633 0.0016209760323271311 0 -0.010670065746864313 0.0031010048255129792 0 -0.0093369273415553119 0.0012756050817732828 0 -0.0083908329264259889 0.0025547250435783656 0 -0.0083592745538243959 0.0008958162231277962 0 -0.0081930183472460633 0.0016209760323271311 0 -0.0093369273415553119 0.0012756050817732828 0 -0.0081930183472460633 0.0016209760323271311 0 -0.0093369273415553119 0.0012756050817732828 0 -0.0083908329264259889 0.0025547250435783656 0 0.00043762874967792886 0.0017478454461147986 0 0.0079910247727249719 0.0037052723042076676 0 0.00043762874967792886 0.0017478454461147986 0 -0.00087348141839582976 0.00077438643814963719 0 0.0025096450568180282 -0.0039307664681752404 0 0.005085215883703453 0.00012640620863525401 0 0.0062109832876010296 -0.0027014727344251465 0 -0.010670065746864313 0.0031010048255129792 0 -0.0083908329264259889 0.0025547250435783656 0 -0.0075689337842030522 0.0045417243403620289 0 -0.0011511507890612175 0.0015332655111188176 0 -0.0086924039526544983 0.00076555807202120113 0 -0.0039826149267900256 0.0058770932845845242 0 -0.0063410595335437548 0.0022517508701319906 0 -0.0075689337842030522 0.0045417243403620289 0 -0.0011511507890612175 0.0015332655111188176 0 -0.00087348141839582976 0.00077438643814963719 0 -0.0063410595335437548 0.0022517508701319906 0 -0.0083908329264259889 0.0025547250435783656 0 -0.0075689337842030522 0.0045417243403620289 0 -0.0068905983347749391 0.00054292837337562786 0 -0.0099309054992558245 -0.00079817951405806086 0 -0.0094660273760601311 0.00035213557234055429 0 -0.0093481910060063903 -0.00038837119119227462 0 -0.0094937135867183293 -0.00055137909397096757 0 -0.0094123890961816739 3.2254482532397678e-05 0 -0.0096484002841079816 -0.00081615790174824918 0 -0.0094937135867183293 -0.00055137909397096757 0 -0.0094660273760601311 0.00035213557234055429 0 -0.0093481910060063903 -0.00038837119119227462 0 -0.0091822182283533699 -4.2201285922645868e-05 0 -0.0091881646493954649 0.00012059272850161395 0 -0.0094123890961816739 3.2254482532397678e-05 0 -0.0094937135867183293 -0.00055137909397096757 0 -0.0093481910060063903 -0.00038837119119227462 0 -0.0094937135867183293 -0.00055137909397096757 0 -0.0094535607490932923 -0.00071986240881968995 0 -0.0087334198170877508 -0.00015879762569013243 0 -0.008839103365348544 -1.398719477075063e-05 0 -0.0089917468455732869 -0.00017562655144808803 0 -0.0086733303854484075 0.00016299272475611055 0 -0.0087334198170877508 -0.00015879762569013243 0 -0.008839103365348544 -1.398719477075063e-05 0 -0.0086733303854484075 0.00016299272475611055 0 -0.008839103365348544 -1.398719477075063e-05 0 -0.0089584828100707052 0.00012336658986261377 0 -0.008839103365348544 -1.398719477075063e-05 0 -0.0089584828100707052 0.00012336658986261377 0 -0.0089917468455732869 -0.00017562655144808803 0 -0.0089584828100707052 0.00012336658986261377 0 -0.0091822182283533699 -4.2201285922645868e-05 0 -0.0089917468455732869 -0.00017562655144808803 0 -0.0091046754644708554 0.00032060252256625016 0 -0.0089584828100707052 0.00012336658986261377 0 -0.0091822182283533699 -4.2201285922645868e-05 0 -0.0093481910060063903 -0.00038837119119227462 0 -0.0091822182283533699 -4.2201285922645868e-05 0 -0.0091912679481424946 -0.0004148969192757606 0 -0.0091822182283533699 -4.2201285922645868e-05 0 -0.0091912679481424946 -0.0004148969192757606 0 -0.0089917468455732869 -0.00017562655144808803 0 -0.0091912679481424946 -0.0004148969192757606 0 -0.0089917468455732869 -0.00017562655144808803 0 -0.0089426737067528281 -0.00047058615314825249 0 -0.0087334198170877508 -0.00015879762569013243 0 -0.0089917468455732869 -0.00017562655144808803 0 -0.0089426737067528281 -0.00047058615314825249 0 -0.0087334198170877508 -0.00015879762569013243 0 -0.0087302669700488281 -0.00039480019407119206 0 -0.0089426737067528281 -0.00047058615314825249 0 -0.0087528015783907061 -0.00061667591644062815 0 -0.0089426737067528281 -0.00047058615314825249 0 -0.0090436707893722951 -0.00084712717426337221 0 -0.0089426737067528281 -0.00047058615314825249 0 -0.0091552766261510307 -0.00065457736769278252 0 -0.0090436707893722951 -0.00084712717426337221 0 -0.0087302669700488281 -0.00039480019407119206 0 -0.0087528015783907061 -0.00061667591644062815 0 -0.0089426737067528281 -0.00047058615314825249 0 -0.0091912679481424946 -0.0004148969192757606 0 -0.0091552766261510307 -0.00065457736769278252 0 -0.0093310215206149818 -0.00071041334299010779 0 -0.0091912679481424946 -0.0004148969192757606 0 -0.0089426737067528281 -0.00047058615314825249 0 -0.0091552766261510307 -0.00065457736769278252 0 -0.0091552766261510307 -0.00065457736769278252 0 -0.0092346476634281565 -0.00084825117973240133 0 -0.0093310215206149818 -0.00071041334299010779 0 -0.0092346476634281565 -0.00084825117973240133 0 -0.0093687533993600941 -0.00095805872992794905 0 -0.0092805991421206178 -0.0010201865623613723 0 -0.0092346476634281565 -0.00084825117973240133 0 -0.0090436707893722951 -0.00084712717426337221 0 -0.0092805991421206178 -0.0010201865623613723 0 -0.0091552766261510307 -0.00065457736769278252 0 -0.0092346476634281565 -0.00084825117973240133 0 -0.0090436707893722951 -0.00084712717426337221 0 -0.0095291206919082948 -0.00085983105232651598 0 -0.0094937135867183293 -0.00055137909397096757 0 -0.0094535607490932923 -0.00071986240881968995 0 -0.0093481910060063903 -0.00038837119119227462 0 -0.0094535607490932923 -0.00071986240881968995 0 -0.0093310215206149818 -0.00071041334299010779 0 -0.0093481910060063903 -0.00038837119119227462 0 -0.0091912679481424946 -0.0004148969192757606 0 -0.0093310215206149818 -0.00071041334299010779 0 -0.0092346476634281565 -0.00084825117973240133 0 -0.0093310215206149818 -0.00071041334299010779 0 -0.0093687533993600941 -0.00095805872992794905 0 -0.0093310215206149818 -0.00071041334299010779 0 -0.0093687533993600941 -0.00095805872992794905 0 -0.0094551712067712738 -0.00091128040841995236 0 -0.0095291206919082948 -0.00085983105232651598 0 -0.0094551712067712738 -0.00091128040841995236 0 -0.0094656319783947233 -0.00098879798236925324 0 -0.0094535607490932923 -0.00071986240881968995 0 -0.0093310215206149818 -0.00071041334299010779 0 -0.0094551712067712738 -0.00091128040841995236 0 -0.0095291206919082948 -0.00085983105232651598 0 -0.0094535607490932923 -0.00071986240881968995 0 -0.0094551712067712738 -0.00091128040841995236 0 -0.0093687533993600941 -0.00095805872992794905 0 -0.0094551712067712738 -0.00091128040841995236 0 -0.0094471943379377237 -0.0010764605117296062 0 -0.0094551712067712738 -0.00091128040841995236 0 -0.0094471943379377237 -0.0010764605117296062 0 -0.0094656319783947233 -0.00098879798236925324 0 -0.0094471943379377237 -0.0010764605117296062 0 -0.0094422669057283928 -0.0011740933863299071 0 -0.0094656319783947233 -0.00098879798236925324 0 -0.0093687533993600941 -0.00095805872992794905 0 -0.0094083291602167357 -0.0011477335589080311 0 -0.0092805991421206178 -0.0010201865623613723 0 -0.0093687533993600941 -0.00095805872992794905 0 -0.0094471943379377237 -0.0010764605117296062 0 -0.0094083291602167357 -0.0011477335589080311 0 -0.0094471943379377237 -0.0010764605117296062 0 -0.0094083291602167357 -0.0011477335589080311 0 -0.0094827002123458719 -0.0012898783884958899 0 -0.0094083291602167357 -0.0011477335589080311 0 -0.009449866719758452 -0.0013012631824753083 0 -0.0094827002123458719 -0.0012898783884958899 0 -0.0094471943379377237 -0.0010764605117296062 0 -0.0094827002123458719 -0.0012898783884958899 0 -0.0094422669057283928 -0.0011740933863299071 0 -0.0094827002123458719 -0.0012898783884958899 0 -0.0094422669057283928 -0.0011740933863299071 0 -0.0094507434774078174 -0.0012798737424364786 0 -0.0089178659696073706 -0.001039116948578885 0 -0.0090436707893722951 -0.00084712717426337221 0 -0.0092569248418491457 -0.0011948349470527187 0 -0.0089178659696073706 -0.001039116948578885 0 -0.0090262057540820857 -0.0012759975810857638 0 -0.0092569248418491457 -0.0011948349470527187 0 -0.0094083291602167357 -0.0011477335589080311 0 -0.0092805991421206178 -0.0010201865623613723 0 -0.0092569248418491457 -0.0011948349470527187 0 -0.0090436707893722951 -0.00084712717426337221 0 -0.0092805991421206178 -0.0010201865623613723 0 -0.0092569248418491457 -0.0011948349470527187 0 -0.0094083291602167357 -0.0011477335589080311 0 -0.009449866719758452 -0.0013012631824753083 0 -0.0092569248418491457 -0.0011948349470527187 0 -0.009449866719758452 -0.0013012631824753083 0 -0.0092569248418491457 -0.0011948349470527187 0 -0.0094337484011865393 -0.0014019877030235692 0 -0.0090262057540820857 -0.0012759975810857638 0 -0.0092569248418491457 -0.0011948349470527187 0 -0.0092861879306386941 -0.0014522762647586212 0 -0.0092569248418491457 -0.0011948349470527187 0 -0.0092861879306386941 -0.0014522762647586212 0 -0.0094337484011865393 -0.0014019877030235692 0 -0.0092861879306386941 -0.0014522762647586212 0 -0.0095367934824667263 -0.0015786164386246927 0 -0.0094226827580118772 -0.0017307895062474835 0 -0.0090701171396374326 -0.0015361268058446903 0 -0.0092861879306386941 -0.0014522762647586212 0 -0.0094226827580118772 -0.0017307895062474835 0 -0.0094337484011865393 -0.0014019877030235692 0 -0.0095367934824667263 -0.0015786164386246927 0 -0.0095475728383045428 -0.0014507006150775805 0 -0.0092861879306386941 -0.0014522762647586212 0 -0.0094337484011865393 -0.0014019877030235692 0 -0.0095367934824667263 -0.0015786164386246927 0 -0.009449866719758452 -0.0013012631824753083 0 -0.0094337484011865393 -0.0014019877030235692 0 -0.0095475728383045428 -0.0014507006150775805 0 -0.0095367934824667263 -0.0015786164386246927 0 -0.0096386640091248258 -0.0015933844372106438 0 -0.0097627180650915798 -0.0018427718108242599 0 -0.0095367934824667263 -0.0015786164386246927 0 -0.0095475728383045428 -0.0014507006150775805 0 -0.0096386640091248258 -0.0015933844372106438 0 -0.0095367934824667263 -0.0015786164386246927 0 -0.0094226827580118772 -0.0017307895062474835 0 -0.0097627180650915798 -0.0018427718108242599 0 -0.0096386640091248258 -0.0015933844372106438 0 -0.0095983212974957675 -0.0014437969866903876 0 -0.0097627180650915798 -0.0018427718108242599 0 -0.0095394950058745459 -0.0014055306926480692 0 -0.0094507434774078174 -0.0012798737424364786 0 -0.0093766566479290617 -0.0012877842520314662 0 -0.0094827002123458719 -0.0012898783884958899 0 -0.0095394950058745459 -0.0014055306926480692 0 -0.0094507434774078174 -0.0012798737424364786 0 -0.0094827002123458719 -0.0012898783884958899 0 -0.0095394950058745459 -0.0014055306926480692 0 -0.0095475728383045428 -0.0014507006150775805 0 -0.009449866719758452 -0.0013012631824753083 0 -0.0094827002123458719 -0.0012898783884958899 0 -0.0095475728383045428 -0.0014507006150775805 0 -0.0095894000165592814 -0.0014864038150565952 0 -0.0096386640091248258 -0.0015933844372106438 0 -0.0095983212974957675 -0.0014437969866903876 0 -0.0095394950058745459 -0.0014055306926480692 0 -0.0095475728383045428 -0.0014507006150775805 0 -0.0095894000165592814 -0.0014864038150565952 0 -0.0095475728383045428 -0.0014507006150775805 0 -0.0095894000165592814 -0.0014864038150565952 0 -0.0096386640091248258 -0.0015933844372106438 0 -0.0095394950058745459 -0.0014055306926480692 0 -0.0093766566479290617 -0.0012877842520314662 0 -0.0095983212974957675 -0.0014437969866903876 0 -0.0095394950058745459 -0.0014055306926480692 0 -0.0095894000165592814 -0.0014864038150565952 0 -0.0095983212974957675 -0.0014437969866903876 0 -0.0093766566479290617 -0.0012877842520314662 0 -0.0091232021994004549 -0.0012486498278320493 0 -0.0095983212974957675 -0.0014437969866903876 0 -0.012467772676499237 -0.0011983344016644176 0 -0.011836506928354921 -0.00096848545104346521 0 -0.01456847080570932 -0.00064536089043879506 0 -0.014445845298778766 -0.0010591850963717459 0 -0.014576203634233459 -0.00021023412487907131 0 -0.01456847080570932 -0.00064536089043879506 0 -0.014438692274073428 -0.0008438342769441523 0 -0.014464578196316141 -0.00073090441801712481 0 -0.0094507434774078174 -0.0012798737424364786 0 -0.0093766566479290617 -0.0012877842520314662 0 -0.0093973033491453091 -0.0012084095784009529 0 -0.0094422669057283928 -0.0011740933863299071 0 -0.0094507434774078174 -0.0012798737424364786 0 -0.0093973033491453091 -0.0012084095784009529 0 -0.0096484002841079816 -0.00081615790174824918 0 -0.0093476090135041906 -0.00092208266575263505 0 -0.0090995706380478381 -0.00081873564857456538 0 -0.0094422669057283928 -0.0011740933863299071 0 -0.0093973033491453091 -0.0012084095784009529 0 -0.0094093061738531273 -0.0010460744173308232 0 -0.0093973033491453091 -0.0012084095784009529 0 -0.0093223523533424012 -0.0011313444352394663 0 -0.0094093061738531273 -0.0010460744173308232 0 -0.0093766566479290617 -0.0012877842520314662 0 -0.0093973033491453091 -0.0012084095784009529 0 -0.0093223523533424012 -0.0011313444352394663 0 -0.0093766566479290617 -0.0012877842520314662 0 -0.0093223523533424012 -0.0011313444352394663 0 -0.0092196660725414534 -0.0010858082824160009 0 -0.0092196660725414534 -0.0010858082824160009 0 -0.0093476090135041906 -0.00092208266575263505 0 -0.0090995706380478381 -0.00081873564857456538 0 -0.0093766566479290617 -0.0012877842520314662 0 -0.0092196660725414534 -0.0010858082824160009 0 -0.0091232021994004549 -0.0012486498278320493 0 -0.0093223523533424012 -0.0011313444352394663 0 -0.0092196660725414534 -0.0010858082824160009 0 -0.0093476090135041906 -0.00092208266575263505 0 -0.0093223523533424012 -0.0011313444352394663 0 -0.0093476090135041906 -0.00092208266575263505 0 -0.0094093061738531273 -0.0010460744173308232 0 -0.0094809896437582867 -0.00091581300894465548 0 -0.0093476090135041906 -0.00092208266575263505 0 -0.0094093061738531273 -0.0010460744173308232 0 -0.0094422669057283928 -0.0011740933863299071 0 -0.0094656319783947233 -0.00098879798236925324 0 -0.0094093061738531273 -0.0010460744173308232 0 -0.0094809896437582867 -0.00091581300894465548 0 -0.0094656319783947233 -0.00098879798236925324 0 -0.0094093061738531273 -0.0010460744173308232 0 -0.01168981495864518 0.00081877409486744775 0 -0.0090995706380478381 -0.00081873564857456538 0 -0.0091232021994004549 -0.0012486498278320493 0 -0.01168981495864518 0.00081877409486744775 0 -0.0093369273415553119 0.0012756050817732828 0 -0.0090995706380478381 -0.00081873564857456538 0 -0.0083592745538243959 0.0008958162231277962 0 -0.0093369273415553119 0.0012756050817732828 0 -0.0090995706380478381 -0.00081873564857456538 0 -0.0092196660725414534 -0.0010858082824160009 0 -0.0090995706380478381 -0.00081873564857456538 0 -0.0091232021994004549 -0.0012486498278320493 0 -0.014445845298778766 -0.0010591850963717459 0 -0.014251486984802152 -0.0010161624846552436 0 -0.014351973162479119 -0.00093771168546418469 0 -0.014251486984802152 -0.0010161624846552436 0 -0.014351973162479119 -0.00093771168546418469 0 -0.014274199163089675 -0.0009018248550954059 0 -0.014445845298778766 -0.0010591850963717459 0 -0.014351973162479119 -0.00093771168546418469 0 -0.014438692274073428 -0.0008438342769441523 0 -0.01456847080570932 -0.00064536089043879506 0 -0.014445845298778766 -0.0010591850963717459 0 -0.014438692274073428 -0.0008438342769441523 0 -0.014438692274073428 -0.0008438342769441523 0 -0.014363970374777294 -0.00082371892787693401 0 -0.014464578196316141 -0.00073090441801712481 0 -0.014351973162479119 -0.00093771168546418469 0 -0.014438692274073428 -0.0008438342769441523 0 -0.014363970374777294 -0.00082371892787693401 0 -0.014363970374777294 -0.00082371892787693401 0 -0.014464578196316141 -0.00073090441801712481 0 -0.014402565903409707 -0.00074134212150074325 0 -0.014274199163089675 -0.0009018248550954059 0 -0.014281094205251754 -0.00083337228948858694 0 -0.014175458956868186 -0.00090903545284351343 0 -0.014363970374777294 -0.00082371892787693401 0 -0.014274199163089675 -0.0009018248550954059 0 -0.014281094205251754 -0.00083337228948858694 0 -0.014351973162479119 -0.00093771168546418469 0 -0.014363970374777294 -0.00082371892787693401 0 -0.014274199163089675 -0.0009018248550954059 0 -0.014281094205251754 -0.00083337228948858694 0 -0.014262402074680575 -0.00084430414729162609 0 -0.014183988551397696 -0.000910679810474875 0 -0.014281094205251754 -0.00083337228948858694 0 -0.014340212062968273 -0.00076858648133321518 0 -0.014262402074680575 -0.00084430414729162609 0 -0.014402565903409707 -0.00074134212150074325 0 -0.014340212062968273 -0.00076858648133321518 0 -0.014522188501529015 -0.00061681211156238466 0 -0.014281094205251754 -0.00083337228948858694 0 -0.014402565903409707 -0.00074134212150074325 0 -0.014340212062968273 -0.00076858648133321518 0 -0.014363970374777294 -0.00082371892787693401 0 -0.014281094205251754 -0.00083337228948858694 0 -0.014402565903409707 -0.00074134212150074325 0 -0.014340212062968273 -0.00076858648133321518 0 -0.014262402074680575 -0.00084430414729162609 0 -0.014258680078202213 -0.00088623604193991583 0 -0.014211073247037955 -0.0010048117442675686 0 -0.014279508757695373 -0.00083462382395592893 0 -0.014200984529075601 -0.00107565258516085 0 -0.014262402074680575 -0.00084430414729162609 0 -0.014258680078202213 -0.00088623604193991583 0 -0.014162314562439576 -0.00099680836843972585 0 -0.014258680078202213 -0.00088623604193991583 0 -0.014211073247037955 -0.0010048117442675686 0 -0.014162314562439576 -0.00099680836843972585 0 -0.014340212062968273 -0.00076858648133321518 0 -0.014258680078202213 -0.00088623604193991583 0 -0.014279508757695373 -0.00083462382395592893 0 -0.014258680078202213 -0.00088623604193991583 0 -0.014211073247037955 -0.0010048117442675686 0 -0.014279508757695373 -0.00083462382395592893 0 -0.017905143527579246 -0.0024878185868367599 0 -0.015733991379978034 -0.002490429487883299 0 -0.018197879189878648 -0.0047308136258379313 0 -0.014279508757695373 -0.00083462382395592893 0 -0.014522188501529015 -0.00061681211156238466 0 -0.014839726846679852 -0.0003977459247234768 0 -0.017905143527579246 -0.0024878185868367599 0 -0.015733991379978034 -0.002490429487883299 0 -0.014839726846679852 -0.0003977459247234768 0 -0.016194011320709314 -0.0017681955053231719 0 -0.015023389100684492 -0.0005422298226822707 0 -0.014340212062968273 -0.00076858648133321518 0 -0.014279508757695373 -0.00083462382395592893 0 -0.014522188501529015 -0.00061681211156238466 0 -0.01456847080570932 -0.00064536089043879506 0 -0.014464578196316141 -0.00073090441801712481 0 -0.014522188501529015 -0.00061681211156238466 0 -0.014464578196316141 -0.00073090441801712481 0 -0.014402565903409707 -0.00074134212150074325 0 -0.014522188501529015 -0.00061681211156238466 0 -0.01456847080570932 -0.00064536089043879506 0 -0.014522188501529015 -0.00061681211156238466 0 -0.014839726846679852 -0.0003977459247234768 0 -0.01456847080570932 -0.00064536089043879506 0 -0.014839726846679852 -0.0003977459247234768 0 -0.014576203634233459 -0.00021023412487907131 0 -0.014576203634233459 -0.00021023412487907131 0 -0.013717606436592877 -0.0018509283081088238 0 -0.010274407477866062 -0.002459443663664242 0 -0.015733991379978034 -0.002490429487883299 0 -0.014839726846679852 -0.0003977459247234768 0 -0.013717606436592877 -0.0018509283081088238 0 -0.014839726846679852 -0.0003977459247234768 0 -0.014576203634233459 -0.00021023412487907131 0 -0.013717606436592877 -0.0018509283081088238 0 -0.0095983212974957675 -0.0014437969866903876 0 -0.0097627180650915798 -0.0018427718108242599 0 -0.009882096274302421 -0.0019819991402624908 0 -0.0095983212974957675 -0.0014437969866903876 0 -0.009882096274302421 -0.0019819991402624908 0 -0.010274407477866062 -0.002459443663664242 0 -0.011836506928354921 -0.00096848545104346521 0 -0.010346731828475777 -0.0023657132578099654 0 -0.0097627180650915798 -0.0018427718108242599 0 -0.009882096274302421 -0.0019819991402624908 0 -0.0096160359894264316 -0.0021105926797621148 0 -0.0094226827580118772 -0.0017307895062474835 0 -0.0097627180650915798 -0.0018427718108242599 0 -0.0096160359894264316 -0.0021105926797621148 0 -0.009882096274302421 -0.0019819991402624908 0 -0.010274407477866062 -0.002459443663664242 0 -0.0096160359894264316 -0.0021105926797621148 0 -0.013717606436592877 -0.0018509283081088238 0 -0.010274407477866062 -0.002459443663664242 0 -0.012505130093907215 -0.0032906987837296362 0 -0.010274407477866062 -0.002459443663664242 0 -0.012505130093907215 -0.0032906987837296362 0 -0.010398248115595787 -0.0040223957310751533 0 -0.015733991379978034 -0.002490429487883299 0 -0.014070876627719522 -0.0028040922229334297 0 -0.015304242366925689 -0.00573235321093117 0 -0.012505130093907215 -0.0032906987837296362 0 -0.014070876627719522 -0.0028040922229334297 0 -0.015304242366925689 -0.00573235321093117 0 -0.015733991379978034 -0.002490429487883299 0 -0.013717606436592877 -0.0018509283081088238 0 -0.014070876627719522 -0.0028040922229334297 0 -0.013717606436592877 -0.0018509283081088238 0 -0.012505130093907215 -0.0032906987837296362 0 -0.014070876627719522 -0.0028040922229334297 0 -0.021028455985178846 -0.0034538234744658919 0 -0.022226821131615164 -0.0046208688061215569 0 -0.021691680441966746 -0.004436068864085067 0 -0.015696283939322722 -0.0037453913292052224 0 -0.018729488533606311 -0.0050869051904369458 0 -0.012505130093907215 -0.0032906987837296362 0 -0.010398248115595787 -0.0040223957310751533 0 -0.015304242366925689 -0.00573235321093117 0 -0.021691680441966746 -0.004436068864085067 0 -0.021203667312824515 -0.0041075758827644115 0 -0.021286324742929429 -0.0044671108680077775 0 -0.021203667312824515 -0.0041075758827644115 0 -0.021286324742929429 -0.0044671108680077775 0 -0.020799730112859686 -0.0040190987894072648 0 -0.021028455985178846 -0.0034538234744658919 0 -0.021203667312824515 -0.0041075758827644115 0 -0.020799730112859686 -0.0040190987894072648 0 -0.021028455985178846 -0.0034538234744658919 0 -0.021691680441966746 -0.004436068864085067 0 -0.021203667312824515 -0.0041075758827644115 0 -0.021691680441966746 -0.004436068864085067 0 -0.021286324742929429 -0.0044671108680077775 0 -0.021819701249521851 -0.0048914913125151409 0 -0.021286324742929429 -0.0044671108680077775 0 -0.021819701249521851 -0.0048914913125151409 0 -0.021274701762382164 -0.0049604906923791268 0 -0.022226821131615164 -0.0046208688061215569 0 -0.021691680441966746 -0.004436068864085067 0 -0.022128095256047461 -0.0049531416790779314 0 -0.021691680441966746 -0.004436068864085067 0 -0.021819701249521851 -0.0048914913125151409 0 -0.022128095256047461 -0.0049531416790779314 0 -0.022128095256047461 -0.0049531416790779314 0 -0.022095657169577298 -0.0051628878493457722 0 -0.022316257699404519 -0.0052608178135946908 0 -0.022226821131615164 -0.0046208688061215569 0 -0.022128095256047461 -0.0049531416790779314 0 -0.022095657169577298 -0.0051628878493457722 0 -0.022226821131615164 -0.0046208688061215569 0 -0.022095657169577298 -0.0051628878493457722 0 -0.021504038791631291 -0.0056275165764411543 0 -0.022095657169577298 -0.0051628878493457722 0 -0.022124776038620762 -0.0054105402864315418 0 -0.022316257699404519 -0.0052608178135946908 0 -0.021504038791631291 -0.0056275165764411543 0 -0.021172455279295069 -0.0051489909443930768 0 -0.022091104268906613 -0.0056719515306123212 0 -0.021504038791631291 -0.0056275165764411543 0 -0.022124776038620762 -0.0054105402864315418 0 -0.022091104268906613 -0.0056719515306123212 0 -0.022095657169577298 -0.0051628878493457722 0 -0.021504038791631291 -0.0056275165764411543 0 -0.022124776038620762 -0.0054105402864315418 0 -0.021504038791631291 -0.0056275165764411543 0 -0.021172455279295069 -0.0051489909443930768 0 -0.018197879189878648 -0.0047308136258379313 0 -0.016194011320709314 -0.0017681955053231719 0 -0.017462633953605203 -0.0030061214594345204 0 -0.017905143527579246 -0.0024878185868367599 0 -0.021172455279295069 -0.0051489909443930768 0 -0.018197879189878648 -0.0047308136258379313 0 -0.014211073247037955 -0.0010048117442675686 0 -0.014200984529075601 -0.00107565258516085 0 -0.014182841862267712 -0.0010734584163454657 0 -0.018729488533606311 -0.0050869051904369458 0 -0.021216999291435633 -0.0056190163695914626 0 -0.015733991379978034 -0.002490429487883299 0 -0.015304242366925689 -0.00573235321093117 0 -0.018197879189878648 -0.0047308136258379313 0 -0.015304242366925689 -0.00573235321093117 0 -0.021504038791631291 -0.0056275165764411543 0 -0.018197879189878648 -0.0047308136258379313 0 -0.018850237424113056 -0.0029001630181528827 0 -0.019030873710808943 -0.0029197146355797914 0 -0.018932979622419428 -0.003108533877131611 0 -0.019030873710808943 -0.0029197146355797914 0 -0.019281701189386134 -0.0029387686905863329 0 -0.019204373414956843 -0.0031515153281389614 0 -0.019030873710808943 -0.0029197146355797914 0 -0.019204373414956843 -0.0031515153281389614 0 -0.018932979622419428 -0.003108533877131611 0 -0.019030873710808943 -0.0029197146355797914 0 -0.018973966679748298 -0.0026180934287807788 0 -0.019281701189386134 -0.0029387686905863329 0 -0.018850237424113056 -0.0029001630181528827 0 -0.019030873710808943 -0.0029197146355797914 0 -0.018973966679748298 -0.0026180934287807788 0 -0.010222331102794845 -0.0028553900823024732 0 -0.010144559159509762 -0.0023922298512097811 0 -0.0096201395174197492 -0.0024825557614998666 0 -0.010222331102794845 -0.0028553900823024732 0 -0.010144559159509762 -0.0023922298512097811 0 -0.010639709715884004 -0.002523847653006703 0 -0.0082594947072647078 -0.0025749561172870878 0 -0.0085736282509161141 -0.0025868502592989234 0 -0.010222331102794845 -0.0028553900823024732 0 -0.0096201395174197492 -0.0024825557614998666 0 -0.0094945610866427835 -0.0026698826595541762 0 -0.012939688475167854 -0.0028043728851990103 0 -0.0090325382487496299 -0.0026581009141508627 0 -0.019281701189386134 -0.0029387686905863329 0 -0.019493807120752056 -0.0031777988007172268 0 -0.019733453453478985 -0.0028622074432852855 0 -0.012939688475167854 -0.0028043728851990103 0 -0.014834255544118168 -0.0028586680260513195 0 -0.018973966679748298 -0.0026180934287807788 0 -0.019281701189386134 -0.0029387686905863329 0 -0.019733453453478985 -0.0028622074432852855 0 -0.0095984887157543435 -0.002679799639350364 0 -0.0094037906068721571 -0.0027501929607242248 0 -0.00928801534411779 -0.0027482164308792988 0 -0.019281701189386134 -0.0029387686905863329 0 -0.019493807120752056 -0.0031777988007172268 0 -0.019204373414956843 -0.0031515153281389614 0 -0.0094966312624963391 -0.0027128681382969197 0 -0.00928801534411779 -0.0027482164308792988 0 -0.0097555688225721797 -0.0029527376163812542 0 -0.019493807120752056 -0.0031777988007172268 0 -0.019733453453478985 -0.0028622074432852855 0 -0.019844109992016003 -0.0034431415467463971 0 -0.0094966312624963391 -0.0027128681382969197 0 -0.00928801534411779 -0.0027482164308792988 0 -0.00944703805816661 -0.0026347228304334368 0 -0.0076191572254608111 -0.0025608284049993069 0 -0.0094543717945870034 -0.002569156327477601 0 -0.0089630716045108853 -0.0022148077392442826 0 -0.0094945610866427835 -0.0026698826595541762 0 -0.00944703805816661 -0.0026347228304334368 0 -0.0094543717945870034 -0.002569156327477601 0 -0.0085736282509161141 -0.0025868502592989234 0 -0.0093529261240785574 -0.0026085333433762629 0 -0.0096201395174197492 -0.0024825557614998666 0 -0.0094945610866427835 -0.0026698826595541762 0 -0.00944703805816661 -0.0026347228304334368 0 -0.0084187129495280292 -0.0021113453090566437 0 -0.0076191572254608111 -0.0025608284049993069 0 -0.0089630716045108853 -0.0022148077392442826 0 -0.0090325382487496299 -0.0026581009141508627 0 -0.0096318243237173765 -0.0026149446538763325 0 -0.0094037906068721571 -0.0027501929607242248 0 -0.00928801534411779 -0.0027482164308792988 0 -0.00944703805816661 -0.0026347228304334368 0 -0.0084187129495280292 -0.0021113453090566437 0 -0.0078283362880399946 -0.0021368915124146248 0 -0.0076191572254608111 -0.0025608284049993069 0 -0.0094966312624963391 -0.0027128681382969197 0 -0.00944703805816661 -0.0026347228304334368 0 -0.0094543717945870034 -0.002569156327477601 0 -0.00908938639006307 -0.0018401924331436545 0 -0.0089630716045108853 -0.0022148077392442826 0 -0.0096160359894264316 -0.0021105926797621148 0 -0.0094543717945870034 -0.002569156327477601 0 -0.0089630716045108853 -0.0022148077392442826 0 -0.0096160359894264316 -0.0021105926797621148 0 -0.010274407477866062 -0.002459443663664242 0 -0.0094543717945870034 -0.002569156327477601 0 -0.0096160359894264316 -0.0021105926797621148 0 -0.021028455985178846 -0.0034538234744658919 0 -0.019733453453478985 -0.0028622074432852855 0 -0.020314179279035786 -0.0035531254431674271 0 -0.010274407477866062 -0.002459443663664242 0 -0.010398248115595787 -0.0040223957310751533 0 -0.0097555688225721797 -0.0029527376163812542 0 -0.015696283939322722 -0.0037453913292052224 0 -0.014834255544118168 -0.0028586680260513195 0 -0.010274407477866062 -0.002459443663664242 0 -0.0094543717945870034 -0.002569156327477601 0 -0.0097555688225721797 -0.0029527376163812542 0 -0.010398248115595787 -0.0040223957310751533 0 -0.00928801534411779 -0.0027482164308792988 0 -0.0097555688225721797 -0.0029527376163812542 0 -0.0094966312624963391 -0.0027128681382969197 0 -0.0094543717945870034 -0.002569156327477601 0 -0.0097555688225721797 -0.0029527376163812542 0 -0.021028455985178846 -0.0034538234744658919 0 -0.020314179279035786 -0.0035531254431674271 0 -0.020799730112859686 -0.0040190987894072648 0 -0.020314179279035786 -0.0035531254431674271 0 -0.020799730112859686 -0.0040190987894072648 0 -0.020239136296162901 -0.0039888373292333336 0 -0.021286324742929429 -0.0044671108680077775 0 -0.020799730112859686 -0.0040190987894072648 0 -0.020748041880641086 -0.0045278854872069074 0 -0.021286324742929429 -0.0044671108680077775 0 -0.020748041880641086 -0.0045278854872069074 0 -0.021274701762382164 -0.0049604906923791268 0 -0.020799730112859686 -0.0040190987894072648 0 -0.020748041880641086 -0.0045278854872069074 0 -0.020239136296162901 -0.0039888373292333336 0 -0.020748041880641086 -0.0045278854872069074 0 -0.020239136296162901 -0.0039888373292333336 0 -0.020273665723444367 -0.0045917514736945374 0 -0.020273665723444367 -0.0045917514736945374 0 -0.019836688759385053 -0.0041680822806181069 0 -0.019819386741866819 -0.0046454269255914735 0 -0.020239136296162901 -0.0039888373292333336 0 -0.020273665723444367 -0.0045917514736945374 0 -0.019836688759385053 -0.0041680822806181069 0 -0.020239136296162901 -0.0039888373292333336 0 -0.019836688759385053 -0.0041680822806181069 0 -0.019847764038456409 -0.0038019608486064395 0 -0.020239136296162901 -0.0039888373292333336 0 -0.019847764038456409 -0.0038019608486064395 0 -0.019844109992016003 -0.0034431415467463971 0 -0.020314179279035786 -0.0035531254431674271 0 -0.020239136296162901 -0.0039888373292333336 0 -0.019844109992016003 -0.0034431415467463971 0 -0.019733453453478985 -0.0028622074432852855 0 -0.020314179279035786 -0.0035531254431674271 0 -0.019844109992016003 -0.0034431415467463971 0 -0.019493807120752056 -0.0031777988007172268 0 -0.019844109992016003 -0.0034431415467463971 0 -0.019491368400338722 -0.0036183233287849798 0 -0.019204373414956843 -0.0031515153281389614 0 -0.019491368400338722 -0.0036183233287849798 0 -0.01913004248078199 -0.0034625935744274534 0 -0.019493807120752056 -0.0031777988007172268 0 -0.019204373414956843 -0.0031515153281389614 0 -0.019491368400338722 -0.0036183233287849798 0 -0.019491368400338722 -0.0036183233287849798 0 -0.019230269724497397 -0.0040356375885063382 0 -0.01913004248078199 -0.0034625935744274534 0 -0.019847764038456409 -0.0038019608486064395 0 -0.019844109992016003 -0.0034431415467463971 0 -0.019491368400338722 -0.0036183233287849798 0 -0.019836688759385053 -0.0041680822806181069 0 -0.019847764038456409 -0.0038019608486064395 0 -0.019491368400338722 -0.0036183233287849798 0 -0.019230269724497397 -0.0040356375885063382 0 -0.019193834163297601 -0.0048843195830059333 0 -0.019407490583260786 -0.0045089438359535265 0 -0.019836688759385053 -0.0041680822806181069 0 -0.019491368400338722 -0.0036183233287849798 0 -0.019521260768071667 -0.0041680563611271879 0 -0.019521260768071667 -0.0041680563611271879 0 -0.019407490583260786 -0.0045089438359535265 0 -0.019819386741866819 -0.0046454269255914735 0 -0.019836688759385053 -0.0041680822806181069 0 -0.019521260768071667 -0.0041680563611271879 0 -0.019819386741866819 -0.0046454269255914735 0 -0.019521260768071667 -0.0041680563611271879 0 -0.019230269724497397 -0.0040356375885063382 0 -0.019407490583260786 -0.0045089438359535265 0 -0.019491368400338722 -0.0036183233287849798 0 -0.019521260768071667 -0.0041680563611271879 0 -0.019230269724497397 -0.0040356375885063382 0 -0.019230269724497397 -0.0040356375885063382 0 -0.018685132753447083 -0.0038507457571372527 0 -0.01913004248078199 -0.0034625935744274534 0 -0.019230269724497397 -0.0040356375885063382 0 -0.018685132753447083 -0.0038507457571372527 0 -0.019193834163297601 -0.0048843195830059333 0 -0.019748333476417669 -0.0029196198160897319 0 -0.020689739184463117 -0.0020950257329159479 0 -0.019748333476417669 -0.0029196198160897319 0 -0.02201813207251373 -0.0036257805416356798 0 -0.018685132753447083 -0.0038507457571372527 0 -0.018836846690165606 -0.0033221542001968386 0 -0.01913004248078199 -0.0034625935744274534 0 -0.019748333476417669 -0.0029196198160897319 0 -0.019175405903239826 -0.003536128372180293 0 -0.019204373414956843 -0.0031515153281389614 0 -0.01913004248078199 -0.0034625935744274534 0 -0.018932979622419428 -0.003108533877131611 0 -0.018836846690165606 -0.0033221542001968386 0 -0.01913004248078199 -0.0034625935744274534 0 -0.018932979622419428 -0.003108533877131611 0 -0.018836846690165606 -0.0033221542001968386 0 -0.018932979622419428 -0.003108533877131611 0 -0.018789444282292136 -0.0030672559924792434 0 -0.018850237424113056 -0.0029001630181528827 0 -0.018932979622419428 -0.003108533877131611 0 -0.018789444282292136 -0.0030672559924792434 0 -0.024167337177955123 -0.0019192003226209844 0 -0.02201813207251373 -0.0036257805416356798 0 -0.021770620786192976 -0.0020577431792582453 0 -0.021476314983593599 -0.0025488584389194179 0 -0.021874100331908453 -0.0025605061137118101 0 -0.021776326169141137 -0.0030424203247832065 0 -0.021476314983593599 -0.0025488584389194179 0 -0.021874100331908453 -0.0025605061137118101 0 -0.019193317476323957 -0.0049373504689603715 0 -0.019819386741866819 -0.0046454269255914735 0 -0.019951879948335569 -0.0051490512043428785 0 -0.019193317476323957 -0.0049373504689603715 0 -0.019407490583260786 -0.0045089438359535265 0 -0.019819386741866819 -0.0046454269255914735 0 -0.02201813207251373 -0.0036257805416356798 0 -0.019841548309466151 -0.0051832930269507076 0 -0.02201813207251373 -0.0036257805416356798 0 -0.022344846546779106 -0.0041455659504398591 0 -0.019193317476323957 -0.0049373504689603715 0 -0.019951879948335569 -0.0051490512043428785 0 -0.019938557314884389 -0.0060411701989540921 0 -0.025897012209209522 -0.0023961862674267377 0 -0.025766563214606825 -0.0025800432929591571 0 -0.025676320174369525 -0.0023543237132232337 0 -0.019951879948335569 -0.0051490512043428785 0 -0.020657135963887203 -0.0051922922218336194 0 -0.019938557314884389 -0.0060411701989540921 0 -0.020657135963887203 -0.0051922922218336194 0 -0.020937069705670081 -0.005867537291757206 0 -0.019938557314884389 -0.0060411701989540921 0 -0.020273665723444367 -0.0045917514736945374 0 -0.019951879948335569 -0.0051490512043428785 0 -0.020657135963887203 -0.0051922922218336194 0 -0.020273665723444367 -0.0045917514736945374 0 -0.019819386741866819 -0.0046454269255914735 0 -0.019951879948335569 -0.0051490512043428785 0 -0.020748041880641086 -0.0045278854872069074 0 -0.020273665723444367 -0.0045917514736945374 0 -0.020657135963887203 -0.0051922922218336194 0 -0.020748041880641086 -0.0045278854872069074 0 -0.020657135963887203 -0.0051922922218336194 0 -0.021274701762382164 -0.0049604906923791268 0 -0.020657135963887203 -0.0051922922218336194 0 -0.021244935978538396 -0.0054278359780495456 0 -0.021274701762382164 -0.0049604906923791268 0 -0.020657135963887203 -0.0051922922218336194 0 -0.020937069705670081 -0.005867537291757206 0 -0.021244935978538396 -0.0054278359780495456 0 -0.020937069705670081 -0.005867537291757206 0 -0.021054417356826144 -0.0065150902661348384 0 -0.021752882540346064 -0.0059990027114171975 0 -0.020937069705670081 -0.005867537291757206 0 -0.021054417356826144 -0.0065150902661348384 0 -0.019938557314884389 -0.0060411701989540921 0 -0.021054417356826144 -0.0065150902661348384 0 -0.020680953769540412 -0.0071377379819525019 0 -0.021784482171765686 -0.0069007577996541237 0 -0.031708600233214798 -0.0058901172236401483 0 -0.026982772919813464 -0.0066982167311138794 0 -0.029216977903326138 -0.0049299274718403452 0 -0.02650345243162483 -0.0045291321535949015 0 -0.024300065132381036 -0.0069626841474409165 0 -0.031708600233214798 -0.0058901172236401483 0 -0.03124023748984308 -0.0050951959129549888 0 -0.029216977903326138 -0.0049299274718403452 0 -0.02650345243162483 -0.0045291321535949015 0 -0.028174206453119403 -0.0057505761669610668 0 -0.02650345243162483 -0.0045291321535949015 0 -0.030711553905227743 -0.0033755442618623875 0 -0.031772395028200492 -0.0059277358143435977 0 -0.035045479219996782 -0.0050331730853229563 0 -0.03124023748984308 -0.0050951959129549888 0 -0.025608880385376093 -0.0021762942102585047 0 -0.025676320174369525 -0.0023543237132232337 0 -0.025725659164003472 -0.0021258349280802286 0 -0.021054417356826144 -0.0065150902661348384 0 -0.020680953769540412 -0.0071377379819525019 0 -0.019938557314884389 -0.0060411701989540921 0 -0.02650345243162483 -0.0045291321535949015 0 -0.022344846546779106 -0.0041455659504398591 0 -0.025676320174369525 -0.0023543237132232337 0 -0.025785401301142815 -0.0022341425164850133 0 -0.025876691698089305 -0.0022736517653786995 0 -0.025676320174369525 -0.0023543237132232337 0 -0.025785401301142815 -0.0022341425164850133 0 -0.025725659164003472 -0.0021258349280802286 0 -0.02581435969934797 -0.0021409062127159873 0 -0.025785401301142815 -0.0022341425164850133 0 -0.025725659164003472 -0.0021258349280802286 0 -0.02581435969934797 -0.0021409062127159873 0 -0.025785401301142815 -0.0022341425164850133 0 -0.025847692117684978 -0.0021799757892988704 0 -0.025785401301142815 -0.0022341425164850133 0 -0.025847692117684978 -0.0021799757892988704 0 -0.025876691698089305 -0.0022736517653786995 0 -0.025847692117684978 -0.0021799757892988704 0 -0.025912846156706922 -0.0021607184663185101 0 -0.025876691698089305 -0.0022736517653786995 0 -0.025847692117684978 -0.0021799757892988704 0 -0.025881860747622693 -0.0021335984033849669 0 -0.025912846156706922 -0.0021607184663185101 0 -0.025847692117684978 -0.0021799757892988704 0 -0.025881860747622693 -0.0021335984033849669 0 -0.02586011994668649 -0.0020979823438873777 0 -0.02581435969934797 -0.0021409062127159873 0 -0.025847692117684978 -0.0021799757892988704 0 -0.02586011994668649 -0.0020979823438873777 0 -0.025881860747622693 -0.0021335984033849669 0 -0.025907686111089755 -0.0020967419878007839 0 -0.02586011994668649 -0.0020979823438873777 0 -0.025952937501285793 -0.0021179974434443506 0 -0.025907686111089755 -0.0020967419878007839 0 -0.025912846156706922 -0.0021607184663185101 0 -0.025881860747622693 -0.0021335984033849669 0 -0.025907686111089755 -0.0020967419878007839 0 -0.025912846156706922 -0.0021607184663185101 0 -0.025952937501285793 -0.0021179974434443506 0 -0.025912846156706922 -0.0021607184663185101 0 -0.02595227938246342 -0.0021810860259987436 0 -0.025912846156706922 -0.0021607184663185101 0 -0.025876691698089305 -0.0022736517653786995 0 -0.02595227938246342 -0.0021810860259987436 0 -0.025897012209209522 -0.0023961862674267377 0 -0.025676320174369525 -0.0023543237132232337 0 -0.025876691698089305 -0.0022736517653786995 0 -0.025897012209209522 -0.0023961862674267377 0 -0.025876691698089305 -0.0022736517653786995 0 -0.026004112574850594 -0.0022127453275934618 0 -0.022531391001393321 -0.0054675440385436955 0 -0.022534646495862728 -0.005456882505716249 0 -0.023004738541818528 -0.005769500155266759 0 -0.022531391001393321 -0.0054675440385436955 0 -0.022439971395650255 -0.0056862967305085022 0 -0.023004738541818528 -0.005769500155266759 0 -0.022774065210275446 -0.0056154449919678133 0 -0.022534646495862728 -0.005456882505716249 0 -0.023004738541818528 -0.005769500155266759 0 -0.023742749039987857 -0.0049500991484804583 0 -0.02280962342149739 -0.0045505691186224807 0 -0.022774065210275446 -0.0056154449919678133 0 -0.022534646495862728 -0.005456882505716249 0 -0.022340080766574066 -0.0054681847545476944 0 -0.022534646495862728 -0.005456882505716249 0 -0.022124776038620762 -0.0054105402864315418 0 -0.022340080766574066 -0.0054681847545476944 0 -0.022534646495862728 -0.005456882505716249 0 -0.022124776038620762 -0.0054105402864315418 0 -0.022316257699404519 -0.0052608178135946908 0 -0.022531391001393321 -0.0054675440385436955 0 -0.022534646495862728 -0.005456882505716249 0 -0.022316257699404519 -0.0052608178135946908 0 -0.022531391001393321 -0.0054675440385436955 0 -0.022316257699404519 -0.0052608178135946908 0 -0.022196938802654456 -0.0052352153431355708 0 -0.022128095256047461 -0.0049531416790779314 0 -0.022316257699404519 -0.0052608178135946908 0 -0.022196938802654456 -0.0052352153431355708 0 -0.021819701249521851 -0.0048914913125151409 0 -0.022128095256047461 -0.0049531416790779314 0 -0.022196938802654456 -0.0052352153431355708 0 -0.021819701249521851 -0.0048914913125151409 0 -0.022196938802654456 -0.0052352153431355708 0 -0.021804242225607971 -0.0053329829677157322 0 -0.021819701249521851 -0.0048914913125151409 0 -0.021274701762382164 -0.0049604906923791268 0 -0.021804242225607971 -0.0053329829677157322 0 -0.021244935978538396 -0.0054278359780495456 0 -0.021274701762382164 -0.0049604906923791268 0 -0.021804242225607971 -0.0053329829677157322 0 -0.021244935978538396 -0.0054278359780495456 0 -0.021804242225607971 -0.0053329829677157322 0 -0.021752882540346064 -0.0059990027114171975 0 -0.020937069705670081 -0.005867537291757206 0 -0.021244935978538396 -0.0054278359780495456 0 -0.021752882540346064 -0.0059990027114171975 0 -0.021804242225607971 -0.0053329829677157322 0 -0.022439971395650255 -0.0056862967305085022 0 -0.021752882540346064 -0.0059990027114171975 0 -0.022196938802654456 -0.0052352153431355708 0 -0.021804242225607971 -0.0053329829677157322 0 -0.022439971395650255 -0.0056862967305085022 0 -0.022531391001393321 -0.0054675440385436955 0 -0.022196938802654456 -0.0052352153431355708 0 -0.022439971395650255 -0.0056862967305085022 0 -0.022439971395650255 -0.0056862967305085022 0 -0.021752882540346064 -0.0059990027114171975 0 -0.023325811651810326 -0.006372134467739903 0 -0.021752882540346064 -0.0059990027114171975 0 -0.021784482171765686 -0.0069007577996541237 0 -0.023325811651810326 -0.006372134467739903 0 -0.021054417356826144 -0.0065150902661348384 0 -0.021752882540346064 -0.0059990027114171975 0 -0.021784482171765686 -0.0069007577996541237 0 -0.026982772919813464 -0.0066982167311138794 0 -0.025812688545625538 -0.0040443404605815143 0 -0.029216977903326138 -0.0049299274718403452 0 -0.026982772919813464 -0.0066982167311138794 0 -0.024304345255864467 -0.0055540446012316506 0 -0.025812688545625538 -0.0040443404605815143 0 -0.024300065132381036 -0.0069626841474409165 0 -0.02353050811857476 -0.006424282800915438 0 -0.026982772919813464 -0.0066982167311138794 0 -0.024304345255864467 -0.0055540446012316506 0 -0.023325811651810326 -0.006372134467739903 0 -0.024304345255864467 -0.0055540446012316506 0 -0.023330193934755494 -0.0059337777351299494 0 -0.023351491358238326 -0.005653356401552301 0 -0.023330193934755494 -0.0059337777351299494 0 -0.02321792677006462 -0.0059827670910976407 0 -0.023474489183204772 -0.005829341312377152 0 -0.024304345255864467 -0.0055540446012316506 0 -0.023330193934755494 -0.0059337777351299494 0 -0.023325811651810326 -0.006372134467739903 0 -0.022439971395650255 -0.0056862967305085022 0 -0.023325811651810326 -0.006372134467739903 0 -0.023004738541818528 -0.005769500155266759 0 -0.023330193934755494 -0.0059337777351299494 0 -0.023325811651810326 -0.006372134467739903 0 -0.02321792677006462 -0.0059827670910976407 0 -0.023325811651810326 -0.006372134467739903 0 -0.02321792677006462 -0.0059827670910976407 0 -0.023004738541818528 -0.005769500155266759 0 -0.02321792677006462 -0.0059827670910976407 0 -0.023004738541818528 -0.005769500155266759 0 -0.023474489183204772 -0.005829341312377152 0 -0.024298335068704342 -0.004131206643777861 0 -0.023752594390844609 -0.0054584315160117304 0 -0.023474489183204772 -0.005829341312377152 0 -0.023742749039987857 -0.0049500991484804583 0 -0.023369467547398312 -0.0057794028562985133 0 -0.022774065210275446 -0.0056154449919678133 0 -0.023004738541818528 -0.005769500155266759 0 -0.023474489183204772 -0.005829341312377152 0 -0.024377284464100972 -0.004652193474657975 0 -0.024483733031872887 -0.0051425334448686952 0 -0.023752594390844609 -0.0054584315160117304 0 -0.023742749039987857 -0.0049500991484804583 0 -0.023920824172677654 -0.0051432009026227262 0 -0.024483733031872887 -0.0051425334448686952 0 -0.023752594390844609 -0.0054584315160117304 0 -0.023997223036421742 -0.0058947444642374761 0 -0.023330193934755494 -0.0059337777351299494 0 -0.023997223036421742 -0.0058947444642374761 0 -0.023351491358238326 -0.005653356401552301 0 -0.023330193934755494 -0.0059337777351299494 0 -0.023997223036421742 -0.0058947444642374761 0 -0.023474489183204772 -0.005829341312377152 0 -0.023997223036421742 -0.0058947444642374761 0 -0.024657635536196331 -0.0064516134051394083 0 -0.023351491358238326 -0.005653356401552301 0 -0.023752594390844609 -0.0054584315160117304 0 -0.023997223036421742 -0.0058947444642374761 0 -0.023474489183204772 -0.005829341312377152 0 -0.023997223036421742 -0.0058947444642374761 0 -0.024657635536196331 -0.0064516134051394083 0 -0.025168038513209652 -0.0052904767204395853 0 -0.024657635536196331 -0.0064516134051394083 0 -0.02704210396081266 -0.0058372483419096705 0 -0.025168038513209652 -0.0052904767204395853 0 -0.028279842704780539 -0.0058020279043117769 0 -0.027150546215627989 -0.0059055169187190787 0 -0.026244799387658217 -0.0051925953514080324 0 -0.025168038513209652 -0.0052904767204395853 0 -0.025611574448805047 -0.0046788256545530005 0 -0.02704210396081266 -0.0058372483419096705 0 -0.026244799387658217 -0.0051925953514080324 0 -0.025168038513209652 -0.0052904767204395853 0 -0.025168038513209652 -0.0052904767204395853 0 -0.024978921062571317 -0.0046656147864479348 0 -0.025611574448805047 -0.0046788256545530005 0 -0.024483733031872887 -0.0051425334448686952 0 -0.023997223036421742 -0.0058947444642374761 0 -0.025168038513209652 -0.0052904767204395853 0 -0.024483733031872887 -0.0051425334448686952 0 -0.025168038513209652 -0.0052904767204395853 0 -0.024978921062571317 -0.0046656147864479348 0 -0.024377284464100972 -0.004652193474657975 0 -0.024483733031872887 -0.0051425334448686952 0 -0.024978921062571317 -0.0046656147864479348 0 -0.024377284464100972 -0.004652193474657975 0 -0.024978921062571317 -0.0046656147864479348 0 -0.024785893546138436 -0.0041578919959362288 0 -0.024978921062571317 -0.0046656147864479348 0 -0.02534465064043331 -0.0042799456695850361 0 -0.024785893546138436 -0.0041578919959362288 0 -0.024978921062571317 -0.0046656147864479348 0 -0.025611574448805047 -0.0046788256545530005 0 -0.02534465064043331 -0.0042799456695850361 0 -0.026244799387658217 -0.0051925953514080324 0 -0.025611574448805047 -0.0046788256545530005 0 -0.026216641135795814 -0.0048351814746941399 0 -0.025611574448805047 -0.0046788256545530005 0 -0.025844183309037299 -0.0043057671437142881 0 -0.026216641135795814 -0.0048351814746941399 0 -0.025611574448805047 -0.0046788256545530005 0 -0.02534465064043331 -0.0042799456695850361 0 -0.025844183309037299 -0.0043057671437142881 0 -0.02534465064043331 -0.0042799456695850361 0 -0.025844183309037299 -0.0043057671437142881 0 -0.025486197027677231 -0.0039749487432231131 0 -0.025739319672484811 -0.0039606146367023587 0 -0.025486197027677231 -0.0039749487432231131 0 -0.025479070629294664 -0.0036637583254019762 0 -0.025844183309037299 -0.0043057671437142881 0 -0.025739319672484811 -0.0039606146367023587 0 -0.025486197027677231 -0.0039749487432231131 0 -0.025486197027677231 -0.0039749487432231131 0 -0.025211073134942266 -0.0039643326497501696 0 -0.02530344658061463 -0.0037388973261064571 0 -0.02534465064043331 -0.0042799456695850361 0 -0.025486197027677231 -0.0039749487432231131 0 -0.025211073134942266 -0.0039643326497501696 0 -0.025211073134942266 -0.0039643326497501696 0 -0.025051731767693868 -0.0038001965320353238 0 -0.02530344658061463 -0.0037388973261064571 0 -0.022124776038620762 -0.0054105402864315418 0 -0.022340080766574066 -0.0054681847545476944 0 -0.022091104268906613 -0.0056719515306123212 0 -0.025211073134942266 -0.0039643326497501696 0 -0.024785893546138436 -0.0041578919959362288 0 -0.025070536174246059 -0.0037702716849723323 0 -0.023565287660416181 -0.0046093541367114342 0 -0.021861267765646654 -0.0038321899353648122 0 -0.021599944158236972 -0.0038650521747467716 0 -0.021382560803953961 -0.0041916180924410932 0 -0.021413105315609207 -0.0042400236914109119 0 -0.02280962342149739 -0.0045505691186224807 0 -0.019690533348899853 -0.0034963922695730718 0 -0.02280962342149739 -0.0045505691186224807 0 -0.021861267765646654 -0.0038321899353648122 0 -0.02534465064043331 -0.0042799456695850361 0 -0.025211073134942266 -0.0039643326497501696 0 -0.024785893546138436 -0.0041578919959362288 0 -0.020386113089208131 -0.0047606292651746337 0 -0.020317895964210783 -0.0037676108169715371 0 -0.026290432515520837 -0.0045527195240189456 0 -0.02657970044519355 -0.0046678248664050737 0 -0.026141791180706742 -0.0039032332962459959 0 -0.014161846850608237 -0.0049237525479691093 0 -0.014311056028264914 -0.0033819588213045439 0 -0.014787207599467948 -0.0033633818782781918 0 -0.025844183309037299 -0.0043057671437142881 0 -0.026290432515520837 -0.0045527195240189456 0 -0.026141791180706742 -0.0039032332962459959 0 -0.025844183309037299 -0.0043057671437142881 0 -0.025739319672484811 -0.0039606146367023587 0 -0.026141791180706742 -0.0039032332962459959 0 -0.026290432515520837 -0.0045527195240189456 0 -0.026216641135795814 -0.0048351814746941399 0 -0.026492303249131328 -0.0049924386754613944 0 -0.025844183309037299 -0.0043057671437142881 0 -0.026290432515520837 -0.0045527195240189456 0 -0.026216641135795814 -0.0048351814746941399 0 -0.026290432515520837 -0.0045527195240189456 0 -0.026492303249131328 -0.0049924386754613944 0 -0.02657970044519355 -0.0046678248664050737 0 -0.026492303249131328 -0.0049924386754613944 0 -0.026510161740704419 -0.0052793650188781641 0 -0.026586504008429136 -0.0050796849873483638 0 -0.026492303249131328 -0.0049924386754613944 0 -0.026510161740704419 -0.0052793650188781641 0 -0.026531419145140817 -0.0053688235343110407 0 -0.026216641135795814 -0.0048351814746941399 0 -0.026492303249131328 -0.0049924386754613944 0 -0.026531419145140817 -0.0053688235343110407 0 -0.026244799387658217 -0.0051925953514080324 0 -0.026216641135795814 -0.0048351814746941399 0 -0.026531419145140817 -0.0053688235343110407 0 -0.02704210396081266 -0.0058372483419096705 0 -0.026244799387658217 -0.0051925953514080324 0 -0.026531419145140817 -0.0053688235343110407 0 -0.02704210396081266 -0.0058372483419096705 0 -0.026531419145140817 -0.0053688235343110407 0 -0.026480042032657799 -0.0054024539005401353 0 -0.026510161740704419 -0.0052793650188781641 0 -0.026531419145140817 -0.0053688235343110407 0 -0.026480042032657799 -0.0054024539005401353 0 -0.026510161740704419 -0.0052793650188781641 0 -0.026480042032657799 -0.0054024539005401353 0 -0.026474188452662636 -0.0053430343792046251 0 -0.026510161740704419 -0.0052793650188781641 0 -0.026474188452662636 -0.0053430343792046251 0 -0.026705711297049791 -0.0054201424195334498 0 -0.026705711297049791 -0.0054201424195334498 0 -0.026620854391494964 -0.0051258944576469479 0 -0.026586504008429136 -0.0050796849873483638 0 -0.026510161740704419 -0.0052793650188781641 0 -0.026705711297049791 -0.0054201424195334498 0 -0.026586504008429136 -0.0050796849873483638 0 -0.014684428318849491 -0.005964156419863237 0 -0.016155904787383778 -0.0066297560424652072 0 -0.015307833520291751 -0.0057137342245722252 0 -0.026862791611145607 -0.0060494333099927371 0 -0.027418604813219546 -0.0057534304750582266 0 -0.025200633674506132 -0.0068179335281272581 0 -0.020715135562815463 -0.0060103639474090162 0 -0.020567683325697739 -0.0065514237771170832 0 -0.026705711297049791 -0.0054201424195334498 0 -0.026862791611145607 -0.0060494333099927371 0 -0.027418604813219546 -0.0057534304750582266 0 -0.020385279620588847 -0.00533408026420692 0 -0.020715135562815463 -0.0060103639474090162 0 -0.026705711297049791 -0.0054201424195334498 0 -0.026620854391494964 -0.0051258944576469479 0 -0.026862791611145607 -0.0060494333099927371 0 -0.014127152262544804 -0.0055491641279290516 0 -0.014684428318849491 -0.005964156419863237 0 -0.014334529348200141 -0.0053064109342729491 0 -0.014684428318849491 -0.005964156419863237 0 -0.014690755197723641 -0.0053616948962355322 0 -0.015307833520291751 -0.0057137342245722252 0 -0.014684428318849491 -0.005964156419863237 0 -0.014690755197723641 -0.0053616948962355322 0 -0.014334529348200141 -0.0053064109342729491 0 -0.014690755197723641 -0.0053616948962355322 0 -0.014334529348200141 -0.0053064109342729491 0 -0.014367509280164925 -0.0050991683696472419 0 -0.014536900575627043 -0.0051648984036960699 0 -0.014690755197723641 -0.0053616948962355322 0 -0.014367509280164925 -0.0050991683696472419 0 -0.014536900575627043 -0.0051648984036960699 0 -0.014690755197723641 -0.0053616948962355322 0 -0.015090645096337958 -0.0053382377105862791 0 -0.014149841768893159 -0.0050261187445606202 0 -0.014367509280164925 -0.0050991683696472419 0 -0.014296228292716774 -0.0049281802063785764 0 -0.014334529348200141 -0.0053064109342729491 0 -0.014149841768893159 -0.0050261187445606202 0 -0.014367509280164925 -0.0050991683696472419 0 -0.014334529348200141 -0.0053064109342729491 0 -0.014149841768893159 -0.0050261187445606202 0 -0.014060532916558526 -0.005191443153040768 0 -0.014367509280164925 -0.0050991683696472419 0 -0.014157131910644462 -0.0050368954614052729 0 -0.014296228292716774 -0.0049281802063785764 0 -0.014536900575627043 -0.0051648984036960699 0 -0.014367509280164925 -0.0050991683696472419 0 -0.014157131910644462 -0.0050368954614052729 0 -0.020385279620588847 -0.00533408026420692 0 -0.020386113089208131 -0.0047606292651746337 0 -0.026620854391494964 -0.0051258944576469479 0 -0.026586504008429136 -0.0050796849873483638 0 -0.02657970044519355 -0.0046678248664050737 0 -0.014127152262544804 -0.0055491641279290516 0 -0.014100417450518593 -0.0050917402983262005 0 -0.014161846850608237 -0.0049237525479691093 0 -0.026492303249131328 -0.0049924386754613944 0 -0.026586504008429136 -0.0050796849873483638 0 -0.02657970044519355 -0.0046678248664050737 0 -0.014127152262544804 -0.0055491641279290516 0 -0.014100417450518593 -0.0050917402983262005 0 -0.013904652993616182 -0.0051313018749006168 0 -0.014127152262544804 -0.0055491641279290516 0 -0.013904652993616182 -0.0051313018749006168 0 -0.014060532916558526 -0.005191443153040768 0 -0.014127152262544804 -0.0055491641279290516 0 -0.014334529348200141 -0.0053064109342729491 0 -0.014060532916558526 -0.005191443153040768 0 -0.013904652993616182 -0.0051313018749006168 0 -0.014060532916558526 -0.005191443153040768 0 -0.013837938104360277 -0.0050089508209669878 0 -0.014149841768893159 -0.0050261187445606202 0 -0.014060532916558526 -0.005191443153040768 0 -0.013837938104360277 -0.0050089508209669878 0 -0.013904652993616182 -0.0051313018749006168 0 -0.013837938104360277 -0.0050089508209669878 0 -0.013488124606009949 -0.0050042185730523039 0 -0.014100417450518593 -0.0050917402983262005 0 -0.013904652993616182 -0.0051313018749006168 0 -0.013488124606009949 -0.0050042185730523039 0 -0.014100417450518593 -0.0050917402983262005 0 -0.013488124606009949 -0.0050042185730523039 0 -0.012417685100161363 -0.0049499996798505926 0 -0.014007140416406723 -0.0049104351844674633 0 -0.0135359034741812 -0.0040525553883540089 0 -0.014100417450518593 -0.0050917402983262005 0 -0.014161846850608237 -0.0049237525479691093 0 -0.014787207599467948 -0.0033633818782781918 0 -0.013488124606009949 -0.0050042185730523039 0 -0.012905437743477995 -0.0045052627930005067 0 -0.012417685100161363 -0.0049499996798505926 0 -0.012905437743477995 -0.0045052627930005067 0 -0.012417685100161363 -0.0049499996798505926 0 -0.012188527927588262 -0.0039213564811222332 0 -0.013488124606009949 -0.0050042185730523039 0 -0.012905437743477995 -0.0045052627930005067 0 -0.013429704184284446 -0.0046001480633027555 0 -0.013837938104360277 -0.0050089508209669878 0 -0.013429704184284446 -0.0046001480633027555 0 -0.013882488670332926 -0.0047709214499279812 0 -0.013837938104360277 -0.0050089508209669878 0 -0.013488124606009949 -0.0050042185730523039 0 -0.013429704184284446 -0.0046001480633027555 0 -0.014149841768893159 -0.0050261187445606202 0 -0.013837938104360277 -0.0050089508209669878 0 -0.013882488670332926 -0.0047709214499279812 0 -0.013882488670332926 -0.0047709214499279812 0 -0.013779063371948315 -0.004114914897154918 0 -0.014150048652838873 -0.0046432832203675764 0 -0.013429704184284446 -0.0046001480633027555 0 -0.013882488670332926 -0.0047709214499279812 0 -0.013779063371948315 -0.004114914897154918 0 -0.013779063371948315 -0.004114914897154918 0 -0.014150048652838873 -0.0046432832203675764 0 -0.014055050552994506 -0.0033203503592082774 0 -0.013429704184284446 -0.0046001480633027555 0 -0.013779063371948315 -0.004114914897154918 0 -0.012975215913411362 -0.003891933644865184 0 -0.013779063371948315 -0.004114914897154918 0 -0.013388563712782036 -0.0036607324378280823 0 -0.014055050552994506 -0.0033203503592082774 0 -0.013779063371948315 -0.004114914897154918 0 -0.013388563712782036 -0.0036607324378280823 0 -0.012975215913411362 -0.003891933644865184 0 -0.013388563712782036 -0.0036607324378280823 0 -0.012975215913411362 -0.003891933644865184 0 -0.013041390703531752 -0.0029938207912510403 0 -0.012975215913411362 -0.003891933644865184 0 -0.012130539641054343 -0.002785080644723251 0 -0.012188527927588262 -0.0039213564811222332 0 -0.012905437743477995 -0.0045052627930005067 0 -0.012975215913411362 -0.003891933644865184 0 -0.012188527927588262 -0.0039213564811222332 0 -0.012905437743477995 -0.0045052627930005067 0 -0.013429704184284446 -0.0046001480633027555 0 -0.012975215913411362 -0.003891933644865184 0 -0.014157131910644462 -0.0050368954614052729 0 -0.014296228292716774 -0.0049281802063785764 0 -0.014448614147265483 -0.0048717673271437226 0 -0.014296228292716774 -0.0049281802063785764 0 -0.014150048652838873 -0.0046432832203675764 0 -0.014448614147265483 -0.0048717673271437226 0 -0.014149841768893159 -0.0050261187445606202 0 -0.013882488670332926 -0.0047709214499279812 0 -0.014150048652838873 -0.0046432832203675764 0 -0.014149841768893159 -0.0050261187445606202 0 -0.014296228292716774 -0.0049281802063785764 0 -0.014150048652838873 -0.0046432832203675764 0 -0.0065851930236609764 -0.0049560089451435004 0 -0.0058647501400044865 -0.0031638420208206577 0 -0.002716716484217882 -0.0036322616062009604 0 -0.014150048652838873 -0.0046432832203675764 0 -0.014448614147265483 -0.0048717673271437226 0 -0.014055050552994506 -0.0033203503592082774 0 -0.01055943784466359 -0.0048012596062543232 0 -0.007815567655552377 -0.0033653062495053398 0 -0.0065851930236609764 -0.0049560089451435004 0 -0.0058647501400044865 -0.0031638420208206577 0 -0.0081494920181572894 -0.0032920359051925897 0 -0.0069457370518304432 -0.0022298727474553935 0 -0.0058647501400044865 -0.0031638420208206577 0 -0.0081494920181572894 -0.0032920359051925897 0 -0.0069457370518304432 -0.0022298727474553935 0 -0.0058647501400044865 -0.0031638420208206577 0 -0.004879965742056608 -0.0015844194973291142 0 -0.0058647501400044865 -0.0031638420208206577 0 -0.004879965742056608 -0.0015844194973291142 0 -0.002716716484217882 -0.0036322616062009604 0 -0.0024973279067944869 -0.0013050534955564269 0 -0.004879965742056608 -0.0015844194973291142 0 -0.002716716484217882 -0.0036322616062009604 0 -0.0014159944006114072 0.00011610471470623704 0 -0.003533974134752039 -8.0264818065941691e-05 0 -0.0024973279067944869 -0.0013050534955564269 0 -0.003533974134752039 -8.0264818065941691e-05 0 -0.0024973279067944869 -0.0013050534955564269 0 -0.004879965742056608 -0.0015844194973291142 0 -0.0053253696313193969 1.7619778564781837e-05 0 -0.004879965742056608 -0.0015844194973291142 0 -0.0067676517723012173 -0.00098619054103464359 0 -0.003533974134752039 -8.0264818065941691e-05 0 -0.0053253696313193969 1.7619778564781837e-05 0 -0.004879965742056608 -0.0015844194973291142 0 -0.0053253696313193969 1.7619778564781837e-05 0 -0.0067676517723012173 -0.00098619054103464359 0 -0.0066002173610726182 4.0259195073369298e-05 0 -0.0069457370518304432 -0.0022298727474553935 0 -0.004879965742056608 -0.0015844194973291142 0 -0.0067676517723012173 -0.00098619054103464359 0 -0.013007346769849453 -0.0020113159454903592 0 -0.012550039166271284 -0.0022156125884761645 0 -0.013041390703531752 -0.0029938207912510403 0 -0.013007346769849453 -0.0020113159454903592 0 -0.012550039166271284 -0.0022156125884761645 0 -0.012707865531205516 -0.0014539928064749423 0 -0.012550039166271284 -0.0022156125884761645 0 -0.012130539641054343 -0.002785080644723251 0 -0.011822164329071284 -0.001729908269456367 0 -0.012550039166271284 -0.0022156125884761645 0 -0.012130539641054343 -0.002785080644723251 0 -0.013041390703531752 -0.0029938207912510403 0 -0.012975215913411362 -0.003891933644865184 0 -0.012130539641054343 -0.002785080644723251 0 -0.013041390703531752 -0.0029938207912510403 0 -0.013388563712782036 -0.0036607324378280823 0 -0.013041390703531752 -0.0029938207912510403 0 -0.014055050552994506 -0.0033203503592082774 0 -0.013007346769849453 -0.0020113159454903592 0 -0.013041390703531752 -0.0029938207912510403 0 -0.014055050552994506 -0.0033203503592082774 0 -0.013007346769849453 -0.0020113159454903592 0 -0.014055050552994506 -0.0033203503592082774 0 -0.012651817615940334 -0.0014234673569204453 0 -0.007815567655552377 -0.0033653062495053398 0 -0.0085762410984902993 -0.0013852313728677621 0 -0.002716716484217882 -0.0036322616062009604 0 -0.00083999692822558849 -0.001367311995420529 0 0.00071399815914876706 -0.0021760458099833492 0 -0.0024973279067944869 -0.0013050534955564269 0 -0.002716716484217882 -0.0036322616062009604 0 -0.00083999692822558849 -0.001367311995420529 0 -0.0014159944006114072 0.00011610471470623704 0 -0.0024973279067944869 -0.0013050534955564269 0 -0.00083999692822558849 -0.001367311995420529 0 1.9004965396578559e-05 -7.2591432197569525e-06 0 -0.00083999692822558849 -0.001367311995420529 0 0.00054750011870524477 -0.00094819462413636235 0 -0.00083999692822558849 -0.001367311995420529 0 0.00054750011870524477 -0.00094819462413636235 0 0.00071399815914876706 -0.0021760458099833492 0 -0.011594194780235049 -0.0026896085661327358 0 -0.0085762410984902993 -0.0013852313728677621 0 -0.012550039166271284 -0.0022156125884761645 0 -0.012707865531205516 -0.0014539928064749423 0 -0.011822164329071284 -0.001729908269456367 0 -0.012707865531205516 -0.0014539928064749423 0 -0.011609601359197134 -0.00037212845514866089 0 -0.011822164329071284 -0.001729908269456367 0 -0.0085762410984902993 -0.0013852313728677621 0 -0.012293292679725487 -0.0014170329496696358 0 0.0017224346642278367 -0.00039679339867657618 0 0.0030410445339595004 -0.00066706558006563734 0 0.00071399815914876706 -0.0021760458099833492 0 0.0017224346642278367 -0.00039679339867657618 0 0.00054750011870524477 -0.00094819462413636235 0 0.00071399815914876706 -0.0021760458099833492 0 -0.0037747742560353191 -7.8561218677083981e-06 0 -0.0085762410984902993 -0.0013852313728677621 0 -0.011142133611050299 0.00043729713945817988 0 -0.012946714902322442 -0.0014676397907973148 0 -0.011609601359197134 -0.00037212845514866089 0 -0.011142133611050299 0.00043729713945817988 0 -0.011609601359197134 -0.00037212845514866089 0 -0.010858001428903067 -0.00035576295871538337 0 -0.011609601359197134 -0.00037212845514866089 0 -0.010858001428903067 -0.00035576295871538337 0 -0.01106461994706856 -0.0010807992311734867 0 -0.0096476955895900777 0.00068144193062855325 0 -0.010858001428903067 -0.00035576295871538337 0 -0.010236755157711991 -0.00086316129197758749 0 -0.010236755157711991 -0.00086316129197758749 0 -0.01106461994706856 -0.0010807992311734867 0 -0.010783141134091179 -0.0019975900056070201 0 -0.010858001428903067 -0.00035576295871538337 0 -0.010236755157711991 -0.00086316129197758749 0 -0.01106461994706856 -0.0010807992311734867 0 -0.01106461994706856 -0.0010807992311734867 0 -0.011822164329071284 -0.001729908269456367 0 -0.010783141134091179 -0.0019975900056070201 0 -0.011609601359197134 -0.00037212845514866089 0 -0.01106461994706856 -0.0010807992311734867 0 -0.011822164329071284 -0.001729908269456367 0 -0.012130539641054343 -0.002785080644723251 0 -0.010783141134091179 -0.0019975900056070201 0 -0.010633028827882049 -0.0035470755622660213 0 -0.012130539641054343 -0.002785080644723251 0 -0.011822164329071284 -0.001729908269456367 0 -0.010783141134091179 -0.0019975900056070201 0 -0.010783141134091179 -0.0019975900056070201 0 -0.0087435772410812893 -0.0011833756247010662 0 -0.010633028827882049 -0.0035470755622660213 0 -0.01441515038026546 -0.00088217390762829878 0 -0.014154882632878712 -0.001365943335060953 0 -0.014759536301565552 -0.0019079112611641075 0 -0.011489457252281302 -0.00087095071360888477 0 -0.012680096896507953 -0.00270477978721886 0 -0.010236755157711991 -0.00086316129197758749 0 -0.010783141134091179 -0.0019975900056070201 0 -0.0087435772410812893 -0.0011833756247010662 0 -0.0096476955895900777 0.00068144193062855325 0 -0.010236755157711991 -0.00086316129197758749 0 -0.0087435772410812893 -0.0011833756247010662 0 -0.011051458145862581 0.00021173867999791442 0 -0.014807705986597581 -0.0013253571868381594 0 -0.014033933125894875 -0.00019973212072798085 0 -0.01441515038026546 -0.00088217390762829878 0 -0.014059707144823129 -0.001040855914532851 0 -0.014097370346171874 -0.00095865342712265328 0 -0.014099264829812597 -0.00098682775305553375 0 -0.014059707144823129 -0.001040855914532851 0 -0.014097370346171874 -0.00095865342712265328 0 -0.014049043452034437 -0.00095956737152445837 0 -0.014059707144823129 -0.001040855914532851 0 -0.014281094205251754 -0.00083337228948858694 0 -0.014175458956868186 -0.00090903545284351343 0 -0.014183988551397696 -0.000910679810474875 0 -0.014175458956868186 -0.00090903545284351343 0 -0.014099264829812597 -0.00098682775305553375 0 -0.014183988551397696 -0.000910679810474875 0 -0.014097370346171874 -0.00095865342712265328 0 -0.014175458956868186 -0.00090903545284351343 0 -0.014099264829812597 -0.00098682775305553375 0 -0.014099264829812597 -0.00098682775305553375 0 -0.014183988551397696 -0.000910679810474875 0 -0.014162314562439576 -0.00099680836843972585 0 -0.014262402074680575 -0.00084430414729162609 0 -0.014183988551397696 -0.000910679810474875 0 -0.014162314562439576 -0.00099680836843972585 0 -0.014099264829812597 -0.00098682775305553375 0 -0.014058088609321099 -0.0011512538020750621 0 -0.014016622220069786 -0.0011646697529681487 0 -0.014099264829812597 -0.00098682775305553375 0 -0.014162314562439576 -0.00099680836843972585 0 -0.014058088609321099 -0.0011512538020750621 0 -0.014058088609321099 -0.0011512538020750621 0 -0.01390886735028005 -0.0013868067180418447 0 -0.01406241346300479 -0.0012028315584471372 0 -0.014058088609321099 -0.0011512538020750621 0 -0.014139588171516549 -0.0011150390374046722 0 -0.01406241346300479 -0.0012028315584471372 0 -0.014162314562439576 -0.00099680836843972585 0 -0.014058088609321099 -0.0011512538020750621 0 -0.014139588171516549 -0.0011150390374046722 0 -0.014211073247037955 -0.0010048117442675686 0 -0.014162314562439576 -0.00099680836843972585 0 -0.014139588171516549 -0.0011150390374046722 0 -0.01441515038026546 -0.00088217390762829878 0 -0.014059707144823129 -0.001040855914532851 0 -0.014154882632878712 -0.001365943335060953 0 -0.014016622220069786 -0.0011646697529681487 0 -0.014059707144823129 -0.001040855914532851 0 -0.014154882632878712 -0.001365943335060953 0 -0.014099264829812597 -0.00098682775305553375 0 -0.014016622220069786 -0.0011646697529681487 0 -0.014059707144823129 -0.001040855914532851 0 -0.014016622220069786 -0.0011646697529681487 0 -0.014154882632878712 -0.001365943335060953 0 -0.01390886735028005 -0.0013868067180418447 0 -0.014058088609321099 -0.0011512538020750621 0 -0.014016622220069786 -0.0011646697529681487 0 -0.01390886735028005 -0.0013868067180418447 0 -0.014154882632878712 -0.001365943335060953 0 -0.014038239876510218 -0.0017353162184113899 0 -0.01390886735028005 -0.0013868067180418447 0 -0.014154882632878712 -0.001365943335060953 0 -0.014038239876510218 -0.0017353162184113899 0 -0.014224323046772694 -0.0019205618138036383 0 -0.014038239876510218 -0.0017353162184113899 0 -0.013977115784334646 -0.0021216461281956 0 -0.014224323046772694 -0.0019205618138036383 0 -0.014390219575854563 -0.0019551918832404966 0 -0.016940673987176507 -0.0016106796061927592 0 -0.01390886735028005 -0.0013868067180418447 0 -0.013789581638687681 -0.0020276138808950654 0 -0.013388541006102575 -0.0022740946324901904 0 -0.014038239876510218 -0.0017353162184113899 0 -0.01390886735028005 -0.0013868067180418447 0 -0.013789581638687681 -0.0020276138808950654 0 -0.014038239876510218 -0.0017353162184113899 0 -0.013789581638687681 -0.0020276138808950654 0 -0.013977115784334646 -0.0021216461281956 0 -0.013789581638687681 -0.0020276138808950654 0 -0.013690475484691184 -0.0022541558102571607 0 -0.013977115784334646 -0.0021216461281956 0 -0.01741715133586496 -0.0031044424985329877 0 -0.019095707960845934 -0.0024093673004081393 0 -0.013789581638687681 -0.0020276138808950654 0 -0.01360774701312981 -0.0024096534391273706 0 -0.013388541006102575 -0.0022740946324901904 0 -0.019095707960845934 -0.0024093673004081393 0 -0.016940673987176507 -0.0016106796061927592 0 -0.013977115784334646 -0.0021216461281956 0 -0.014131786313829955 -0.0026098555171215235 0 -0.014224323046772694 -0.0019205618138036383 0 -0.013690475484691184 -0.0022541558102571607 0 -0.013977115784334646 -0.0021216461281956 0 -0.014131786313829955 -0.0026098555171215235 0 -0.014139588171516549 -0.0011150390374046722 0 -0.014182841862267712 -0.0010734584163454657 0 -0.014135817571674723 -0.0010819441277123132 0 -0.014211073247037955 -0.0010048117442675686 0 -0.014139588171516549 -0.0011150390374046722 0 -0.014182841862267712 -0.0010734584163454657 0 -0.014139588171516549 -0.0011150390374046722 0 -0.01406241346300479 -0.0012028315584471372 0 -0.014135817571674723 -0.0010819441277123132 0 -0.01390886735028005 -0.0013868067180418447 0 -0.014135817571674723 -0.0010819441277123132 0 -0.01407202125283106 -0.0010513886515454522 0 -0.01390886735028005 -0.0013868067180418447 0 -0.01406241346300479 -0.0012028315584471372 0 -0.014135817571674723 -0.0010819441277123132 0 -0.014200984529075601 -0.00107565258516085 0 -0.014182841862267712 -0.0010734584163454657 0 -0.014177747540336991 -0.0010549687715614522 0 -0.014182841862267712 -0.0010734584163454657 0 -0.014135817571674723 -0.0010819441277123132 0 -0.014177747540336991 -0.0010549687715614522 0 -0.01935573491281202 -0.0030158248769524333 0 -0.019392574902850554 -0.0030395004846833734 0 -0.01951720470026962 -0.0028115780864117865 0 -0.014200984529075601 -0.00107565258516085 0 -0.014177747540336991 -0.0010549687715614522 0 -0.014191754077361332 -0.00098923239279030944 0 -0.014135817571674723 -0.0010819441277123132 0 -0.014177747540336991 -0.0010549687715614522 0 -0.014191754077361332 -0.00098923239279030944 0 -0.01935573491281202 -0.0030158248769524333 0 -0.019500707235334095 -0.0027839395801191121 0 -0.01951720470026962 -0.0028115780864117865 0 -0.019095707960845934 -0.0024093673004081393 0 -0.021861267765646654 -0.0038321899353648122 0 -0.025277238482011827 -0.0031822975809956628 0 -0.025051731767693868 -0.0038001965320353238 0 -0.02530344658061463 -0.0037388973261064571 0 -0.016940673987176507 -0.0016106796061927592 0 -0.019690533348899853 -0.0034963922695730718 0 -0.017462633953605203 -0.0030061214594345204 0 -0.019690533348899853 -0.0034963922695730718 0 -0.014135817571674723 -0.0010819441277123132 0 -0.01407202125283106 -0.0010513886515454522 0 -0.014191754077361332 -0.00098923239279030944 0 -0.021861267765646654 -0.0038321899353648122 0 -0.019690533348899853 -0.0034963922695730718 0 -0.025739319672484811 -0.0039606146367023587 0 -0.025479070629294664 -0.0036637583254019762 0 -0.026141791180706742 -0.0039032332962459959 0 -0.019095707960845934 -0.0024093673004081393 0 -0.020317895964210783 -0.0037676108169715371 0 -0.025277238482011827 -0.0031822975809956628 0 -0.025479070629294664 -0.0036637583254019762 0 -0.026141791180706742 -0.0039032332962459959 0 -0.013690475484691184 -0.0022541558102571607 0 -0.014131786313829955 -0.0026098555171215235 0 -0.014311056028264914 -0.0033819588213045439 0 -0.025277238482011827 -0.0031822975809956628 0 -0.025479070629294664 -0.0036637583254019762 0 -0.02530344658061463 -0.0037388973261064571 0 -0.025486197027677231 -0.0039749487432231131 0 -0.025479070629294664 -0.0036637583254019762 0 -0.02530344658061463 -0.0037388973261064571 0 -0.014131786313829955 -0.0026098555171215235 0 -0.014311056028264914 -0.0033819588213045439 0 -0.014759536301565552 -0.0019079112611641075 0 -0.014311056028264914 -0.0033819588213045439 0 -0.014787207599467948 -0.0033633818782781918 0 -0.014759536301565552 -0.0019079112611641075 0 -0.0135359034741812 -0.0040525553883540089 0 -0.012680096896507953 -0.00270477978721886 0 -0.012417685100161363 -0.0049499996798505926 0 -0.012188527927588262 -0.0039213564811222332 0 -0.010633028827882049 -0.0035470755622660213 0 -0.012130539641054343 -0.002785080644723251 0 -0.012188527927588262 -0.0039213564811222332 0 -0.010633028827882049 -0.0035470755622660213 0 -0.014154882632878712 -0.001365943335060953 0 -0.014759536301565552 -0.0019079112611641075 0 -0.014224323046772694 -0.0019205618138036383 0 -0.014131786313829955 -0.0026098555171215235 0 -0.014759536301565552 -0.0019079112611641075 0 -0.014224323046772694 -0.0019205618138036383 0 -0.010317640346151758 5.029392486917145e-05 0 -0.011612244128648889 -2.5157875331090107e-06 0 -0.012461133285818727 3.0329300434550824e-05 0 -0.010317640346151758 5.029392486917145e-05 0 -0.010689532210680475 1.563393423224615e-07 0 -0.011612244128648889 -2.5157875331090107e-06 0 -0.010689532210680475 1.563393423224615e-07 0 -0.011612244128648889 -2.5157875331090107e-06 0 -0.013557009385739045 -8.9781195479522459e-08 0 -0.011612244128648889 -2.5157875331090107e-06 0 -0.013557009385739045 -8.9781195479522459e-08 0 -0.012461133285818727 3.0329300434550824e-05 0 -0.012461133285818727 3.0329300434550824e-05 0 -0.012123783426874044 0.00010685082536247903 0 -0.010522248469217326 0.00016406323115949204 0 -0.012123783426874044 0.00010685082536247903 0 -0.010522248469217326 0.00016406323115949204 0 -0.010542744383709017 0.00019351382024637625 0 -0.010522248469217326 0.00016406323115949204 0 -0.0093563012978764345 0.00011080648711105246 0 -0.010542744383709017 0.00019351382024637625 0 -0.010317640346151758 5.029392486917145e-05 0 -0.012461133285818727 3.0329300434550824e-05 0 -0.010522248469217326 0.00016406323115949204 0 -0.010317640346151758 5.029392486917145e-05 0 -0.010522248469217326 0.00016406323115949204 0 -0.0090222511431782264 5.8468163436379573e-05 0 -0.0090222511431782264 5.8468163436379573e-05 0 -0.0070729547687927692 -4.1180042386952735e-05 0 -0.0075573616736619937 -0.00029814158462322519 0 -0.010072913532832886 0.00011908186150813308 0 -0.0082465405412892774 -0.00018372849943691481 0 -0.010522248469217326 0.00016406323115949204 0 -0.0090222511431782264 5.8468163436379573e-05 0 -0.0070729547687927692 -4.1180042386952735e-05 0 -0.010522248469217326 0.00016406323115949204 0 -0.0093398211472612899 -0.00013667710847161047 0 -0.0093563012978764345 0.00011080648711105246 0 -0.0070729547687927692 -4.1180042386952735e-05 0 -0.0060165505112997116 -0.00052365610309441837 0 -0.004422292925318024 -0.00068852969949011276 0 -0.0082465405412892774 -0.00018372849943691481 0 -0.0059962807642233379 -0.00077661495960901683 0 -0.0070729547687927692 -4.1180042386952735e-05 0 -0.0060165505112997116 -0.00052365610309441837 0 -0.0075573616736619937 -0.00029814158462322519 0 -0.0075573616736619937 -0.00029814158462322519 0 -0.0076936270345253363 -0.0004174988074915834 0 -0.0056692508659225149 -0.00078388183766175468 0 -0.0075573616736619937 -0.00029814158462322519 0 -0.0076936270345253363 -0.0004174988074915834 0 -0.0091362795405472881 -6.2583849263693841e-05 0 -0.010317640346151758 5.029392486917145e-05 0 -0.0090222511431782264 5.8468163436379573e-05 0 -0.0091362795405472881 -6.2583849263693841e-05 0 -0.0090222511431782264 5.8468163436379573e-05 0 -0.0075573616736619937 -0.00029814158462322519 0 -0.0091362795405472881 -6.2583849263693841e-05 0 -0.010689532210680475 1.563393423224615e-07 0 -0.0091362795405472881 -6.2583849263693841e-05 0 -0.0092535256457313298 -0.00021139539466310492 0 -0.010686507586146084 -1.052131257066785e-07 0 -0.0085570663496520368 -0.00014447674163067459 0 -0.010686548531251996 2.7534748825170228e-07 0 -0.0076310953933412572 2.957060652712936e-07 0 -0.0079581425669426834 6.4270757250424007e-05 0 -0.010317640346151758 5.029392486917145e-05 0 -0.010689532210680475 1.563393423224615e-07 0 -0.0091362795405472881 -6.2583849263693841e-05 0 -0.0085570663496520368 -0.00014447674163067459 0 -0.0061730718381922366 -0.00034228774166083245 0 -0.0076936270345253363 -0.0004174988074915834 0 -0.0092535256457313298 -0.00021139539466310492 0 -0.0069186912494020288 -0.00073770393764710355 0 -0.0076310953933412572 2.957060652712936e-07 0 -0.0079581425669426834 6.4270757250424007e-05 0 -0.0054774631682525656 -4.3156693938721439e-05 0 -0.0076936270345253363 -0.0004174988074915834 0 -0.0091362795405472881 -6.2583849263693841e-05 0 -0.0092535256457313298 -0.00021139539466310492 0 -0.0076310953933412572 2.957060652712936e-07 0 -0.0054774631682525656 -4.3156693938721439e-05 0 -0.0045764945064098493 -9.7785616389914866e-07 0 -0.0076936270345253363 -0.0004174988074915834 0 -0.0069186912494020288 -0.00073770393764710355 0 -0.0056692508659225149 -0.00078388183766175468 0 -0.0069186912494020288 -0.00073770393764710355 0 -0.0038117261997115143 -0.00058637171847408093 0 -0.0056692508659225149 -0.00078388183766175468 0 -0.0038117261997115143 -0.00058637171847408093 0 -0.00307948918473713 -0.0010268374944959594 0 -0.0056692508659225149 -0.00078388183766175468 0 -0.0061730718381922366 -0.00034228774166083245 0 -0.0043759517076800538 -0.00057607392975927367 0 -0.0054774631682525656 -4.3156693938721439e-05 0 -0.0038117261997115143 -0.00058637171847408093 0 -0.0045764945064098493 -9.7785616389914866e-07 0 -0.0038117261997115143 -0.00058637171847408093 0 -0.0012454465507003539 -0.00054791043956051676 0 -0.0015212720173937145 -7.5851588265096307e-07 0 -0.0038117261997115143 -0.00058637171847408093 0 -0.0045764945064098493 -9.7785616389914866e-07 0 -0.0015212720173937145 -7.5851588265096307e-07 0 -0.0038117261997115143 -0.00058637171847408093 0 -0.0012454465507003539 -0.00054791043956051676 0 -0.00307948918473713 -0.0010268374944959594 0 0.00080248979626254568 -0.00055329885827585168 0 -0.0012454465507003539 -0.00054791043956051676 0 -0.0011630537678221859 -0.0009712585492245478 0 0.0015340623505463778 -5.9723367863347578e-07 0 -0.0012454465507003539 -0.00054791043956051676 0 -0.0015212720173937145 -7.5851588265096307e-07 0 -0.000241429189344972 -0.0010795344472777589 0 -0.0017709599746413838 -0.0013335324813489458 0 -0.0011630537678221859 -0.0009712585492245478 0 -0.0012454465507003539 -0.00054791043956051676 0 -0.0011630537678221859 -0.0009712585492245478 0 -0.00307948918473713 -0.0010268374944959594 0 -0.0017709599746413838 -0.0013335324813489458 0 -0.0011630537678221859 -0.0009712585492245478 0 -0.00307948918473713 -0.0010268374944959594 0 -0.0017709599746413838 -0.0013335324813489458 0 -0.00307948918473713 -0.0010268374944959594 0 -0.0026505544136405349 -0.0012977491342169019 0 -0.0041895473288958707 -0.00096428881072532638 0 -0.004422292925318024 -0.00068852969949011276 0 -0.0026505544136405349 -0.0012977491342169019 0 -0.00307948918473713 -0.0010268374944959594 0 -0.0041895473288958707 -0.00096428881072532638 0 -0.0026505544136405349 -0.0012977491342169019 0 -0.00307948918473713 -0.0010268374944959594 0 -0.0041895473288958707 -0.00096428881072532638 0 -0.0056692508659225149 -0.00078388183766175468 0 -0.0060165505112997116 -0.00052365610309441837 0 -0.0075573616736619937 -0.00029814158462322519 0 -0.0056692508659225149 -0.00078388183766175468 0 -0.0060165505112997116 -0.00052365610309441837 0 -0.0041895473288958707 -0.00096428881072532638 0 -0.0056692508659225149 -0.00078388183766175468 0 -0.0060165505112997116 -0.00052365610309441837 0 -0.0041895473288958707 -0.00096428881072532638 0 -0.004422292925318024 -0.00068852969949011276 0 -0.0075598830433198389 -0.00084457805699879632 0 -0.00605494856859009 -0.0010414085123804419 0 -0.0074727565192526926 -0.00042970086565614045 0 -0.00605494856859009 -0.0010414085123804419 0 -0.0054465706684253519 -0.00093286934612726359 0 -0.0074727565192526926 -0.00042970086565614045 0 -0.0054465706684253519 -0.00093286934612726359 0 -0.0065758873020694735 -0.00032012861324610394 0 -0.0074727565192526926 -0.00042970086565614045 0 -0.00605494856859009 -0.0010414085123804419 0 -0.004277839823491501 -0.0014380269004180743 0 -0.0054465706684253519 -0.00093286934612726359 0 -0.00605494856859009 -0.0010414085123804419 0 -0.0052082067844968086 -0.0014477396860145091 0 -0.004277839823491501 -0.0014380269004180743 0 -0.0075598830433198389 -0.00084457805699879632 0 -0.00605494856859009 -0.0010414085123804419 0 -0.0052082067844968086 -0.0014477396860145091 0 -0.0059962807642233379 -0.00077661495960901683 0 -0.0039274554920513535 -0.0012840398350599871 0 -0.0017709599746413838 -0.0013335324813489458 0 -0.0026505544136405349 -0.0012977491342169019 0 -0.0021026510574174337 -0.0015449255472985417 0 -0.0039274554920513535 -0.0012840398350599871 0 -0.0024651454815031999 -0.0014676313170142268 0 -0.0052082067844968086 -0.0014477396860145091 0 -0.004277839823491501 -0.0014380269004180743 0 -0.0021026510574174337 -0.0015449255472985417 0 -0.004277839823491501 -0.0014380269004180743 0 -0.0021026510574174337 -0.0015449255472985417 0 -0.0030950572572643999 -0.0015383085349289292 0 -0.0018069723653166172 -0.0015463268861316039 0 -0.0021026510574174337 -0.0015449255472985417 0 -0.0030950572572643999 -0.0015383085349289292 0 -0.000241429189344972 -0.0010795344472777589 0 -0.0017709599746413838 -0.0013335324813489458 0 -0.0021026510574174337 -0.0015449255472985417 0 -0.0018069723653166172 -0.0015463268861316039 0 -0.0030950572572643999 -0.0015383085349289292 0 -0.0025181260706355693 -0.0016589739374657274 0 -0.0030950572572643999 -0.0015383085349289292 0 -0.0039812207613011737 -0.0011285012622117819 0 -0.0025181260706355693 -0.0016589739374657274 0 -0.004277839823491501 -0.0014380269004180743 0 -0.0030950572572643999 -0.0015383085349289292 0 -0.0039812207613011737 -0.0011285012622117819 0 -0.0038233229024768091 -0.0011339399017535076 0 -0.0031523425568675007 -0.0013006902133309546 0 -0.0039812207613011737 -0.0011285012622117819 0 -0.0051984567654961454 -0.0006606733434991977 0 -0.0043562529077769037 -0.00079072170480716866 0 -0.0039812207613011737 -0.0011285012622117819 0 -0.0054465706684253519 -0.00093286934612726359 0 -0.0051984567654961454 -0.0006606733434991977 0 -0.004277839823491501 -0.0014380269004180743 0 -0.0039812207613011737 -0.0011285012622117819 0 -0.0054465706684253519 -0.00093286934612726359 0 -0.0054465706684253519 -0.00093286934612726359 0 -0.0051984567654961454 -0.0006606733434991977 0 -0.0065758873020694735 -0.00032012861324610394 0 -0.0051984567654961454 -0.0006606733434991977 0 -0.0058396339764382431 3.8934196692659437e-05 0 -0.0046582985014883439 -0.00030377811457667355 0 -0.0051984567654961454 -0.0006606733434991977 0 -0.0058396339764382431 3.8934196692659437e-05 0 -0.0065758873020694735 -0.00032012861324610394 0 -0.0058396339764382431 3.8934196692659437e-05 0 -0.0071026649299123223 5.173403791858421e-05 0 -0.0065758873020694735 -0.00032012861324610394 0 -0.0058396339764382431 3.8934196692659437e-05 0 -0.0057344010967751808 0.0012161117979610731 0 -0.0053334753799232056 0.0011321979418537943 0 -0.0058396339764382431 3.8934196692659437e-05 0 -0.0069637437759894972 0.00022094744671903103 0 -0.0071026649299123223 5.173403791858421e-05 0 -0.0060070039004620716 2.7217079184069373e-05 0 -0.0061375664561911679 0.00063689624664135423 0 -0.0069637437759894972 0.00022094744671903103 0 -0.0071026649299123223 5.173403791858421e-05 0 -0.0083153163453034556 0.00028389049894392098 0 -0.0071026649299123223 5.173403791858421e-05 0 -0.0065758873020694735 -0.00032012861324610394 0 -0.0081006859874944055 1.7585460423187452e-06 0 -0.0071026649299123223 5.173403791858421e-05 0 -0.0081006859874944055 1.7585460423187452e-06 0 -0.0083153163453034556 0.00028389049894392098 0 -0.0065758873020694735 -0.00032012861324610394 0 -0.0074727565192526926 -0.00042970086565614045 0 -0.0081006859874944055 1.7585460423187452e-06 0 -0.0093398211472612899 -0.00013667710847161047 0 -0.0075598830433198389 -0.00084457805699879632 0 -0.0074727565192526926 -0.00042970086565614045 0 -0.0093398211472612899 -0.00013667710847161047 0 -0.0074727565192526926 -0.00042970086565614045 0 -0.0093563012978764345 0.00011080648711105246 0 -0.0093563012978764345 0.00011080648711105246 0 -0.0081006859874944055 1.7585460423187452e-06 0 -0.0097114313830733209 0.00039921284312769285 0 -0.0074727565192526926 -0.00042970086565614045 0 -0.0093563012978764345 0.00011080648711105246 0 -0.0081006859874944055 1.7585460423187452e-06 0 -0.0081006859874944055 1.7585460423187452e-06 0 -0.0097114313830733209 0.00039921284312769285 0 -0.0083153163453034556 0.00028389049894392098 0 -0.0093563012978764345 0.00011080648711105246 0 -0.0097114313830733209 0.00039921284312769285 0 -0.010542744383709017 0.00019351382024637625 0 -0.012123783426874044 0.00010685082536247903 0 -0.010542744383709017 0.00019351382024637625 0 -0.011139279050541974 0.00031197825696336191 0 -0.0097114313830733209 0.00039921284312769285 0 -0.010542744383709017 0.00019351382024637625 0 -0.011139279050541974 0.00031197825696336191 0 -0.0097114313830733209 0.00039921284312769285 0 -0.010406213494083901 0.00058197840675415925 0 -0.009871893745858654 0.0010903463535877772 0 -0.0097114313830733209 0.00039921284312769285 0 -0.011139279050541974 0.00031197825696336191 0 -0.010406213494083901 0.00058197840675415925 0 -0.011139279050541974 0.00031197825696336191 0 -0.010406213494083901 0.00058197840675415925 0 -0.011025892581148023 0.00040412554435397772 0 -0.010406213494083901 0.00058197840675415925 0 -0.009871893745858654 0.0010903463535877772 0 -0.011025892581148023 0.00040412554435397772 0 -0.009871893745858654 0.0010903463535877772 0 -0.010998487729895506 0.00032940724198674362 0 -0.011025892581148023 0.00040412554435397772 0 -0.009871893745858654 0.0010903463535877772 0 -0.012493626510042391 0.0018141925445773267 0 -0.010998487729895506 0.00032940724198674362 0 -0.0097691955592470198 0.0011924619316723557 0 -0.010154236393257072 0.0013868017447600817 0 -0.0057344010967751808 0.0012161117979610731 0 -0.0055532183901033155 0.001355455992367538 0 -0.0054586779268235132 0.0013313541096390861 0 -0.0061375664561911679 0.00063689624664135423 0 -0.010154236393257072 0.0013868017447600817 0 -0.0069637437759894972 0.00022094744671903103 0 -0.00736345027044442 0.0011989740685939079 0 -0.0083153163453034556 0.00028389049894392098 0 -0.0097114313830733209 0.00039921284312769285 0 -0.009871893745858654 0.0010903463535877772 0 -0.0083153163453034556 0.00028389049894392098 0 -0.009871893745858654 0.0010903463535877772 0 -0.00736345027044442 0.0011989740685939079 0 -0.0083153163453034556 0.00028389049894392098 0 -0.011610164535921145 0.0009975560532973981 0 -0.0096306142866801198 0.0010098280752331977 0 -0.0052766827407838019 0.0015540182662751572 0 -0.0038363948689493946 0.0022297389182275641 0 -0.0040733095733931661 0.0015003547510969155 0 -0.0040325345932881633 0.0021167296275203949 0 -0.0096306142866801198 0.0010098280752331977 0 -0.0056619266172533936 0.00098625758853315986 0 -0.0052766827407838019 0.0015540182662751572 0 -0.0077297257880305868 0.0011769017910501617 0 -0.0055532183901033155 0.001355455992367538 0 -0.0056619266172533936 0.00098625758853315986 0 -0.0054586779268235132 0.0013313541096390861 0 -0.0052766827407838019 0.0015540182662751572 0 -0.0054586779268235132 0.0013313541096390861 0 -0.0053334753799232056 0.0011321979418537943 0 -0.0057344010967751808 0.0012161117979610731 0 -0.0054586779268235132 0.0013313541096390861 0 -0.0053334753799232056 0.0011321979418537943 0 -0.0056619266172533936 0.00098625758853315986 0 -0.0052766827407838019 0.0015540182662751572 0 -0.0054586779268235132 0.0013313541096390861 0 -0.015334010373560997 0.00069000866063094284 0 -0.016240630655211214 0.00084176181515133587 0 -0.016100333464503534 5.7340868810232758e-05 0 -0.010154236393257072 0.0013868017447600817 0 -0.011610164535921145 0.0009975560532973981 0 -0.016240630655211214 0.00084176181515133587 0 -0.01662930235348473 0.00027066381656389027 0 -0.016100333464503534 5.7340868810232758e-05 0 -0.016240630655211214 0.00084176181515133587 0 -0.017135048894577058 0.00040916551751375463 0 -0.017425153686340785 0.0010667135112195163 0 -0.01662930235348473 0.00027066381656389027 0 -0.017129089405115174 -0.0002183231590803674 0 -0.016100333464503534 5.7340868810232758e-05 0 -0.016240630655211214 0.00084176181515133587 0 -0.01662930235348473 0.00027066381656389027 0 -0.017135048894577058 0.00040916551751375463 0 -0.01662930235348473 0.00027066381656389027 0 -0.017135048894577058 0.00040916551751375463 0 -0.017129089405115174 -0.0002183231590803674 0 -0.017135048894577058 0.00040916551751375463 0 -0.017774154926989458 1.6637211464280538e-05 0 -0.017129089405115174 -0.0002183231590803674 0 -0.017135048894577058 0.00040916551751375463 0 -0.017774154926989458 1.6637211464280538e-05 0 -0.017750126574327309 0.00048933817526840057 0 -0.017774154926989458 1.6637211464280538e-05 0 -0.018231393279654604 0.00023036010352420419 0 -0.017750126574327309 0.00048933817526840057 0 -0.017774154926989458 1.6637211464280538e-05 0 -0.018360792980729443 -0.00019279462470208974 0 -0.018231393279654604 0.00023036010352420419 0 -0.017750126574327309 0.00048933817526840057 0 -0.018483837385431516 0.00065596469184404677 0 -0.017425153686340785 0.0010667135112195163 0 -0.018231393279654604 0.00023036010352420419 0 -0.017750126574327309 0.00048933817526840057 0 -0.018483837385431516 0.00065596469184404677 0 -0.016637748103232031 0.00085016663069420538 0 -0.014474332723725374 -0.00068044478475451256 0 -0.017135048894577058 0.00040916551751375463 0 -0.017750126574327309 0.00048933817526840057 0 -0.017425153686340785 0.0010667135112195163 0 -0.010806858691026513 -0.0027000082232234296 0 -0.010817290731498955 -0.0026683457249343846 0 -0.010891621783100609 -0.0027570528567387805 0 -0.014474332723725374 -0.00068044478475451256 0 -0.015253876126896399 -0.001570275940794846 0 -0.01871013870773925 -6.0136402448796498e-05 0 -0.018502966779219466 0.00052872169922672221 0 -0.019486327708317767 -0.0002816077912431473 0 -0.01871013870773925 -6.0136402448796498e-05 0 -0.019486327708317767 -0.0002816077912431473 0 -0.018865673544051602 -0.00058214308169815337 0 -0.018360792980729443 -0.00019279462470208974 0 -0.018231393279654604 0.00023036010352420419 0 -0.01871013870773925 -6.0136402448796498e-05 0 -0.018231393279654604 0.00023036010352420419 0 -0.01871013870773925 -6.0136402448796498e-05 0 -0.018502966779219466 0.00052872169922672221 0 -0.010357574653604507 0.00019736006935694016 0 -0.010085919515872999 -0.00017885086819281873 0 -0.010833436327789601 -4.7916769774237638e-05 0 -0.0081360651577606184 -0.0010276538735812029 0 -0.0075387224494897018 -0.0010012539954596517 0 -0.014474332723725374 -0.00068044478475451256 0 -0.0075387224494897018 -0.0010012539954596517 0 -0.010806858691026513 -0.0027000082232234296 0 -0.010817290731498955 -0.0026683457249343846 0 -0.01081160290295706 -0.0026687274881166266 0 -0.0054765098104826203 -0.00016595019353995286 0 -0.0023779216779789055 0.0016273342666742489 0 -0.0027834217262859206 0.0019720994373894564 0 -0.0025964007352581539 0.0016930879585853411 0 -0.003331241652270962 0.0014343343960144042 0 -0.010817290731498955 -0.0026683457249343846 0 -0.01079872002592668 -0.0026682319078352055 0 -0.010813962165055759 -0.0026419636332213935 0 -0.0075387224494897018 -0.0010012539954596517 0 -0.0054765098104826203 -0.00016595019353995286 0 -0.0075387224494897018 -0.0010012539954596517 0 -0.0096306142866801198 0.0010098280752331977 0 -0.0027834217262859206 0.0019720994373894564 0 -0.0038363948689493946 0.0022297389182275641 0 -0.003331241652270962 0.0014343343960144042 0 -0.014474332723725374 -0.00068044478475451256 0 -0.0096306142866801198 0.0010098280752331977 0 -0.0038363948689493946 0.0022297389182275641 0 -0.0040733095733931661 0.0015003547510969155 0 -0.003331241652270962 0.0014343343960144042 0 -0.0040733095733931661 0.0015003547510969155 0 -0.003331241652270962 0.0014343343960144042 0 -0.0040016198576062331 0.00084342466153732737 0 -0.003331241652270962 0.0014343343960144042 0 -0.0033263231366424174 0.00090645912915002214 0 -0.0040016198576062331 0.00084342466153732737 0 -0.0033263231366424174 0.00090645912915002214 0 -0.0040016198576062331 0.00084342466153732737 0 -0.0031808304215750652 0.00043468716038860865 0 -0.0027514119633830813 0.0015617476964515391 0 -0.0028777395789673609 0.00091902620177060801 0 -0.0023077660256761922 0.00080020785224371163 0 -0.0027514119633830813 0.0015617476964515391 0 -0.003331241652270962 0.0014343343960144042 0 -0.0028777395789673609 0.00091902620177060801 0 -0.003331241652270962 0.0014343343960144042 0 -0.0033263231366424174 0.00090645912915002214 0 -0.0028777395789673609 0.00091902620177060801 0 -0.0033263231366424174 0.00090645912915002214 0 -0.0028777395789673609 0.00091902620177060801 0 -0.0031808304215750652 0.00043468716038860865 0 -0.0028777395789673609 0.00091902620177060801 0 -0.0031808304215750652 0.00043468716038860865 0 -0.002530284113301555 0.00039562170143077259 0 -0.0031808304215750652 0.00043468716038860865 0 -0.0026298837421852711 0.00011249188669272366 0 -0.002530284113301555 0.00039562170143077259 0 -0.0031808304215750652 0.00043468716038860865 0 -0.0039245695999487497 0.00012085812407911456 0 -0.0032932118676317853 2.2185444371658904e-05 0 -0.0040016198576062331 0.00084342466153732737 0 -0.0031808304215750652 0.00043468716038860865 0 -0.0039245695999487497 0.00012085812407911456 0 -0.0039245695999487497 0.00012085812407911456 0 -0.0047794636412823461 0.00052853804893907485 0 -0.0046582985014883439 -0.00030377811457667355 0 -0.0040016198576062331 0.00084342466153732737 0 -0.0039245695999487497 0.00012085812407911456 0 -0.0047794636412823461 0.00052853804893907485 0 -0.0052766827407838019 0.0015540182662751572 0 -0.0040016198576062331 0.00084342466153732737 0 -0.0047794636412823461 0.00052853804893907485 0 -0.0052766827407838019 0.0015540182662751572 0 -0.0040733095733931661 0.0015003547510969155 0 -0.0040016198576062331 0.00084342466153732737 0 -0.0052766827407838019 0.0015540182662751572 0 -0.0053334753799232056 0.0011321979418537943 0 -0.0047794636412823461 0.00052853804893907485 0 -0.0058396339764382431 3.8934196692659437e-05 0 -0.0053334753799232056 0.0011321979418537943 0 -0.0047794636412823461 0.00052853804893907485 0 -0.0058396339764382431 3.8934196692659437e-05 0 -0.0047794636412823461 0.00052853804893907485 0 -0.0046582985014883439 -0.00030377811457667355 0 -0.0046582985014883439 -0.00030377811457667355 0 -0.0039432093000114658 -0.00039468159632303189 0 -0.0043562529077769037 -0.00079072170480716866 0 -0.0051984567654961454 -0.0006606733434991977 0 -0.0046582985014883439 -0.00030377811457667355 0 -0.0043562529077769037 -0.00079072170480716866 0 -0.0039245695999487497 0.00012085812407911456 0 -0.0046582985014883439 -0.00030377811457667355 0 -0.0039432093000114658 -0.00039468159632303189 0 -0.0039245695999487497 0.00012085812407911456 0 -0.0039432093000114658 -0.00039468159632303189 0 -0.0032932118676317853 2.2185444371658904e-05 0 -0.0039432093000114658 -0.00039468159632303189 0 -0.0038960838741801422 -0.00075419215612819099 0 -0.0033000822615698792 -0.00036107015876138171 0 -0.0039432093000114658 -0.00039468159632303189 0 -0.0043562529077769037 -0.00079072170480716866 0 -0.0038960838741801422 -0.00075419215612819099 0 -0.0039812207613011737 -0.0011285012622117819 0 -0.0043562529077769037 -0.00079072170480716866 0 -0.0038960838741801422 -0.00075419215612819099 0 -0.0039812207613011737 -0.0011285012622117819 0 -0.0038960838741801422 -0.00075419215612819099 0 -0.0037047864874620228 -0.00088216024276492719 0 -0.0038075839046580132 -0.0007099716839943773 0 -0.0030951280113024194 -0.00071720607934575964 0 -0.0038960838741801422 -0.00075419215612819099 0 -0.0034204199872831598 -0.00080883598051521019 0 -0.0029986431394364329 -0.00057971586674582308 0 -0.0029940189549971965 -0.00093804939892288078 0 -0.0034204199872831598 -0.00080883598051521019 0 -0.0029986431394364329 -0.00057971586674582308 0 -0.0038960838741801422 -0.00075419215612819099 0 -0.0034204199872831598 -0.00080883598051521019 0 -0.0037047864874620228 -0.00088216024276492719 0 -0.002198230833561768 -0.00076136674749266854 0 -0.0030951280113024194 -0.00071720607934575964 0 -0.0022567188774705134 -0.00058835717896310992 0 -0.0026163637229249647 -0.00087304281547757553 0 -0.0029986431394364329 -0.00057971586674582308 0 -0.002193920707419915 -0.00097699795619844796 0 -0.0031639705109764889 -0.00081814158949943916 0 -0.002313522845556735 -0.00055811024819539599 0 -0.0038960838741801422 -0.00075419215612819099 0 -0.0031639705109764889 -0.00081814158949943916 0 -0.0033000822615698792 -0.00036107015876138171 0 -0.0031639705109764889 -0.00081814158949943916 0 -0.0026635122826819588 -0.00025621163375415902 0 -0.0033000822615698792 -0.00036107015876138171 0 -0.0031639705109764889 -0.00081814158949943916 0 -0.0026635122826819588 -0.00025621163375415902 0 -0.002313522845556735 -0.00055811024819539599 0 -0.0026635122826819588 -0.00025621163375415902 0 -0.0033000822615698792 -0.00036107015876138171 0 -0.0026298837421852711 0.00011249188669272366 0 -0.0026635122826819588 -0.00025621163375415902 0 -0.0026298837421852711 0.00011249188669272366 0 -0.0022912715148123743 0.00012228611632613781 0 -0.0033000822615698792 -0.00036107015876138171 0 -0.0032932118676317853 2.2185444371658904e-05 0 -0.0026298837421852711 0.00011249188669272366 0 -0.0039432093000114658 -0.00039468159632303189 0 -0.0033000822615698792 -0.00036107015876138171 0 -0.0032932118676317853 2.2185444371658904e-05 0 -0.0031808304215750652 0.00043468716038860865 0 -0.0032932118676317853 2.2185444371658904e-05 0 -0.0026298837421852711 0.00011249188669272366 0 -0.0026298837421852711 0.00011249188669272366 0 -0.0022683055801322595 0.00021458141830016459 0 -0.002530284113301555 0.00039562170143077259 0 -0.0022683055801322595 0.00021458141830016459 0 -0.0020771473175830116 6.8832640149023316e-05 0 -0.002530284113301555 0.00039562170143077259 0 -0.0022683055801322595 0.00021458141830016459 0 -0.0023040727418861284 0.00057296817533764803 0 -0.0022912715148123743 0.00012228611632613781 0 -0.0026298837421852711 0.00011249188669272366 0 -0.0022683055801322595 0.00021458141830016459 0 -0.0022912715148123743 0.00012228611632613781 0 -0.003871088116038359 0.00024648966342475645 0 -0.0038306647977930795 0.00097892240512884076 0 -0.0040540217232076228 0.0006354073117174864 0 -0.0030932271456891873 0.00027434214078541421 0 -0.0037587581002762587 0.0009799943688840072 0 -0.0020771473175830116 6.8832640149023316e-05 0 -0.0023040727418861284 0.00057296817533764803 0 -0.0038306647977930795 0.00097892240512884076 0 -0.003871088116038359 0.00024648966342475645 0 -0.0040540217232076228 0.0006354073117174864 0 -0.004153175140349628 0.00035092249530237099 0 -0.0022683055801322595 0.00021458141830016459 0 -0.0020771473175830116 6.8832640149023316e-05 0 -0.0023040727418861284 0.00057296817533764803 0 -0.0023040727418861284 0.00057296817533764803 0 -0.0017306134147719802 0.00018044952806462071 0 -0.0014902608338808775 0.00028998001922210211 0 -0.0023040727418861284 0.00057296817533764803 0 -0.0017306134147719802 0.00018044952806462071 0 -0.0019500363049045814 -2.1475685665076891e-05 0 -0.0023040727418861284 0.00057296817533764803 0 -0.0041594123065037984 0.0016049593926360747 0 -0.0038306647977930795 0.00097892240512884076 0 -0.0023161989296592916 0.00054721325172671462 0 -0.0028134226874529543 0.00093010042252116086 0 -0.0026635122826819588 -0.00025621163375415902 0 -0.0022912715148123743 0.00012228611632613781 0 -0.0019500363049045814 -2.1475685665076891e-05 0 -0.0023040727418861284 0.00057296817533764803 0 -0.0022912715148123743 0.00012228611632613781 0 -0.0019500363049045814 -2.1475685665076891e-05 0 -0.0019500363049045814 -2.1475685665076891e-05 0 -0.002313522845556735 -0.00055811024819539599 0 -0.0015721675032644941 -0.00068805339658094733 0 -0.0026635122826819588 -0.00025621163375415902 0 -0.0019500363049045814 -2.1475685665076891e-05 0 -0.002313522845556735 -0.00055811024819539599 0 -0.0019500363049045814 -2.1475685665076891e-05 0 -0.0013632870917674295 0.00034332185782266555 0 -0.00098857127904856804 0.00070789980383639318 0 -0.0019500363049045814 -2.1475685665076891e-05 0 -0.0015078331274763742 0.00022239095700466271 0 -0.0013632870917674295 0.00034332185782266555 0 -0.0018492969530713999 5.5724492202856276e-05 0 -0.0012938838717210448 3.5235643522161303e-05 0 -0.0017306134147719802 0.00018044952806462071 0 -0.0019500363049045814 -2.1475685665076891e-05 0 -0.0015078331274763742 0.00022239095700466271 0 -0.0017306134147719802 0.00018044952806462071 0 -0.0015078331274763742 0.00022239095700466271 0 -0.0014649264707242851 0.00021502630211079371 0 -0.0015078331274763742 0.00022239095700466271 0 -0.0013632870917674295 0.00034332185782266555 0 -0.0012924604074724326 0.00031785074260861561 0 -0.0015078331274763742 0.00022239095700466271 0 -0.0012924604074724326 0.00031785074260861561 0 -0.0013974402986156953 0.00024504180747057639 0 -0.0013632870917674295 0.00034332185782266555 0 -0.0012924604074724326 0.00031785074260861561 0 -0.001030095046685342 0.00044892267181627696 0 -0.0013632870917674295 0.00034332185782266555 0 -0.001030095046685342 0.00044892267181627696 0 -0.00098857127904856804 0.00070789980383639318 0 -0.001030095046685342 0.00044892267181627696 0 -0.00042574653277734732 0.00055909022265609001 0 -0.00098857127904856804 0.00070789980383639318 0 -0.002193920707419915 -0.00097699795619844796 0 -0.002313522845556735 -0.00055811024819539599 0 -0.0015721675032644941 -0.00068805339658094733 0 -0.0017760467045918036 0.00043556865605017691 0 -0.0014700348563674037 0.00057195524746651892 0 -0.0014894154809272587 0.00033199907933760303 0 0.0030556023328843153 0.00043501829952754341 0 0.0035126396215771349 0.0020102854244233377 0 0.001860364878091033 0.0015626988525282224 0 0.00029085180113250388 0.0014031510360505463 0 0.00027886483781778713 0.0010287070660619543 0 -0.00041997692328808289 0.00065284954261362747 0 0.00027886483781778713 0.0010287070660619543 0 0.00091300843002811098 0.00045615483596561201 0 -0.00042574653277734732 0.00055909022265609001 0 0.001860364878091033 0.0015626988525282224 0 -0.001030095046685342 0.00044892267181627696 0 -0.00042574653277734732 0.00055909022265609001 0 -0.0014700348563674037 0.00057195524746651892 0 -0.001030095046685342 0.00044892267181627696 0 -0.0014700348563674037 0.00057195524746651892 0 -0.001345964959330888 0.00030938733551119874 0 -0.0014700348563674037 0.00057195524746651892 0 -0.0014894154809272587 0.00033199907933760303 0 -0.001345964959330888 0.00030938733551119874 0 -0.0014894154809272587 0.00033199907933760303 0 -0.001418027913359478 0.00024540945439974779 0 -0.0014600782705679232 0.00021290289106142441 0 -0.0014894154809272587 0.00033199907933760303 0 -0.001418027913359478 0.00024540945439974779 0 -0.001345964959330888 0.00030938733551119874 0 -0.0012924604074724326 0.00031785074260861561 0 -0.001030095046685342 0.00044892267181627696 0 -0.001345964959330888 0.00030938733551119874 0 -0.001418027913359478 0.00024540945439974779 0 -0.001345964959330888 0.00030938733551119874 0 -0.0013974402986156953 0.00024504180747057639 0 -0.0012924604074724326 0.00031785074260861561 0 -0.001345964959330888 0.00030938733551119874 0 -0.0013974402986156953 0.00024504180747057639 0 -0.0014649264707242851 0.00021502630211079371 0 -0.0014600782705679232 0.00021290289106142441 0 -0.0014902608338808775 0.00028998001922210211 0 -0.0015078331274763742 0.00022239095700466271 0 -0.0013974402986156953 0.00024504180747057639 0 -0.0014649264707242851 0.00021502630211079371 0 -0.001418027913359478 0.00024540945439974779 0 -0.0013974402986156953 0.00024504180747057639 0 -0.0014649264707242851 0.00021502630211079371 0 -0.0014894154809272587 0.00033199907933760303 0 -0.0014600782705679232 0.00021290289106142441 0 -0.0015381030465594268 0.0002157999517191369 0 -0.001418027913359478 0.00024540945439974779 0 -0.0014649264707242851 0.00021502630211079371 0 -0.0014600782705679232 0.00021290289106142441 0 -0.0014600782705679232 0.00021290289106142441 0 -0.0014447518703000143 0.00020791674424140092 0 -0.0014902608338808775 0.00028998001922210211 0 -0.0046197388237589664 0.001967819590795815 0 -0.0028550647631461258 0.0013179912121857355 0 -0.0017760467045918036 0.00043556865605017691 0 -0.0014894154809272587 0.00033199907933760303 0 -0.0015381030465594268 0.0002157999517191369 0 -0.0059629585626209732 0.0022450038880189572 0 -0.0050196172955513521 0.0022025050885484928 0 -0.0054310741839304986 0.0018703571797320216 0 -0.0026176264343114597 0.0015888076529881733 0 -0.002480652395604866 0.0019047198080279436 0 -0.0020712331648923823 0.0015093388461499292 0 -0.0021757165709121611 0.0010812574074960302 0 -0.0028550647631461258 0.0013179912121857355 0 0.00029085180113250388 0.0014031510360505463 0 -0.0028550647631461258 0.0013179912121857355 0 -0.0059629585626209732 0.0022450038880189572 0 -0.0058328061389714917 0.0017057087870650731 0 -0.0054310741839304986 0.0018703571797320216 0 -0.0058328061389714917 0.0017057087870650731 0 -0.0054144686636425025 0.0015503501907176409 0 -0.0054310741839304986 0.0018703571797320216 0 -0.005792394865890553 0.0012894722052498417 0 -0.0058328061389714917 0.0017057087870650731 0 -0.0054144686636425025 0.0015503501907176409 0 -0.0054144686636425025 0.0015503501907176409 0 -0.0054310741839304986 0.0018703571797320216 0 -0.0048789781679628502 0.0016151893818362548 0 -0.0050196172955513521 0.0022025050885484928 0 -0.0054310741839304986 0.0018703571797320216 0 -0.0048789781679628502 0.0016151893818362548 0 -0.0048789781679628502 0.0016151893818362548 0 -0.0053176764986750513 0.0011806514739324718 0 -0.004890350597888519 0.0010958593011638172 0 -0.0054144686636425025 0.0015503501907176409 0 -0.0048789781679628502 0.0016151893818362548 0 -0.0053176764986750513 0.0011806514739324718 0 -0.005792394865890553 0.0012894722052498417 0 -0.0053176764986750513 0.0011806514739324718 0 -0.0056458455905523926 0.0008950039471756347 0 -0.005792394865890553 0.0012894722052498417 0 -0.0054144686636425025 0.0015503501907176409 0 -0.0053176764986750513 0.0011806514739324718 0 -0.0017306134147719802 0.00018044952806462071 0 -0.0014649264707242851 0.00021502630211079371 0 -0.0014902608338808775 0.00028998001922210211 0 -0.0050196172955513521 0.0022025050885484928 0 -0.0048789781679628502 0.0016151893818362548 0 -0.0041594123065037984 0.0016049593926360747 0 -0.0028550647631461258 0.0013179912121857355 0 -0.0028134226874529543 0.00093010042252116086 0 -0.0048789781679628502 0.0016151893818362548 0 -0.004890350597888519 0.0010958593011638172 0 -0.0044854077232644026 0.0012422801030326782 0 -0.0048789781679628502 0.0016151893818362548 0 -0.0041594123065037984 0.0016049593926360747 0 -0.0044854077232644026 0.0012422801030326782 0 -0.004890350597888519 0.0010958593011638172 0 -0.0044854077232644026 0.0012422801030326782 0 -0.0044388613665665017 0.00084454835961029877 0 -0.0041594123065037984 0.0016049593926360747 0 -0.0044854077232644026 0.0012422801030326782 0 -0.0038306647977930795 0.00097892240512884076 0 -0.0044854077232644026 0.0012422801030326782 0 -0.0038306647977930795 0.00097892240512884076 0 -0.0044388613665665017 0.00084454835961029877 0 -0.0038306647977930795 0.00097892240512884076 0 -0.0040540217232076228 0.0006354073117174864 0 -0.0044388613665665017 0.00084454835961029877 0 -0.0040540217232076228 0.0006354073117174864 0 -0.0044388613665665017 0.00084454835961029877 0 -0.0045720443459825733 0.00042524096353840977 0 -0.0044388613665665017 0.00084454835961029877 0 -0.0047877175644402406 0.00074508616845860769 0 -0.0045720443459825733 0.00042524096353840977 0 -0.004890350597888519 0.0010958593011638172 0 -0.0044388613665665017 0.00084454835961029877 0 -0.0047877175644402406 0.00074508616845860769 0 -0.0047877175644402406 0.00074508616845860769 0 -0.0045720443459825733 0.00042524096353840977 0 -0.0052034691218024384 0.00064301154603428883 0 -0.0045720443459825733 0.00042524096353840977 0 -0.004153175140349628 0.00035092249530237099 0 -0.0042635144806025919 0.00010098590867570586 0 -0.0040540217232076228 0.0006354073117174864 0 -0.0045720443459825733 0.00042524096353840977 0 -0.004153175140349628 0.00035092249530237099 0 -0.0053176764986750513 0.0011806514739324718 0 -0.0056458455905523926 0.0008950039471756347 0 -0.0052034691218024384 0.00064301154603428883 0 -0.0058613494378340304 0.00056621819169672529 0 -0.0056458455905523926 0.0008950039471756347 0 -0.0052034691218024384 0.00064301154603428883 0 -0.0053176764986750513 0.0011806514739324718 0 -0.004890350597888519 0.0010958593011638172 0 -0.0052034691218024384 0.00064301154603428883 0 -0.004890350597888519 0.0010958593011638172 0 -0.0047877175644402406 0.00074508616845860769 0 -0.0052034691218024384 0.00064301154603428883 0 -0.0052034691218024384 0.00064301154603428883 0 -0.005592817828619273 0.00026740021416161238 0 -0.0051951041669161891 0.00019563516421410073 0 -0.0045720443459825733 0.00042524096353840977 0 -0.0052034691218024384 0.00064301154603428883 0 -0.0051951041669161891 0.00019563516421410073 0 -0.0058613494378340304 0.00056621819169672529 0 -0.0052034691218024384 0.00064301154603428883 0 -0.005592817828619273 0.00026740021416161238 0 -0.005592817828619273 0.00026740021416161238 0 -0.0051951041669161891 0.00019563516421410073 0 -0.0057364351877713634 -5.4744332614115744e-05 0 -0.0051951041669161891 0.00019563516421410073 0 -0.0054394927195974673 -0.00031677437998285852 0 -0.0048231490351488522 -2.0906744264655053e-05 0 -0.0051951041669161891 0.00019563516421410073 0 -0.0054394927195974673 -0.00031677437998285852 0 -0.0057364351877713634 -5.4744332614115744e-05 0 -0.0059008838898943639 -0.0003564661480682122 0 -0.0054394927195974673 -0.00031677437998285852 0 -0.0057364351877713634 -5.4744332614115744e-05 0 -0.0059008838898943639 -0.0003564661480682122 0 -0.0054394927195974673 -0.00031677437998285852 0 -0.0058694897601587288 -0.00070500942765120192 0 -0.0054394927195974673 -0.00031677437998285852 0 -0.0053284934337324164 -0.00093340657893831364 0 -0.0058694897601587288 -0.00070500942765120192 0 -0.0054394927195974673 -0.00031677437998285852 0 -0.0053284934337324164 -0.00093340657893831364 0 -0.0048637032376195426 -0.00053749815272926703 0 -0.0053284934337324164 -0.00093340657893831364 0 -0.0058694897601587288 -0.00070500942765120192 0 -0.0058409747859558721 -0.0011341387536013352 0 -0.0048637032376195426 -0.00053749815272926703 0 -0.0042522015610754454 -0.00069580351407988645 0 -0.0047109333686795631 -0.0012573674525613997 0 -0.0053284934337324164 -0.00093340657893831364 0 -0.0048637032376195426 -0.00053749815272926703 0 -0.0047109333686795631 -0.0012573674525613997 0 -0.0048637032376195426 -0.00053749815272926703 0 -0.0044483572541489224 -0.00026848805193874128 0 -0.0042522015610754454 -0.00069580351407988645 0 -0.0044483572541489224 -0.00026848805193874128 0 -0.0048231490351488522 -2.0906744264655053e-05 0 -0.0042635144806025919 0.00010098590867570586 0 -0.0054394927195974673 -0.00031677437998285852 0 -0.0048637032376195426 -0.00053749815272926703 0 -0.0048231490351488522 -2.0906744264655053e-05 0 -0.0048637032376195426 -0.00053749815272926703 0 -0.0044483572541489224 -0.00026848805193874128 0 -0.0048231490351488522 -2.0906744264655053e-05 0 -0.0045720443459825733 0.00042524096353840977 0 -0.0051951041669161891 0.00019563516421410073 0 -0.0048231490351488522 -2.0906744264655053e-05 0 -0.0045720443459825733 0.00042524096353840977 0 -0.0048231490351488522 -2.0906744264655053e-05 0 -0.0042635144806025919 0.00010098590867570586 0 -0.003871088116038359 0.00024648966342475645 0 -0.0042635144806025919 0.00010098590867570586 0 -0.0040711862509998217 -0.0001973003233733134 0 -0.003871088116038359 0.00024648966342475645 0 -0.004153175140349628 0.00035092249530237099 0 -0.0042635144806025919 0.00010098590867570586 0 -0.003871088116038359 0.00024648966342475645 0 -0.0040711862509998217 -0.0001973003233733134 0 -0.0034122346137992481 -0.0004653715793600729 0 -0.0044483572541489224 -0.00026848805193874128 0 -0.0042635144806025919 0.00010098590867570586 0 -0.0040711862509998217 -0.0001973003233733134 0 -0.0020771473175830116 6.8832640149023316e-05 0 -0.002530284113301555 0.00039562170143077259 0 -0.0023077660256761922 0.00080020785224371163 0 -0.0028777395789673609 0.00091902620177060801 0 -0.002530284113301555 0.00039562170143077259 0 -0.0023077660256761922 0.00080020785224371163 0 -0.0030932271456891873 0.00027434214078541421 0 -0.0025860897406312423 4.6758155878305288e-05 0 -0.0029209677993008443 -0.0012083785533562165 0 -0.0036241810710825107 -0.00098644752681857303 0 -0.0034122346137992481 -0.0004653715793600729 0 -0.0054765098104826203 -0.00016595019353995286 0 -0.0025860897406312423 4.6758155878305288e-05 0 -0.0036241810710825107 -0.00098644752681857303 0 -0.0034122346137992481 -0.0004653715793600729 0 -0.0042522015610754454 -0.00069580351407988645 0 -0.0040711862509998217 -0.0001973003233733134 0 -0.0034122346137992481 -0.0004653715793600729 0 -0.0042522015610754454 -0.00069580351407988645 0 -0.0044483572541489224 -0.00026848805193874128 0 -0.0040711862509998217 -0.0001973003233733134 0 -0.0042522015610754454 -0.00069580351407988645 0 -0.0036241810710825107 -0.00098644752681857303 0 -0.0042522015610754454 -0.00069580351407988645 0 -0.0039188260747729095 -0.0015772223308550756 0 -0.0042522015610754454 -0.00069580351407988645 0 -0.0039188260747729095 -0.0015772223308550756 0 -0.0047109333686795631 -0.0012573674525613997 0 -0.010817290731498955 -0.0026683457249343846 0 -0.010813962165055759 -0.0026419636332213935 0 -0.010929452157217851 -0.0027235294323982866 0 -0.0029209677993008443 -0.0012083785533562165 0 -0.0036241810710825107 -0.00098644752681857303 0 -0.0039188260747729095 -0.0015772223308550756 0 -0.0054765098104826203 -0.00016595019353995286 0 -0.0077665781445879481 -0.0024105576727696102 0 -0.010817290731498955 -0.0026683457249343846 0 -0.010929452157217851 -0.0027235294323982866 0 -0.010891621783100609 -0.0027570528567387805 0 -0.010929452157217851 -0.0027235294323982866 0 -0.010891621783100609 -0.0027570528567387805 0 -0.010949168708474299 -0.0027510932699305653 0 -0.010891621783100609 -0.0027570528567387805 0 -0.010949168708474299 -0.0027510932699305653 0 -0.010923965499744495 -0.0027745220212383147 0 -0.010929452157217851 -0.0027235294323982866 0 -0.010949168708474299 -0.0027510932699305653 0 -0.010861909727187787 -0.0028752225453111445 0 -0.010949168708474299 -0.0027510932699305653 0 -0.010861909727187787 -0.0028752225453111445 0 -0.011008705137074849 -0.0027232705486895234 0 -0.0077665781445879481 -0.0024105576727696102 0 -0.0078546789109438086 -0.0023746863558879415 0 -0.010861909727187787 -0.0028752225453111445 0 -0.010707417088631046 -0.0027311723733460221 0 -0.011008705137074849 -0.0027232705486895234 0 -0.010222331102794845 -0.0028553900823024732 0 -0.010861909727187787 -0.0028752225453111445 0 -0.010707417088631046 -0.0027311723733460221 0 -0.0062895912552350091 -0.0023025801921656951 0 -0.0050374696123615826 -0.0019769934649516191 0 -0.0057622615093205999 -0.0016040207633570148 0 -0.0082594947072647078 -0.0025749561172870878 0 -0.0078546789109438086 -0.0023746863558879415 0 -0.0050374696123615826 -0.0019769934649516191 0 -0.0052491070895368183 -0.0014076009034437753 0 -0.0057622615093205999 -0.0016040207633570148 0 -0.0052491070895368183 -0.0014076009034437753 0 -0.0057622615093205999 -0.0016040207633570148 0 -0.0058409747859558721 -0.0011341387536013352 0 -0.0053284934337324164 -0.00093340657893831364 0 -0.0052491070895368183 -0.0014076009034437753 0 -0.0058409747859558721 -0.0011341387536013352 0 -0.0053284934337324164 -0.00093340657893831364 0 -0.0052491070895368183 -0.0014076009034437753 0 -0.0047109333686795631 -0.0012573674525613997 0 -0.0039188260747729095 -0.0015772223308550756 0 -0.0050374696123615826 -0.0019769934649516191 0 -0.0047109333686795631 -0.0012573674525613997 0 -0.0050374696123615826 -0.0019769934649516191 0 -0.0052491070895368183 -0.0014076009034437753 0 -0.0047109333686795631 -0.0012573674525613997 0 -0.019452588888601532 -0.0023628353404028524 0 -0.019582946841022061 -0.0021489378100116871 0 -0.019243995794249173 -0.0024606162404837684 0 -0.019582946841022061 -0.0021489378100116871 0 -0.019684058483827982 -0.0020100299451916983 0 -0.019465708800011357 -0.002064891026915558 0 -0.019582946841022061 -0.0021489378100116871 0 -0.019243995794249173 -0.0024606162404837684 0 -0.019465708800011357 -0.002064891026915558 0 -0.018850237424113056 -0.0029001630181528827 0 -0.018973966679748298 -0.0026180934287807788 0 -0.018334158117942912 -0.0026405400713737795 0 -0.018850237424113056 -0.0029001630181528827 0 -0.019452588888601532 -0.0023628353404028524 0 -0.019243995794249173 -0.0024606162404837684 0 -0.019385613483268907 -0.002996009795821237 0 -0.017440518273227769 -0.0022428474252048137 0 -0.019229254973697651 -0.0025939120091690187 0 -0.019065977039762858 -0.0025257564533221555 0 -0.018850237424113056 -0.0029001630181528827 0 -0.019243995794249173 -0.0024606162404837684 0 -0.018789444282292136 -0.0030672559924792434 0 -0.012939688475167854 -0.0028043728851990103 0 -0.017440518273227769 -0.0022428474252048137 0 -0.012939688475167854 -0.0028043728851990103 0 -0.010780881623283394 -0.0025831798693939853 0 -0.012148023898994822 -0.0029866030629278821 0 -0.011170383259387465 -0.0030102836388136282 0 -0.011559052598932985 -0.002786957148382212 0 -0.010222331102794845 -0.0028553900823024732 0 -0.010707417088631046 -0.0027311723733460221 0 -0.010639709715884004 -0.002523847653006703 0 -0.017440518273227769 -0.0022428474252048137 0 -0.015343409210978574 -0.0017880557006230446 0 -0.011170383259387465 -0.0030102836388136282 0 -0.011559052598932985 -0.002786957148382212 0 -0.011008705137074849 -0.0027232705486895234 0 -0.011170383259387465 -0.0030102836388136282 0 -0.011008705137074849 -0.0027232705486895234 0 -0.010923965499744495 -0.0027745220212383147 0 -0.010707417088631046 -0.0027311723733460221 0 -0.010639709715884004 -0.002523847653006703 0 -0.011008705137074849 -0.0027232705486895234 0 -0.010780881623283394 -0.0025831798693939853 0 -0.011134084502349196 -0.0027314340656870396 0 -0.010949168708474299 -0.0027510932699305653 0 -0.011008705137074849 -0.0027232705486895234 0 -0.010923965499744495 -0.0027745220212383147 0 -0.021093324926450201 -0.0015025496518711028 0 -0.020200322937501847 -0.00098039609630516016 0 -0.019856406348581074 -0.0016408516858179717 0 -0.020200322937501847 -0.00098039609630516016 0 -0.019737846042916656 -0.0010042685139674576 0 -0.019856406348581074 -0.0016408516858179717 0 -0.019486327708317767 -0.0002816077912431473 0 -0.020200322937501847 -0.00098039609630516016 0 -0.019737846042916656 -0.0010042685139674576 0 -0.015253876126896399 -0.001570275940794846 0 -0.015343409210978574 -0.0017880557006230446 0 -0.019486327708317767 -0.0002816077912431473 0 -0.019737846042916656 -0.0010042685139674576 0 -0.019439146701071434 -0.0011097544169844668 0 -0.019737846042916656 -0.0010042685139674576 0 -0.019439146701071434 -0.0011097544169844668 0 -0.019856406348581074 -0.0016408516858179717 0 -0.019439146701071434 -0.0011097544169844668 0 -0.019856406348581074 -0.0016408516858179717 0 -0.019493938160868435 -0.0016722362622500877 0 -0.019856406348581074 -0.0016408516858179717 0 -0.019727319804463243 -0.0019485346983003715 0 -0.019493938160868435 -0.0016722362622500877 0 -0.019452588888601532 -0.0023628353404028524 0 -0.019582946841022061 -0.0021489378100116871 0 -0.019856406348581074 -0.0016408516858179717 0 -0.019582946841022061 -0.0021489378100116871 0 -0.019856406348581074 -0.0016408516858179717 0 -0.019684058483827982 -0.0020100299451916983 0 -0.019856406348581074 -0.0016408516858179717 0 -0.019684058483827982 -0.0020100299451916983 0 -0.019727319804463243 -0.0019485346983003715 0 -0.017440518273227769 -0.0022428474252048137 0 -0.021000450453555929 -0.0015964655742368014 0 -0.019638666688520098 -0.0019781788907764536 0 -0.019727319804463243 -0.0019485346983003715 0 -0.019702577480854178 -0.0019868406399289095 0 -0.019684058483827982 -0.0020100299451916983 0 -0.019638666688520098 -0.0019781788907764536 0 -0.019727319804463243 -0.0019485346983003715 0 -0.019727319804463243 -0.0019485346983003715 0 -0.019694786746183798 -0.0021610777401490848 0 -0.019493938160868435 -0.0016722362622500877 0 -0.019727319804463243 -0.0019485346983003715 0 -0.019702577480854178 -0.0019868406399289095 0 -0.019694786746183798 -0.0021610777401490848 0 -0.019733709368784304 -0.0019326284521022313 0 -0.019702577480854178 -0.0019868406399289095 0 -0.019631004737757134 -0.0018913337326375553 0 -0.019733709368784304 -0.0019326284521022313 0 -0.019702577480854178 -0.0019868406399289095 0 -0.019694786746183798 -0.0021610777401490848 0 -0.019638666688520098 -0.0019781788907764536 0 -0.019702577480854178 -0.0019868406399289095 0 -0.019631004737757134 -0.0018913337326375553 0 -0.019638666688520098 -0.0019781788907764536 0 -0.019503247173496833 -0.001912372884289613 0 -0.019631004737757134 -0.0018913337326375553 0 -0.019503247173496833 -0.001912372884289613 0 -0.019465708800011357 -0.002064891026915558 0 -0.019386829951943425 -0.0019568281224785198 0 -0.019638666688520098 -0.0019781788907764536 0 -0.019503247173496833 -0.001912372884289613 0 -0.019465708800011357 -0.002064891026915558 0 -0.019684058483827982 -0.0020100299451916983 0 -0.019638666688520098 -0.0019781788907764536 0 -0.019465708800011357 -0.002064891026915558 0 -0.019243995794249173 -0.0024606162404837684 0 -0.019465708800011357 -0.002064891026915558 0 -0.019289623459387402 -0.0020717468364205619 0 -0.019465708800011357 -0.002064891026915558 0 -0.019289623459387402 -0.0020717468364205619 0 -0.019386829951943425 -0.0019568281224785198 0 -0.019312964666567855 -0.0019584726595583356 0 -0.019289623459387402 -0.0020717468364205619 0 -0.019386829951943425 -0.0019568281224785198 0 -0.018808594636385022 -0.0034715054062705425 0 -0.018836846690165606 -0.0033221542001968386 0 -0.018789444282292136 -0.0030672559924792434 0 -0.019748333476417669 -0.0029196198160897319 0 -0.019065977039762858 -0.0025257564533221555 0 -0.019503247173496833 -0.001912372884289613 0 -0.019386829951943425 -0.0019568281224785198 0 -0.019388623967261008 -0.0018250305736913447 0 -0.019312964666567855 -0.0019584726595583356 0 -0.019386829951943425 -0.0019568281224785198 0 -0.019388623967261008 -0.0018250305736913447 0 -0.019503247173496833 -0.001912372884289613 0 -0.019388623967261008 -0.0018250305736913447 0 -0.019527895731597539 -0.001776922589403523 0 -0.019503247173496833 -0.001912372884289613 0 -0.019527895731597539 -0.001776922589403523 0 -0.019631004737757134 -0.0018913337326375553 0 -0.019527895731597539 -0.001776922589403523 0 -0.019514889779107838 -0.0016698253233456593 0 -0.019572193298685158 -0.0016730088496735534 0 -0.019527895731597539 -0.001776922589403523 0 -0.019572193298685158 -0.0016730088496735534 0 -0.019659061024334998 -0.0017863909919263075 0 -0.019388623967261008 -0.0018250305736913447 0 -0.019527895731597539 -0.001776922589403523 0 -0.019449928127902281 -0.0017150401104448006 0 -0.021770620786192976 -0.0020577431792582453 0 -0.021874100331908453 -0.0025605061137118101 0 -0.021975126701017273 -0.0020650044092101276 0 -0.020689739184463117 -0.0020950257329159479 0 -0.020584551464861229 -0.0019064763962981211 0 -0.019527895731597539 -0.001776922589403523 0 -0.019449928127902281 -0.0017150401104448006 0 -0.019514889779107838 -0.0016698253233456593 0 -0.019449928127902281 -0.0017150401104448006 0 -0.019514889779107838 -0.0016698253233456593 0 -0.01950258733025725 -0.0016171693579077487 0 -0.021770620786192976 -0.0020577431792582453 0 -0.021975126701017273 -0.0020650044092101276 0 -0.022075969745144686 -0.0015652373284615532 0 -0.020584551464861229 -0.0019064763962981211 0 -0.023163560861897747 -0.001893880857697088 0 -0.024167337177955123 -0.0019192003226209844 0 -0.023163560861897747 -0.001893880857697088 0 -0.019500007752595045 -0.0018998374966728356 0 -0.022616808162823483 -0.0015390718214380664 0 -0.019514889779107838 -0.0016698253233456593 0 -0.019572193298685158 -0.0016730088496735534 0 -0.01952768561209239 -0.0015863060187873256 0 -0.020194999420411596 -0.0023615041946570547 0 -0.019980980550262178 -0.0020108401011065271 0 -0.020476893342063724 -0.0020981321136041469 0 -0.019980980550262178 -0.0020108401011065271 0 -0.020476893342063724 -0.0020981321136041469 0 -0.020082625770998171 -0.0018461393094795124 0 -0.021694829097316629 -0.00084863420016068611 0 -0.023478357397854477 0.00065575046016439137 0 -0.026025020186010356 -0.0021482034672723528 0 -0.026007549905439072 -0.0021460163577738584 0 -0.025964568612859056 -0.0020125562366118156 0 -0.025876691698089305 -0.0022736517653786995 0 -0.02595227938246342 -0.0021810860259987436 0 -0.026004112574850594 -0.0022127453275934618 0 -0.019514889779107838 -0.0016698253233456593 0 -0.01952768561209239 -0.0015863060187873256 0 -0.01950258733025725 -0.0016171693579077487 0 -0.022616808162823483 -0.0015390718214380664 0 -0.023478357397854477 0.00065575046016439137 0 -0.025952937501285793 -0.0021179974434443506 0 -0.026007549905439072 -0.0021460163577738584 0 -0.02595227938246342 -0.0021810860259987436 0 -0.025952937501285793 -0.0021179974434443506 0 -0.026007549905439072 -0.0021460163577738584 0 -0.025964568612859056 -0.0020125562366118156 0 -0.026007549905439072 -0.0021460163577738584 0 -0.02595227938246342 -0.0021810860259987436 0 -0.026004112574850594 -0.0022127453275934618 0 -0.026025020186010356 -0.0021482034672723528 0 -0.026007549905439072 -0.0021460163577738584 0 -0.025976296688664524 -0.0021962966765111738 0 -0.022616808162823483 -0.0015390718214380664 0 -0.023163560861897747 -0.001893880857697088 0 -0.024318864356361689 -0.0019185907415149035 0 -0.023163560861897747 -0.001893880857697088 0 -0.023598979052391916 0.00067340917019164542 0 -0.023602489012950499 0.00068038803076606871 0 -0.023613760966237171 0.00068181751732229626 0 -0.024137535237663307 0.0010319376027364022 0 -0.024293540513791057 0.0013981687193883607 0 -0.023598979052391916 0.00067340917019164542 0 -0.023602489012950499 0.00068038803076606871 0 -0.023587507886551951 0.00065560568483941984 0 -0.023602489012950499 0.00068038803076606871 0 -0.023613760966237171 0.00068181751732229626 0 -0.023646113545867393 0.00069404490513640083 0 -0.020194999420411596 -0.0023615041946570547 0 -0.020476893342063724 -0.0020981321136041469 0 -0.020633673768493076 -0.0024854284446648813 0 -0.021694829097316629 -0.00084863420016068611 0 -0.022683680120811418 -0.00064974442739077604 0 -0.020476893342063724 -0.0020981321136041469 0 -0.020633673768493076 -0.0024854284446648813 0 -0.02093657437177986 -0.0023200876327275368 0 -0.020633673768493076 -0.0024854284446648813 0 -0.020887806085093264 -0.0026780812111602127 0 -0.02093657437177986 -0.0023200876327275368 0 -0.020633673768493076 -0.0024854284446648813 0 -0.020730877935105106 -0.002832974724101274 0 -0.020887806085093264 -0.0026780812111602127 0 -0.020633673768493076 -0.0024854284446648813 0 -0.020730877935105106 -0.002832974724101274 0 -0.020449679914467066 -0.0027870827329384441 0 -0.020194999420411596 -0.0023615041946570547 0 -0.020633673768493076 -0.0024854284446648813 0 -0.020449679914467066 -0.0027870827329384441 0 -0.019500007752595045 -0.0018998374966728356 0 -0.020125584972928292 -0.0023281821744320949 0 -0.019733709368784304 -0.0019326284521022313 0 -0.019659061024334998 -0.0017863909919263075 0 -0.019631004737757134 -0.0018913337326375553 0 -0.019527895731597539 -0.001776922589403523 0 -0.019659061024334998 -0.0017863909919263075 0 -0.019631004737757134 -0.0018913337326375553 0 -0.020776371108483519 -0.0030795097859205715 0 -0.020730877935105106 -0.002832974724101274 0 -0.020915627081125102 -0.0030830764932546404 0 -0.020776371108483519 -0.0030795097859205715 0 -0.020730877935105106 -0.002832974724101274 0 -0.020449679914467066 -0.0027870827329384441 0 -0.020192669747856894 -0.0024813946327916928 0 -0.020125584972928292 -0.0023281821744320949 0 -0.020406493740866682 -0.0031817501836890827 0 -0.020915627081125102 -0.0030830764932546404 0 -0.020294753731682835 -0.0029725367773820494 0 -0.020776371108483519 -0.0030795097859205715 0 -0.020915627081125102 -0.0030830764932546404 0 -0.020294753731682835 -0.0029725367773820494 0 -0.020406493740866682 -0.0031817501836890827 0 -0.021177871259099326 -0.0032788766626580079 0 -0.020915627081125102 -0.0030830764932546404 0 -0.021540281253946778 -0.0027772143093001984 0 -0.021177871259099326 -0.0032788766626580079 0 -0.020915627081125102 -0.0030830764932546404 0 -0.020886414490119892 -0.0031903245218457936 0 -0.021404597858770181 -0.0032876718346017057 0 -0.021177871259099326 -0.0032788766626580079 0 -0.02294841823799678 -0.0019850656735098016 0 -0.024458666243517679 -0.0020755471644150641 0 -0.021177871259099326 -0.0032788766626580079 0 -0.018109643631389557 -0.0042785962927711649 0 -0.019513959502107551 -0.0031752453976838521 0 -0.018109643631389557 -0.0042785962927711649 0 -0.018307884044804192 -0.0033031508611731097 0 -0.019513959502107551 -0.0031752453976838521 0 -0.020406493740866682 -0.0031817501836890827 0 -0.021177871259099326 -0.0032788766626580079 0 -0.019513959502107551 -0.0031752453976838521 0 -0.021540281253946778 -0.0027772143093001984 0 -0.021177871259099326 -0.0032788766626580079 0 -0.02294841823799678 -0.0019850656735098016 0 -0.02294841823799678 -0.0019850656735098016 0 -0.024090419851450318 -0.0016946292320187504 0 -0.024458666243517679 -0.0020755471644150641 0 -0.02294841823799678 -0.0019850656735098016 0 -0.023620547367321571 -0.0012285754786646485 0 -0.024090419851450318 -0.0016946292320187504 0 -0.021540281253946778 -0.0027772143093001984 0 -0.02294841823799678 -0.0019850656735098016 0 -0.022541147709441409 -0.0015520373591154102 0 -0.02294841823799678 -0.0019850656735098016 0 -0.023112160963874535 -0.0014221402586523729 0 -0.022541147709441409 -0.0015520373591154102 0 -0.02294841823799678 -0.0019850656735098016 0 -0.023112160963874535 -0.0014221402586523729 0 -0.023620547367321571 -0.0012285754786646485 0 -0.023112160963874535 -0.0014221402586523729 0 -0.022541147709441409 -0.0015520373591154102 0 -0.023322571733794643 -0.0009098449258942747 0 -0.023112160963874535 -0.0014221402586523729 0 -0.023620547367321571 -0.0012285754786646485 0 -0.023322571733794643 -0.0009098449258942747 0 -0.023620547367321571 -0.0012285754786646485 0 -0.023322571733794643 -0.0009098449258942747 0 -0.02392762252329466 -0.00071232468519740117 0 -0.023620547367321571 -0.0012285754786646485 0 -0.024361154265750216 -0.0010453757985028488 0 -0.024090419851450318 -0.0016946292320187504 0 -0.023620547367321571 -0.0012285754786646485 0 -0.02392762252329466 -0.00071232468519740117 0 -0.024361154265750216 -0.0010453757985028488 0 -0.021540281253946778 -0.0027772143093001984 0 -0.022541147709441409 -0.0015520373591154102 0 -0.023009052187261892 -0.0002158678449001659 0 -0.021632748198178772 -0.0029938641600626794 0 -0.022683680120811418 -0.00064974442739077604 0 -0.021540281253946778 -0.0027772143093001984 0 -0.020887806085093264 -0.0026780812111602127 0 -0.02093657437177986 -0.0023200876327275368 0 -0.020730877935105106 -0.002832974724101274 0 -0.020915627081125102 -0.0030830764932546404 0 -0.020887806085093264 -0.0026780812111602127 0 -0.021540281253946778 -0.0027772143093001984 0 -0.020915627081125102 -0.0030830764932546404 0 -0.020887806085093264 -0.0026780812111602127 0 -0.022541147709441409 -0.0015520373591154102 0 -0.023033727083843818 -0.00063022190767915215 0 -0.023322571733794643 -0.0009098449258942747 0 -0.024137535237663307 0.0010319376027364022 0 -0.022683680120811418 -0.00064974442739077604 0 -0.022801246587637731 0.00066873049431801011 0 -0.023149228595840312 -0.00055233319457767311 0 -0.023750616847744117 0.0001413096025956551 0 -0.022683680120811418 -0.00064974442739077604 0 -0.022884594478951199 -0.00066035087609214857 0 -0.023149228595840312 -0.00055233319457767311 0 -0.023683656467431084 -0.00028070047187880745 0 -0.023750616847744117 0.0001413096025956551 0 -0.023149228595840312 -0.00055233319457767311 0 -0.023033727083843818 -0.00063022190767915215 0 -0.023683656467431084 -0.00028070047187880745 0 -0.022541147709441409 -0.0015520373591154102 0 -0.023009052187261892 -0.0002158678449001659 0 -0.023033727083843818 -0.00063022190767915215 0 -0.023033727083843818 -0.00063022190767915215 0 -0.023322571733794643 -0.0009098449258942747 0 -0.023683656467431084 -0.00028070047187880745 0 -0.02392762252329466 -0.00071232468519740117 0 -0.023683656467431084 -0.00028070047187880745 0 -0.02456614842496015 -0.0003236792775238147 0 -0.023322571733794643 -0.0009098449258942747 0 -0.02392762252329466 -0.00071232468519740117 0 -0.023683656467431084 -0.00028070047187880745 0 -0.023683656467431084 -0.00028070047187880745 0 -0.024317032182191462 0.00018420761035620357 0 -0.02456614842496015 -0.0003236792775238147 0 -0.02392762252329466 -0.00071232468519740117 0 -0.02456614842496015 -0.0003236792775238147 0 -0.024361154265750216 -0.0010453757985028488 0 -0.024317032182191462 0.00018420761035620357 0 -0.025064221244610569 0.00015762356413873916 0 -0.02456614842496015 -0.0003236792775238147 0 -0.024317032182191462 0.00018420761035620357 0 -0.025064221244610569 0.00015762356413873916 0 -0.024918613151363712 0.00059965986444585507 0 -0.024317032182191462 0.00018420761035620357 0 -0.024394187173224845 0.00058789481287632262 0 -0.024918613151363712 0.00059965986444585507 0 -0.024170954121564541 0.0004987115107068493 0 -0.024394187173224845 0.00058789481287632262 0 -0.023750616847744117 0.0001413096025956551 0 -0.024137535237663307 0.0010319376027364022 0 -0.023744601629472145 0.00035999888888206468 0 -0.024317032182191462 0.00018420761035620357 0 -0.024394187173224845 0.00058789481287632262 0 -0.023750616847744117 0.0001413096025956551 0 -0.023683656467431084 -0.00028070047187880745 0 -0.024317032182191462 0.00018420761035620357 0 -0.023750616847744117 0.0001413096025956551 0 -0.025585109911385972 -0.00010073200289412351 0 -0.026357671310013448 -0.00010077838579868018 0 -0.026264816243646027 0.00045574395316751301 0 -0.025585109911385972 -0.00010073200289412351 0 -0.025912890685852227 -0.00061948362230484946 0 -0.026357671310013448 -0.00010077838579868018 0 -0.025585109911385972 -0.00010073200289412351 0 -0.025064221244610569 0.00015762356413873916 0 -0.02456614842496015 -0.0003236792775238147 0 -0.025585109911385972 -0.00010073200289412351 0 -0.025064221244610569 0.00015762356413873916 0 -0.02557023693777383 0.00052895043756876305 0 -0.025585109911385972 -0.00010073200289412351 0 -0.02456614842496015 -0.0003236792775238147 0 -0.025178084321885789 -0.00078046216774774928 0 -0.02456614842496015 -0.0003236792775238147 0 -0.025178084321885789 -0.00078046216774774928 0 -0.024361154265750216 -0.0010453757985028488 0 -0.025178084321885789 -0.00078046216774774928 0 -0.025912890685852227 -0.00061948362230484946 0 -0.025745940172036384 -0.00099658413422759845 0 -0.025585109911385972 -0.00010073200289412351 0 -0.025178084321885789 -0.00078046216774774928 0 -0.025912890685852227 -0.00061948362230484946 0 -0.024744832425916869 -0.0017591874746223813 0 -0.023211665920370904 -0.0014531792877337051 0 -0.021165519837719009 -0.0017494766542807188 0 -0.024579448065392497 -0.0017016803834841439 0 -0.023562504299668663 -0.0012190475017192866 0 -0.025912890685852227 -0.00061948362230484946 0 -0.025745940172036384 -0.00099658413422759845 0 -0.026141187194779512 -0.0008286804893960798 0 -0.025745940172036384 -0.00099658413422759845 0 -0.024744832425916869 -0.0017591874746223813 0 -0.026251906094571235 -0.00091702304927798099 0 -0.025178084321885789 -0.00078046216774774928 0 -0.025745940172036384 -0.00099658413422759845 0 -0.024744832425916869 -0.0017591874746223813 0 -0.024361154265750216 -0.0010453757985028488 0 -0.024744832425916869 -0.0017591874746223813 0 -0.024090419851450318 -0.0016946292320187504 0 -0.025178084321885789 -0.00078046216774774928 0 -0.024361154265750216 -0.0010453757985028488 0 -0.024744832425916869 -0.0017591874746223813 0 -0.024744832425916869 -0.0017591874746223813 0 -0.024090419851450318 -0.0016946292320187504 0 -0.024458666243517679 -0.0020755471644150641 0 -0.018109643631389557 -0.0042785962927711649 0 -0.016033193025529205 -0.0041729052264910284 0 -0.017128595050501828 -0.0036140841745062272 0 -0.024744832425916869 -0.0017591874746223813 0 -0.024458666243517679 -0.0020755471644150641 0 -0.023211665920370904 -0.0014531792877337051 0 -0.021404597858770181 -0.0032876718346017057 0 -0.018136294763038432 -0.00067116308631494327 0 -0.018109643631389557 -0.0042785962927711649 0 -0.017128595050501828 -0.0036140841745062272 0 -0.018307884044804192 -0.0033031508611731097 0 -0.024458666243517679 -0.0020755471644150641 0 -0.023211665920370904 -0.0014531792877337051 0 -0.022977612205513507 -0.00093085863963476064 0 -0.023211665920370904 -0.0014531792877337051 0 -0.022779501305727191 0.00079741185222102263 0 -0.021165519837719009 -0.0017494766542807188 0 -0.021966380511517048 -0.0017645442202007095 0 -0.018136294763038432 -0.00067116308631494327 0 -0.016033193025529205 -0.0041729052264910284 0 -0.016409321465487774 -0.0035470053266255762 0 -0.015928331087871467 -0.003170278542981117 0 -0.018136294763038432 -0.00067116308631494327 0 -0.012537204167817664 -0.00039564785057909165 0 -0.016033193025529205 -0.0041729052264910284 0 -0.015928331087871467 -0.003170278542981117 0 -0.015019722064360893 -0.00260403695785682 0 -0.016033193025529205 -0.0041729052264910284 0 -0.016409321465487774 -0.0035470053266255762 0 -0.017128595050501828 -0.0036140841745062272 0 -0.016409321465487774 -0.0035470053266255762 0 -0.016627963896376909 -0.0030183150781935542 0 -0.017128595050501828 -0.0036140841745062272 0 -0.016409321465487774 -0.0035470053266255762 0 -0.016627963896376909 -0.0030183150781935542 0 -0.015928331087871467 -0.003170278542981117 0 -0.016627963896376909 -0.0030183150781935542 0 -0.01603179946775753 -0.002746953697133874 0 -0.01637692601978059 -0.0024722059982311599 0 -0.016627963896376909 -0.0030183150781935542 0 -0.015928331087871467 -0.003170278542981117 0 -0.01603179946775753 -0.002746953697133874 0 -0.015928331087871467 -0.003170278542981117 0 -0.015558926284073592 -0.0026872608027356188 0 -0.015019722064360893 -0.00260403695785682 0 -0.015928331087871467 -0.003170278542981117 0 -0.01603179946775753 -0.002746953697133874 0 -0.015558926284073592 -0.0026872608027356188 0 -0.015558926284073592 -0.0026872608027356188 0 -0.015777460909435839 -0.0023832827790027326 0 -0.015068024993118085 -0.0023938836862518482 0 -0.015777460909435839 -0.0023832827790027326 0 -0.015671874231712325 -0.0020981948538965137 0 -0.015068024993118085 -0.0023938836862518482 0 -0.015777460909435839 -0.0023832827790027326 0 -0.016212949407496298 -0.0019274991999545497 0 -0.015671874231712325 -0.0020981948538965137 0 -0.01603179946775753 -0.002746953697133874 0 -0.015558926284073592 -0.0026872608027356188 0 -0.015777460909435839 -0.0023832827790027326 0 -0.01603179946775753 -0.002746953697133874 0 -0.015777460909435839 -0.0023832827790027326 0 -0.01637692601978059 -0.0024722059982311599 0 -0.015777460909435839 -0.0023832827790027326 0 -0.01637692601978059 -0.0024722059982311599 0 -0.016212949407496298 -0.0019274991999545497 0 -0.01637692601978059 -0.0024722059982311599 0 -0.016212949407496298 -0.0019274991999545497 0 -0.017205881644310621 -0.0023010302950681335 0 -0.016627963896376909 -0.0030183150781935542 0 -0.01637692601978059 -0.0024722059982311599 0 -0.017205881644310621 -0.0023010302950681335 0 -0.015566713757317873 -0.001721724328042528 0 -0.015671874231712325 -0.0020981948538965137 0 -0.015068024993118085 -0.0023938836862518482 0 -0.016212949407496298 -0.0019274991999545497 0 -0.015566713757317873 -0.001721724328042528 0 -0.016142640694208461 -0.0012553959554352726 0 -0.016212949407496298 -0.0019274991999545497 0 -0.015566713757317873 -0.001721724328042528 0 -0.015671874231712325 -0.0020981948538965137 0 -0.017205881644310621 -0.0023010302950681335 0 -0.018183499825790407 -0.0019482591773112524 0 -0.016996382908477558 -0.0014540710019380111 0 -0.016212949407496298 -0.0019274991999545497 0 -0.017205881644310621 -0.0023010302950681335 0 -0.016996382908477558 -0.0014540710019380111 0 -0.017205881644310621 -0.0023010302950681335 0 -0.018393398419278756 -0.0026649971007826731 0 -0.018183499825790407 -0.0019482591773112524 0 -0.017493550397760269 -0.0029766299762915209 0 -0.018307884044804192 -0.0033031508611731097 0 -0.018393398419278756 -0.0026649971007826731 0 -0.017205881644310621 -0.0023010302950681335 0 -0.017493550397760269 -0.0029766299762915209 0 -0.018393398419278756 -0.0026649971007826731 0 -0.016627963896376909 -0.0030183150781935542 0 -0.017205881644310621 -0.0023010302950681335 0 -0.017493550397760269 -0.0029766299762915209 0 -0.017493550397760269 -0.0029766299762915209 0 -0.017128595050501828 -0.0036140841745062272 0 -0.018307884044804192 -0.0033031508611731097 0 -0.016627963896376909 -0.0030183150781935542 0 -0.017493550397760269 -0.0029766299762915209 0 -0.017128595050501828 -0.0036140841745062272 0 -0.018307884044804192 -0.0033031508611731097 0 -0.019513959502107551 -0.0031752453976838521 0 -0.018393398419278756 -0.0026649971007826731 0 -0.020406493740866682 -0.0031817501836890827 0 -0.019513959502107551 -0.0031752453976838521 0 -0.01949958364737106 -0.0025985274095785601 0 -0.019513959502107551 -0.0031752453976838521 0 -0.01949958364737106 -0.0025985274095785601 0 -0.018393398419278756 -0.0026649971007826731 0 -0.01949958364737106 -0.0025985274095785601 0 -0.020294753731682835 -0.0029725367773820494 0 -0.019694786746183798 -0.0021610777401490848 0 -0.020776371108483519 -0.0030795097859205715 0 -0.020294753731682835 -0.0029725367773820494 0 -0.019694786746183798 -0.0021610777401490848 0 -0.020192669747856894 -0.0024813946327916928 0 -0.019779985008253273 -0.0021827617229635949 0 -0.020406493740866682 -0.0031817501836890827 0 -0.01949958364737106 -0.0025985274095785601 0 -0.020294753731682835 -0.0029725367773820494 0 -0.01949958364737106 -0.0025985274095785601 0 -0.019694786746183798 -0.0021610777401490848 0 -0.018987766036964657 -0.0017432611737545388 0 -0.019694786746183798 -0.0021610777401490848 0 -0.018987766036964657 -0.0017432611737545388 0 -0.019493938160868435 -0.0016722362622500877 0 -0.01949958364737106 -0.0025985274095785601 0 -0.018987766036964657 -0.0017432611737545388 0 -0.018183499825790407 -0.0019482591773112524 0 -0.01949958364737106 -0.0025985274095785601 0 -0.018393398419278756 -0.0026649971007826731 0 -0.018183499825790407 -0.0019482591773112524 0 -0.018987766036964657 -0.0017432611737545388 0 -0.018183499825790407 -0.0019482591773112524 0 -0.017851131710305706 -0.0010642195799935887 0 -0.018987766036964657 -0.0017432611737545388 0 -0.017851131710305706 -0.0010642195799935887 0 -0.018848815737124547 -0.001123714127644775 0 -0.018987766036964657 -0.0017432611737545388 0 -0.019493938160868435 -0.0016722362622500877 0 -0.018848815737124547 -0.001123714127644775 0 -0.019439146701071434 -0.0011097544169844668 0 -0.019493938160868435 -0.0016722362622500877 0 -0.018848815737124547 -0.001123714127644775 0 -0.019439146701071434 -0.0011097544169844668 0 -0.018848815737124547 -0.001123714127644775 0 -0.018865673544051602 -0.00058214308169815337 0 -0.018848815737124547 -0.001123714127644775 0 -0.018865673544051602 -0.00058214308169815337 0 -0.018155912238697308 -0.0005393683760286026 0 -0.018360792980729443 -0.00019279462470208974 0 -0.01871013870773925 -6.0136402448796498e-05 0 -0.018865673544051602 -0.00058214308169815337 0 -0.018360792980729443 -0.00019279462470208974 0 -0.018865673544051602 -0.00058214308169815337 0 -0.018155912238697308 -0.0005393683760286026 0 -0.019486327708317767 -0.0002816077912431473 0 -0.019439146701071434 -0.0011097544169844668 0 -0.018865673544051602 -0.00058214308169815337 0 -0.017851131710305706 -0.0010642195799935887 0 -0.018155912238697308 -0.0005393683760286026 0 -0.017129089405115174 -0.0002183231590803674 0 -0.017851131710305706 -0.0010642195799935887 0 -0.018848815737124547 -0.001123714127644775 0 -0.018155912238697308 -0.0005393683760286026 0 -0.017774154926989458 1.6637211464280538e-05 0 -0.018360792980729443 -0.00019279462470208974 0 -0.018155912238697308 -0.0005393683760286026 0 -0.017774154926989458 1.6637211464280538e-05 0 -0.018155912238697308 -0.0005393683760286026 0 -0.017129089405115174 -0.0002183231590803674 0 -0.017851131710305706 -0.0010642195799935887 0 -0.017129089405115174 -0.0002183231590803674 0 -0.01650801641007053 -0.00071062684500379058 0 -0.017129089405115174 -0.0002183231590803674 0 -0.016100333464503534 5.7340868810232758e-05 0 -0.01650801641007053 -0.00071062684500379058 0 -0.015334010373560997 0.00069000866063094284 0 -0.016100333464503534 5.7340868810232758e-05 0 -0.015525135526904772 -0.00060575246402072244 0 -0.016100333464503534 5.7340868810232758e-05 0 -0.01650801641007053 -0.00071062684500379058 0 -0.015525135526904772 -0.00060575246402072244 0 -0.01650801641007053 -0.00071062684500379058 0 -0.016142640694208461 -0.0012553959554352726 0 -0.016996382908477558 -0.0014540710019380111 0 -0.015566713757317873 -0.001721724328042528 0 -0.016142640694208461 -0.0012553959554352726 0 -0.015525135526904772 -0.00060575246402072244 0 -0.01650801641007053 -0.00071062684500379058 0 -0.016142640694208461 -0.0012553959554352726 0 -0.015525135526904772 -0.00060575246402072244 0 -0.016212949407496298 -0.0019274991999545497 0 -0.016142640694208461 -0.0012553959554352726 0 -0.016996382908477558 -0.0014540710019380111 0 -0.018183499825790407 -0.0019482591773112524 0 -0.017851131710305706 -0.0010642195799935887 0 -0.016996382908477558 -0.0014540710019380111 0 -0.017851131710305706 -0.0010642195799935887 0 -0.01650801641007053 -0.00071062684500379058 0 -0.016996382908477558 -0.0014540710019380111 0 -0.01159521793317915 0.00051700651567534886 0 -0.011394466730009076 0.00060635043008548607 0 -0.010998487729895506 0.00032940724198674362 0 -0.01159521793317915 0.00051700651567534886 0 -0.011394466730009076 0.00060635043008548607 0 -0.011757872086026062 0.00084091138171878263 0 -0.01159521793317915 0.00051700651567534886 0 -0.012152571510512191 0.00092111731207378158 0 -0.011757872086026062 0.00084091138171878263 0 -0.015566713757317873 -0.001721724328042528 0 -0.015525135526904772 -0.00060575246402072244 0 -0.015068024993118085 -0.0023938836862518482 0 -0.012740110949080494 -0.0012314379220403088 0 -0.013107185433296796 -0.0005726460122364664 0 -0.015068024993118085 -0.0023938836862518482 0 -0.014861646298545314 -0.00071645213249101557 0 -0.014819348196470683 -0.0024102136679312889 0 -0.012493626510042391 0.0018141925445773267 0 -0.013107185433296796 -0.0005726460122364664 0 -0.010998487729895506 0.00032940724198674362 0 -0.010154236393257072 0.0013868017447600817 0 -0.014861646298545314 -0.00071645213249101557 0 -0.012740110949080494 -0.0012314379220403088 0 -0.013107185433296796 -0.0005726460122364664 0 -0.010998487729895506 0.00032940724198674362 0 -0.012088606535818142 -0.00028024982654004517 0 -0.011163940596389704 0.00036071934856348066 0 -0.01159521793317915 0.00051700651567534886 0 -0.010998487729895506 0.00032940724198674362 0 -0.011025892581148023 0.00040412554435397772 0 -0.011139279050541974 0.00031197825696336191 0 -0.011025892581148023 0.00040412554435397772 0 -0.012661606977672461 0.00024710071749055708 0 -0.011025892581148023 0.00040412554435397772 0 -0.012661606977672461 0.00024710071749055708 0 -0.012660516023172233 0.00057608270158375626 0 -0.012123783426874044 0.00010685082536247903 0 -0.011139279050541974 0.00031197825696336191 0 -0.012661606977672461 0.00024710071749055708 0 -0.012661606977672461 0.00024710071749055708 0 -0.012660516023172233 0.00057608270158375626 0 -0.014717173529577649 0.00053090838112419662 0 -0.01159521793317915 0.00051700651567534886 0 -0.012660516023172233 0.00057608270158375626 0 -0.012152571510512191 0.00092111731207378158 0 -0.01159521793317915 0.00051700651567534886 0 -0.011025892581148023 0.00040412554435397772 0 -0.012660516023172233 0.00057608270158375626 0 -0.012660516023172233 0.00057608270158375626 0 -0.012152571510512191 0.00092111731207378158 0 -0.012820861887204037 0.0015328820967682128 0 -0.012660516023172233 0.00057608270158375626 0 -0.012820861887204037 0.0015328820967682128 0 -0.013971482816816672 0.0011474998770962738 0 -0.012152571510512191 0.00092111731207378158 0 -0.012820861887204037 0.0015328820967682128 0 -0.012097225438380124 0.0012576346421749038 0 -0.012660516023172233 0.00057608270158375626 0 -0.013971482816816672 0.0011474998770962738 0 -0.014717173529577649 0.00053090838112419662 0 -0.013971482816816672 0.0011474998770962738 0 -0.012980025289652655 0.0027134047937441824 0 -0.017638329505384624 0.0016479892061277144 0 -0.012820861887204037 0.0015328820967682128 0 -0.013971482816816672 0.0011474998770962738 0 -0.012980025289652655 0.0027134047937441824 0 -0.022922027841009756 0.0017107739950913271 0 -0.020552617247899543 0.00043856222347074964 0 -0.017638329505384624 0.0016479892061277144 0 -0.018049516049974623 0.0020145891997922906 0 -0.017804734909600654 0.0017540233426737507 0 -0.012820861887204037 0.0015328820967682128 0 -0.013464286824545839 0.0021758853287171952 0 -0.012456433172355608 0.0016441385874379376 0 -0.012820861887204037 0.0015328820967682128 0 -0.012980025289652655 0.0027134047937441824 0 -0.013464286824545839 0.0021758853287171952 0 -0.013464286824545839 0.0021758853287171952 0 -0.012152249023501441 0.0019036030647946148 0 -0.012456433172355608 0.0016441385874379376 0 -0.013714427048670609 0.0021883406427618554 0 -0.014257210366041117 0.002301175021723939 0 -0.013464286824545839 0.0021758853287171952 0 -0.012152249023501441 0.0019036030647946148 0 -0.011696077616711396 0.0024180921151308031 0 -0.012152249023501441 0.0019036030647946148 0 -0.0116207421629787 0.0019057550322523417 0 -0.011696077616711396 0.0024180921151308031 0 -0.012152249023501441 0.0019036030647946148 0 -0.011760554527847378 0.0015560973294011095 0 -0.0116207421629787 0.0019057550322523417 0 -0.012152249023501441 0.0019036030647946148 0 -0.011760554527847378 0.0015560973294011095 0 -0.012456433172355608 0.0016441385874379376 0 -0.012820861887204037 0.0015328820967682128 0 -0.012456433172355608 0.0016441385874379376 0 -0.012097225438380124 0.0012576346421749038 0 -0.011760554527847378 0.0015560973294011095 0 -0.012097225438380124 0.0012576346421749038 0 -0.011515704547429905 0.0011490604368161101 0 -0.011760554527847378 0.0015560973294011095 0 -0.012456433172355608 0.0016441385874379376 0 -0.012097225438380124 0.0012576346421749038 0 -0.012097225438380124 0.0012576346421749038 0 -0.011757872086026062 0.00084091138171878263 0 -0.011515704547429905 0.0011490604368161101 0 -0.012152571510512191 0.00092111731207378158 0 -0.012097225438380124 0.0012576346421749038 0 -0.011757872086026062 0.00084091138171878263 0 -0.011394466730009076 0.00060635043008548607 0 -0.011515704547429905 0.0011490604368161101 0 -0.0111534990389426 0.0014129623833044759 0 -0.012740110949080494 -0.0012314379220403088 0 -0.015068024993118085 -0.0023938836862518482 0 -0.015019722064360893 -0.00260403695785682 0 -0.012088606535818142 -0.00028024982654004517 0 -0.012537204167817664 -0.00039564785057909165 0 -0.011394466730009076 0.00060635043008548607 0 -0.011757872086026062 0.00084091138171878263 0 -0.011515704547429905 0.0011490604368161101 0 -0.011760554527847378 0.0015560973294011095 0 -0.011515704547429905 0.0011490604368161101 0 -0.011456586654199654 0.0014361115548012892 0 -0.011515704547429905 0.0011490604368161101 0 -0.011456586654199654 0.0014361115548012892 0 -0.0111534990389426 0.0014129623833044759 0 -0.011456586654199654 0.0014361115548012892 0 -0.0111534990389426 0.0014129623833044759 0 -0.011421948946807294 0.0016447557127640478 0 -0.015558926284073592 -0.0026872608027356188 0 -0.015068024993118085 -0.0023938836862518482 0 -0.015019722064360893 -0.00260403695785682 0 -0.010780811000632726 0.0024447576256472095 0 -0.011284111655780292 0.0019728361831789784 0 -0.011696077616711396 0.0024180921151308031 0 -0.0111534990389426 0.0014129623833044759 0 -0.011421948946807294 0.0016447557127640478 0 -0.011284111655780292 0.0019728361831789784 0 -0.010780811000632726 0.0024447576256472095 0 -0.0111534990389426 0.0014129623833044759 0 -0.011284111655780292 0.0019728361831789784 0 -0.011760554527847378 0.0015560973294011095 0 -0.011456586654199654 0.0014361115548012892 0 -0.011421948946807294 0.0016447557127640478 0 -0.011421948946807294 0.0016447557127640478 0 -0.0116207421629787 0.0019057550322523417 0 -0.011284111655780292 0.0019728361831789784 0 -0.011760554527847378 0.0015560973294011095 0 -0.011421948946807294 0.0016447557127640478 0 -0.0116207421629787 0.0019057550322523417 0 -0.0116207421629787 0.0019057550322523417 0 -0.011284111655780292 0.0019728361831789784 0 -0.011696077616711396 0.0024180921151308031 0 -0.023562504299668663 -0.0012190475017192866 0 -0.02023358592511899 0.00063464734485804469 0 -0.026251906094571235 -0.00091702304927798099 0 -0.025610370139714723 0.00041323596581779295 0 -0.026045122819026965 -0.00064532110519960187 0 -0.017400238668780866 0.0020087691331811333 0 -0.021165519837719009 -0.0017494766542807188 0 -0.014762384390548845 0.00085300426245177535 0 -0.022779501305727191 0.00079741185222102263 0 -0.017400238668780866 0.0020087691331811333 0 -0.021165519837719009 -0.0017494766542807188 0 -0.018136294763038432 -0.00067116308631494327 0 -0.014257210366041117 0.002301175021723939 0 -0.013464286824545839 0.0021758853287171952 0 -0.017400238668780866 0.0020087691331811333 0 -0.014762384390548845 0.00085300426245177535 0 -0.025610370139714723 0.00041323596581779295 0 -0.026045122819026965 -0.00064532110519960187 0 -0.025373330559705556 -0.0008981676974514454 0 -0.026045122819026965 -0.00064532110519960187 0 -0.026113909755076256 -0.00078002922955758584 0 -0.025373330559705556 -0.0008981676974514454 0 -0.026251906094571235 -0.00091702304927798099 0 -0.026045122819026965 -0.00064532110519960187 0 -0.026141187194779512 -0.0008286804893960798 0 -0.025745940172036384 -0.00099658413422759845 0 -0.026251906094571235 -0.00091702304927798099 0 -0.026141187194779512 -0.0008286804893960798 0 -0.026045122819026965 -0.00064532110519960187 0 -0.026113909755076256 -0.00078002922955758584 0 -0.026141187194779512 -0.0008286804893960798 0 -0.025912890685852227 -0.00061948362230484946 0 -0.026141187194779512 -0.0008286804893960798 0 -0.026260226288365652 -0.00055928524197232073 0 -0.025912890685852227 -0.00061948362230484946 0 -0.026260226288365652 -0.00055928524197232073 0 -0.026357671310013448 -0.00010077838579868018 0 -0.026113909755076256 -0.00078002922955758584 0 -0.026141187194779512 -0.0008286804893960798 0 -0.026260226288365652 -0.00055928524197232073 0 -0.026113909755076256 -0.00078002922955758584 0 -0.026260226288365652 -0.00055928524197232073 0 -0.026625161132717619 -0.00044898302515816724 0 -0.026113909755076256 -0.00078002922955758584 0 -0.026625161132717619 -0.00044898302515816724 0 -0.025373330559705556 -0.0008981676974514454 0 -0.026625161132717619 -0.00044898302515816724 0 -0.027586013118078647 0.00027974870837679116 0 -0.026964690218688938 0.00031126534623857402 0 -0.026260226288365652 -0.00055928524197232073 0 -0.026625161132717619 -0.00044898302515816724 0 -0.026357671310013448 -0.00010077838579868018 0 -0.026625161132717619 -0.00044898302515816724 0 -0.026357671310013448 -0.00010077838579868018 0 -0.026964690218688938 0.00031126534623857402 0 -0.023006227744463977 -0.0014995110471514852 0 -0.022781836676385493 -0.0010078579235597556 0 -0.02308666094770306 -0.00039767454868801168 0 -0.025433121361826686 -0.00085310381556497137 0 -0.026013171566500307 1.5010011242397165e-05 0 -0.026625161132717619 -0.00044898302515816724 0 -0.027717142847287685 -0.00045055499953961366 0 -0.027586013118078647 0.00027974870837679116 0 -0.025433121361826686 -0.00085310381556497137 0 -0.025470532343043625 -0.00078623889043312315 0 -0.026625161132717619 -0.00044898302515816724 0 -0.027717142847287685 -0.00045055499953961366 0 -0.025373330559705556 -0.0008981676974514454 0 -0.023006227744463977 -0.0014995110471514852 0 -0.022020262236388737 -0.00062288523458571934 0 -0.022781836676385493 -0.0010078579235597556 0 -0.023006227744463977 -0.0014995110471514852 0 -0.022020262236388737 -0.00062288523458571934 0 -0.025373330559705556 -0.0008981676974514454 0 -0.022020262236388737 -0.00062288523458571934 0 -0.025373330559705556 -0.0008981676974514454 0 -0.023934694662259583 0.00018158659072187348 0 -0.012980025289652655 0.0027134047937441824 0 -0.013464286824545839 0.0021758853287171952 0 -0.014762384390548845 0.00085300426245177535 0 -0.018049516049974623 0.0020145891997922906 0 -0.02023358592511899 0.00063464734485804469 0 -0.022922027841009756 0.0017107739950913271 0 -0.025610370139714723 0.00041323596581779295 0 -0.023934694662259583 0.00018158659072187348 0 -0.025610370139714723 0.00041323596581779295 0 -0.025373330559705556 -0.0008981676974514454 0 -0.023934694662259583 0.00018158659072187348 0 -0.022922027841009756 0.0017107739950913271 0 -0.023934694662259583 0.00018158659072187348 0 -0.020552617247899543 0.00043856222347074964 0 -0.022020262236388737 -0.00062288523458571934 0 -0.023934694662259583 0.00018158659072187348 0 -0.020552617247899543 0.00043856222347074964 0 -0.022020262236388737 -0.00062288523458571934 0 -0.020552617247899543 0.00043856222347074964 0 -0.020179413919575877 0.00019047091531767862 0 -0.020552617247899543 0.00043856222347074964 0 -0.020179413919575877 0.00019047091531767862 0 -0.017638329505384624 0.0016479892061277144 0 -0.020179413919575877 0.00019047091531767862 0 -0.021883789169837013 -0.00052205794316906155 0 -0.019516989041356406 0.00032126192660634996 0 -0.022020262236388737 -0.00062288523458571934 0 -0.020179413919575877 0.00019047091531767862 0 -0.021883789169837013 -0.00052205794316906155 0 -0.022020262236388737 -0.00062288523458571934 0 -0.021883789169837013 -0.00052205794316906155 0 -0.022781836676385493 -0.0010078579235597556 0 -0.021883789169837013 -0.00052205794316906155 0 -0.022781836676385493 -0.0010078579235597556 0 -0.024189519532505418 -0.00060065401480377122 0 -0.022781836676385493 -0.0010078579235597556 0 -0.024189519532505418 -0.00060065401480377122 0 -0.02308666094770306 -0.00039767454868801168 0 -0.024507282274188743 -0.00037908029983872048 0 -0.02503810383840957 -3.4802307137729069e-07 0 -0.027910007880634774 -1.659486105008086e-06 0 -0.024189519532505418 -0.00060065401480377122 0 -0.024507282274188743 -0.00037908029983872048 0 -0.026523354304935954 -9.826560076646527e-05 0 -0.021883789169837013 -0.00052205794316906155 0 -0.024189519532505418 -0.00060065401480377122 0 -0.024507282274188743 -0.00037908029983872048 0 -0.021883789169837013 -0.00052205794316906155 0 -0.024507282274188743 -0.00037908029983872048 0 -0.022530604053016962 -0.00022103829076449625 0 -0.024507282274188743 -0.00037908029983872048 0 -0.02503810383840957 -3.4802307137729069e-07 0 -0.022530604053016962 -0.00022103829076449625 0 -0.02503810383840957 -3.4802307137729069e-07 0 -0.022530604053016962 -0.00022103829076449625 0 -0.022168142967962903 -2.0341071430327161e-07 0 -0.021883789169837013 -0.00052205794316906155 0 -0.022530604053016962 -0.00022103829076449625 0 -0.019516989041356406 0.00032126192660634996 0 -0.022530604053016962 -0.00022103829076449625 0 -0.019516989041356406 0.00032126192660634996 0 -0.022168142967962903 -2.0341071430327161e-07 0 -0.019516989041356406 0.00032126192660634996 0 -0.022168142967962903 -2.0341071430327161e-07 0 -0.01929812721252502 3.9102224654433488e-07 0 -0.01929812721252502 3.9102224654433488e-07 0 -0.016882331750398959 0.0003234488708438875 0 -0.01642808759226521 2.6069036579149976e-07 0 -0.019516989041356406 0.00032126192660634996 0 -0.016882331750398959 0.0003234488708438875 0 -0.016839046921656883 0.00078246993954759689 0 -0.019516989041356406 0.00032126192660634996 0 -0.01929812721252502 3.9102224654433488e-07 0 -0.016882331750398959 0.0003234488708438875 0 -0.019516989041356406 0.00032126192660634996 0 -0.017638329505384624 0.0016479892061277144 0 -0.016839046921656883 0.00078246993954759689 0 -0.020179413919575877 0.00019047091531767862 0 -0.019516989041356406 0.00032126192660634996 0 -0.017638329505384624 0.0016479892061277144 0 -0.017638329505384624 0.0016479892061277144 0 -0.014717173529577649 0.00053090838112419662 0 -0.016839046921656883 0.00078246993954759689 0 -0.013971482816816672 0.0011474998770962738 0 -0.017638329505384624 0.0016479892061277144 0 -0.014717173529577649 0.00053090838112419662 0 -0.014717173529577649 0.00053090838112419662 0 -0.016839046921656883 0.00078246993954759689 0 -0.014421089650562987 0.00020813960422917788 0 -0.016882331750398959 0.0003234488708438875 0 -0.016839046921656883 0.00078246993954759689 0 -0.014421089650562987 0.00020813960422917788 0 -0.012661606977672461 0.00024710071749055708 0 -0.014717173529577649 0.00053090838112419662 0 -0.014421089650562987 0.00020813960422917788 0 -0.012123783426874044 0.00010685082536247903 0 -0.012661606977672461 0.00024710071749055708 0 -0.014421089650562987 0.00020813960422917788 0 -0.012461133285818727 3.0329300434550824e-05 0 -0.012123783426874044 0.00010685082536247903 0 -0.014421089650562987 0.00020813960422917788 0 -0.012461133285818727 3.0329300434550824e-05 0 -0.014421089650562987 0.00020813960422917788 0 -0.014817220913341016 8.7237558700812697e-05 0 -0.013557009385739045 -8.9781195479522459e-08 0 -0.014817220913341016 8.7237558700812697e-05 0 -0.01642808759226521 2.6069036579149976e-07 0 -0.013557009385739045 -8.9781195479522459e-08 0 -0.012461133285818727 3.0329300434550824e-05 0 -0.014817220913341016 8.7237558700812697e-05 0 -0.016882331750398959 0.0003234488708438875 0 -0.014817220913341016 8.7237558700812697e-05 0 -0.01642808759226521 2.6069036579149976e-07 0 -0.016882331750398959 0.0003234488708438875 0 -0.014421089650562987 0.00020813960422917788 0 -0.014817220913341016 8.7237558700812697e-05 0 -0.038012925856880715 -3.9138417555502785e-05 0 -0.039643121604797202 -1.8418109838409939e-05 0 -0.038123524669392408 0.00043691468586378959 0 -0.038012925856880715 -3.9138417555502785e-05 0 -0.039428559296652378 1.9015206214413381e-07 0 -0.039643121604797202 -1.8418109838409939e-05 0 -0.038012925856880715 -3.9138417555502785e-05 0 -0.039428559296652378 1.9015206214413381e-07 0 -0.037753133428975898 -0.00019105929313021413 0 -0.039428559296652378 1.9015206214413381e-07 0 -0.039643121604797202 -1.8418109838409939e-05 0 -0.042510967788288709 -1.6728153792733679e-06 0 -0.039643121604797202 -1.8418109838409939e-05 0 -0.038123524669392408 0.00043691468586378959 0 -0.039321088951167468 0.00012578444091988631 0 -0.038123524669392408 0.00043691468586378959 0 -0.03837813368926115 0.0003901328378473764 0 -0.039321088951167468 0.00012578444091988631 0 -0.038123524669392408 0.00043691468586378959 0 -0.03837813368926115 0.0003901328378473764 0 -0.036642242098807114 0.0011914479523308637 0 -0.038012925856880715 -3.9138417555502785e-05 0 -0.038123524669392408 0.00043691468586378959 0 -0.037258242006094691 0.00020953659719678724 0 -0.038123524669392408 0.00043691468586378959 0 -0.036642242098807114 0.0011914479523308637 0 -0.037258242006094691 0.00020953659719678724 0 -0.038012925856880715 -3.9138417555502785e-05 0 -0.037258242006094691 0.00020953659719678724 0 -0.037414218467144218 -0.00032678344394363953 0 -0.037258242006094691 0.00020953659719678724 0 -0.036790107744899408 -0.00040271307091851853 0 -0.036313811095586464 8.4478327743462496e-05 0 -0.037258242006094691 0.00020953659719678724 0 -0.036790107744899408 -0.00040271307091851853 0 -0.037414218467144218 -0.00032678344394363953 0 -0.036642242098807114 0.0011914479523308637 0 -0.036313811095586464 8.4478327743462496e-05 0 -0.034307155756274126 -0.00080944680148132512 0 -0.036642242098807114 0.0011914479523308637 0 -0.034307155756274126 -0.00080944680148132512 0 -0.032822915349203056 -0.00041688953211509573 0 -0.036642242098807114 0.0011914479523308637 0 -0.037258242006094691 0.00020953659719678724 0 -0.036313811095586464 8.4478327743462496e-05 0 -0.036790107744899408 -0.00040271307091851853 0 -0.036313811095586464 8.4478327743462496e-05 0 -0.034307155756274126 -0.00080944680148132512 0 -0.034307155756274126 -0.00080944680148132512 0 -0.036035676893887376 -0.0018502936284034244 0 -0.032822915349203056 -0.00041688953211509573 0 -0.03082650371518747 0.0001092994993711319 0 -0.028724083602204027 5.2430421970444309e-05 0 -0.032822915349203056 -0.00041688953211509573 0 -0.032327615366692888 -0.00071736565097076739 0 -0.032635125219618887 -0.00042467006264567444 0 -0.034515647366286623 -0.00074942520249314981 0 -0.036367447907916059 -0.0012636701137533261 0 -0.03082650371518747 0.0001092994993711319 0 -0.029669635501200047 0.00046923470270714661 0 -0.028724083602204027 5.2430421970444309e-05 0 -0.029669635501200047 0.00046923470270714661 0 -0.028724083602204027 5.2430421970444309e-05 0 -0.029174911331930637 0.0007856428540219658 0 -0.03082650371518747 0.0001092994993711319 0 -0.029835494197321327 0.00076985741774826966 0 -0.030092077845998273 0.00074811934167888559 0 -0.03082650371518747 0.0001092994993711319 0 -0.029669635501200047 0.00046923470270714661 0 -0.029835494197321327 0.00076985741774826966 0 -0.034307155756274126 -0.00080944680148132512 0 -0.035908732727132367 -0.0018752995130893414 0 -0.036035676893887376 -0.0018502936284034244 0 -0.036790107744899408 -0.00040271307091851853 0 -0.034307155756274126 -0.00080944680148132512 0 -0.03738776194090792 -0.00081738186489030125 0 -0.036790107744899408 -0.00040271307091851853 0 -0.037414218467144218 -0.00032678344394363953 0 -0.03738776194090792 -0.00081738186489030125 0 -0.037414218467144218 -0.00032678344394363953 0 -0.03738776194090792 -0.00081738186489030125 0 -0.037206736738004814 -0.00042018852331173715 0 -0.037206736738004814 -0.00042018852331173715 0 -0.037368223146743401 -0.00029484650272380521 0 -0.036509576340211541 5.8654878393176437e-05 0 -0.036367447907916059 -0.0012636701137533261 0 -0.035311498739034532 -0.00056575367509769249 0 -0.03738776194090792 -0.00081738186489030125 0 -0.037206736738004814 -0.00042018852331173715 0 -0.036509576340211541 5.8654878393176437e-05 0 -0.038012925856880715 -3.9138417555502785e-05 0 -0.037414218467144218 -0.00032678344394363953 0 -0.037368223146743401 -0.00029484650272380521 0 -0.037414218467144218 -0.00032678344394363953 0 -0.037206736738004814 -0.00042018852331173715 0 -0.037368223146743401 -0.00029484650272380521 0 -0.038012925856880715 -3.9138417555502785e-05 0 -0.037368223146743401 -0.00029484650272380521 0 -0.037753133428975898 -0.00019105929313021413 0 -0.039428559296652378 1.9015206214413381e-07 0 -0.036346324309284077 -1.7946854807844605e-06 0 -0.037753133428975898 -0.00019105929313021413 0 -0.037368223146743401 -0.00029484650272380521 0 -0.036346324309284077 -1.7946854807844605e-06 0 -0.037753133428975898 -0.00019105929313021413 0 -0.036346324309284077 -1.7946854807844605e-06 0 -0.033269197071234734 2.6339692722799863e-06 0 -0.036509576340211541 5.8654878393176437e-05 0 -0.037368223146743401 -0.00029484650272380521 0 -0.036346324309284077 -1.7946854807844605e-06 0 -0.036509576340211541 5.8654878393176437e-05 0 -0.033257614732853193 -2.3387342872821006e-06 0 -0.033992537240357737 -0.00094932777673283791 0 -0.034066307764783484 -2.4090169727208374e-05 0 -0.033265183308870676 -1.5386377757595524e-07 0 -0.035311498739034532 -0.00056575367509769249 0 -0.027509714817800325 0.0017967701004243546 0 -0.027291032078202663 0.0019848704884710099 0 -0.02830473665604415 0.001190980152604813 0 -0.035908732727132367 -0.0018752995130893414 0 -0.033992537240357737 -0.00094932777673283791 0 -0.034066307764783484 -2.4090169727208374e-05 0 -0.027509714817800325 0.0017967701004243546 0 -0.027291032078202663 0.0019848704884710099 0 -0.027208509772057039 0.00086462928083493311 0 -0.030776490488793995 0.00077833540509946212 0 -0.030780483964077388 7.6013922781050024e-08 0 -0.027291032078202663 0.0019848704884710099 0 -0.027208509772057039 0.00086462928083493311 0 -0.030772892139244442 4.4035202777013221e-06 0 -0.033257614732853193 -2.3387342872821006e-06 0 -0.034066307764783484 -2.4090169727208374e-05 0 -0.030787216532224826 2.0882575735352555e-06 0 -0.027208509772057039 0.00086462928083493311 0 -0.030772892139244442 4.4035202777013221e-06 0 -0.026523354304935954 -9.826560076646527e-05 0 -0.027208509772057039 0.00086462928083493311 0 -0.026523354304935954 -9.826560076646527e-05 0 -0.024794598996457105 0.00069856123821109288 0 -0.024507282274188743 -0.00037908029983872048 0 -0.026523354304935954 -9.826560076646527e-05 0 -0.027910007880634774 -1.659486105008086e-06 0 -0.030772892139244442 4.4035202777013221e-06 0 -0.026523354304935954 -9.826560076646527e-05 0 -0.027910007880634774 -1.659486105008086e-06 0 -0.02890416826648104 0.00046392917204216401 0 -0.029172010298350048 0.0015195345663055178 0 -0.028607169050167608 0.00080651522720086972 0 -0.024189519532505418 -0.00060065401480377122 0 -0.02308666094770306 -0.00039767454868801168 0 -0.024794598996457105 0.00069856123821109288 0 -0.026013171566500307 1.5010011242397165e-05 0 -0.026904486545144414 0.0010295580777994375 0 -0.024189519532505418 -0.00060065401480377122 0 -0.026523354304935954 -9.826560076646527e-05 0 -0.024794598996457105 0.00069856123821109288 0 -0.029646343768164305 0.0010196600555462895 0 -0.029242030376640967 0.0013266521912486606 0 -0.029357931451353972 0.0011920328039071529 0 -0.029172010298350048 0.0015195345663055178 0 -0.029242030376640967 0.0013266521912486606 0 -0.029357931451353972 0.0011920328039071529 0 -0.027391763188262325 0.0016361971276319747 0 -0.026904486545144414 0.0010295580777994375 0 -0.027509714817800325 0.0017967701004243546 0 -0.027208509772057039 0.00086462928083493311 0 -0.024794598996457105 0.00069856123821109288 0 -0.027509714817800325 0.0017967701004243546 0 -0.029172010298350048 0.0015195345663055178 0 -0.029242030376640967 0.0013266521912486606 0 -0.035908732727132367 -0.0018752995130893414 0 -0.036035676893887376 -0.0018502936284034244 0 -0.034066307764783484 -2.4090169727208374e-05 0 -0.032327615366692888 -0.00071736565097076739 0 -0.030776490488793995 0.00077833540509946212 0 -0.028724083602204027 5.2430421970444309e-05 0 -0.027291032078202663 0.0019848704884710099 0 -0.02830473665604415 0.001190980152604813 0 -0.027509714817800325 0.0017967701004243546 0 -0.02830473665604415 0.001190980152604813 0 -0.029242030376640967 0.0013266521912486606 0 -0.02830473665604415 0.001190980152604813 0 -0.029242030376640967 0.0013266521912486606 0 -0.029174911331930637 0.0007856428540219658 0 -0.028724083602204027 5.2430421970444309e-05 0 -0.02830473665604415 0.001190980152604813 0 -0.029174911331930637 0.0007856428540219658 0 -0.029646343768164305 0.0010196600555462895 0 -0.029242030376640967 0.0013266521912486606 0 -0.029835494197321327 0.00076985741774826966 0 -0.029242030376640967 0.0013266521912486606 0 -0.029174911331930637 0.0007856428540219658 0 -0.029835494197321327 0.00076985741774826966 0 -0.029669635501200047 0.00046923470270714661 0 -0.029174911331930637 0.0007856428540219658 0 -0.029835494197321327 0.00076985741774826966 0 -0.030092077845998273 0.00074811934167888559 0 -0.029274185869701413 0.0011985156745666534 0 -0.029357931451353972 0.0011920328039071529 0 -0.029646343768164305 0.0010196600555462895 0 -0.029835494197321327 0.00076985741774826966 0 -0.030092077845998273 0.00074811934167888559 0 -0.029646343768164305 0.0010196600555462895 0 -0.030092077845998273 0.00074811934167888559 0 -0.029357931451353972 0.0011920328039071529 0 -0.029274185869701413 0.0011985156745666534 0 -0.030150514147161165 0.00039720429208532691 0 -0.030179857220281197 0.00047008636664982122 0 -0.030092077845998273 0.00074811934167888559 0 -0.029274185869701413 0.0011985156745666534 0 -0.030179857220281197 0.00047008636664982122 0 -0.029274185869701413 0.0011985156745666534 0 -0.029357931451353972 0.0011920328039071529 0 -0.028142567160256125 0.00085427669580788164 0 -0.029172010298350048 0.0015195345663055178 0 -0.029357931451353972 0.0011920328039071529 0 -0.028607169050167608 0.00080651522720086972 0 -0.027717142847287685 -0.00045055499953961366 0 -0.02890416826648104 0.00046392917204216401 0 -0.028607169050167608 0.00080651522720086972 0 -0.027717142847287685 -0.00045055499953961366 0 -0.028607169050167608 0.00080651522720086972 0 -0.027586013118078647 0.00027974870837679116 0 -0.029357931451353972 0.0011920328039071529 0 -0.028607169050167608 0.00080651522720086972 0 -0.028142567160256125 0.00085427669580788164 0 -0.028607169050167608 0.00080651522720086972 0 -0.027586013118078647 0.00027974870837679116 0 -0.028142567160256125 0.00085427669580788164 0 -0.026357671310013448 -0.00010077838579868018 0 -0.026964690218688938 0.00031126534623857402 0 -0.026264816243646027 0.00045574395316751301 0 -0.026964690218688938 0.00031126534623857402 0 -0.026916459421625141 0.00093924190608146762 0 -0.026264816243646027 0.00045574395316751301 0 -0.027586013118078647 0.00027974870837679116 0 -0.026964690218688938 0.00031126534623857402 0 -0.028142567160256125 0.00085427669580788164 0 -0.026964690218688938 0.00031126534623857402 0 -0.028142567160256125 0.00085427669580788164 0 -0.026916459421625141 0.00093924190608146762 0 -0.026916459421625141 0.00093924190608146762 0 -0.027542735876038695 0.0012467348271592018 0 -0.02656185612556505 0.0016146945992329966 0 -0.028142567160256125 0.00085427669580788164 0 -0.026916459421625141 0.00093924190608146762 0 -0.027542735876038695 0.0012467348271592018 0 -0.029274185869701413 0.0011985156745666534 0 -0.028142567160256125 0.00085427669580788164 0 -0.027542735876038695 0.0012467348271592018 0 -0.029239637067971502 0.001181168125857397 0 -0.02883981722036999 0.0011843031777441964 0 -0.029274185869701413 0.0011985156745666534 0 -0.030427255636720062 0.00044340559051333415 0 -0.030150514147161165 0.00039720429208532691 0 -0.029274185869701413 0.0011985156745666534 0 -0.027542735876038695 0.0012467348271592018 0 -0.02724491102055469 0.0020028961384712701 0 -0.027542735876038695 0.0012467348271592018 0 -0.02724491102055469 0.0020028961384712701 0 -0.02656185612556505 0.0016146945992329966 0 -0.02883981722036999 0.0011843031777441964 0 -0.028403058392585799 0.00085765480009380632 0 -0.030427255636720062 0.00044340559051333415 0 -0.030343185090490207 0.00033934807474689092 0 -0.030182164988269047 0.0001625053506796217 0 -0.030343185090490207 0.00033934807474689092 0 -0.030283457923134673 0.00043999612384301219 0 -0.030182164988269047 0.0001625053506796217 0 -0.030343185090490207 0.00033934807474689092 0 -0.030283457923134673 0.00043999612384301219 0 -0.030450269470765186 0.00054370157532899154 0 -0.030343185090490207 0.00033934807474689092 0 -0.030450269470765186 0.00054370157532899154 0 -0.030471457399532761 0.00026003611402854095 0 -0.030427255636720062 0.00044340559051333415 0 -0.030343185090490207 0.00033934807474689092 0 -0.030150514147161165 0.00039720429208532691 0 -0.030343185090490207 0.00033934807474689092 0 -0.030150514147161165 0.00039720429208532691 0 -0.030471457399532761 0.00026003611402854095 0 -0.030179857220281197 0.00047008636664982122 0 -0.030471457399532761 0.00026003611402854095 0 -0.031074649856909466 3.2221150265005295e-05 0 -0.030150514147161165 0.00039720429208532691 0 -0.030179857220281197 0.00047008636664982122 0 -0.030471457399532761 0.00026003611402854095 0 -0.03082650371518747 0.0001092994993711319 0 -0.031074649856909466 3.2221150265005295e-05 0 -0.032822915349203056 -0.00041688953211509573 0 -0.030092077845998273 0.00074811934167888559 0 -0.030179857220281197 0.00047008636664982122 0 -0.031074649856909466 3.2221150265005295e-05 0 -0.03082650371518747 0.0001092994993711319 0 -0.030092077845998273 0.00074811934167888559 0 -0.031074649856909466 3.2221150265005295e-05 0 -0.031074649856909466 3.2221150265005295e-05 0 -0.032822915349203056 -0.00041688953211509573 0 -0.031066787247688837 0.00025320201552107776 0 -0.032822915349203056 -0.00041688953211509573 0 -0.031066787247688837 0.00025320201552107776 0 -0.03123525754080219 0.001647109970917619 0 -0.030471457399532761 0.00026003611402854095 0 -0.031074649856909466 3.2221150265005295e-05 0 -0.031066787247688837 0.00025320201552107776 0 -0.030450269470765186 0.00054370157532899154 0 -0.030471457399532761 0.00026003611402854095 0 -0.031066787247688837 0.00025320201552107776 0 -0.035296553396674077 0.0013949915687550712 0 -0.035272628098822048 0.0010616159642156113 0 -0.030450269470765186 0.00054370157532899154 0 -0.031066787247688837 0.00025320201552107776 0 -0.03123525754080219 0.001647109970917619 0 -0.036585456112985991 0.0012164773302077109 0 -0.035296553396674077 0.0013949915687550712 0 -0.036642242098807114 0.0011914479523308637 0 -0.032822915349203056 -0.00041688953211509573 0 -0.03123525754080219 0.001647109970917619 0 -0.03837813368926115 0.0003901328378473764 0 -0.039145785852251355 0.00127903485177267 0 -0.039551477658667081 0.00062906050500135039 0 -0.03837813368926115 0.0003901328378473764 0 -0.036642242098807114 0.0011914479523308637 0 -0.039145785852251355 0.00127903485177267 0 -0.039145785852251355 0.00127903485177267 0 -0.040075409264860064 0.0011213614531364047 0 -0.039551477658667081 0.00062906050500135039 0 -0.040075409264860064 0.0011213614531364047 0 -0.040261415256683891 0.00075381033484756151 0 -0.039551477658667081 0.00062906050500135039 0 -0.040075409264860064 0.0011213614531364047 0 -0.040405151915964228 0.0010788150153306834 0 -0.040261415256683891 0.00075381033484756151 0 -0.035272628098822048 0.0010616159642156113 0 -0.035398548105792772 0.00075746733347128374 0 -0.040405151915964228 0.0010788150153306834 0 -0.040623223906035268 0.00071368204917689681 0 -0.040261415256683891 0.00075381033484756151 0 -0.030283457923134673 0.00043999612384301219 0 -0.03042485459707674 0.0009061502530096783 0 -0.030431746030909937 0.00069391875252137385 0 -0.030283457923134673 0.00043999612384301219 0 -0.030450269470765186 0.00054370157532899154 0 -0.03042485459707674 0.0009061502530096783 0 -0.030450269470765186 0.00054370157532899154 0 -0.03123525754080219 0.001647109970917619 0 -0.03042485459707674 0.0009061502530096783 0 -0.029979371836440113 0.0003966568376008395 0 -0.029489667093404979 0.00077823142154246564 0 -0.029328140483016237 0.00036106349680587775 0 -0.029979371836440113 0.0003966568376008395 0 -0.029328140483016237 0.00036106349680587775 0 -0.029596536407600172 -2.1631015993182015e-05 0 -0.030283457923134673 0.00043999612384301219 0 -0.029979371836440113 0.0003966568376008395 0 -0.030431746030909937 0.00069391875252137385 0 -0.035398548105792772 0.00075746733347128374 0 -0.035228527785279913 -0.00021340100331442946 0 -0.040405151915964228 0.0010788150153306834 0 -0.040650936744573186 0.0011219562410917649 0 -0.040623223906035268 0.00071368204917689681 0 -0.029979371836440113 0.0003966568376008395 0 -0.030431746030909937 0.00069391875252137385 0 -0.030202438713519086 0.00075726739186122798 0 -0.040650936744573186 0.0011219562410917649 0 -0.04086543369703563 0.00079144516551951996 0 -0.040623223906035268 0.00071368204917689681 0 -0.035228527785279913 -0.00021340100331442946 0 -0.037721873071386046 -0.00036184653198100561 0 -0.029979371836440113 0.0003966568376008395 0 -0.030202438713519086 0.00075726739186122798 0 -0.029489667093404979 0.00077823142154246564 0 -0.040650936744573186 0.0011219562410917649 0 -0.041145215159639953 0.00075808414205318509 0 -0.04086543369703563 0.00079144516551951996 0 -0.040650936744573186 0.0011219562410917649 0 -0.041674567282964543 0.0009535261560387376 0 -0.041145215159639953 0.00075808414205318509 0 -0.033770117760553706 -0.0017158499767937049 0 -0.03330538797798506 -0.0016995606061773452 0 -0.032960625362093876 -0.0015318253801821478 0 -0.035228527785279913 -0.00021340100331442946 0 -0.031097757767866961 -0.00038221941619016972 0 -0.03330538797798506 -0.0016995606061773452 0 -0.032960625362093876 -0.0015318253801821478 0 -0.032491597554973564 -0.0016592899776099652 0 -0.029489667093404979 0.00077823142154246564 0 -0.028975332315602627 0.00041554564679726578 0 -0.028815803622812008 0.00021555227035028679 0 -0.031097757767866961 -0.00038221941619016972 0 -0.030767720436518278 -0.00074353569814666291 0 -0.029489667093404979 0.00077823142154246564 0 -0.028975332315602627 0.00041554564679726578 0 -0.029328140483016237 0.00036106349680587775 0 -0.028975332315602627 0.00041554564679726578 0 -0.028815803622812008 0.00021555227035028679 0 -0.028876718763331387 0.0003201235365789144 0 -0.028975332315602627 0.00041554564679726578 0 -0.028614663852170454 0.00020293435448236565 0 -0.028876718763331387 0.0003201235365789144 0 -0.028975332315602627 0.00041554564679726578 0 -0.028614663852170454 0.00020293435448236565 0 -0.029328140483016237 0.00036106349680587775 0 -0.028562044685428098 0.00021991377187558083 0 -0.028360548369722731 0.00039305346556354565 0 -0.028614663852170454 0.00020293435448236565 0 -0.027093767089169118 0.00071306312644598931 0 -0.028027839704366571 0.00098910594943695364 0 -0.028614663852170454 0.00020293435448236565 0 -0.029328140483016237 0.00036106349680587775 0 -0.029596536407600172 -2.1631015993182015e-05 0 -0.028614663852170454 0.00020293435448236565 0 -0.028027839704366571 0.00098910594943695364 0 -0.02887984012459436 0.00054391142377234502 0 -0.028027839704366571 0.00098910594943695364 0 -0.02871757751084681 0.0013104834588689111 0 -0.02887984012459436 0.00054391142377234502 0 -0.027093767089169118 0.00071306312644598931 0 -0.028027839704366571 0.00098910594943695364 0 -0.02675109154604895 0.0015343283294127878 0 -0.027093767089169118 0.00071306312644598931 0 -0.026575044854571638 0.0015694155653700138 0 -0.02675109154604895 0.0015343283294127878 0 -0.028360548369722731 0.00039305346556354565 0 -0.028403058392585799 0.00085765480009380632 0 -0.029596536407600172 -2.1631015993182015e-05 0 -0.030055894033099165 0.00025438715752627394 0 -0.030182164988269047 0.0001625053506796217 0 -0.029979371836440113 0.0003966568376008395 0 -0.029596536407600172 -2.1631015993182015e-05 0 -0.030055894033099165 0.00025438715752627394 0 -0.030283457923134673 0.00043999612384301219 0 -0.029979371836440113 0.0003966568376008395 0 -0.030055894033099165 0.00025438715752627394 0 -0.030283457923134673 0.00043999612384301219 0 -0.030055894033099165 0.00025438715752627394 0 -0.030182164988269047 0.0001625053506796217 0 -0.02724491102055469 0.0020028961384712701 0 -0.026575044854571638 0.0015694155653700138 0 -0.02656185612556505 0.0016146945992329966 0 -0.026575044854571638 0.0015694155653700138 0 -0.02675109154604895 0.0015343283294127878 0 -0.02656185612556505 0.0016146945992329966 0 -0.02675109154604895 0.0015343283294127878 0 -0.026209485017871795 0.0017233832015484832 0 -0.02656185612556505 0.0016146945992329966 0 -0.026209485017871795 0.0017233832015484832 0 -0.02656185612556505 0.0016146945992329966 0 -0.026195621606145799 0.0010947291451894544 0 -0.026916459421625141 0.00093924190608146762 0 -0.02656185612556505 0.0016146945992329966 0 -0.026195621606145799 0.0010947291451894544 0 -0.026916459421625141 0.00093924190608146762 0 -0.026195621606145799 0.0010947291451894544 0 -0.026264816243646027 0.00045574395316751301 0 -0.026195621606145799 0.0010947291451894544 0 -0.025514731424547486 0.0010193331984668791 0 -0.02557023693777383 0.00052895043756876305 0 -0.026209485017871795 0.0017233832015484832 0 -0.026195621606145799 0.0010947291451894544 0 -0.025514731424547486 0.0010193331984668791 0 -0.025064221244610569 0.00015762356413873916 0 -0.02557023693777383 0.00052895043756876305 0 -0.024918613151363712 0.00059965986444585507 0 -0.025514731424547486 0.0010193331984668791 0 -0.02557023693777383 0.00052895043756876305 0 -0.024918613151363712 0.00059965986444585507 0 -0.025585109911385972 -0.00010073200289412351 0 -0.02557023693777383 0.00052895043756876305 0 -0.026264816243646027 0.00045574395316751301 0 -0.026195621606145799 0.0010947291451894544 0 -0.02557023693777383 0.00052895043756876305 0 -0.026264816243646027 0.00045574395316751301 0 -0.024170954121564541 0.0004987115107068493 0 -0.024394187173224845 0.00058789481287632262 0 -0.024612891700838996 0.00096288699118582508 0 -0.024394187173224845 0.00058789481287632262 0 -0.024612891700838996 0.00096288699118582508 0 -0.024956796699148579 0.0010295209129875047 0 -0.024394187173224845 0.00058789481287632262 0 -0.024918613151363712 0.00059965986444585507 0 -0.024956796699148579 0.0010295209129875047 0 -0.025514731424547486 0.0010193331984668791 0 -0.024918613151363712 0.00059965986444585507 0 -0.024956796699148579 0.0010295209129875047 0 -0.026209485017871795 0.0017233832015484832 0 -0.025514731424547486 0.0010193331984668791 0 -0.025308780765198467 0.0014393600643414889 0 -0.025514731424547486 0.0010193331984668791 0 -0.024956796699148579 0.0010295209129875047 0 -0.025308780765198467 0.0014393600643414889 0 -0.024956796699148579 0.0010295209129875047 0 -0.025013360718113192 0.0015724414937732124 0 -0.025308780765198467 0.0014393600643414889 0 -0.024612891700838996 0.00096288699118582508 0 -0.024956796699148579 0.0010295209129875047 0 -0.025013360718113192 0.0015724414937732124 0 -0.025013360718113192 0.0015724414937732124 0 -0.025308780765198467 0.0014393600643414889 0 -0.025170071161136769 0.0019507288621952428 0 -0.025013360718113192 0.0015724414937732124 0 -0.025170071161136769 0.0019507288621952428 0 -0.025218362046569718 0.0019201335067838767 0 -0.026209485017871795 0.0017233832015484832 0 -0.025308780765198467 0.0014393600643414889 0 -0.025170071161136769 0.0019507288621952428 0 -0.026290116651256506 0.0017503544078064123 0 -0.026417360949199522 0.0018279702570718399 0 -0.028027839704366571 0.00098910594943695364 0 -0.02675109154604895 0.0015343283294127878 0 -0.027599243007043212 0.0018556993344188873 0 -0.02675109154604895 0.0015343283294127878 0 -0.026209485017871795 0.0017233832015484832 0 -0.027599243007043212 0.0018556993344188873 0 -0.028027839704366571 0.00098910594943695364 0 -0.027599243007043212 0.0018556993344188873 0 -0.02871757751084681 0.0013104834588689111 0 -0.026417360949199522 0.0018279702570718399 0 -0.02700020350060249 0.0013780561383245249 0 -0.025170071161136769 0.0019507288621952428 0 -0.025250398094687581 0.0014601102527765132 0 -0.025218362046569718 0.0019201335067838767 0 -0.025250398094687581 0.0014601102527765132 0 -0.025218362046569718 0.0019201335067838767 0 -0.02611975814555419 0.0016849212437130155 0 -0.025218362046569718 0.0019201335067838767 0 -0.02611975814555419 0.0016849212437130155 0 -0.025769614781615574 0.0022610912942494423 0 -0.02611975814555419 0.0016849212437130155 0 -0.02694072697651274 0.0022003366704398922 0 -0.02756714385884269 0.0016934200861850714 0 -0.02611975814555419 0.0016849212437130155 0 -0.02694072697651274 0.0022003366704398922 0 -0.025769614781615574 0.0022610912942494423 0 -0.02694072697651274 0.0022003366704398922 0 -0.027003478147637587 0.0031582009908514004 0 -0.02834164720794655 0.0026510821948292551 0 -0.027003478147637587 0.0031582009908514004 0 -0.025769614781615574 0.0022610912942494423 0 -0.026613505587236144 0.0039795021533786199 0 -0.02694072697651274 0.0022003366704398922 0 -0.027003478147637587 0.0031582009908514004 0 -0.025769614781615574 0.0022610912942494423 0 -0.026224477067016468 0.003068759787571651 0 -0.025990599698623874 0.002967707985935954 0 -0.025724834777468723 0.002405226940941683 0 -0.025990599698623874 0.002967707985935954 0 -0.025769614781615574 0.0022610912942494423 0 -0.025121093221345779 0.0019071664315982388 0 -0.025175239685484973 0.0018215133106756194 0 -0.027003478147637587 0.0031582009908514004 0 -0.026763813664363749 0.0037132587733455956 0 -0.027827819303641928 0.0036813577158946566 0 -0.025013360718113192 0.0015724414937732124 0 -0.025218362046569718 0.0019201335067838767 0 -0.025175239685484973 0.0018215133106756194 0 -0.025218362046569718 0.0019201335067838767 0 -0.025769614781615574 0.0022610912942494423 0 -0.025175239685484973 0.0018215133106756194 0 -0.025013360718113192 0.0015724414937732124 0 -0.025175239685484973 0.0018215133106756194 0 -0.024627886743380727 0.0012072686562909422 0 -0.024612891700838996 0.00096288699118582508 0 -0.025013360718113192 0.0015724414937732124 0 -0.024627886743380727 0.0012072686562909422 0 -0.025211914901449275 0.0025582785501791451 0 -0.025197884054390197 0.0023549582469854636 0 -0.025299262049620852 0.0023415726740621317 0 -0.025990599698623874 0.002967707985935954 0 -0.024982364219838401 0.0016502528142195419 0 -0.025211914901449275 0.0025582785501791451 0 -0.025197884054390197 0.0023549582469854636 0 -0.025073432047501676 0.0023250467424496299 0 -0.025121093221345779 0.0019071664315982388 0 -0.025175239685484973 0.0018215133106756194 0 -0.024627886743380727 0.0012072686562909422 0 -0.024293540513791057 0.0013981687193883607 0 -0.026158469792026955 0.0035731791797290616 0 -0.025197884054390197 0.0023549582469854636 0 -0.025227420079695667 0.0022234362174225752 0 -0.025299262049620852 0.0023415726740621317 0 -0.025197884054390197 0.0023549582469854636 0 -0.025227420079695667 0.0022234362174225752 0 -0.025073432047501676 0.0023250467424496299 0 -0.024170954121564541 0.0004987115107068493 0 -0.024612891700838996 0.00096288699118582508 0 -0.024627886743380727 0.0012072686562909422 0 -0.024137535237663307 0.0010319376027364022 0 -0.024982364219838401 0.0016502528142195419 0 -0.025378021469159049 0.0021199094040171111 0 -0.025227420079695667 0.0022234362174225752 0 -0.025299262049620852 0.0023415726740621317 0 -0.025265873093634348 0.0014733489059064661 0 -0.025706038576708817 0.00064076198249607126 0 -0.025924227110864777 0.00070068745949588684 0 -0.022616808162823483 -0.0015390718214380664 0 -0.028786894399998521 0.0029212882862721134 0 -0.025265873093634348 0.0014733489059064661 0 -0.025706038576708817 0.00064076198249607126 0 -0.024995228006662356 0.001008884017108196 0 -0.030660716820934211 0.0064306637263394622 0 -0.029042910142120917 0.0059928446451460232 0 -0.030640506001641268 0.0057939202573541824 0 -0.02699664767855367 0.0029364064666694495 0 -0.026280748845974301 0.0033200324697832484 0 -0.026208804998664299 0.0027281937153340445 0 -0.028407344054715393 0.0036637597632691158 0 -0.027894768131855936 0.0049047920551846301 0 -0.030660716820934211 0.0064306637263394622 0 -0.030640506001641268 0.0057939202573541824 0 -0.031218007734641357 0.006118842295841931 0 -0.028407344054715393 0.0036637597632691158 0 -0.029581715950170766 0.0041863373196899889 0 -0.028407344054715393 0.0036637597632691158 0 -0.028786894399998521 0.0029212882862721134 0 -0.030645126930078488 0.0064099861277088438 0 -0.031218007734641357 0.006118842295841931 0 -0.031096243248210649 0.0065352919048624778 0 -0.028407344054715393 0.0036637597632691158 0 -0.023478357397854477 0.00065575046016439137 0 -0.023478357397854477 0.00065575046016439137 0 -0.026158469792026955 0.0035731791797290616 0 -0.023613760966237171 0.00068181751732229626 0 -0.023646113545867393 0.00069404490513640083 0 -0.023646638416481878 0.00069036092081474465 0 -0.026280748845974301 0.0033200324697832484 0 -0.02600244540829864 0.0028391125450234916 0 -0.026208804998664299 0.0027281937153340445 0 -0.028225569260686496 0.006016576948113383 0 -0.028339888817941597 0.0063908341053120097 0 -0.028755914553552659 0.0061565578296625357 0 -0.028320335188725929 0.0052549698954111167 0 -0.027894768131855936 0.0049047920551846301 0 -0.026158469792026955 0.0035731791797290616 0 -0.027894768131855936 0.0049047920551846301 0 -0.028225569260686496 0.006016576948113383 0 -0.028772980721653966 0.0055348060600001765 0 -0.028210330191547256 0.0046597793493627412 0 -0.026763813664363749 0.0037132587733455956 0 -0.028225569260686496 0.006016576948113383 0 -0.028210330191547256 0.0046597793493627412 0 -0.026763813664363749 0.0037132587733455956 0 -0.028225569260686496 0.006016576948113383 0 -0.028339888817941597 0.0063908341053120097 0 -0.025990599698623874 0.002967707985935954 0 -0.026158469792026955 0.0035731791797290616 0 -0.028225569260686496 0.006016576948113383 0 -0.028766534238305191 0.0061711522203138003 0 -0.028772980721653966 0.0055348060600001765 0 -0.028210330191547256 0.0046597793493627412 0 -0.028957747690739936 0.0049746216470853153 0 -0.028861735609355229 0.0039165818999879892 0 -0.028772980721653966 0.0055348060600001765 0 -0.028210330191547256 0.0046597793493627412 0 -0.028957747690739936 0.0049746216470853153 0 -0.027894768131855936 0.0049047920551846301 0 -0.030702442298692931 0.0051656984934012927 0 -0.029042910142120917 0.0059928446451460232 0 -0.030729150873602465 0.00510673602754409 0 -0.030640506001641268 0.0057939202573541824 0 -0.028957747690739936 0.0049746216470853153 0 -0.029881938510636159 0.0041440939419652729 0 -0.028861735609355229 0.0039165818999879892 0 -0.028957747690739936 0.0049746216470853153 0 -0.030483585251508433 0.0052968246526571292 0 -0.029881938510636159 0.0041440939419652729 0 -0.028766534238305191 0.0061711522203138003 0 -0.028772980721653966 0.0055348060600001765 0 -0.030483585251508433 0.0052968246526571292 0 -0.028772980721653966 0.0055348060600001765 0 -0.028957747690739936 0.0049746216470853153 0 -0.030483585251508433 0.0052968246526571292 0 -0.030729150873602465 0.00510673602754409 0 -0.030640506001641268 0.0057939202573541824 0 -0.031534637227107053 0.0053237131563636884 0 -0.030483585251508433 0.0052968246526571292 0 -0.029881938510636159 0.0041440939419652729 0 -0.03099626071330296 0.0038596108930901191 0 -0.03023765334307105 0.0026571280047826907 0 -0.028861735609355229 0.0039165818999879892 0 -0.02834164720794655 0.0026510821948292551 0 -0.029881938510636159 0.0041440939419652729 0 -0.03023765334307105 0.0026571280047826907 0 -0.03099626071330296 0.0038596108930901191 0 -0.029881938510636159 0.0041440939419652729 0 -0.03023765334307105 0.0026571280047826907 0 -0.028861735609355229 0.0039165818999879892 0 -0.026763813664363749 0.0037132587733455956 0 -0.028210330191547256 0.0046597793493627412 0 -0.027827819303641928 0.0036813577158946566 0 -0.028210330191547256 0.0046597793493627412 0 -0.027827819303641928 0.0036813577158946566 0 -0.028861735609355229 0.0039165818999879892 0 -0.027827819303641928 0.0036813577158946566 0 -0.028861735609355229 0.0039165818999879892 0 -0.02834164720794655 0.0026510821948292551 0 -0.027003478147637587 0.0031582009908514004 0 -0.027827819303641928 0.0036813577158946566 0 -0.02834164720794655 0.0026510821948292551 0 -0.02834164720794655 0.0026510821948292551 0 -0.02756714385884269 0.0016934200861850714 0 -0.029531043412836959 0.0013676071663440241 0 -0.02694072697651274 0.0022003366704398922 0 -0.02834164720794655 0.0026510821948292551 0 -0.02756714385884269 0.0016934200861850714 0 -0.03023765334307105 0.0026571280047826907 0 -0.029531043412836959 0.0013676071663440241 0 -0.031612947820872178 0.001412206196095916 0 -0.03023765334307105 0.0026571280047826907 0 -0.02834164720794655 0.0026510821948292551 0 -0.029531043412836959 0.0013676071663440241 0 -0.029531043412836959 0.0013676071663440241 0 -0.030546618119033388 0.00038914632946332136 0 -0.029460176049280497 0.00019967704627890236 0 -0.030546618119033388 0.00038914632946332136 0 -0.029460176049280497 0.00019967704627890236 0 -0.030413926760121671 -0.00044665180017351778 0 -0.029278172733758743 0.00021738907203649869 0 -0.028128288619270959 0.00065470340879556941 0 -0.029531043412836959 0.0013676071663440241 0 -0.029460176049280497 0.00019967704627890236 0 -0.026999071264099801 0.00051630983143252955 0 -0.02756714385884269 0.0016934200861850714 0 -0.029531043412836959 0.0013676071663440241 0 -0.026999071264099801 0.00051630983143252955 0 -0.025250398094687581 0.0014601102527765132 0 -0.02611975814555419 0.0016849212437130155 0 -0.026999071264099801 0.00051630983143252955 0 -0.02611975814555419 0.0016849212437130155 0 -0.02756714385884269 0.0016934200861850714 0 -0.026999071264099801 0.00051630983143252955 0 -0.02700020350060249 0.0013780561383245249 0 -0.028128288619270959 0.00065470340879556941 0 -0.02871757751084681 0.0013104834588689111 0 -0.029253973418194718 0.00067281110070730734 0 -0.02887984012459436 0.00054391142377234502 0 -0.02887984012459436 0.00054391142377234502 0 -0.029180937497647885 0.00018186132470876415 0 -0.029004652209231454 0.00031545009068176223 0 -0.028614663852170454 0.00020293435448236565 0 -0.02887984012459436 0.00054391142377234502 0 -0.029004652209231454 0.00031545009068176223 0 -0.029460176049280497 0.00019967704627890236 0 -0.029253973418194718 0.00067281110070730734 0 -0.029180937497647885 0.00018186132470876415 0 -0.029253973418194718 0.00067281110070730734 0 -0.02887984012459436 0.00054391142377234502 0 -0.029180937497647885 0.00018186132470876415 0 -0.029180937497647885 0.00018186132470876415 0 -0.029411629287024694 0.00033931804887459932 0 -0.029182866707753954 0.00027403807352240441 0 -0.029180937497647885 0.00018186132470876415 0 -0.029004652209231454 0.00031545009068176223 0 -0.029411629287024694 0.00033931804887459932 0 -0.029230240894837552 7.0131581481549417e-05 0 -0.029176455907918411 2.5583678339255303e-05 0 -0.028614663852170454 0.00020293435448236565 0 -0.029004652209231454 0.00031545009068176223 0 -0.028876718763331387 0.0003201235365789144 0 -0.029004652209231454 0.00031545009068176223 0 -0.028876718763331387 0.0003201235365789144 0 -0.029411629287024694 0.00033931804887459932 0 -0.030767720436518278 -0.00074353569814666291 0 -0.030854672985112665 -0.0010456343040831364 0 -0.028815803622812008 0.00021555227035028679 0 -0.028876718763331387 0.0003201235365789144 0 -0.029517676619498234 -0.00061055605170119633 0 -0.028876718763331387 0.0003201235365789144 0 -0.029411629287024694 0.00033931804887459932 0 -0.029517676619498234 -0.00061055605170119633 0 -0.029411629287024694 0.00033931804887459932 0 -0.030998366452714275 -0.0002884431455196986 0 -0.029517676619498234 -0.00061055605170119633 0 -0.029411629287024694 0.00033931804887459932 0 -0.02903967960164093 0.00040983709054518227 0 -0.029182866707753954 0.00027403807352240441 0 -0.029411629287024694 0.00033931804887459932 0 -0.030998366452714275 -0.0002884431455196986 0 -0.032697694254413823 0.00025421576331584924 0 -0.029503108048420646 0.00054750040278880125 0 -0.030845440749898003 -0.00032587089873135526 0 -0.030845440749898003 -0.00032587089873135526 0 -0.029176455907918411 2.5583678339255303e-05 0 -0.030998366452714275 -0.0002884431455196986 0 -0.032697694254413823 0.00025421576331584924 0 -0.032526101931187795 -0.0012953993299868315 0 -0.031214772615866564 -0.00045401325905240417 0 -0.032632984703074505 -0.00074726249351064029 0 -0.032694582884517862 -0.0018164692178128257 0 -0.030845440749898003 -0.00032587089873135526 0 -0.031731179967043902 -0.0011545410143194595 0 -0.030845440749898003 -0.00032587089873135526 0 -0.033490748543979217 -0.0015076577747040697 0 -0.029790116569895168 -0.0012331714207621783 0 -0.030413926760121671 -0.00044665180017351778 0 -0.030740478468089565 -0.0015687122576760338 0 -0.029790116569895168 -0.0012331714207621783 0 -0.029783862010283508 -0.00055290298570183111 0 -0.030413926760121671 -0.00044665180017351778 0 -0.029460176049280497 0.00019967704627890236 0 -0.029783862010283508 -0.00055290298570183111 0 -0.030413926760121671 -0.00044665180017351778 0 -0.029460176049280497 0.00019967704627890236 0 -0.029783862010283508 -0.00055290298570183111 0 -0.029338474645737564 -0.00043091989119348114 0 -0.029460176049280497 0.00019967704627890236 0 -0.029180937497647885 0.00018186132470876415 0 -0.029338474645737564 -0.00043091989119348114 0 -0.029790116569895168 -0.0012331714207621783 0 -0.029783862010283508 -0.00055290298570183111 0 -0.029338474645737564 -0.00043091989119348114 0 -0.033288176094915058 -0.0026329315885576976 0 -0.032526101931187795 -0.0012953993299868315 0 -0.032040284608573756 -0.0017247517486793436 0 -0.043913224651936894 8.5244782352118066e-05 0 -0.044381826818503924 7.2997536778300254e-05 0 -0.043476690740791801 0.00045060816270371353 0 -0.040973259742073304 -0.0004961442877834311 0 -0.037392011630677784 -0.00069384321976181398 0 -0.044789215493937246 -3.6105750960604939e-06 0 -0.040973259742073304 -0.0004961442877834311 0 -0.043913224651936894 8.5244782352118066e-05 0 -0.044341871310375036 -2.0838279035163085e-05 0 -0.044288492471925768 -0.00028834166487712716 0 -0.040973259742073304 -0.0004961442877834311 0 -0.045298019806106427 -0.00056842353761143928 0 -0.044341871310375036 -2.0838279035163085e-05 0 -0.044439999882519558 -0.00025962368600175459 0 -0.044543350685962206 -0.00023326095278228005 0 -0.033288176094915058 -0.0026329315885576976 0 -0.032526101931187795 -0.0012953993299868315 0 -0.034261871698674888 -0.001233036020676824 0 -0.032697694254413823 0.00025421576331584924 0 -0.032526101931187795 -0.0012953993299868315 0 -0.034261871698674888 -0.001233036020676824 0 -0.030998366452714275 -0.0002884431455196986 0 -0.032526101931187795 -0.0012953993299868315 0 -0.029517676619498234 -0.00061055605170119633 0 -0.032429015073321424 -0.0013020053112034117 0 -0.030854672985112665 -0.0010456343040831364 0 -0.03202038378615641 -0.0015317099565178645 0 -0.032245952532280256 -0.0014388691388035424 0 -0.032040284608573756 -0.0017247517486793436 0 -0.032526101931187795 -0.0012953993299868315 0 -0.03202038378615641 -0.0015317099565178645 0 -0.032040284608573756 -0.0017247517486793436 0 -0.037401954825654338 -0.00035020410313803019 0 -0.037392011630677784 -0.00069384321976181398 0 -0.032491597554973564 -0.0016592899776099652 0 -0.03202038378615641 -0.0015317099565178645 0 -0.032245952532280256 -0.0014388691388035424 0 -0.042530843280468925 0.00074397159816031518 0 -0.042922042917641574 0.00023578492102644427 0 -0.043476690740791801 0.00045060816270371353 0 -0.042530843280468925 0.00074397159816031518 0 -0.042922042917641574 0.00023578492102644427 0 -0.042385111322166047 0.00022734299971324641 0 -0.042922042917641574 0.00023578492102644427 0 -0.042830493423462263 -0.00016543502568538884 0 -0.042385111322166047 0.00022734299971324641 0 -0.042922042917641574 0.00023578492102644427 0 -0.043476690740791801 0.00045060816270371353 0 -0.043405816817053078 -8.0414581468828348e-05 0 -0.042922042917641574 0.00023578492102644427 0 -0.043405816817053078 -8.0414581468828348e-05 0 -0.042830493423462263 -0.00016543502568538884 0 -0.043913224651936894 8.5244782352118066e-05 0 -0.043476690740791801 0.00045060816270371353 0 -0.043405816817053078 -8.0414581468828348e-05 0 -0.043405816817053078 -8.0414581468828348e-05 0 -0.043404432175303306 -0.00052594656727410183 0 -0.042830493423462263 -0.00016543502568538884 0 -0.043405816817053078 -8.0414581468828348e-05 0 -0.043404432175303306 -0.00052594656727410183 0 -0.043961303468049426 -0.00046635826624211738 0 -0.042830493423462263 -0.00016543502568538884 0 -0.042295614271747543 -0.0003088265546514662 0 -0.042385111322166047 0.00022734299971324641 0 -0.043404432175303306 -0.00052594656727410183 0 -0.042830493423462263 -0.00016543502568538884 0 -0.04285190579995711 -0.00092212329700848872 0 -0.042830493423462263 -0.00016543502568538884 0 -0.04285190579995711 -0.00092212329700848872 0 -0.042295614271747543 -0.0003088265546514662 0 -0.046088569373349791 -0.00073161163234139405 0 -0.048662760579023863 -0.00042401618012282653 0 -0.050182915048609743 -0.00049630857516463857 0 -0.049522054237169343 -0.00046471022391664745 0 -0.050110805956019092 -0.00026013101930485387 0 -0.043404432175303306 -0.00052594656727410183 0 -0.04285190579995711 -0.00092212329700848872 0 -0.043980920980482355 -0.0010220778801923449 0 -0.048662760579023863 -0.00042401618012282653 0 -0.044202553591730358 -0.0013710109122653056 0 -0.043980920980482355 -0.0010220778801923449 0 -0.044420025208820581 -0.00083142038977526516 0 -0.043961303468049426 -0.00046635826624211738 0 -0.044420025208820581 -0.00083142038977526516 0 -0.043961303468049426 -0.00046635826624211738 0 -0.044360822062885413 -0.00056234609767419938 0 -0.043404432175303306 -0.00052594656727410183 0 -0.043980920980482355 -0.0010220778801923449 0 -0.043961303468049426 -0.00046635826624211738 0 -0.043913224651936894 8.5244782352118066e-05 0 -0.043961303468049426 -0.00046635826624211738 0 -0.044288492471925768 -0.00028834166487712716 0 -0.043913224651936894 8.5244782352118066e-05 0 -0.043405816817053078 -8.0414581468828348e-05 0 -0.043961303468049426 -0.00046635826624211738 0 -0.043961303468049426 -0.00046635826624211738 0 -0.044288492471925768 -0.00028834166487712716 0 -0.044360822062885413 -0.00056234609767419938 0 -0.044439999882519558 -0.00025962368600175459 0 -0.044520540071755654 -0.00046215332264731997 0 -0.044543350685962206 -0.00023326095278228005 0 -0.044439999882519558 -0.00025962368600175459 0 -0.044288492471925768 -0.00028834166487712716 0 -0.044520540071755654 -0.00046215332264731997 0 -0.044341871310375036 -2.0838279035163085e-05 0 -0.044439999882519558 -0.00025962368600175459 0 -0.044288492471925768 -0.00028834166487712716 0 -0.044288492471925768 -0.00028834166487712716 0 -0.044360822062885413 -0.00056234609767419938 0 -0.044520540071755654 -0.00046215332264731997 0 -0.044360822062885413 -0.00056234609767419938 0 -0.044520540071755654 -0.00046215332264731997 0 -0.044501708751563243 -0.00067834927580191675 0 -0.048662760579023863 -0.00042401618012282653 0 -0.049624960641147645 -0.00045904872402232228 0 -0.044472715320143338 -0.00085170396776900652 0 -0.044420025208820581 -0.00083142038977526516 0 -0.044544458830497506 -0.00082501158884117998 0 -0.044520540071755654 -0.00046215332264731997 0 -0.044501708751563243 -0.00067834927580191675 0 -0.044680041192696675 -0.0006657164552463338 0 -0.044420025208820581 -0.00083142038977526516 0 -0.044360822062885413 -0.00056234609767419938 0 -0.044501708751563243 -0.00067834927580191675 0 -0.044420025208820581 -0.00083142038977526516 0 -0.044501708751563243 -0.00067834927580191675 0 -0.044544458830497506 -0.00082501158884117998 0 -0.044501708751563243 -0.00067834927580191675 0 -0.044544458830497506 -0.00082501158884117998 0 -0.044680041192696675 -0.0006657164552463338 0 -0.054571749218086808 -7.9258277612227537e-05 0 -0.054721779593645499 -1.991061931081022e-05 0 -0.054671797218436423 -6.0668752429941652e-06 0 -0.054650189638153129 -9.9578997194944851e-05 0 -0.054571749218086808 -7.9258277612227537e-05 0 -0.054721779593645499 -1.991061931081022e-05 0 -0.054650189638153129 -9.9578997194944851e-05 0 -0.054721779593645499 -1.991061931081022e-05 0 -0.054798141100722814 -1.042222784404368e-05 0 -0.054721779593645499 -1.991061931081022e-05 0 -0.054850848615869793 2.4677526120330825e-05 0 -0.054817907590606556 2.0179377965557836e-05 0 -0.054721779593645499 -1.991061931081022e-05 0 -0.054850848615869793 2.4677526120330825e-05 0 -0.054798141100722814 -1.042222784404368e-05 0 -0.054721779593645499 -1.991061931081022e-05 0 -0.054817907590606556 2.0179377965557836e-05 0 -0.054671797218436423 -6.0668752429941652e-06 0 -0.054817907590606556 2.0179377965557836e-05 0 -0.054907967432156042 2.2196653751577289e-05 0 -0.054671797218436423 -6.0668752429941652e-06 0 -0.054817907590606556 2.0179377965557836e-05 0 -0.054907967432156042 2.2196653751577289e-05 0 -0.054915952802100217 2.4490993132324369e-05 0 -0.054850848615869793 2.4677526120330825e-05 0 -0.054817907590606556 2.0179377965557836e-05 0 -0.054915952802100217 2.4490993132324369e-05 0 -0.054850848615869793 2.4677526120330825e-05 0 -0.054915952802100217 2.4490993132324369e-05 0 -0.054944278568798369 3.0979453524515302e-05 0 -0.054915952802100217 2.4490993132324369e-05 0 -0.054999850125529832 1.6800239705366692e-08 0 -0.054999904226842755 3.7481458360922284e-08 0 -0.054915952802100217 2.4490993132324369e-05 0 -0.054999904226842755 3.7481458360922284e-08 0 -0.054944278568798369 3.0979453524515302e-05 0 -0.054907967432156042 2.2196653751577289e-05 0 -0.054915952802100217 2.4490993132324369e-05 0 -0.054999850125529832 1.6800239705366692e-08 0 -0.054999962877675924 8.3814082590053228e-09 0 -0.054999904226842755 3.7481458360922284e-08 0 -0.054944278568798369 3.0979453524515302e-05 0 -0.054944278568798369 3.0979453524515302e-05 0 -0.054960042191052119 3.6613182966274825e-05 0 -0.054918289371324543 3.7461535853301841e-05 0 -0.054999962877675924 8.3814082590053228e-09 0 -0.054944278568798369 3.0979453524515302e-05 0 -0.054960042191052119 3.6613182966274825e-05 0 -0.054960042191052119 3.6613182966274825e-05 0 -0.054918289371324543 3.7461535853301841e-05 0 -0.055007185231153471 0.0001452448093100888 0 -0.054850848615869793 2.4677526120330825e-05 0 -0.054944278568798369 3.0979453524515302e-05 0 -0.054918289371324543 3.7461535853301841e-05 0 -0.054850848615869793 2.4677526120330825e-05 0 -0.054918289371324543 3.7461535853301841e-05 0 -0.054798141100722814 -1.042222784404368e-05 0 -0.054650189638153129 -9.9578997194944851e-05 0 -0.054798141100722814 -1.042222784404368e-05 0 -0.054904326455676951 -3.1507516669550895e-05 0 -0.048662760579023863 -0.00042401618012282653 0 -0.053223252765911895 -1.2447964788748712e-05 0 -0.054918289371324543 3.7461535853301841e-05 0 -0.054798141100722814 -1.042222784404368e-05 0 -0.054904326455676951 -3.1507516669550895e-05 0 -0.053223252765911895 -1.2447964788748712e-05 0 -0.052638824961546191 -2.4249739228389819e-05 0 -0.050182915048609743 -0.00049630857516463857 0 -0.050110805956019092 -0.00026013101930485387 0 -0.050636782824582463 -0.00012825009182613646 0 -0.054918289371324543 3.7461535853301841e-05 0 -0.054904326455676951 -3.1507516669550895e-05 0 -0.055007185231153471 0.0001452448093100888 0 -0.050636782824582463 -0.00012825009182613646 0 -0.050923311145426239 -0.00025182716494211572 0 -0.050741148264791459 -0.00049766581785312181 0 -0.050636782824582463 -0.00012825009182613646 0 -0.050923311145426239 -0.00025182716494211572 0 -0.051017752365544095 -0.00011465205781586235 0 -0.050923311145426239 -0.00025182716494211572 0 -0.05104648004645284 -0.00031140932043939302 0 -0.050741148264791459 -0.00049766581785312181 0 -0.055007185231153471 0.0001452448093100888 0 -0.054652973516002054 1.8143465987759334e-05 0 -0.054906042383381641 1.747025659168066e-05 0 -0.052638824961546191 -2.4249739228389819e-05 0 -0.052585506067345571 0.00012642491757726171 0 -0.055007185231153471 0.0001452448093100888 0 -0.054652973516002054 1.8143465987759334e-05 0 -0.054221054236254188 0.0004298942474868259 0 -0.054960042191052119 3.6613182966274825e-05 0 -0.055007185231153471 0.0001452448093100888 0 -0.054906042383381641 1.747025659168066e-05 0 -0.054960042191052119 3.6613182966274825e-05 0 -0.054945038039106733 4.5539618713421583e-06 0 -0.054906042383381641 1.747025659168066e-05 0 -0.054652973516002054 1.8143465987759334e-05 0 -0.054906042383381641 1.747025659168066e-05 0 -0.054858364353034927 8.2369500170493171e-06 0 -0.054652973516002054 1.8143465987759334e-05 0 -0.054858364353034927 8.2369500170493171e-06 0 -0.054791032772436542 3.0386764315764362e-05 0 -0.054945038039106733 4.5539618713421583e-06 0 -0.054906042383381641 1.747025659168066e-05 0 -0.054858364353034927 8.2369500170493171e-06 0 -0.054945038039106733 4.5539618713421583e-06 0 -0.054858364353034927 8.2369500170493171e-06 0 -0.054999839391640916 -2.037984609654033e-08 0 -0.054858364353034927 8.2369500170493171e-06 0 -0.054999839391640916 -2.037984609654033e-08 0 -0.054908542519567165 3.9703503835645889e-05 0 -0.054999962877675924 8.3814082590053228e-09 0 -0.054945038039106733 4.5539618713421583e-06 0 -0.054999839391640916 -2.037984609654033e-08 0 -0.054999962877675924 8.3814082590053228e-09 0 -0.054960042191052119 3.6613182966274825e-05 0 -0.054945038039106733 4.5539618713421583e-06 0 -0.05499990557677515 8.6314461248062101e-08 0 -0.054994167934536375 6.1712624964193103e-05 0 -0.054908542519567165 3.9703503835645889e-05 0 -0.05499990557677515 8.6314461248062101e-08 0 -0.054994167934536375 6.1712624964193103e-05 0 -0.05500012555514646 7.7036401627578914e-08 0 -0.054999839391640916 -2.037984609654033e-08 0 -0.05499990557677515 8.6314461248062101e-08 0 -0.054908542519567165 3.9703503835645889e-05 0 -0.054908542519567165 3.9703503835645889e-05 0 -0.054854159814203711 4.2608198608144236e-05 0 -0.054943409975935407 5.7707774395742804e-05 0 -0.054652973516002054 1.8143465987759334e-05 0 -0.054854159814203711 4.2608198608144236e-05 0 -0.054999308556735932 1.4473481796585606e-05 0 -0.054908542519567165 3.9703503835645889e-05 0 -0.054791032772436542 3.0386764315764362e-05 0 -0.054854159814203711 4.2608198608144236e-05 0 -0.054858364353034927 8.2369500170493171e-06 0 -0.054908542519567165 3.9703503835645889e-05 0 -0.054791032772436542 3.0386764315764362e-05 0 -0.054652973516002054 1.8143465987759334e-05 0 -0.054791032772436542 3.0386764315764362e-05 0 -0.054854159814203711 4.2608198608144236e-05 0 -0.054994167934536375 6.1712624964193103e-05 0 -0.054908542519567165 3.9703503835645889e-05 0 -0.054943409975935407 5.7707774395742804e-05 0 -0.054854159814203711 4.2608198608144236e-05 0 -0.054943409975935407 5.7707774395742804e-05 0 -0.054999308556735932 1.4473481796585606e-05 0 -0.054994167934536375 6.1712624964193103e-05 0 -0.054943409975935407 5.7707774395742804e-05 0 -0.054990201814672089 7.0055076700068056e-05 0 -0.054994167934536375 6.1712624964193103e-05 0 -0.054990201814672089 7.0055076700068056e-05 0 -0.055008922386158142 0.00011921175789031592 0 -0.054990201814672089 7.0055076700068056e-05 0 -0.054999308556735932 1.4473481796585606e-05 0 -0.055008922386158142 0.00011921175789031592 0 -0.054943409975935407 5.7707774395742804e-05 0 -0.054990201814672089 7.0055076700068056e-05 0 -0.054999308556735932 1.4473481796585606e-05 0 -0.051402406405151216 -0.00022644984357932192 0 -0.051218901768147924 -0.00023616321109480183 0 -0.051017752365544095 -0.00011465205781586235 0 -0.051537606877484279 -0.00029804580546394704 0 -0.051402406405151216 -0.00022644984357932192 0 -0.054221054236254188 0.0004298942474868259 0 -0.051448540069949193 -0.00021393980766258152 0 -0.052585506067345571 0.00012642491757726171 0 -0.051402406405151216 -0.00022644984357932192 0 -0.051218901768147924 -0.00023616321109480183 0 -0.051247486416082989 -0.00026133454564926395 0 -0.051218901768147924 -0.00023616321109480183 0 -0.051158117845479356 -0.00028869498160016924 0 -0.051247486416082989 -0.00026133454564926395 0 -0.051218901768147924 -0.00023616321109480183 0 -0.051017752365544095 -0.00011465205781586235 0 -0.051083541806562972 -0.00025003594330659149 0 -0.054577711997244462 1.0166019802601244e-05 0 -0.053320168404926295 -0.00010932444265546365 0 -0.054652973516002054 1.8143465987759334e-05 0 -0.051537606877484279 -0.00029804580546394704 0 -0.054221054236254188 0.0004298942474868259 0 -0.050923311145426239 -0.00025182716494211572 0 -0.051017752365544095 -0.00011465205781586235 0 -0.051083541806562972 -0.00025003594330659149 0 -0.051083541806562972 -0.00025003594330659149 0 -0.05104648004645284 -0.00031140932043939302 0 -0.051158117845479356 -0.00028869498160016924 0 -0.050923311145426239 -0.00025182716494211572 0 -0.051083541806562972 -0.00025003594330659149 0 -0.05104648004645284 -0.00031140932043939302 0 -0.051158117845479356 -0.00028869498160016924 0 -0.051110193957010053 -0.00035656642832330087 0 -0.051128152127386813 -0.00030698122781420853 0 -0.051218901768147924 -0.00023616321109480183 0 -0.051083541806562972 -0.00025003594330659149 0 -0.051158117845479356 -0.00028869498160016924 0 -0.046084744953895904 -0.00039414345468859462 0 -0.045907707367389979 -0.00020837129876650207 0 -0.040891267482932953 -0.00012857932162365626 0 -0.041100439770953082 -0.0004254724441856385 0 -0.040936304526949081 -0.00027833070284134494 0 -0.040891267482932953 -0.00012857932162365626 0 -0.041100439770953082 -0.0004254724441856385 0 -0.041236108850252917 8.9917980659395451e-06 0 -0.041100439770953082 -0.0004254724441856385 0 -0.04185618128174988 -0.00070039749708725521 0 -0.041236108850252917 8.9917980659395451e-06 0 -0.046084744953895904 -0.00039414345468859462 0 -0.046400364033971846 -0.00059146431516610989 0 -0.05104648004645284 -0.00031140932043939302 0 -0.051158117845479356 -0.00028869498160016924 0 -0.051110193957010053 -0.00035656642832330087 0 -0.05104648004645284 -0.00031140932043939302 0 -0.051110193957010053 -0.00035656642832330087 0 -0.050741148264791459 -0.00049766581785312181 0 -0.04285190579995711 -0.00092212329700848872 0 -0.04185618128174988 -0.00070039749708725521 0 -0.042295614271747543 -0.0003088265546514662 0 -0.050182915048609743 -0.00049630857516463857 0 -0.050636782824582463 -0.00012825009182613646 0 -0.050741148264791459 -0.00049766581785312181 0 -0.046088569373349791 -0.00073161163234139405 0 -0.046400364033971846 -0.00059146431516610989 0 -0.04185618128174988 -0.00070039749708725521 0 -0.042295614271747543 -0.0003088265546514662 0 -0.041864946360214816 0.00011698554326464745 0 -0.04185618128174988 -0.00070039749708725521 0 -0.041864946360214816 0.00011698554326464745 0 -0.041236108850252917 8.9917980659395451e-06 0 -0.041864946360214816 0.00011698554326464745 0 -0.041509819455375845 0.00048566661947303493 0 -0.041236108850252917 8.9917980659395451e-06 0 -0.041864946360214816 0.00011698554326464745 0 -0.041999307611569815 0.00052190806753290718 0 -0.041509819455375845 0.00048566661947303493 0 -0.042295614271747543 -0.0003088265546514662 0 -0.041864946360214816 0.00011698554326464745 0 -0.042385111322166047 0.00022734299971324641 0 -0.041864946360214816 0.00011698554326464745 0 -0.042385111322166047 0.00022734299971324641 0 -0.041999307611569815 0.00052190806753290718 0 -0.032960625362093876 -0.0015318253801821478 0 -0.032491597554973564 -0.0016592899776099652 0 -0.032245952532280256 -0.0014388691388035424 0 -0.042530843280468925 0.00074397159816031518 0 -0.042385111322166047 0.00022734299971324641 0 -0.041999307611569815 0.00052190806753290718 0 -0.041674567282964543 0.0009535261560387376 0 -0.042530843280468925 0.00074397159816031518 0 -0.041999307611569815 0.00052190806753290718 0 -0.037721873071386046 -0.00036184653198100561 0 -0.037401954825654338 -0.00035020410313803019 0 -0.041674567282964543 0.0009535261560387376 0 -0.041999307611569815 0.00052190806753290718 0 -0.041509819455375845 0.00048566661947303493 0 -0.041674567282964543 0.0009535261560387376 0 -0.041509819455375845 0.00048566661947303493 0 -0.041145215159639953 0.00075808414205318509 0 -0.041509819455375845 0.00048566661947303493 0 -0.041145215159639953 0.00075808414205318509 0 -0.041034585189705847 0.00050019708730782381 0 -0.041145215159639953 0.00075808414205318509 0 -0.041034585189705847 0.00050019708730782381 0 -0.04086543369703563 0.00079144516551951996 0 -0.040623223906035268 0.00071368204917689681 0 -0.040796289451728147 0.00025213891033922615 0 -0.040462009490443623 0.00043682075599261989 0 -0.041034585189705847 0.00050019708730782381 0 -0.040623223906035268 0.00071368204917689681 0 -0.040796289451728147 0.00025213891033922615 0 -0.041034585189705847 0.00050019708730782381 0 -0.04086543369703563 0.00079144516551951996 0 -0.040623223906035268 0.00071368204917689681 0 -0.040891267482932953 -0.00012857932162365626 0 -0.040796289451728147 0.00025213891033922615 0 -0.041236108850252917 8.9917980659395451e-06 0 -0.041509819455375845 0.00048566661947303493 0 -0.041034585189705847 0.00050019708730782381 0 -0.041236108850252917 8.9917980659395451e-06 0 -0.041034585189705847 0.00050019708730782381 0 -0.040796289451728147 0.00025213891033922615 0 -0.041236108850252917 8.9917980659395451e-06 0 -0.040505250499437845 7.8800103990719767e-05 0 -0.040095574164687307 0.00042668906552567485 0 -0.039842387942778487 0.00022133089049784628 0 -0.040505250499437845 7.8800103990719767e-05 0 -0.040462009490443623 0.00043682075599261989 0 -0.040095574164687307 0.00042668906552567485 0 -0.040891267482932953 -0.00012857932162365626 0 -0.040796289451728147 0.00025213891033922615 0 -0.040505250499437845 7.8800103990719767e-05 0 -0.040796289451728147 0.00025213891033922615 0 -0.040505250499437845 7.8800103990719767e-05 0 -0.040462009490443623 0.00043682075599261989 0 -0.040623223906035268 0.00071368204917689681 0 -0.040261415256683891 0.00075381033484756151 0 -0.040462009490443623 0.00043682075599261989 0 -0.040261415256683891 0.00075381033484756151 0 -0.040462009490443623 0.00043682075599261989 0 -0.040095574164687307 0.00042668906552567485 0 -0.040261415256683891 0.00075381033484756151 0 -0.040095574164687307 0.00042668906552567485 0 -0.039551477658667081 0.00062906050500135039 0 -0.040095574164687307 0.00042668906552567485 0 -0.039551477658667081 0.00062906050500135039 0 -0.039842387942778487 0.00022133089049784628 0 -0.039551477658667081 0.00062906050500135039 0 -0.039169788517827736 0.00032896236757105061 0 -0.039842387942778487 0.00022133089049784628 0 -0.03837813368926115 0.0003901328378473764 0 -0.039551477658667081 0.00062906050500135039 0 -0.039169788517827736 0.00032896236757105061 0 -0.039169788517827736 0.00032896236757105061 0 -0.039842387942778487 0.00022133089049784628 0 -0.039392069858793836 0.00051254740883063506 0 -0.040505250499437845 7.8800103990719767e-05 0 -0.039842387942778487 0.00022133089049784628 0 -0.04033987236671345 -0.00017236864893685613 0 -0.045396615896114004 7.9675067077179937e-05 0 -0.044436872112118789 0.00065529449224152906 0 -0.039842387942778487 0.00022133089049784628 0 -0.04033987236671345 -0.00017236864893685613 0 -0.039392069858793836 0.00051254740883063506 0 -0.050504964651991079 0.00028949422218906392 0 -0.050003963201600651 0.00010082066506869471 0 -0.049365005200683425 0.00077844066551934496 0 -0.050504964651991079 0.00028949422218906392 0 -0.050003963201600651 0.00010082066506869471 0 -0.050902088082981446 -0.00022977199902020075 0 -0.050504964651991079 0.00028949422218906392 0 -0.051159200829229569 -0.00033245069395750277 0 -0.050902088082981446 -0.00022977199902020075 0 -0.045396615896114004 7.9675067077179937e-05 0 -0.045907707367389979 -0.00020837129876650207 0 -0.050504964651991079 0.00028949422218906392 0 -0.050897593113388026 -0.00014685417625551377 0 -0.051159200829229569 -0.00033245069395750277 0 -0.040505250499437845 7.8800103990719767e-05 0 -0.04033987236671345 -0.00017236864893685613 0 -0.040936304526949081 -0.00027833070284134494 0 -0.040891267482932953 -0.00012857932162365626 0 -0.040505250499437845 7.8800103990719767e-05 0 -0.040936304526949081 -0.00027833070284134494 0 -0.050897593113388026 -0.00014685417625551377 0 -0.051128152127386813 -0.00030698122781420853 0 -0.051159200829229569 -0.00033245069395750277 0 -0.051110193957010053 -0.00035656642832330087 0 -0.050897593113388026 -0.00014685417625551377 0 -0.051128152127386813 -0.00030698122781420853 0 -0.051128152127386813 -0.00030698122781420853 0 -0.051277736067524206 -0.00038681382386765179 0 -0.051247486416082989 -0.00026133454564926395 0 -0.051158117845479356 -0.00028869498160016924 0 -0.051128152127386813 -0.00030698122781420853 0 -0.051247486416082989 -0.00026133454564926395 0 -0.051128152127386813 -0.00030698122781420853 0 -0.051159200829229569 -0.00033245069395750277 0 -0.051277736067524206 -0.00038681382386765179 0 -0.051159200829229569 -0.00033245069395750277 0 -0.051277736067524206 -0.00038681382386765179 0 -0.052095419103750588 -0.00071945228467034587 0 -0.051277736067524206 -0.00038681382386765179 0 -0.0512617382170528 4.9217099472069348e-05 0 -0.052095419103750588 -0.00071945228467034587 0 -0.051402406405151216 -0.00022644984357932192 0 -0.051247486416082989 -0.00026133454564926395 0 -0.0512617382170528 4.9217099472069348e-05 0 -0.051277736067524206 -0.00038681382386765179 0 -0.051247486416082989 -0.00026133454564926395 0 -0.0512617382170528 4.9217099472069348e-05 0 -0.051537606877484279 -0.00029804580546394704 0 -0.051402406405151216 -0.00022644984357932192 0 -0.0512617382170528 4.9217099472069348e-05 0 -0.054999308556735932 1.4473481796585606e-05 0 -0.055008922386158142 0.00011921175789031592 0 -0.054997861325501919 0.0002621405453699139 0 -0.055008922386158142 0.00011921175789031592 0 -0.054997861325501919 0.0002621405453699139 0 -0.05500012555514646 7.7036401627578914e-08 0 -0.053320168404926295 -0.00010932444265546365 0 -0.053149656445858957 0.00013504696133137534 0 -0.05500012555514646 7.7036401627578914e-08 0 -0.054779084988826915 8.4528692333703836e-05 0 -0.054999207202866288 -3.1500962389358219e-07 0 -0.054997861325501919 0.0002621405453699139 0 -0.05500012555514646 7.7036401627578914e-08 0 -0.054779084988826915 8.4528692333703836e-05 0 -0.054994167934536375 6.1712624964193103e-05 0 -0.055008922386158142 0.00011921175789031592 0 -0.05500012555514646 7.7036401627578914e-08 0 -0.054999207202866288 -3.1500962389358219e-07 0 -0.053901668160636768 0.0003425706189505662 0 -0.054998413635768698 9.5369737583059159e-07 0 -0.054779084988826915 8.4528692333703836e-05 0 -0.054999207202866288 -3.1500962389358219e-07 0 -0.053901668160636768 0.0003425706189505662 0 -0.053149656445858957 0.00013504696133137534 0 -0.053833794954598821 0.00032688834895851975 0 -0.054997861325501919 0.0002621405453699139 0 -0.054779084988826915 8.4528692333703836e-05 0 -0.053901668160636768 0.0003425706189505662 0 -0.0512617382170528 4.9217099472069348e-05 0 -0.053901668160636768 0.0003425706189505662 0 -0.052095419103750588 -0.00071945228467034587 0 -0.053901668160636768 0.0003425706189505662 0 -0.052095419103750588 -0.00071945228467034587 0 -0.054375836883094608 -0.00017734512729336688 0 -0.052095419103750588 -0.00071945228467034587 0 -0.053739112151163039 -0.0011541886685389746 0 -0.054375836883094608 -0.00017734512729336688 0 -0.051159200829229569 -0.00033245069395750277 0 -0.052095419103750588 -0.00071945228467034587 0 -0.050902088082981446 -0.00022977199902020075 0 -0.052095419103750588 -0.00071945228467034587 0 -0.050902088082981446 -0.00022977199902020075 0 -0.050038176716391054 -0.00070379571751215137 0 -0.051874529517111814 -0.00068729907008728162 0 -0.052146478466761362 -0.0010085561275447301 0 -0.050003963201600651 0.00010082066506869471 0 -0.050902088082981446 -0.00022977199902020075 0 -0.050038176716391054 -0.00070379571751215137 0 -0.050003963201600651 0.00010082066506869471 0 -0.050038176716391054 -0.00070379571751215137 0 -0.048953228290124003 -1.4988809815076546e-05 0 -0.052146478466761362 -0.0010085561275447301 0 -0.050376380251432304 -0.00020231836396318489 0 -0.053739112151163039 -0.0011541886685389746 0 -0.054622139510491788 -0.00091514324198735495 0 -0.054711573155777633 -0.0013878849199978722 0 -0.053739112151163039 -0.0011541886685389746 0 -0.054622139510491788 -0.00091514324198735495 0 -0.054341461236819023 -0.00071775581185586123 0 -0.050038176716391054 -0.00070379571751215137 0 -0.048749539111556703 -0.00024534741111018206 0 -0.048953228290124003 -1.4988809815076546e-05 0 -0.054622139510491788 -0.00091514324198735495 0 -0.054341461236819023 -0.00071775581185586123 0 -0.05480301845689016 -0.00043611873663904006 0 -0.047791936725372124 -9.8146564128102879e-06 0 -0.04768844582195101 -0.00010968981800350648 0 -0.047619626510517002 -2.4838489575228866e-05 0 -0.050376380251432304 -0.00020231836396318489 0 -0.051830587703829339 -0.0002624457173986362 0 -0.054622139510491788 -0.00091514324198735495 0 -0.054711573155777633 -0.0013878849199978722 0 -0.055320525784943453 -0.00066310337357023926 0 -0.054622139510491788 -0.00091514324198735495 0 -0.055320525784943453 -0.00066310337357023926 0 -0.05480301845689016 -0.00043611873663904006 0 -0.054887137598050216 -0.00024884472307992478 0 -0.054835672271303967 -0.00024903003367916261 0 -0.054844286690010638 -6.2239460494373087e-05 0 -0.05480301845689016 -0.00043611873663904006 0 -0.054835672271303967 -0.00024903003367916261 0 -0.054375836883094608 -0.00017734512729336688 0 -0.054887137598050216 -0.00024884472307992478 0 -0.05480301845689016 -0.00043611873663904006 0 -0.054835672271303967 -0.00024903003367916261 0 -0.051830587703829339 -0.0002624457173986362 0 -0.055157884083005093 -0.00083359138729567422 0 -0.054835672271303967 -0.00024903003367916261 0 -0.054375836883094608 -0.00017734512729336688 0 -0.054646103364540198 0.00015624892892876388 0 -0.053739112151163039 -0.0011541886685389746 0 -0.054341461236819023 -0.00071775581185586123 0 -0.054375836883094608 -0.00017734512729336688 0 -0.054341461236819023 -0.00071775581185586123 0 -0.05480301845689016 -0.00043611873663904006 0 -0.054375836883094608 -0.00017734512729336688 0 -0.053901668160636768 0.0003425706189505662 0 -0.054375836883094608 -0.00017734512729336688 0 -0.054646103364540198 0.00015624892892876388 0 -0.054893056554587975 -4.3394305471302148e-05 0 -0.055001786867042719 3.1571809704032534e-07 0 -0.05484877865334957 -8.8741652188065078e-05 0 -0.054893056554587975 -4.3394305471302148e-05 0 -0.054844286690010638 -6.2239460494373087e-05 0 -0.05484877865334957 -8.8741652188065078e-05 0 -0.054835672271303967 -0.00024903003367916261 0 -0.054893056554587975 -4.3394305471302148e-05 0 -0.054844286690010638 -6.2239460494373087e-05 0 -0.054839864530459408 -0.00022698001255908425 0 -0.05479090730061234 4.3782480137775772e-05 0 -0.053901668160636768 0.0003425706189505662 0 -0.054646103364540198 0.00015624892892876388 0 -0.054998413635768698 9.5369737583059159e-07 0 -0.05479090730061234 4.3782480137775772e-05 0 -0.054999879218174084 5.2467182889380049e-08 0 -0.055001786867042719 3.1571809704032534e-07 0 -0.054995218586114933 -1.0248013511090591e-06 0 -0.05484877865334957 -8.8741652188065078e-05 0 -0.053636382989603333 1.2316949973355548e-06 0 -0.054995218586114933 -1.0248013511090591e-06 0 -0.05484877865334957 -8.8741652188065078e-05 0 -0.054844286690010638 -6.2239460494373087e-05 0 -0.05484877865334957 -8.8741652188065078e-05 0 -0.054611506876039627 0.00014105403711737273 0 -0.053636382989603333 1.2316949973355548e-06 0 -0.05484877865334957 -8.8741652188065078e-05 0 -0.054611506876039627 0.00014105403711737273 0 -0.053627680076148307 -4.0725547501879069e-07 0 -0.052847411464541479 -2.1890385142939075e-05 0 -0.05362571232132627 1.2789545037763105e-06 0 -0.050772971606637442 -5.753065650371308e-05 0 -0.051043995752977953 -1.2876064682110109e-06 0 -0.050772971606637442 -5.753065650371308e-05 0 -0.050505581331411774 -0.00013827120036398189 0 -0.051043995752977953 -1.2876064682110109e-06 0 -0.050505581331411774 -0.00013827120036398189 0 -0.051043995752977953 -1.2876064682110109e-06 0 -0.048462836313743408 1.3010819128521699e-06 0 -0.051830587703829339 -0.0002624457173986362 0 -0.052847411464541479 -2.1890385142939075e-05 0 -0.054887137598050216 -0.00024884472307992478 0 -0.054844286690010638 -6.2239460494373087e-05 0 -0.054611506876039627 0.00014105403711737273 0 -0.050757318972639388 -3.7377338651273156e-06 0 -0.050772971606637442 -5.753065650371308e-05 0 -0.050505581331411774 -0.00013827120036398189 0 -0.051830587703829339 -0.0002624457173986362 0 -0.048610165219400231 0.00018351967099538102 0 -0.050757318972639388 -3.7377338651273156e-06 0 -0.050505581331411774 -0.00013827120036398189 0 -0.050468955091597115 0.00019048471610014634 0 -0.04768844582195101 -0.00010968981800350648 0 -0.047497770944108245 4.5090395789788927e-05 0 -0.047619626510517002 -2.4838489575228866e-05 0 -0.047497770944108245 4.5090395789788927e-05 0 -0.047619626510517002 -2.4838489575228866e-05 0 -0.047429966374156939 -0.00017857805391533054 0 -0.048610165219400231 0.00018351967099538102 0 -0.048460466860765529 -8.148618462857849e-08 0 -0.050505581331411774 -0.00013827120036398189 0 -0.050468955091597115 0.00019048471610014634 0 -0.048462836313743408 1.3010819128521699e-06 0 -0.047497770944108245 4.5090395789788927e-05 0 -0.048453860148826175 -3.1073424643618483e-07 0 -0.047429966374156939 -0.00017857805391533054 0 -0.048453860148826175 -3.1073424643618483e-07 0 -0.047429966374156939 -0.00017857805391533054 0 -0.045599381926938971 3.1486863431083953e-07 0 -0.047429966374156939 -0.00017857805391533054 0 -0.045599381926938971 3.1486863431083953e-07 0 -0.047674736714157485 7.5145158950924051e-05 0 -0.045719704005275835 0.00066333490660413369 0 -0.044069740669319964 0.0011401012707139265 0 -0.045719704005275835 0.00066333490660413369 0 -0.047001545045628319 0.00029480890205354392 0 -0.045609828400491943 0.0012181325617151698 0 -0.047576893462731251 0.0010425078188545291 0 -0.047194994672151609 0.00042275662690342125 0 -0.045586776497289379 4.9105694798165795e-06 0 -0.040573185837935906 0.0014231325901722105 0 -0.041202945964104606 4.8301267449823637e-05 0 -0.047576893462731251 0.0010425078188545291 0 -0.047194994672151609 0.00042275662690342125 0 -0.048373116276817958 0.00039582460189834163 0 -0.047791936725372124 -9.8146564128102879e-06 0 -0.047619626510517002 -2.4838489575228866e-05 0 -0.047674736714157485 7.5145158950924051e-05 0 -0.047619626510517002 -2.4838489575228866e-05 0 -0.047429966374156939 -0.00017857805391533054 0 -0.047674736714157485 7.5145158950924051e-05 0 -0.04871445850834262 -0.00029141388891209744 0 -0.047194994672151609 0.00042275662690342125 0 -0.048373116276817958 0.00039582460189834163 0 -0.050376380251432304 -0.00020231836396318489 0 -0.047001545045628319 0.00029480890205354392 0 -0.04871445850834262 -0.00029141388891209744 0 -0.048373116276817958 0.00039582460189834163 0 -0.048953228290124003 -1.4988809815076546e-05 0 -0.050003963201600651 0.00010082066506869471 0 -0.048953228290124003 -1.4988809815076546e-05 0 -0.049365005200683425 0.00077844066551934496 0 -0.048373116276817958 0.00039582460189834163 0 -0.048953228290124003 -1.4988809815076546e-05 0 -0.049365005200683425 0.00077844066551934496 0 -0.050376380251432304 -0.00020231836396318489 0 -0.049770250045156221 -0.00045754086734674178 0 -0.044069740669319964 0.0011401012707139265 0 -0.044436872112118789 0.00065529449224152906 0 -0.047576893462731251 0.0010425078188545291 0 -0.048373116276817958 0.00039582460189834163 0 -0.049365005200683425 0.00077844066551934496 0 -0.040573185837935906 0.0014231325901722105 0 -0.039392069858793836 0.00051254740883063506 0 -0.039320839710079936 0.00037503781147386873 0 -0.039320839710079936 0.00037503781147386873 0 -0.039321088951167468 0.00012578444091988631 0 -0.041202945964104606 4.8301267449823637e-05 0 -0.039169788517827736 0.00032896236757105061 0 -0.039392069858793836 0.00051254740883063506 0 -0.039320839710079936 0.00037503781147386873 0 -0.03837813368926115 0.0003901328378473764 0 -0.039169788517827736 0.00032896236757105061 0 -0.039320839710079936 0.00037503781147386873 0 -0.03837813368926115 0.0003901328378473764 0 -0.039320839710079936 0.00037503781147386873 0 -0.039321088951167468 0.00012578444091988631 0 -0.039643121604797202 -1.8418109838409939e-05 0 -0.039321088951167468 0.00012578444091988631 0 -0.041202945964104606 4.8301267449823637e-05 0 -0.039643121604797202 -1.8418109838409939e-05 0 -0.042510967788288709 -1.6728153792733679e-06 0 -0.041202945964104606 4.8301267449823637e-05 0 -0.045586776497289379 4.9105694798165795e-06 0 -0.042510967788288709 -1.6728153792733679e-06 0 -0.041202945964104606 4.8301267449823637e-05 0 -0.040573185837935906 0.0014231325901722105 0 -0.039320839710079936 0.00037503781147386873 0 -0.041202945964104606 4.8301267449823637e-05 0 -0.034502916298601825 -0.0008092872747089328 0 -0.033145608403578664 -0.0012690111813993511 0 -0.033099335399399708 3.9100821636369667e-05 0 -0.033145608403578664 -0.0012690111813993511 0 -0.033099335399399708 3.9100821636369667e-05 0 -0.031981854778646533 -0.0010468858326104947 0 -0.033145608403578664 -0.0012690111813993511 0 -0.031981854778646533 -0.0010468858326104947 0 -0.032134403841879662 -0.0017849949179119706 0 -0.034502916298601825 -0.0008092872747089328 0 -0.033145608403578664 -0.0012690111813993511 0 -0.034007707121744994 -0.0017938886301814498 0 -0.034502916298601825 -0.0008092872747089328 0 -0.034007707121744994 -0.0017938886301814498 0 -0.034847101677614449 -0.0016922772553971924 0 -0.034847101677614449 -0.0016922772553971924 0 -0.035252213003146633 -0.00057428280925430871 0 -0.035885145386466338 -0.001066933344163907 0 -0.034502916298601825 -0.0008092872747089328 0 -0.034847101677614449 -0.0016922772553971924 0 -0.035252213003146633 -0.00057428280925430871 0 -0.035252213003146633 -0.00057428280925430871 0 -0.035540200855067268 -0.00012588358298039828 0 -0.035600357922932722 0.00038961837905472326 0 -0.034502916298601825 -0.0008092872747089328 0 -0.035252213003146633 -0.00057428280925430871 0 -0.035600357922932722 0.00038961837905472326 0 -0.035252213003146633 -0.00057428280925430871 0 -0.035748475399368554 -0.00060242237005527226 0 -0.035885145386466338 -0.001066933344163907 0 -0.035252213003146633 -0.00057428280925430871 0 -0.035748475399368554 -0.00060242237005527226 0 -0.035540200855067268 -0.00012588358298039828 0 -0.035748475399368554 -0.00060242237005527226 0 -0.03571925152310796 -0.00031003671945000979 0 -0.03604643930647914 -0.0004793875816163058 0 -0.035748475399368554 -0.00060242237005527226 0 -0.03571925152310796 -0.00031003671945000979 0 -0.035540200855067268 -0.00012588358298039828 0 -0.03571925152310796 -0.00031003671945000979 0 -0.035540200855067268 -0.00012588358298039828 0 -0.035725970918112651 -0.000322421441789327 0 -0.035540200855067268 -0.00012588358298039828 0 -0.036065626483331593 -0.00019538050877804255 0 -0.035725970918112651 -0.000322421441789327 0 -0.035600357922932722 0.00038961837905472326 0 -0.037070803887411616 -0.00041440834578226221 0 -0.036065626483331593 -0.00019538050877804255 0 -0.035540200855067268 -0.00012588358298039828 0 -0.035600357922932722 0.00038961837905472326 0 -0.036065626483331593 -0.00019538050877804255 0 -0.034502916298601825 -0.0008092872747089328 0 -0.035600357922932722 0.00038961837905472326 0 -0.033099335399399708 3.9100821636369667e-05 0 -0.035411168076708091 0.00036145664311831605 0 -0.035571482420854082 0.00089519181347690394 0 -0.035600357922932722 0.00038961837905472326 0 -0.037762165282791561 0.0016422965140966334 0 -0.038203780335244554 0.00026674672066220976 0 -0.035600357922932722 0.00038961837905472326 0 -0.038203780335244554 0.00026674672066220976 0 -0.037070803887411616 -0.00041440834578226221 0 -0.038203780335244554 0.00026674672066220976 0 -0.039366061095667114 0.00027054934666362898 0 -0.038817238822164264 0.0012002415475045698 0 -0.038203780335244554 0.00026674672066220976 0 -0.039366061095667114 0.00027054934666362898 0 -0.038984390504938515 -0.00051706437162272675 0 -0.039366061095667114 0.00027054934666362898 0 -0.039232309476854514 -0.00049585203244239 0 -0.038984390504938515 -0.00051706437162272675 0 -0.039366061095667114 0.00027054934666362898 0 -0.040025847211051568 -0.00046401917876504636 0 -0.039232309476854514 -0.00049585203244239 0 -0.039366061095667114 0.00027054934666362898 0 -0.039639249198640002 0.0013212270325775807 0 -0.038817238822164264 0.0012002415475045698 0 -0.037762165282791561 0.0016422965140966334 0 -0.038203780335244554 0.00026674672066220976 0 -0.038817238822164264 0.0012002415475045698 0 -0.034581736978756952 0.0018913102366539657 0 -0.034256133614544319 0.0014791004010727415 0 -0.028274017453429695 0.0035694899021853819 0 -0.028914268683482555 0.0033912948768196538 0 -0.02864941800184052 0.0042784932070970162 0 -0.028274017453429695 0.0035694899021853819 0 -0.028914268683482555 0.0033912948768196538 0 -0.028404215680384703 0.0023051968314064058 0 -0.028274017453429695 0.0035694899021853819 0 -0.02864941800184052 0.0042784932070970162 0 -0.027547133124420749 0.0038815355943340262 0 -0.039366061095667114 0.00027054934666362898 0 -0.040183343908558544 0.00028758923647385177 0 -0.040025847211051568 -0.00046401917876504636 0 -0.034738152401427191 0.001886223450336926 0 -0.034581736978756952 0.0018913102366539657 0 -0.029805781738764647 0.0022491394092340159 0 -0.028914268683482555 0.0033912948768196538 0 -0.028404215680384703 0.0023051968314064058 0 -0.039366061095667114 0.00027054934666362898 0 -0.039639249198640002 0.0013212270325775807 0 -0.040183343908558544 0.00028758923647385177 0 -0.028404215680384703 0.0023051968314064058 0 -0.027173699229907717 0.0015369049373344121 0 -0.027358641263464344 0.0030514801438525068 0 -0.028274017453429695 0.0035694899021853819 0 -0.028404215680384703 0.0023051968314064058 0 -0.027358641263464344 0.0030514801438525068 0 -0.028404215680384703 0.0023051968314064058 0 -0.027173699229907717 0.0015369049373344121 0 -0.028041136995568386 0.00038137371849906521 0 -0.028404215680384703 0.0023051968314064058 0 -0.029579980436239519 0.0010967488509524752 0 -0.028041136995568386 0.00038137371849906521 0 -0.029805781738764647 0.0022491394092340159 0 -0.028404215680384703 0.0023051968314064058 0 -0.029579980436239519 0.0010967488509524752 0 -0.029613376140321224 -0.00022654035173967377 0 -0.028041136995568386 0.00038137371849906521 0 -0.028036450006838385 -0.001447186545237336 0 -0.029579980436239519 0.0010967488509524752 0 -0.029613376140321224 -0.00022654035173967377 0 -0.028041136995568386 0.00038137371849906521 0 -0.027173699229907717 0.0015369049373344121 0 -0.028041136995568386 0.00038137371849906521 0 -0.025430239992249311 -0.00069989811946491855 0 -0.028041136995568386 0.00038137371849906521 0 -0.028036450006838385 -0.001447186545237336 0 -0.025430239992249311 -0.00069989811946491855 0 -0.037762165282791561 0.0016422965140966334 0 -0.038817238822164264 0.0012002415475045698 0 -0.038939222901067605 0.0023704710667314223 0 -0.033099335399399708 3.9100821636369667e-05 0 -0.031182561177884347 -0.00038748957319983436 0 -0.031981854778646533 -0.0010468858326104947 0 -0.035571482420854082 0.00089519181347690394 0 -0.034138738525531037 0.00053615049887974437 0 -0.029805781738764647 0.0022491394092340159 0 -0.029579980436239519 0.0010967488509524752 0 -0.030911359258922601 0.00083541376213761302 0 -0.034738152401427191 0.001886223450336926 0 -0.034138738525531037 0.00053615049887974437 0 -0.039639249198640002 0.0013212270325775807 0 -0.038817238822164264 0.0012002415475045698 0 -0.038939222901067605 0.0023704710667314223 0 -0.029643218355784991 -0.00083443682255124557 0 -0.031182561177884347 -0.00038748957319983436 0 -0.030734635912262897 -0.00095585575409121333 0 -0.031182561177884347 -0.00038748957319983436 0 -0.030734635912262897 -0.00095585575409121333 0 -0.03121363834258838 -0.00096587521155147723 0 -0.029579980436239519 0.0010967488509524752 0 -0.029613376140321224 -0.00022654035173967377 0 -0.030911359258922601 0.00083541376213761302 0 -0.029130654416509291 -0.00085809010949966329 0 -0.034138738525531037 0.00053615049887974437 0 -0.029643218355784991 -0.00083443682255124557 0 -0.030734635912262897 -0.00095585575409121333 0 -0.030025251478743232 -0.0017163122607000839 0 -0.030734635912262897 -0.00095585575409121333 0 -0.03121363834258838 -0.00096587521155147723 0 -0.031133808199091027 -0.0015318626296636211 0 -0.03121363834258838 -0.00096587521155147723 0 -0.031981854778646533 -0.0010468858326104947 0 -0.031133808199091027 -0.0015318626296636211 0 -0.031182561177884347 -0.00038748957319983436 0 -0.03121363834258838 -0.00096587521155147723 0 -0.031981854778646533 -0.0010468858326104947 0 -0.031981854778646533 -0.0010468858326104947 0 -0.032134403841879662 -0.0017849949179119706 0 -0.031133808199091027 -0.0015318626296636211 0 -0.032134403841879662 -0.0017849949179119706 0 -0.031499894680061986 -0.0020590799995984506 0 -0.031909486459690717 -0.002527718539718221 0 -0.031499894680061986 -0.0020590799995984506 0 -0.031133808199091027 -0.0015318626296636211 0 -0.030810360288158176 -0.0023946165452254737 0 -0.031499894680061986 -0.0020590799995984506 0 -0.030810360288158176 -0.0023946165452254737 0 -0.031909486459690717 -0.002527718539718221 0 -0.032134403841879662 -0.0017849949179119706 0 -0.031499894680061986 -0.0020590799995984506 0 -0.031133808199091027 -0.0015318626296636211 0 -0.031133808199091027 -0.0015318626296636211 0 -0.030025251478743232 -0.0017163122607000839 0 -0.030810360288158176 -0.0023946165452254737 0 -0.030734635912262897 -0.00095585575409121333 0 -0.031133808199091027 -0.0015318626296636211 0 -0.030025251478743232 -0.0017163122607000839 0 -0.030025251478743232 -0.0017163122607000839 0 -0.030810360288158176 -0.0023946165452254737 0 -0.029417903819293587 -0.0028365407391664453 0 -0.030810360288158176 -0.0023946165452254737 0 -0.029417903819293587 -0.0028365407391664453 0 -0.031156708842049279 -0.003552910741637696 0 -0.029417903819293587 -0.0028365407391664453 0 -0.031156708842049279 -0.003552910741637696 0 -0.029238679512850117 -0.0041478363874703651 0 -0.030810360288158176 -0.0023946165452254737 0 -0.031156708842049279 -0.003552910741637696 0 -0.031909486459690717 -0.002527718539718221 0 -0.031156708842049279 -0.003552910741637696 0 -0.031909486459690717 -0.002527718539718221 0 -0.032728821718277901 -0.0031471533169163358 0 -0.028036450006838385 -0.001447186545237336 0 -0.026272620763766342 -0.0023175239488635413 0 -0.025430239992249311 -0.00069989811946491855 0 -0.029643218355784991 -0.00083443682255124557 0 -0.030025251478743232 -0.0017163122607000839 0 -0.028036450006838385 -0.001447186545237336 0 -0.030025251478743232 -0.0017163122607000839 0 -0.029417903819293587 -0.0028365407391664453 0 -0.028036450006838385 -0.001447186545237336 0 -0.029130654416509291 -0.00085809010949966329 0 -0.028353128037583095 -0.0013007958564958406 0 -0.029417903819293587 -0.0028365407391664453 0 -0.027439405161653867 -0.0036582123035743615 0 -0.029238679512850117 -0.0041478363874703651 0 -0.029417903819293587 -0.0028365407391664453 0 -0.028036450006838385 -0.001447186545237336 0 -0.027439405161653867 -0.0036582123035743615 0 -0.027439405161653867 -0.0036582123035743615 0 -0.026272620763766342 -0.0023175239488635413 0 -0.02533591131841539 -0.0036804769034753516 0 -0.028036450006838385 -0.001447186545237336 0 -0.027439405161653867 -0.0036582123035743615 0 -0.026272620763766342 -0.0023175239488635413 0 -0.027439405161653867 -0.0036582123035743615 0 -0.025981008389962153 -0.0050945308343426617 0 -0.027418604813219546 -0.0057534304750582266 0 -0.027439405161653867 -0.0036582123035743615 0 -0.025981008389962153 -0.0050945308343426617 0 -0.02533591131841539 -0.0036804769034753516 0 -0.027439405161653867 -0.0036582123035743615 0 -0.027418604813219546 -0.0057534304750582266 0 -0.029238679512850117 -0.0041478363874703651 0 -0.025981008389962153 -0.0050945308343426617 0 -0.027418604813219546 -0.0057534304750582266 0 -0.025200633674506132 -0.0068179335281272581 0 -0.031156708842049279 -0.003552910741637696 0 -0.030698020363620859 -0.0052728399590104081 0 -0.032749860400660386 -0.0043899079148852545 0 -0.027418604813219546 -0.0057534304750582266 0 -0.029238679512850117 -0.0041478363874703651 0 -0.030698020363620859 -0.0052728399590104081 0 -0.031156708842049279 -0.003552910741637696 0 -0.029238679512850117 -0.0041478363874703651 0 -0.030698020363620859 -0.0052728399590104081 0 -0.026705711297049791 -0.0054201424195334498 0 -0.027418604813219546 -0.0057534304750582266 0 -0.026659804855703746 -0.0056120451689218934 0 -0.027487237474542205 -0.0057147403600302836 0 -0.028646033745108913 -0.0054024225434799742 0 -0.026474188452662636 -0.0053430343792046251 0 -0.026659804855703746 -0.0056120451689218934 0 -0.026380270778582147 -0.0048146118980506268 0 -0.028646033745108913 -0.0054024225434799742 0 -0.029579376005078303 -0.0045675282953418269 0 -0.026474188452662636 -0.0053430343792046251 0 -0.026705711297049791 -0.0054201424195334498 0 -0.026659804855703746 -0.0056120451689218934 0 -0.026480042032657799 -0.0054024539005401353 0 -0.026474188452662636 -0.0053430343792046251 0 -0.026380270778582147 -0.0048146118980506268 0 -0.026480042032657799 -0.0054024539005401353 0 -0.026380270778582147 -0.0048146118980506268 0 -0.027951790702772893 -0.0034445990546312652 0 -0.029579376005078303 -0.0045675282953418269 0 -0.030886849660595968 -0.0034789003872261123 0 -0.02704210396081266 -0.0058372483419096705 0 -0.026480042032657799 -0.0054024539005401353 0 -0.027951790702772893 -0.0034445990546312652 0 -0.032749860400660386 -0.0043899079148852545 0 -0.033470405870056064 -0.003210480736820179 0 -0.033694609111213948 -0.0033717361816516774 0 -0.031156708842049279 -0.003552910741637696 0 -0.032749860400660386 -0.0043899079148852545 0 -0.032728821718277901 -0.0031471533169163358 0 -0.032749860400660386 -0.0043899079148852545 0 -0.033470405870056064 -0.003210480736820179 0 -0.032728821718277901 -0.0031471533169163358 0 -0.031909486459690717 -0.002527718539718221 0 -0.032728821718277901 -0.0031471533169163358 0 -0.032951326504717576 -0.0021776563638438926 0 -0.032728821718277901 -0.0031471533169163358 0 -0.033679930133696218 -0.0025381129024537909 0 -0.032951326504717576 -0.0021776563638438926 0 -0.033470405870056064 -0.003210480736820179 0 -0.032728821718277901 -0.0031471533169163358 0 -0.033679930133696218 -0.0025381129024537909 0 -0.033145608403578664 -0.0012690111813993511 0 -0.034007707121744994 -0.0017938886301814498 0 -0.032951326504717576 -0.0021776563638438926 0 -0.034007707121744994 -0.0017938886301814498 0 -0.033679930133696218 -0.0025381129024537909 0 -0.032951326504717576 -0.0021776563638438926 0 -0.033145608403578664 -0.0012690111813993511 0 -0.032134403841879662 -0.0017849949179119706 0 -0.032951326504717576 -0.0021776563638438926 0 -0.032134403841879662 -0.0017849949179119706 0 -0.031909486459690717 -0.002527718539718221 0 -0.032951326504717576 -0.0021776563638438926 0 -0.034847101677614449 -0.0016922772553971924 0 -0.034301620399895996 -0.0021578528828011829 0 -0.034195510307734378 -0.0022077928747454493 0 -0.034007707121744994 -0.0017938886301814498 0 -0.034847101677614449 -0.0016922772553971924 0 -0.034195510307734378 -0.0022077928747454493 0 -0.034007707121744994 -0.0017938886301814498 0 -0.033679930133696218 -0.0025381129024537909 0 -0.034195510307734378 -0.0022077928747454493 0 -0.033679930133696218 -0.0025381129024537909 0 -0.034195510307734378 -0.0022077928747454493 0 -0.033780797808808771 -0.0028964897068276341 0 -0.033470405870056064 -0.003210480736820179 0 -0.033679930133696218 -0.0025381129024537909 0 -0.033780797808808771 -0.0028964897068276341 0 -0.034301620399895996 -0.0021578528828011829 0 -0.034195510307734378 -0.0022077928747454493 0 -0.033780797808808771 -0.0028964897068276341 0 -0.034301620399895996 -0.0021578528828011829 0 -0.033780797808808771 -0.0028964897068276341 0 -0.033897603724686913 -0.0025656814355347014 0 -0.032954762765843915 -0.0030318503833762743 0 -0.030886849660595968 -0.0034789003872261123 0 -0.033780797808808771 -0.0028964897068276341 0 -0.033113558036178957 -0.0029851225432930262 0 -0.033897603724686913 -0.0025656814355347014 0 -0.033780797808808771 -0.0028964897068276341 0 -0.033113558036178957 -0.0029851225432930262 0 -0.033694609111213948 -0.0033717361816516774 0 -0.033470405870056064 -0.003210480736820179 0 -0.033780797808808771 -0.0028964897068276341 0 -0.033694609111213948 -0.0033717361816516774 0 -0.032035148456131979 -0.0054036054186181372 0 -0.02704210396081266 -0.0058372483419096705 0 -0.027951790702772893 -0.0034445990546312652 0 -0.032035148456131979 -0.0054036054186181372 0 -0.033113558036178957 -0.0029851225432930262 0 -0.027951790702772893 -0.0034445990546312652 0 -0.032035148456131979 -0.0054036054186181372 0 -0.033113558036178957 -0.0029851225432930262 0 -0.034236817098279346 -0.0039359169163406208 0 -0.028279842704780539 -0.0058020279043117769 0 -0.028844119270832257 -0.0048111765397975941 0 -0.033113558036178957 -0.0029851225432930262 0 -0.034023044126262503 -0.002974883453453554 0 -0.034236817098279346 -0.0039359169163406208 0 -0.033113558036178957 -0.0029851225432930262 0 -0.034023044126262503 -0.002974883453453554 0 -0.033897603724686913 -0.0025656814355347014 0 -0.034023044126262503 -0.002974883453453554 0 -0.033897603724686913 -0.0025656814355347014 0 -0.034367833517217221 -0.0025332888971768591 0 -0.034023044126262503 -0.002974883453453554 0 -0.034486494818805093 -0.0030618159598554766 0 -0.034367833517217221 -0.0025332888971768591 0 -0.034023044126262503 -0.002974883453453554 0 -0.034486494818805093 -0.0030618159598554766 0 -0.034236817098279346 -0.0039359169163406208 0 -0.024304345255864467 -0.0055540446012316506 0 -0.023351491358238326 -0.005653356401552301 0 -0.025812688545625538 -0.0040443404605815143 0 -0.034486494818805093 -0.0030618159598554766 0 -0.034236817098279346 -0.0039359169163406208 0 -0.03478305118619273 -0.0032614621984066207 0 -0.028844119270832257 -0.0048111765397975941 0 -0.030343374517698862 -0.003694951615574519 0 -0.025812688545625538 -0.0040443404605815143 0 -0.030598634108105007 -0.0030390400197264616 0 -0.029216977903326138 -0.0049299274718403452 0 -0.03478305118619273 -0.0032614621984066207 0 -0.035138605121814916 -0.0027504135870654129 0 -0.035508586992525237 -0.0028593535069754033 0 -0.030343374517698862 -0.003694951615574519 0 -0.033070782024279079 -0.0029994596968018973 0 -0.03478305118619273 -0.0032614621984066207 0 -0.035138605121814916 -0.0027504135870654129 0 -0.034787656894880045 -0.0026831554315143182 0 -0.035138605121814916 -0.0027504135870654129 0 -0.034787656894880045 -0.0026831554315143182 0 -0.035209745376355996 -0.0023111048905832599 0 -0.035138605121814916 -0.0027504135870654129 0 -0.035209745376355996 -0.0023111048905832599 0 -0.035453477267654201 -0.0025736309718764161 0 -0.034486494818805093 -0.0030618159598554766 0 -0.034787656894880045 -0.0026831554315143182 0 -0.034367833517217221 -0.0025332888971768591 0 -0.034486494818805093 -0.0030618159598554766 0 -0.03478305118619273 -0.0032614621984066207 0 -0.034787656894880045 -0.0026831554315143182 0 -0.034787656894880045 -0.0026831554315143182 0 -0.034666148503289008 -0.0020683296278636476 0 -0.034367833517217221 -0.0025332888971768591 0 -0.034787656894880045 -0.0026831554315143182 0 -0.034666148503289008 -0.0020683296278636476 0 -0.035209745376355996 -0.0023111048905832599 0 -0.035209745376355996 -0.0023111048905832599 0 -0.035189108646661187 -0.0018316825737510036 0 -0.035613385037367613 -0.0018556984553499503 0 -0.034666148503289008 -0.0020683296278636476 0 -0.035209745376355996 -0.0023111048905832599 0 -0.035189108646661187 -0.0018316825737510036 0 -0.035189108646661187 -0.0018316825737510036 0 -0.035830350448131126 -0.0011943273471667485 0 -0.034843092501899292 -0.0015958721387268034 0 -0.034666148503289008 -0.0020683296278636476 0 -0.034386880713060994 -0.0018601695631788419 0 -0.034843092501899292 -0.0015958721387268034 0 -0.034666148503289008 -0.0020683296278636476 0 -0.035189108646661187 -0.0018316825737510036 0 -0.034843092501899292 -0.0015958721387268034 0 -0.034666148503289008 -0.0020683296278636476 0 -0.034287410075565371 -0.0021918775644852689 0 -0.034386880713060994 -0.0018601695631788419 0 -0.034301620399895996 -0.0021578528828011829 0 -0.034287410075565371 -0.0021918775644852689 0 -0.034386880713060994 -0.0018601695631788419 0 -0.034301620399895996 -0.0021578528828011829 0 -0.033897603724686913 -0.0025656814355347014 0 -0.034287410075565371 -0.0021918775644852689 0 -0.034666148503289008 -0.0020683296278636476 0 -0.034287410075565371 -0.0021918775644852689 0 -0.034367833517217221 -0.0025332888971768591 0 -0.033897603724686913 -0.0025656814355347014 0 -0.034287410075565371 -0.0021918775644852689 0 -0.034367833517217221 -0.0025332888971768591 0 -0.030483585251508433 0.0052968246526571292 0 -0.032387125044924539 0.0042810338351016919 0 -0.03099626071330296 0.0038596108930901191 0 -0.030702442298692931 0.0051656984934012927 0 -0.032159561764369446 0.0043887208867733757 0 -0.030729150873602465 0.00510673602754409 0 -0.032387125044924539 0.0042810338351016919 0 -0.031534637227107053 0.0053237131563636884 0 -0.032387125044924539 0.0042810338351016919 0 -0.03236307580146959 0.0050404143176313379 0 -0.03278650323165605 0.0051081731108605808 0 -0.032387125044924539 0.0042810338351016919 0 -0.03236307580146959 0.0050404143176313379 0 -0.031534637227107053 0.0053237131563636884 0 -0.03236307580146959 0.0050404143176313379 0 -0.032231015175962524 0.0058886708184585591 0 -0.03278650323165605 0.0051081731108605808 0 -0.032106802401705034 0.0056682879700416314 0 -0.028786894399998521 0.0029212882862721134 0 -0.030640506001641268 0.0057939202573541824 0 -0.031534637227107053 0.0053237131563636884 0 -0.031218007734641357 0.006118842295841931 0 -0.03236307580146959 0.0050404143176313379 0 -0.031534637227107053 0.0053237131563636884 0 -0.031218007734641357 0.006118842295841931 0 -0.03236307580146959 0.0050404143176313379 0 -0.031218007734641357 0.006118842295841931 0 -0.031096243248210649 0.0065352919048624778 0 -0.032231015175962524 0.0058886708184585591 0 -0.032689504522352898 0.0068512930199842396 0 -0.03278650323165605 0.0051081731108605808 0 -0.025907686111089755 -0.0020967419878007839 0 -0.025964568612859056 -0.0020125562366118156 0 -0.025854596060502083 -0.0020565004895637816 0 -0.025952937501285793 -0.0021179974434443506 0 -0.025907686111089755 -0.0020967419878007839 0 -0.025964568612859056 -0.0020125562366118156 0 -0.025907686111089755 -0.0020967419878007839 0 -0.02586011994668649 -0.0020979823438873777 0 -0.025854596060502083 -0.0020565004895637816 0 -0.028786894399998521 0.0029212882862721134 0 -0.030190666666255112 -0.00029849041032126942 0 -0.02937870770067318 -0.00062636816161892308 0 -0.030190666666255112 -0.00029849041032126942 0 -0.031220232749663481 0.0064414619513455864 0 -0.032231015175962524 0.0058886708184585591 0 -0.032689504522352898 0.0068512930199842396 0 -0.03236307580146959 0.0050404143176313379 0 -0.031220232749663481 0.0064414619513455864 0 -0.032231015175962524 0.0058886708184585591 0 -0.03701113491215742 -0.0038556054456935257 0 -0.03586234560670009 -0.0027981212842760673 0 -0.035045479219996782 -0.0050331730853229563 0 -0.030190666666255112 -0.00029849041032126942 0 -0.030711553905227743 -0.0033755442618623875 0 -0.02581435969934797 -0.0021409062127159873 0 -0.025854872604706682 -0.002064662736847518 0 -0.025725659164003472 -0.0021258349280802286 0 -0.02581435969934797 -0.0021409062127159873 0 -0.02586011994668649 -0.0020979823438873777 0 -0.025854872604706682 -0.002064662736847518 0 -0.03701113491215742 -0.0038556054456935257 0 -0.03586234560670009 -0.0027981212842760673 0 -0.036067378878335436 -0.0021128706312528744 0 -0.032689504522352898 0.0068512930199842396 0 -0.03278650323165605 0.0051081731108605808 0 -0.033826525236659181 0.0046094394520760675 0 -0.030190666666255112 -0.00029849041032126942 0 -0.035490769508736461 0.0013953603060089146 0 -0.032387125044924539 0.0042810338351016919 0 -0.03278650323165605 0.0051081731108605808 0 -0.033133458277632477 0.003863674139730074 0 -0.03278650323165605 0.0051081731108605808 0 -0.033826525236659181 0.0046094394520760675 0 -0.033133458277632477 0.003863674139730074 0 -0.03586234560670009 -0.0027981212842760673 0 -0.036067378878335436 -0.0021128706312528744 0 -0.035858708838835657 -0.0022384003405214173 0 -0.03586234560670009 -0.0027981212842760673 0 -0.035663760653794951 -0.0025400986695776006 0 -0.035508586992525237 -0.0028593535069754033 0 -0.03586234560670009 -0.0027981212842760673 0 -0.035858708838835657 -0.0022384003405214173 0 -0.035663760653794951 -0.0025400986695776006 0 -0.035858708838835657 -0.0022384003405214173 0 -0.035663760653794951 -0.0025400986695776006 0 -0.035670112094716294 -0.0022132353753608128 0 -0.035045479219996782 -0.0050331730853229563 0 -0.030598634108105007 -0.0030390400197264616 0 -0.03124023748984308 -0.0050951959129549888 0 -0.03586234560670009 -0.0027981212842760673 0 -0.035045479219996782 -0.0050331730853229563 0 -0.030598634108105007 -0.0030390400197264616 0 -0.035661719597997736 -0.0027633095218355451 0 -0.033070782024279079 -0.0029994596968018973 0 -0.030598634108105007 -0.0030390400197264616 0 -0.03124023748984308 -0.0050951959129549888 0 -0.029216977903326138 -0.0049299274718403452 0 -0.035209745376355996 -0.0023111048905832599 0 -0.035453477267654201 -0.0025736309718764161 0 -0.035670112094716294 -0.0022132353753608128 0 -0.035138605121814916 -0.0027504135870654129 0 -0.035508586992525237 -0.0028593535069754033 0 -0.035453477267654201 -0.0025736309718764161 0 -0.035663760653794951 -0.0025400986695776006 0 -0.035508586992525237 -0.0028593535069754033 0 -0.035453477267654201 -0.0025736309718764161 0 -0.035663760653794951 -0.0025400986695776006 0 -0.035453477267654201 -0.0025736309718764161 0 -0.035670112094716294 -0.0022132353753608128 0 -0.035209745376355996 -0.0023111048905832599 0 -0.035613385037367613 -0.0018556984553499503 0 -0.035670112094716294 -0.0022132353753608128 0 -0.035189108646661187 -0.0018316825737510036 0 -0.035613385037367613 -0.0018556984553499503 0 -0.035830350448131126 -0.0011943273471667485 0 -0.035613385037367613 -0.0018556984553499503 0 -0.035830350448131126 -0.0011943273471667485 0 -0.036141203953944254 -0.0016474005201450807 0 -0.035830350448131126 -0.0011943273471667485 0 -0.036141203953944254 -0.0016474005201450807 0 -0.035961217712552798 -0.00079524864901756194 0 -0.035544555989919707 0.0001071549220087196 0 -0.03595898854169477 -0.00071822680669841941 0 -0.036067378878335436 -0.0021128706312528744 0 -0.035858708838835657 -0.0022384003405214173 0 -0.036141203953944254 -0.0016474005201450807 0 -0.035858708838835657 -0.0022384003405214173 0 -0.035670112094716294 -0.0022132353753608128 0 -0.036141203953944254 -0.0016474005201450807 0 -0.035613385037367613 -0.0018556984553499503 0 -0.035670112094716294 -0.0022132353753608128 0 -0.036141203953944254 -0.0016474005201450807 0 -0.033826525236659181 0.0046094394520760675 0 -0.035128298832076542 0.0018753796339982488 0 -0.033593516421140973 0.0029167119245082189 0 -0.035490769508736461 0.0013953603060089146 0 -0.035544555989919707 0.0001071549220087196 0 -0.033826525236659181 0.0046094394520760675 0 -0.033133458277632477 0.003863674139730074 0 -0.033593516421140973 0.0029167119245082189 0 -0.033133458277632477 0.003863674139730074 0 -0.033593516421140973 0.0029167119245082189 0 -0.032444839948981528 0.0027081531041954318 0 -0.035128298832076542 0.0018753796339982488 0 -0.033593516421140973 0.0029167119245082189 0 -0.033734113457892886 0.0013743387024168423 0 -0.033734113457892886 0.0013743387024168423 0 -0.032444839948981528 0.0027081531041954318 0 -0.03296892287232716 -0.00010262129239645832 0 -0.035128298832076542 0.0018753796339982488 0 -0.033734113457892886 0.0013743387024168423 0 -0.034665493848054778 0.00011987205624818759 0 -0.033593516421140973 0.0029167119245082189 0 -0.033734113457892886 0.0013743387024168423 0 -0.032444839948981528 0.0027081531041954318 0 -0.030342676812521091 0.0025655094236513684 0 -0.032285427404752036 0.00070994504985451669 0 -0.03023765334307105 0.0026571280047826907 0 -0.032444839948981528 0.0027081531041954318 0 -0.03296892287232716 -0.00010262129239645832 0 -0.03023765334307105 0.0026571280047826907 0 -0.032444839948981528 0.0027081531041954318 0 -0.03099626071330296 0.0038596108930901191 0 -0.032387125044924539 0.0042810338351016919 0 -0.032444839948981528 0.0027081531041954318 0 -0.03099626071330296 0.0038596108930901191 0 -0.032387125044924539 0.0042810338351016919 0 -0.033133458277632477 0.003863674139730074 0 -0.032444839948981528 0.0027081531041954318 0 -0.031612947820872178 0.001412206196095916 0 -0.033219518802497509 0.00036756827510911239 0 -0.03177252871239334 -0.00045820443766500139 0 -0.030546618119033388 0.00038914632946332136 0 -0.031612947820872178 0.001412206196095916 0 -0.03177252871239334 -0.00045820443766500139 0 -0.029531043412836959 0.0013676071663440241 0 -0.030546618119033388 0.00038914632946332136 0 -0.031612947820872178 0.001412206196095916 0 -0.033734113457892886 0.0013743387024168423 0 -0.03296892287232716 -0.00010262129239645832 0 -0.034665493848054778 0.00011987205624818759 0 -0.03296892287232716 -0.00010262129239645832 0 -0.034665493848054778 0.00011987205624818759 0 -0.035427185937167607 -0.001594270438712207 0 -0.032285427404752036 0.00070994504985451669 0 -0.034301351269901977 -0.00059104063726570454 0 -0.035427185937167607 -0.001594270438712207 0 -0.035961217712552798 -0.00079524864901756194 0 -0.0360794518142439 -0.0012728797212557346 0 -0.034665493848054778 0.00011987205624818759 0 -0.035427185937167607 -0.001594270438712207 0 -0.035961217712552798 -0.00079524864901756194 0 -0.035128298832076542 0.0018753796339982488 0 -0.034665493848054778 0.00011987205624818759 0 -0.035961217712552798 -0.00079524864901756194 0 -0.035830350448131126 -0.0011943273471667485 0 -0.035961217712552798 -0.00079524864901756194 0 -0.036185741571836523 -0.0010993557751528711 0 -0.036185741571836523 -0.0010993557751528711 0 -0.03640975973320907 -0.0012401307322421266 0 -0.0360794518142439 -0.0012728797212557346 0 -0.035961217712552798 -0.00079524864901756194 0 -0.036185741571836523 -0.0010993557751528711 0 -0.0360794518142439 -0.0012728797212557346 0 -0.03640975973320907 -0.0012401307322421266 0 -0.0360794518142439 -0.0012728797212557346 0 -0.03631446316012691 -0.0014451095464139683 0 -0.0352193349637102 -0.0009060778066474431 0 -0.033996043947015026 -0.0015325064614463964 0 -0.034684556400248319 -0.0022338736825402118 0 -0.0352193349637102 -0.0009060778066474431 0 -0.033996043947015026 -0.0015325064614463964 0 -0.03337242417503631 -0.00077583871438711201 0 -0.033996043947015026 -0.0015325064614463964 0 -0.033220936100537397 -0.0021910554864581653 0 -0.034684556400248319 -0.0022338736825402118 0 -0.033996043947015026 -0.0015325064614463964 0 -0.032719042172094592 -0.0013618895938792791 0 -0.033220936100537397 -0.0021910554864581653 0 -0.033996043947015026 -0.0015325064614463964 0 -0.03337242417503631 -0.00077583871438711201 0 -0.032719042172094592 -0.0013618895938792791 0 -0.035427185937167607 -0.001594270438712207 0 -0.0360794518142439 -0.0012728797212557346 0 -0.03631446316012691 -0.0014451095464139683 0 -0.034301351269901977 -0.00059104063726570454 0 -0.03578900556338159 -0.0012050599589471475 0 -0.033219518802497509 0.00036756827510911239 0 -0.0352193349637102 -0.0009060778066474431 0 -0.03337242417503631 -0.00077583871438711201 0 -0.033219518802497509 0.00036756827510911239 0 -0.03337242417503631 -0.00077583871438711201 0 -0.03177252871239334 -0.00045820443766500139 0 -0.03337242417503631 -0.00077583871438711201 0 -0.03177252871239334 -0.00045820443766500139 0 -0.032719042172094592 -0.0013618895938792791 0 -0.031725093246530937 -0.00057082322934690738 0 -0.032391565758029352 -0.0018054350443197599 0 -0.03177252871239334 -0.00045820443766500139 0 -0.032719042172094592 -0.0013618895938792791 0 -0.032012098096257713 -0.0019669829536880291 0 -0.032391565758029352 -0.0018054350443197599 0 -0.033378834663102798 -0.0020712289265882389 0 -0.032719042172094592 -0.0013618895938792791 0 -0.032012098096257713 -0.0019669829536880291 0 -0.033220936100537397 -0.0021910554864581653 0 -0.034042255811745276 -0.001040824211002685 0 -0.032632984703074505 -0.00074726249351064029 0 -0.032694582884517862 -0.0018164692178128257 0 -0.03177252871239334 -0.00045820443766500139 0 -0.031798536643318907 -0.0018015304077634395 0 -0.030740478468089565 -0.0015687122576760338 0 -0.032391565758029352 -0.0018054350443197599 0 -0.031731179967043902 -0.0011545410143194595 0 -0.030413926760121671 -0.00044665180017351778 0 -0.03177252871239334 -0.00045820443766500139 0 -0.030740478468089565 -0.0015687122576760338 0 -0.030546618119033388 0.00038914632946332136 0 -0.030413926760121671 -0.00044665180017351778 0 -0.03177252871239334 -0.00045820443766500139 0 -0.036472735745638946 -0.0011702384800866825 0 -0.035885145386466338 -0.001066933344163907 0 -0.036505335588400738 -0.00096776657366611689 0 -0.036472735745638946 -0.0011702384800866825 0 -0.035885145386466338 -0.001066933344163907 0 -0.036320901466779319 -0.0015847897857690009 0 -0.034851223294157227 -0.0016969934000924053 0 -0.035328944253067041 -0.0016877003275343706 0 -0.034847101677614449 -0.0016922772553971924 0 -0.034301620399895996 -0.0021578528828011829 0 -0.034386880713060994 -0.0018601695631788419 0 -0.034847101677614449 -0.0016922772553971924 0 -0.035885145386466338 -0.001066933344163907 0 -0.036320901466779319 -0.0015847897857690009 0 -0.036472735745638946 -0.0011702384800866825 0 -0.036320901466779319 -0.0015847897857690009 0 -0.036579029781692904 -0.0012201172378445335 0 -0.035328944253067041 -0.0016877003275343706 0 -0.035697112836059683 -0.0013869892081284098 0 -0.03653243133168517 -0.0011425134631300223 0 -0.036497397415362585 -0.0011850782846587467 0 -0.036579029781692904 -0.0012201172378445335 0 -0.036320901466779319 -0.0015847897857690009 0 -0.03653243133168517 -0.0011425134631300223 0 -0.036579029781692904 -0.0012201172378445335 0 -0.035830350448131126 -0.0011943273471667485 0 -0.036185741571836523 -0.0010993557751528711 0 -0.03653243133168517 -0.0011425134631300223 0 -0.036185741571836523 -0.0010993557751528711 0 -0.03653243133168517 -0.0011425134631300223 0 -0.036497397415362585 -0.0011850782846587467 0 -0.035857420666759655 -0.0012235770819506425 0 -0.035697112836059683 -0.0013869892081284098 0 -0.03640975973320907 -0.0012401307322421266 0 -0.036497397415362585 -0.0011850782846587467 0 -0.03673826455258055 -0.0011941683378653457 0 -0.036185741571836523 -0.0010993557751528711 0 -0.03640975973320907 -0.0012401307322421266 0 -0.036497397415362585 -0.0011850782846587467 0 -0.036472735745638946 -0.0011702384800866825 0 -0.036579029781692904 -0.0012201172378445335 0 -0.03673826455258055 -0.0011941683378653457 0 -0.036497397415362585 -0.0011850782846587467 0 -0.036579029781692904 -0.0012201172378445335 0 -0.03673826455258055 -0.0011941683378653457 0 -0.03673826455258055 -0.0011941683378653457 0 -0.037009049976932731 -0.0011094412350443929 0 -0.036505335588400738 -0.00096776657366611689 0 -0.03673826455258055 -0.0011941683378653457 0 -0.036948081412278982 -0.0012093772072770482 0 -0.037009049976932731 -0.0011094412350443929 0 -0.03640975973320907 -0.0012401307322421266 0 -0.03673826455258055 -0.0011941683378653457 0 -0.036948081412278982 -0.0012093772072770482 0 -0.03640975973320907 -0.0012401307322421266 0 -0.03631446316012691 -0.0014451095464139683 0 -0.036948081412278982 -0.0012093772072770482 0 -0.036948081412278982 -0.0012093772072770482 0 -0.037541138680958978 -0.0012129730654504209 0 -0.037302187225510326 -0.0021186244621020124 0 -0.03578900556338159 -0.0012050599589471475 0 -0.037207968836690627 -0.0021229994012190749 0 -0.03631446316012691 -0.0014451095464139683 0 -0.036948081412278982 -0.0012093772072770482 0 -0.037302187225510326 -0.0021186244621020124 0 -0.037009049976932731 -0.0011094412350443929 0 -0.037541138680958978 -0.0012129730654504209 0 -0.036430283491635108 -0.00034506889064356397 0 -0.036948081412278982 -0.0012093772072770482 0 -0.037009049976932731 -0.0011094412350443929 0 -0.037541138680958978 -0.0012129730654504209 0 -0.036505335588400738 -0.00096776657366611689 0 -0.03604643930647914 -0.0004793875816163058 0 -0.036430283491635108 -0.00034506889064356397 0 -0.037009049976932731 -0.0011094412350443929 0 -0.036505335588400738 -0.00096776657366611689 0 -0.036430283491635108 -0.00034506889064356397 0 -0.036472735745638946 -0.0011702384800866825 0 -0.03673826455258055 -0.0011941683378653457 0 -0.036505335588400738 -0.00096776657366611689 0 -0.035748475399368554 -0.00060242237005527226 0 -0.035885145386466338 -0.001066933344163907 0 -0.036505335588400738 -0.00096776657366611689 0 -0.035748475399368554 -0.00060242237005527226 0 -0.036505335588400738 -0.00096776657366611689 0 -0.03604643930647914 -0.0004793875816163058 0 -0.03604643930647914 -0.0004793875816163058 0 -0.036430283491635108 -0.00034506889064356397 0 -0.035846541569476476 -0.00018952848567870678 0 -0.041907515620093747 -0.0041210772028725277 0 -0.041351136909980109 -0.0017557783357704739 0 -0.044142924017951161 -0.0026844772585122895 0 -0.03876876956181368 -0.0010999485914013015 0 -0.040368277078266582 -0.001442366800781658 0 -0.041907515620093747 -0.0041210772028725277 0 -0.044843408015870195 -0.004902483452264756 0 -0.044142924017951161 -0.0026844772585122895 0 -0.041907515620093747 -0.0041210772028725277 0 -0.039739665578355655 -0.003533293628995484 0 -0.039485432188691945 -0.0053049422867038776 0 -0.041907515620093747 -0.0041210772028725277 0 -0.041351136909980109 -0.0017557783357704739 0 -0.039739665578355655 -0.003533293628995484 0 -0.041351136909980109 -0.0017557783357704739 0 -0.038639361163983664 -0.0025334361186686487 0 -0.039739665578355655 -0.003533293628995484 0 -0.03768872496772268 -0.0011279254622097185 0 -0.03876876956181368 -0.0010999485914013015 0 -0.037541138680958978 -0.0012129730654504209 0 -0.041351136909980109 -0.0017557783357704739 0 -0.038639361163983664 -0.0025334361186686487 0 -0.038639361163983664 -0.0025334361186686487 0 -0.037302187225510326 -0.0021186244621020124 0 -0.037832569452639013 -0.0039500363742563365 0 -0.037541138680958978 -0.0012129730654504209 0 -0.038639361163983664 -0.0025334361186686487 0 -0.037302187225510326 -0.0021186244621020124 0 -0.037302187225510326 -0.0021186244621020124 0 -0.036780143596626097 -0.003133788224022624 0 -0.035774870275885953 -0.0024831432214185538 0 -0.0352193349637102 -0.0009060778066474431 0 -0.037302187225510326 -0.0021186244621020124 0 -0.035774870275885953 -0.0024831432214185538 0 -0.037302187225510326 -0.0021186244621020124 0 -0.037832569452639013 -0.0039500363742563365 0 -0.036780143596626097 -0.003133788224022624 0 -0.037832569452639013 -0.0039500363742563365 0 -0.036780143596626097 -0.003133788224022624 0 -0.036007628357456009 -0.0038820022233725347 0 -0.037832569452639013 -0.0039500363742563365 0 -0.037134199555552964 -0.0057441211267233892 0 -0.036007628357456009 -0.0038820022233725347 0 -0.037832569452639013 -0.0039500363742563365 0 -0.039739665578355655 -0.003533293628995484 0 -0.039485432188691945 -0.0053049422867038776 0 -0.038639361163983664 -0.0025334361186686487 0 -0.037832569452639013 -0.0039500363742563365 0 -0.039739665578355655 -0.003533293628995484 0 -0.039485432188691945 -0.0053049422867038776 0 -0.037134199555552964 -0.0057441211267233892 0 -0.039210163132373375 -0.0071180225267609611 0 -0.037832569452639013 -0.0039500363742563365 0 -0.039485432188691945 -0.0053049422867038776 0 -0.037134199555552964 -0.0057441211267233892 0 -0.037134199555552964 -0.0057441211267233892 0 -0.039210163132373375 -0.0071180225267609611 0 -0.037422178038499052 -0.0087208056386101195 0 -0.039210163132373375 -0.0071180225267609611 0 -0.041357778159729942 -0.0070424174712387213 0 -0.040510980158232485 -0.0089227722786541508 0 -0.039485432188691945 -0.0053049422867038776 0 -0.039210163132373375 -0.0071180225267609611 0 -0.041357778159729942 -0.0070424174712387213 0 -0.041357778159729942 -0.0070424174712387213 0 -0.043040989655550199 -0.0059625436255109875 0 -0.043007202798343212 -0.0089369188564980568 0 -0.043040989655550199 -0.0059625436255109875 0 -0.043007202798343212 -0.0089369188564980568 0 -0.044800111270038148 -0.0070194148001621248 0 -0.041907515620093747 -0.0041210772028725277 0 -0.043040989655550199 -0.0059625436255109875 0 -0.044843408015870195 -0.004902483452264756 0 -0.041907515620093747 -0.0041210772028725277 0 -0.039485432188691945 -0.0053049422867038776 0 -0.041357778159729942 -0.0070424174712387213 0 -0.041907515620093747 -0.0041210772028725277 0 -0.041357778159729942 -0.0070424174712387213 0 -0.043040989655550199 -0.0059625436255109875 0 -0.044069306457262404 -6.5596478189286874e-05 0 -0.04485800131240731 -0.00010198170617160074 0 -0.044543350685962206 -0.00023326095278228005 0 -0.033288176094915058 -0.0026329315885576976 0 -0.035753771380391319 -0.0024557297142458103 0 -0.035777866711580744 -0.0026812100660081012 0 -0.033288176094915058 -0.0026329315885576976 0 -0.034261871698674888 -0.001233036020676824 0 -0.035753771380391319 -0.0024557297142458103 0 -0.040973259742073304 -0.0004961442877834311 0 -0.038226373741193656 -0.0023309940843685511 0 -0.034042255811745276 -0.001040824211002685 0 -0.032694582884517862 -0.0018164692178128257 0 -0.034172310527180824 -0.0031722853721837902 0 -0.033490748543979217 -0.0015076577747040697 0 -0.035973192146624054 -0.0027056740559092043 0 -0.032391565758029352 -0.0018054350443197599 0 -0.035973192146624054 -0.0027056740559092043 0 -0.032364235953297772 -0.0017616636765525665 0 -0.032996097880244712 -0.0027498739992452121 0 -0.032467601514681671 -0.0036845602754281789 0 -0.032364235953297772 -0.0017616636765525665 0 -0.032996097880244712 -0.0027498739992452121 0 -0.033537031422479803 -0.0020024205431956126 0 -0.032996097880244712 -0.0027498739992452121 0 -0.033075144266290192 -0.0033736524291547751 0 -0.033539547734494385 -0.0029265137253777712 0 -0.032996097880244712 -0.0027498739992452121 0 -0.033539547734494385 -0.0029265137253777712 0 -0.033537031422479803 -0.0020024205431956126 0 -0.032552199045088138 -0.0040836734359313773 0 -0.033181428913441162 -0.0043978942566627348 0 -0.034277634866568464 -0.0040393629319556874 0 -0.033075144266290192 -0.0033736524291547751 0 -0.032679706074862203 -0.0038835406687257965 0 -0.034164232679975585 -0.0039025537136680132 0 -0.035986152677718042 -0.0029296975483097537 0 -0.033618680788456826 -0.0040058288779706722 0 -0.033075144266290192 -0.0033736524291547751 0 -0.032467601514681671 -0.0036845602754281789 0 -0.032679706074862203 -0.0038835406687257965 0 -0.032996097880244712 -0.0027498739992452121 0 -0.033075144266290192 -0.0033736524291547751 0 -0.032467601514681671 -0.0036845602754281789 0 -0.040862518916039654 -0.0024114874793303826 0 -0.040991011998034274 -0.0024083177575075798 0 -0.040566078641310378 -0.0021272217239530419 0 -0.035973192146624054 -0.0027056740559092043 0 -0.035986152677718042 -0.0029296975483097537 0 -0.035986152677718042 -0.0029296975483097537 0 -0.038226373741193656 -0.0023309940843685511 0 -0.035968712035430284 -0.0028625379134012922 0 -0.037090050346672905 -0.0039048762398379505 0 -0.036024892726288379 -0.0039345641295855755 0 -0.035973192146624054 -0.0027056740559092043 0 -0.038226373741193656 -0.0023309940843685511 0 -0.035986152677718042 -0.0029296975483097537 0 -0.039861487767196536 -0.0028016632828630045 0 -0.032552199045088138 -0.0040836734359313773 0 -0.033114145893663412 -0.0046022407336700124 0 -0.033181428913441162 -0.0043978942566627348 0 -0.039861487767196536 -0.0028016632828630045 0 -0.039275740797452628 -0.0034426233493197876 0 -0.033094693853973567 -0.0046101620154231585 0 -0.034277634866568464 -0.0040393629319556874 0 -0.035023703576209625 -0.0049357700263442487 0 -0.033094693853973567 -0.0046101620154231585 0 -0.033181428913441162 -0.0043978942566627348 0 -0.034277634866568464 -0.0040393629319556874 0 -0.034164232679975585 -0.0039025537136680132 0 -0.033539547734494385 -0.0029265137253777712 0 -0.034402379148892263 -0.0029106551172528605 0 -0.033075144266290192 -0.0033736524291547751 0 -0.034164232679975585 -0.0039025537136680132 0 -0.033539547734494385 -0.0029265137253777712 0 -0.033539547734494385 -0.0029265137253777712 0 -0.033537031422479803 -0.0020024205431956126 0 -0.034402379148892263 -0.0029106551172528605 0 -0.033378834663102798 -0.0020712289265882389 0 -0.034473597452441315 -0.0022397039416446143 0 -0.033537031422479803 -0.0020024205431956126 0 -0.034402379148892263 -0.0029106551172528605 0 -0.034684556400248319 -0.0022338736825402118 0 -0.0352193349637102 -0.0009060778066474431 0 -0.034684556400248319 -0.0022338736825402118 0 -0.035774870275885953 -0.0024831432214185538 0 -0.034402379148892263 -0.0029106551172528605 0 -0.034684556400248319 -0.0022338736825402118 0 -0.035774870275885953 -0.0024831432214185538 0 -0.034402379148892263 -0.0029106551172528605 0 -0.035774870275885953 -0.0024831432214185538 0 -0.036007628357456009 -0.0038820022233725347 0 -0.034277634866568464 -0.0040393629319556874 0 -0.036007628357456009 -0.0038820022233725347 0 -0.035023703576209625 -0.0049357700263442487 0 -0.034164232679975585 -0.0039025537136680132 0 -0.034402379148892263 -0.0029106551172528605 0 -0.036007628357456009 -0.0038820022233725347 0 -0.036780143596626097 -0.003133788224022624 0 -0.035774870275885953 -0.0024831432214185538 0 -0.036007628357456009 -0.0038820022233725347 0 -0.033618680788456826 -0.0040058288779706722 0 -0.036068257083061439 -0.003890374599919652 0 -0.037134199555552964 -0.0057441211267233892 0 -0.036007628357456009 -0.0038820022233725347 0 -0.035023703576209625 -0.0049357700263442487 0 -0.037134199555552964 -0.0057441211267233892 0 -0.035023703576209625 -0.0049357700263442487 0 -0.034921245489287052 -0.0065280022363171705 0 -0.039916414022167709 -0.0045426815676859267 0 -0.04594910348434008 -0.0015271661798383809 0 -0.046030598021235082 -0.0016821889141107175 0 -0.046037146927369293 -0.0016453037869840559 0 -0.045989660042023692 -0.0016493368400297408 0 -0.037134199555552964 -0.0057441211267233892 0 -0.034921245489287052 -0.0065280022363171705 0 -0.037422178038499052 -0.0087208056386101195 0 -0.046071841031369853 -0.0016890212020188372 0 -0.046112687652702336 -0.0016844725277920473 0 -0.046211325392727459 -0.0016917110809252845 0 -0.046030598021235082 -0.0016821889141107175 0 -0.046071841031369853 -0.0016890212020188372 0 -0.046037146927369293 -0.0016453037869840559 0 -0.046112687652702336 -0.0016844725277920473 0 -0.046142416842875879 -0.0016967352477140049 0 -0.046211325392727459 -0.0016917110809252845 0 -0.044825618864016481 -0.001699864399428817 0 -0.050440072299747937 -0.00071312462222109874 0 -0.039861487767196536 -0.0028016632828630045 0 -0.039916414022167709 -0.0045426815676859267 0 -0.046064627075867372 -0.0017199332489323059 0 -0.046030598021235082 -0.0016821889141107175 0 -0.046071841031369853 -0.0016890212020188372 0 -0.033094693853973567 -0.0046101620154231585 0 -0.035023703576209625 -0.0049357700263442487 0 -0.034921245489287052 -0.0065280022363171705 0 -0.038226373741193656 -0.0023309940843685511 0 -0.044902973038348802 -0.0010376795235352296 0 -0.039861487767196536 -0.0028016632828630045 0 -0.044902973038348802 -0.0010376795235352296 0 -0.04485800131240731 -0.00010198170617160074 0 -0.044930144427785625 -0.00065999075533092449 0 -0.044693790402043826 -0.00043419093818993247 0 -0.040991011998034274 -0.0024083177575075798 0 -0.040566078641310378 -0.0021272217239530419 0 -0.040989295767465281 -0.0010956856239565528 0 -0.046064627075867372 -0.0017199332489323059 0 -0.046071841031369853 -0.0016890212020188372 0 -0.046113576416754995 -0.0016818107404226906 0 -0.046071841031369853 -0.0016890212020188372 0 -0.046112687652702336 -0.0016844725277920473 0 -0.046113576416754995 -0.0016818107404226906 0 -0.046128473184347492 -0.0016768370000061867 0 -0.046136209503554231 -0.0016742491436364292 0 -0.046142416842875879 -0.0016967352477140049 0 -0.046112687652702336 -0.0016844725277920473 0 -0.046128473184347492 -0.0016768370000061867 0 -0.046142416842875879 -0.0016967352477140049 0 -0.044902973038348802 -0.0010376795235352296 0 -0.050284616772068545 -0.0005035105588126578 0 -0.046128473184347492 -0.0016768370000061867 0 -0.04612132224552818 -0.0016740259617641787 0 -0.046136209503554231 -0.0016742491436364292 0 -0.046112687652702336 -0.0016844725277920473 0 -0.046128473184347492 -0.0016768370000061867 0 -0.046113576416754995 -0.0016818107404226906 0 -0.04538616650267422 -0.0016194647038746818 0 -0.044902973038348802 -0.0010376795235352296 0 -0.044930144427785625 -0.00065999075533092449 0 -0.044680041192696675 -0.0006657164552463338 0 -0.044693790402043826 -0.00043419093818993247 0 -0.049624960641147645 -0.00045904872402232228 0 -0.050284616772068545 -0.0005035105588126578 0 -0.044544458830497506 -0.00082501158884117998 0 -0.044680041192696675 -0.0006657164552463338 0 -0.044882620964299562 -0.00084523034330816508 0 -0.044930144427785625 -0.00065999075533092449 0 -0.044680041192696675 -0.0006657164552463338 0 -0.044882620964299562 -0.00084523034330816508 0 -0.044520540071755654 -0.00046215332264731997 0 -0.044680041192696675 -0.0006657164552463338 0 -0.044693790402043826 -0.00043419093818993247 0 -0.04485800131240731 -0.00010198170617160074 0 -0.044693790402043826 -0.00043419093818993247 0 -0.044543350685962206 -0.00023326095278228005 0 -0.044520540071755654 -0.00046215332264731997 0 -0.044693790402043826 -0.00043419093818993247 0 -0.044543350685962206 -0.00023326095278228005 0 -0.054916493185185496 2.6252809603711334e-05 0 -0.054915497497785688 2.3817407135951047e-05 0 -0.054934945365992013 2.4887854450985481e-05 0 -0.055284637723455675 0.00027821767082610168 0 -0.050284616772068545 -0.0005035105588126578 0 -0.054571749218086808 -7.9258277612227537e-05 0 -0.054671797218436423 -6.0668752429941652e-06 0 -0.054544797564939164 -7.3218229975843208e-05 0 -0.050284616772068545 -0.0005035105588126578 0 -0.050566502065839777 -0.00084807975426727793 0 -0.054877362568744661 -7.5990607360465407e-07 0 -0.054895538253620715 1.4087356704234458e-05 0 -0.054873696248782279 -1.3674625277928787e-06 0 -0.054916493185185496 2.6252809603711334e-05 0 -0.054877362568744661 -7.5990607360465407e-07 0 -0.054895538253620715 1.4087356704234458e-05 0 -0.054916493185185496 2.6252809603711334e-05 0 -0.054895538253620715 1.4087356704234458e-05 0 -0.054915497497785688 2.3817407135951047e-05 0 -0.054915497497785688 2.3817407135951047e-05 0 -0.054904063723647992 2.3100310046011508e-05 0 -0.054936677232767843 2.2620125777828965e-05 0 -0.054895538253620715 1.4087356704234458e-05 0 -0.054915497497785688 2.3817407135951047e-05 0 -0.054904063723647992 2.3100310046011508e-05 0 -0.054910317085209825 2.6875506496947058e-05 0 -0.054904063723647992 2.3100310046011508e-05 0 -0.054936677232767843 2.2620125777828965e-05 0 -0.054910317085209825 2.6875506496947058e-05 0 -0.054897133776225085 3.9158835645718157e-05 0 -0.054934146392759092 2.2334846467517563e-05 0 -0.054910317085209825 2.6875506496947058e-05 0 -0.054934146392759092 2.2334846467517563e-05 0 -0.054946422402717972 1.434814287254703e-05 0 -0.054897133776225085 3.9158835645718157e-05 0 -0.054897643543872512 2.3937307513891082e-05 0 -0.054877336981248186 1.0090319836263326e-05 0 -0.054910317085209825 2.6875506496947058e-05 0 -0.054897133776225085 3.9158835645718157e-05 0 -0.054897643543872512 2.3937307513891082e-05 0 -0.054897643543872512 2.3937307513891082e-05 0 -0.054904063723647992 2.3100310046011508e-05 0 -0.054887147590026907 9.1015804679013504e-06 0 -0.054910317085209825 2.6875506496947058e-05 0 -0.054897643543872512 2.3937307513891082e-05 0 -0.054904063723647992 2.3100310046011508e-05 0 -0.050566502065839777 -0.00084807975426727793 0 -0.050440072299747937 -0.00071312462222109874 0 -0.054895538253620715 1.4087356704234458e-05 0 -0.054887147590026907 9.1015804679013504e-06 0 -0.054873696248782279 -1.3674625277928787e-06 0 -0.054887147590026907 9.1015804679013504e-06 0 -0.054873696248782279 -1.3674625277928787e-06 0 -0.054855694768944217 -2.4196234368333541e-05 0 -0.054895538253620715 1.4087356704234458e-05 0 -0.054904063723647992 2.3100310046011508e-05 0 -0.054887147590026907 9.1015804679013504e-06 0 -0.054897643543872512 2.3937307513891082e-05 0 -0.054887147590026907 9.1015804679013504e-06 0 -0.054877336981248186 1.0090319836263326e-05 0 -0.054887147590026907 9.1015804679013504e-06 0 -0.054877336981248186 1.0090319836263326e-05 0 -0.054855694768944217 -2.4196234368333541e-05 0 -0.054877336981248186 1.0090319836263326e-05 0 -0.054855694768944217 -2.4196234368333541e-05 0 -0.054780679539684303 7.6407736769069855e-05 0 -0.050440072299747937 -0.00071312462222109874 0 -0.054497407471624931 0.00037777548030803668 0 -0.052922016198720369 0.00072701730182507388 0 -0.053178371734221304 0.00073635309308760612 0 -0.053181828105362663 0.00061360361029020271 0 -0.050440072299747937 -0.00071312462222109874 0 -0.04594910348434008 -0.0015271661798383809 0 -0.052922016198720369 0.00072701730182507388 0 -0.053181828105362663 0.00061360361029020271 0 -0.053235748016178253 0.00045687561051673469 0 -0.05487855915921238 5.7996507456587247e-05 0 -0.054951872646230901 3.9752921112151764e-05 0 -0.054897133776225085 3.9158835645718157e-05 0 -0.054934146392759092 2.2334846467517563e-05 0 -0.054992751551976693 1.6173381066871948e-05 0 -0.054897133776225085 3.9158835645718157e-05 0 -0.054877336981248186 1.0090319836263326e-05 0 -0.054780679539684303 7.6407736769069855e-05 0 -0.054897133776225085 3.9158835645718157e-05 0 -0.054780679539684303 7.6407736769069855e-05 0 -0.054788716757450541 0.00013279821027503284 0 -0.054934146392759092 2.2334846467517563e-05 0 -0.054953821146563137 1.3516311200576975e-05 0 -0.054992751551976693 1.6173381066871948e-05 0 -0.054953821146563137 1.3516311200576975e-05 0 -0.054978528256541398 5.8096407407261912e-06 0 -0.054992751551976693 1.6173381066871948e-05 0 -0.054934146392759092 2.2334846467517563e-05 0 -0.054953821146563137 1.3516311200576975e-05 0 -0.054946422402717972 1.434814287254703e-05 0 -0.054953821146563137 1.3516311200576975e-05 0 -0.054978528256541398 5.8096407407261912e-06 0 -0.054968524289197573 6.2199686442288911e-06 0 -0.054978528256541398 5.8096407407261912e-06 0 -0.054987055716806982 1.6162198422694429e-06 0 -0.054968524289197573 6.2199686442288911e-06 0 -0.054978528256541398 5.8096407407261912e-06 0 -0.054992751551976693 1.6173381066871948e-05 0 -0.054993096114177437 4.2683794533843297e-06 0 -0.054987055716806982 1.6162198422694429e-06 0 -0.054999949247577659 4.7883945560471515e-09 0 -0.054999993876165242 -2.3328098461710032e-09 0 -0.054978528256541398 5.8096407407261912e-06 0 -0.054987055716806982 1.6162198422694429e-06 0 -0.054993096114177437 4.2683794533843297e-06 0 -0.054987055716806982 1.6162198422694429e-06 0 -0.054999949247577659 4.7883945560471515e-09 0 -0.054968524289197573 6.2199686442288911e-06 0 -0.054999949247577659 4.7883945560471515e-09 0 -0.054972760187441821 6.5999134739598274e-06 0 -0.054999989759771807 1.353654557622124e-09 0 -0.054999949247577659 4.7883945560471515e-09 0 -0.054968524289197573 6.2199686442288911e-06 0 -0.054972760187441821 6.5999134739598274e-06 0 -0.054968524289197573 6.2199686442288911e-06 0 -0.054946422402717972 1.434814287254703e-05 0 -0.054972760187441821 6.5999134739598274e-06 0 -0.054921938615511097 2.5433581548025036e-05 0 -0.054953828424631278 1.4080117039124769e-05 0 -0.054910317085209825 2.6875506496947058e-05 0 -0.054946422402717972 1.434814287254703e-05 0 -0.054972760187441821 6.5999134739598274e-06 0 -0.054953821146563137 1.3516311200576975e-05 0 -0.054968524289197573 6.2199686442288911e-06 0 -0.054946422402717972 1.434814287254703e-05 0 -0.054915497497785688 2.3817407135951047e-05 0 -0.054936677232767843 2.2620125777828965e-05 0 -0.054934945365992013 2.4887854450985481e-05 0 -0.054936677232767843 2.2620125777828965e-05 0 -0.054934945365992013 2.4887854450985481e-05 0 -0.05499991128060646 2.2599127849528807e-09 0 -0.054953828424631278 1.4080117039124769e-05 0 -0.054999976011081406 6.8282412389719133e-10 0 -0.054907967432156042 2.2196653751577289e-05 0 -0.054934945365992013 2.4887854450985481e-05 0 -0.05499991128060646 2.2599127849528807e-09 0 -0.054907967432156042 2.2196653751577289e-05 0 -0.054999850125529832 1.6800239705366692e-08 0 -0.05499991128060646 2.2599127849528807e-09 0 -0.054907967432156042 2.2196653751577289e-05 0 -0.054916493185185496 2.6252809603711334e-05 0 -0.054934945365992013 2.4887854450985481e-05 0 -0.054760910862280528 -0.00012548924252741149 0 -0.055284637723455675 0.00027821767082610168 0 -0.053212523315999467 0.000928435984121152 0 -0.052276297851134461 0.0011339876024963802 0 -0.053200986079374638 0.00044138820179988336 0 -0.053212523315999467 0.000928435984121152 0 -0.053200986079374638 0.00044138820179988336 0 -0.053792780541857189 0.00055608915271704664 0 -0.053212523315999467 0.000928435984121152 0 -0.053585395577554117 0.00084328085431744878 0 -0.053792780541857189 0.00055608915271704664 0 -0.053585395577554117 0.00084328085431744878 0 -0.053792780541857189 0.00055608915271704664 0 -0.053588850905113519 0.00085528703810623359 0 -0.053212523315999467 0.000928435984121152 0 -0.053585395577554117 0.00084328085431744878 0 -0.053445021571448433 0.0012371502758176521 0 -0.053585395577554117 0.00084328085431744878 0 -0.053445021571448433 0.0012371502758176521 0 -0.053574389512981123 0.00082531804773233297 0 -0.041357778159729942 -0.0070424174712387213 0 -0.043007202798343212 -0.0089369188564980568 0 -0.040510980158232485 -0.0089227722786541508 0 -0.048058362212405913 -0.0038160640710297338 0 -0.045541418447614487 -0.0034404309166728318 0 -0.053212523315999467 0.000928435984121152 0 -0.053445021571448433 0.0012371502758176521 0 -0.052001320389757216 0.0022879174765138141 0 -0.052001320389757216 0.0022879174765138141 0 -0.047985435771978675 0.0029007096399398763 0 -0.050504528599273554 0.0010169381522835829 0 -0.039210163132373375 -0.0071180225267609611 0 -0.040510980158232485 -0.0089227722786541508 0 -0.037422178038499052 -0.0087208056386101195 0 -0.053212523315999467 0.000928435984121152 0 -0.052001320389757216 0.0022879174765138141 0 -0.052276297851134461 0.0011339876024963802 0 -0.052001320389757216 0.0022879174765138141 0 -0.052276297851134461 0.0011339876024963802 0 -0.050504528599273554 0.0010169381522835829 0 -0.045541418447614487 -0.0034404309166728318 0 -0.04594910348434008 -0.0015271661798383809 0 -0.04594910348434008 -0.0015271661798383809 0 -0.052124030608664114 0.0007730272612600607 0 -0.053178371734221304 0.00073635309308760612 0 -0.053181828105362663 0.00061360361029020271 0 -0.05340797769102501 0.00052434850196151532 0 -0.053181828105362663 0.00061360361029020271 0 -0.053235748016178253 0.00045687561051673469 0 -0.05340797769102501 0.00052434850196151532 0 -0.053235748016178253 0.00045687561051673469 0 -0.05340797769102501 0.00052434850196151532 0 -0.053482338488379494 0.00046021157163678888 0 -0.052276297851134461 0.0011339876024963802 0 -0.050504528599273554 0.0010169381522835829 0 -0.053200986079374638 0.00044138820179988336 0 -0.052124030608664114 0.0007730272612600607 0 -0.052836060992391611 0.00051086279617574648 0 -0.05340797769102501 0.00052434850196151532 0 -0.053200986079374638 0.00044138820179988336 0 -0.053482338488379494 0.00046021157163678888 0 -0.053200986079374638 0.00044138820179988336 0 -0.053659374026614477 0.00042934492580865377 0 -0.053698706778324591 0.00044171722091840623 0 -0.053200986079374638 0.00044138820179988336 0 -0.053659374026614477 0.00042934492580865377 0 -0.053482338488379494 0.00046021157163678888 0 -0.053659374026614477 0.00042934492580865377 0 -0.053482338488379494 0.00046021157163678888 0 -0.05378281546089049 0.00018128566550712239 0 -0.053659374026614477 0.00042934492580865377 0 -0.05378281546089049 0.00018128566550712239 0 -0.054165012296897075 0.00026404694379822055 0 -0.053659374026614477 0.00042934492580865377 0 -0.054165012296897075 0.00026404694379822055 0 -0.053698706778324591 0.00044171722091840623 0 -0.053235748016178253 0.00045687561051673469 0 -0.053482338488379494 0.00046021157163678888 0 -0.05378281546089049 0.00018128566550712239 0 -0.054951872646230901 3.9752921112151764e-05 0 -0.054477492325888568 0.00018547287884864726 0 -0.054497407471624931 0.00037777548030803668 0 -0.054477492325888568 0.00018547287884864726 0 -0.054992751551976693 1.6173381066871948e-05 0 -0.054993096114177437 4.2683794533843297e-06 0 -0.054999719360059596 2.1877860831445407e-06 0 -0.054780679539684303 7.6407736769069855e-05 0 -0.054788716757450541 0.00013279821027503284 0 -0.054661148395905218 0.00023556563448936128 0 -0.054993096114177437 4.2683794533843297e-06 0 -0.054999993876165242 -2.3328098461710032e-09 0 -0.054999719360059596 2.1877860831445407e-06 0 -0.054987055716806982 1.6162198422694429e-06 0 -0.054993096114177437 4.2683794533843297e-06 0 -0.054999993876165242 -2.3328098461710032e-09 0 -0.054999993876165242 -2.3328098461710032e-09 0 -0.054999537470140109 1.9008116765305481e-06 0 -0.055000001960567264 3.6997585122165912e-09 0 -0.05378281546089049 0.00018128566550712239 0 -0.054996958481048366 -5.046263844498772e-07 0 -0.054165012296897075 0.00026404694379822055 0 -0.054477492325888568 0.00018547287884864726 0 -0.054527652270507272 0.0001359020804528277 0 -0.054999993876165242 -2.3328098461710032e-09 0 -0.054999719360059596 2.1877860831445407e-06 0 -0.054999537470140109 1.9008116765305481e-06 0 -0.054477492325888568 0.00018547287884864726 0 -0.054999612379818257 7.4161037426094855e-08 0 -0.054999376782522966 2.2545071703643738e-06 0 -0.054999537470140109 1.9008116765305481e-06 0 -0.055000001960567264 3.6997585122165912e-09 0 -0.054996958481048366 -5.046263844498772e-07 0 -0.054165012296897075 0.00026404694379822055 0 -0.054590628792608044 0.00012143501525404266 0 -0.054996958481048366 -5.046263844498772e-07 0 -0.054590628792608044 0.00012143501525404266 0 -0.055000163891521708 1.1190654403552696e-07 0 -0.054165012296897075 0.00026404694379822055 0 -0.053792780541857189 0.00055608915271704664 0 -0.054590628792608044 0.00012143501525404266 0 -0.053200986079374638 0.00044138820179988336 0 -0.053792780541857189 0.00055608915271704664 0 -0.053698706778324591 0.00044171722091840623 0 -0.054165012296897075 0.00026404694379822055 0 -0.053792780541857189 0.00055608915271704664 0 -0.053698706778324591 0.00044171722091840623 0 -0.053792780541857189 0.00055608915271704664 0 -0.054873475024574417 0.00037461953859537145 0 -0.054590628792608044 0.00012143501525404266 0 -0.054873475024574417 0.00037461953859537145 0 -0.054590628792608044 0.00012143501525404266 0 -0.054990228439858624 8.6615050259856278e-05 0 -0.053848267410279572 0.00057924775768102823 0 -0.054096828635565287 0.00059486283560476771 0 -0.054590628792608044 0.00012143501525404266 0 -0.055000163891521708 1.1190654403552696e-07 0 -0.054990228439858624 8.6615050259856278e-05 0 -0.055000163891521708 1.1190654403552696e-07 0 -0.054990228439858624 8.6615050259856278e-05 0 -0.054999954222634727 4.630037956833004e-08 0 -0.055021213031694931 5.7599634701599961e-05 0 -0.054999954222634727 4.630037956833004e-08 0 -0.055000134906611778 5.6939492499892358e-08 0 -0.054990228439858624 8.6615050259856278e-05 0 -0.055021213031694931 5.7599634701599961e-05 0 -0.054999954222634727 4.630037956833004e-08 0 -0.055021213031694931 5.7599634701599961e-05 0 -0.055029151557020282 0.00014752281805176416 0 -0.055031199807345492 8.0877667966829233e-05 0 -0.054705541392914753 0.00057888966627396175 0 -0.051881460556505062 -0.00081385467147991901 0 -0.054990228439858624 8.6615050259856278e-05 0 -0.055021213031694931 5.7599634701599961e-05 0 -0.055029151557020282 0.00014752281805176416 0 -0.054873475024574417 0.00037461953859537145 0 -0.054990228439858624 8.6615050259856278e-05 0 -0.055029151557020282 0.00014752281805176416 0 -0.054096828635565287 0.00059486283560476771 0 -0.054705541392914753 0.00057888966627396175 0 -0.054998139240607744 1.5036463774307799e-08 0 -0.05419240504225499 0.00026104667475089602 0 -0.054999407074553058 5.3814143098456328e-08 0 -0.054998139240607744 1.5036463774307799e-08 0 -0.05379198487192087 0.0003435993403892245 0 -0.05419240504225499 0.00026104667475089602 0 -0.05500064850482974 1.3632264172153833e-06 0 -0.051881460556505062 -0.00081385467147991901 0 -0.055021213031694931 5.7599634701599961e-05 0 -0.055000134906611778 5.6939492499892358e-08 0 -0.055031199807345492 8.0877667966829233e-05 0 -0.051881460556505062 -0.00081385467147991901 0 -0.04810065844738938 -0.0040693186726359016 0 -0.043368674369338826 -0.0075256456168091039 0 -0.041887311620653879 -0.007560197333960338 0 -0.043271151447423717 -0.0080082948921929541 0 -0.043368674369338826 -0.0075256456168091039 0 -0.043054528256893827 -0.0079278354369826231 0 -0.041887311620653879 -0.007560197333960338 0 -0.053517457640277363 0.00089208957657122381 0 -0.053342870161152446 0.00088501837790309857 0 -0.053360758729211921 0.00073154151206971285 0 -0.051881460556505062 -0.00081385467147991901 0 -0.044808614529263359 -0.0062386881078118055 0 -0.044808614529263359 -0.0062386881078118055 0 -0.039950613447155163 -0.0078423898441511083 0 -0.037514700327703022 -0.0075885202573569193 0 -0.041887311620653879 -0.007560197333960338 0 -0.03891035352563451 -0.0053635050396991461 0 -0.041887311620653879 -0.007560197333960338 0 -0.03891035352563451 -0.0053635050396991461 0 -0.040864228709390923 -0.0050117254196362969 0 -0.053588850905113519 0.00085528703810623359 0 -0.053517457640277363 0.00089208957657122381 0 -0.053574389512981123 0.00082531804773233297 0 -0.053585395577554117 0.00084328085431744878 0 -0.053588850905113519 0.00085528703810623359 0 -0.053574389512981123 0.00082531804773233297 0 -0.053517457640277363 0.00089208957657122381 0 -0.053360758729211921 0.00073154151206971285 0 -0.053574389512981123 0.00082531804773233297 0 -0.047450693463947369 -0.0091241540323275406 0 -0.045169885437954575 -0.0089708845643277062 0 -0.047054990734499647 -0.006451929724597961 0 -0.044808614529263359 -0.0062386881078118055 0 -0.050493556593012745 -0.0039257985375724599 0 -0.043007202798343212 -0.0089369188564980568 0 -0.045169885437954575 -0.0089708845643277062 0 -0.044800111270038148 -0.0070194148001621248 0 -0.048058362212405913 -0.0038160640710297338 0 -0.050493556593012745 -0.0039257985375724599 0 -0.043040989655550199 -0.0059625436255109875 0 -0.044800111270038148 -0.0070194148001621248 0 -0.044843408015870195 -0.004902483452264756 0 -0.044843408015870195 -0.004902483452264756 0 -0.047054990734499647 -0.006451929724597961 0 -0.046625325259146713 -0.0035163258036349774 0 -0.044800111270038148 -0.0070194148001621248 0 -0.044843408015870195 -0.004902483452264756 0 -0.047054990734499647 -0.006451929724597961 0 -0.041892335169476817 -0.0056391630020827003 0 -0.039350706724695733 -0.0023304126888227237 0 -0.045169885437954575 -0.0089708845643277062 0 -0.044800111270038148 -0.0070194148001621248 0 -0.047054990734499647 -0.006451929724597961 0 -0.03891035352563451 -0.0053635050396991461 0 -0.036782146363065656 -0.0039030145887400621 0 -0.038960254985162084 -0.0031342431554058012 0 -0.044808614529263359 -0.0062386881078118055 0 -0.041892335169476817 -0.0056391630020827003 0 -0.037514700327703022 -0.0075885202573569193 0 -0.03891035352563451 -0.0053635050396991461 0 -0.036782146363065656 -0.0039030145887400621 0 -0.03891035352563451 -0.0053635050396991461 0 -0.038960254985162084 -0.0031342431554058012 0 -0.040864228709390923 -0.0050117254196362969 0 -0.036782146363065656 -0.0039030145887400621 0 -0.037168989258755496 -0.0025014883633413319 0 -0.036021667862147881 -0.0013425745817878345 0 -0.036782146363065656 -0.0039030145887400621 0 -0.038960254985162084 -0.0031342431554058012 0 -0.037168989258755496 -0.0025014883633413319 0 -0.037168989258755496 -0.0025014883633413319 0 -0.036498622896202572 -0.0015071918775511957 0 -0.036021667862147881 -0.0013425745817878345 0 -0.038960254985162084 -0.0031342431554058012 0 -0.037168989258755496 -0.0025014883633413319 0 -0.037722871438517075 -0.0013209768839149095 0 -0.037168989258755496 -0.0025014883633413319 0 -0.036498622896202572 -0.0015071918775511957 0 -0.037722871438517075 -0.0013209768839149095 0 -0.036498622896202572 -0.0015071918775511957 0 -0.037722871438517075 -0.0013209768839149095 0 -0.036280405103535363 -0.00077705838678421161 0 -0.037722871438517075 -0.0013209768839149095 0 -0.038416104329187607 -0.00061519013431612197 0 -0.039559105105306927 -0.00095880254235713384 0 -0.038960254985162084 -0.0031342431554058012 0 -0.037722871438517075 -0.0013209768839149095 0 -0.039559105105306927 -0.00095880254235713384 0 -0.037722871438517075 -0.0013209768839149095 0 -0.038416104329187607 -0.00061519013431612197 0 -0.037070803887411616 -0.00041440834578226221 0 -0.038203780335244554 0.00026674672066220976 0 -0.038416104329187607 -0.00061519013431612197 0 -0.037070803887411616 -0.00041440834578226221 0 -0.037722871438517075 -0.0013209768839149095 0 -0.037070803887411616 -0.00041440834578226221 0 -0.036280405103535363 -0.00077705838678421161 0 -0.037070803887411616 -0.00041440834578226221 0 -0.036280405103535363 -0.00077705838678421161 0 -0.036065626483331593 -0.00019538050877804255 0 -0.036280405103535363 -0.00077705838678421161 0 -0.036065626483331593 -0.00019538050877804255 0 -0.035725970918112651 -0.000322421441789327 0 -0.035725970918112651 -0.000322421441789327 0 -0.035846541569476476 -0.00018952848567870678 0 -0.035766645958532489 -0.00025773924216487208 0 -0.036280405103535363 -0.00077705838678421161 0 -0.035725970918112651 -0.000322421441789327 0 -0.036015907576026067 -0.0013855528420250391 0 -0.035879182902621612 0.00025947829930480441 0 -0.039350706724695733 -0.0023304126888227237 0 -0.03571925152310796 -0.00031003671945000979 0 -0.035725970918112651 -0.000322421441789327 0 -0.035846541569476476 -0.00018952848567870678 0 -0.03571925152310796 -0.00031003671945000979 0 -0.03604643930647914 -0.0004793875816163058 0 -0.035846541569476476 -0.00018952848567870678 0 -0.044843408015870195 -0.004902483452264756 0 -0.044142924017951161 -0.0026844772585122895 0 -0.046625325259146713 -0.0035163258036349774 0 -0.040368277078266582 -0.001442366800781658 0 -0.039350706724695733 -0.0023304126888227237 0 -0.036498622896202572 -0.0015071918775511957 0 -0.036280405103535363 -0.00077705838678421161 0 -0.036015907576026067 -0.0013855528420250391 0 -0.037306946440557848 -0.0017348514029333446 0 -0.039350706724695733 -0.0023304126888227237 0 -0.038552346648296085 -0.00029178435968316391 0 -0.039133534071443522 -0.00063335717069069094 0 -0.038832924205195921 -0.00021831418071995124 0 -0.038552346648296085 -0.00029178435968316391 0 -0.038207533575382993 -0.00011214358867825617 0 -0.037728737298148213 -3.2638718972869157e-05 0 -0.038207533575382993 -0.00011214358867825617 0 -0.038233350763285129 -0.00012953617812452227 0 -0.037728737298148213 -3.2638718972869157e-05 0 -0.038552346648296085 -0.00029178435968316391 0 -0.038207533575382993 -0.00011214358867825617 0 -0.038530150262255661 -7.1609321126502802e-05 0 -0.038552346648296085 -0.00029178435968316391 0 -0.038180125562907889 -0.00069128155558327651 0 -0.037728737298148213 -3.2638718972869157e-05 0 -0.034256133614544319 0.0014791004010727415 0 -0.037860040447496808 -0.00081035082307558614 0 -0.034256133614544319 0.0014791004010727415 0 -0.040219465329388901 -0.00059984429063745354 0 -0.038552346648296085 -0.00029178435968316391 0 -0.038829268585719147 -0.00072996137704404898 0 -0.039133534071443522 -0.00063335717069069094 0 -0.040183343908558544 0.00028758923647385177 0 -0.040623332963924397 -0.00049379935734309344 0 -0.040025847211051568 -0.00046401917876504636 0 -0.038552346648296085 -0.00029178435968316391 0 -0.038180125562907889 -0.00069128155558327651 0 -0.038829268585719147 -0.00072996137704404898 0 -0.040219465329388901 -0.00059984429063745354 0 -0.038984565391503301 -0.00049679445620737618 0 -0.039232309476854514 -0.00049585203244239 0 -0.038984390504938515 -0.00051706437162272675 0 -0.039133534071443522 -0.00063335717069069094 0 -0.038829268585719147 -0.00072996137704404898 0 -0.039232309476854514 -0.00049585203244239 0 -0.039133534071443522 -0.00063335717069069094 0 -0.038984390504938515 -0.00051706437162272675 0 -0.039559105105306927 -0.00095880254235713384 0 -0.039133534071443522 -0.00063335717069069094 0 -0.038203780335244554 0.00026674672066220976 0 -0.038416104329187607 -0.00061519013431612197 0 -0.038984390504938515 -0.00051706437162272675 0 -0.038416104329187607 -0.00061519013431612197 0 -0.038984390504938515 -0.00051706437162272675 0 -0.039559105105306927 -0.00095880254235713384 0 -0.039772563931624788 -0.0010349233179387241 0 -0.040677402771720446 -0.0018750567216048407 0 -0.039559105105306927 -0.00095880254235713384 0 -0.039133534071443522 -0.00063335717069069094 0 -0.039189188368738727 -0.00013413920326305371 0 -0.039133534071443522 -0.00063335717069069094 0 -0.039189188368738727 -0.00013413920326305371 0 -0.038832924205195921 -0.00021831418071995124 0 -0.039189188368738727 -0.00013413920326305371 0 -0.038824995998630943 -3.3601586444977729e-05 0 -0.038832924205195921 -0.00021831418071995124 0 -0.038960254985162084 -0.0031342431554058012 0 -0.042262424367872024 -0.0034635781125107838 0 -0.040864228709390923 -0.0050117254196362969 0 -0.038960254985162084 -0.0031342431554058012 0 -0.039559105105306927 -0.00095880254235713384 0 -0.042262424367872024 -0.0034635781125107838 0 -0.042262424367872024 -0.0034635781125107838 0 -0.040864228709390923 -0.0050117254196362969 0 -0.043898160154965192 -0.0059777308218116765 0 -0.039189188368738727 -0.00013413920326305371 0 -0.038824995998630943 -3.3601586444977729e-05 0 -0.0388671182563761 0.00011160826375690949 0 -0.040677402771720446 -0.0018750567216048407 0 -0.041366312525920428 -0.0029046295970958122 0 -0.038638072325335539 7.9791637642890497e-05 0 -0.038824995998630943 -3.3601586444977729e-05 0 -0.0388671182563761 0.00011160826375690949 0 -0.038638072325335539 7.9791637642890497e-05 0 -0.038824995998630943 -3.3601586444977729e-05 0 -0.038530150262255661 -7.1609321126502802e-05 0 -0.038552346648296085 -0.00029178435968316391 0 -0.038530150262255661 -7.1609321126502802e-05 0 -0.038832924205195921 -0.00021831418071995124 0 -0.038824995998630943 -3.3601586444977729e-05 0 -0.038530150262255661 -7.1609321126502802e-05 0 -0.038832924205195921 -0.00021831418071995124 0 -0.038530150262255661 -7.1609321126502802e-05 0 -0.038417957280122345 -3.829511903519612e-05 0 -0.038233350763285129 -0.00012953617812452227 0 -0.038207533575382993 -0.00011214358867825617 0 -0.038530150262255661 -7.1609321126502802e-05 0 -0.038233350763285129 -0.00012953617812452227 0 -0.038638072325335539 7.9791637642890497e-05 0 -0.038530150262255661 -7.1609321126502802e-05 0 -0.038417957280122345 -3.829511903519612e-05 0 -0.038638072325335539 7.9791637642890497e-05 0 -0.038417957280122345 -3.829511903519612e-05 0 -0.038496651177792961 6.3565692754519621e-05 0 -0.038638072325335539 7.9791637642890497e-05 0 -0.038496651177792961 6.3565692754519621e-05 0 -0.038594363694693684 0.0001811885072995203 0 -0.038638072325335539 7.9791637642890497e-05 0 -0.038751035656361781 0.00020775651768317827 0 -0.038594363694693684 0.0001811885072995203 0 -0.041723364792416222 -0.0038074566522574038 0 -0.041366312525920428 -0.0029046295970958122 0 -0.038638072325335539 7.9791637642890497e-05 0 -0.038751035656361781 0.00020775651768317827 0 -0.0388671182563761 0.00011160826375690949 0 -0.041723364792416222 -0.0038074566522574038 0 -0.043767026265701732 -0.0019331701149001321 0 -0.038751035656361781 0.00020775651768317827 0 -0.038594363694693684 0.0001811885072995203 0 -0.03872177076338764 0.00029750159324962373 0 -0.038594363694693684 0.0001811885072995203 0 -0.03872177076338764 0.00029750159324962373 0 -0.038533187677387205 0.0002647741074198411 0 -0.041887311620653879 -0.007560197333960338 0 -0.043898160154965192 -0.0059777308218116765 0 -0.043462241094761031 -0.007694582976236446 0 -0.041887311620653879 -0.007560197333960338 0 -0.040864228709390923 -0.0050117254196362969 0 -0.043898160154965192 -0.0059777308218116765 0 -0.044642056234664627 -0.0075013092154315826 0 -0.043898160154965192 -0.0059777308218116765 0 -0.043462241094761031 -0.007694582976236446 0 -0.044642056234664627 -0.0075013092154315826 0 -0.043462241094761031 -0.007694582976236446 0 -0.044160826771837157 -0.0083577922588569126 0 -0.041887311620653879 -0.007560197333960338 0 -0.043462241094761031 -0.007694582976236446 0 -0.043271151447423717 -0.0080082948921929541 0 -0.043462241094761031 -0.007694582976236446 0 -0.043271151447423717 -0.0080082948921929541 0 -0.044160826771837157 -0.0083577922588569126 0 -0.04810065844738938 -0.0040693186726359016 0 -0.049573883533690563 -0.0041948383464610996 0 -0.054636403917552735 0.00016966586279760159 0 -0.054999662599266801 -1.6397007871030205e-08 0 -0.054999407074553058 5.3814143098456328e-08 0 -0.05419240504225499 0.00026104667475089602 0 -0.054636403917552735 0.00016966586279760159 0 -0.054999407074553058 5.3814143098456328e-08 0 -0.049868403905575509 -0.0026321055470284664 0 -0.051861967211332544 -0.00036110262333318913 0 -0.043767026265701732 -0.0019331701149001321 0 -0.044579502951883662 -0.0014994584928967329 0 -0.047202635327941854 -0.0017851928409453894 0 -0.047124812672993677 -0.0016351116080494253 0 -0.047977119613650095 -0.0014292349239544905 0 -0.049573883533690563 -0.0041948383464610996 0 -0.049868403905575509 -0.0026321055470284664 0 -0.044642056234664627 -0.0075013092154315826 0 -0.044160826771837157 -0.0083577922588569126 0 -0.044999128087662953 -0.0081625363035663177 0 -0.044160826771837157 -0.0083577922588569126 0 -0.045098964850771583 -0.0083377355337355564 0 -0.044999128087662953 -0.0081625363035663177 0 -0.049868403905575509 -0.0026321055470284664 0 -0.043767026265701732 -0.0019331701149001321 0 -0.054999662599266801 -1.6397007871030205e-08 0 -0.0549760491971968 8.9654344702289667e-05 0 -0.055000194586483052 5.9909477005156505e-08 0 -0.054636403917552735 0.00016966586279760159 0 -0.054999662599266801 -1.6397007871030205e-08 0 -0.0549760491971968 8.9654344702289667e-05 0 -0.054935866173957522 -1.8237789165667718e-05 0 -0.054976440978298222 -7.3576221585099187e-06 0 -0.054999918423241131 -2.4217629741196594e-08 0 -0.054935866173957522 -1.8237789165667718e-05 0 -0.054976440978298222 -7.3576221585099187e-06 0 -0.054967129477575039 -6.473145517287348e-06 0 -0.049868403905575509 -0.0026321055470284664 0 -0.055000893558937197 7.6793973769026317e-07 0 -0.054976440978298222 -7.3576221585099187e-06 0 -0.054999918423241131 -2.4217629741196594e-08 0 -0.054999972989916421 -5.4702340723287353e-09 0 -0.054999884482593776 4.293449949925015e-07 0 -0.051861967211332544 -0.00036110262333318913 0 -0.054999986039048425 -1.766966962266383e-07 0 -0.054980017673672554 -5.6575832561927119e-06 0 -0.054989112939537725 -1.153393132861368e-06 0 -0.054976440978298222 -7.3576221585099187e-06 0 -0.054999972989916421 -5.4702340723287353e-09 0 -0.054967129477575039 -6.473145517287348e-06 0 -0.047202635327941854 -0.0017851928409453894 0 -0.047973518939208107 -0.00183759272203217 0 -0.047977119613650095 -0.0014292349239544905 0 -0.049713646199473292 -0.00022712146945686384 0 -0.049734909197783672 0.0013269046699708319 0 -0.051099150553884698 0.00050670393422946251 0 -0.051861967211332544 -0.00036110262333318913 0 -0.044579502951883662 -0.0014994584928967329 0 -0.051099150553884698 0.00050670393422946251 0 -0.053317329613444195 0.00085241514215777267 0 -0.052256633970635583 0.0017942957270505216 0 -0.051099150553884698 0.00050670393422946251 0 -0.052361261566135638 -0.00028025239169732712 0 -0.053317329613444195 0.00085241514215777267 0 -0.049713646199473292 -0.00022712146945686384 0 -0.051099150553884698 0.00050670393422946251 0 -0.052361261566135638 -0.00028025239169732712 0 -0.049734909197783672 0.0013269046699708319 0 -0.051099150553884698 0.00050670393422946251 0 -0.052256633970635583 0.0017942957270505216 0 -0.051861967211332544 -0.00036110262333318913 0 -0.053762225980750637 -8.3018982764549804e-05 0 -0.054980017673672554 -5.6575832561927119e-06 0 -0.054977874850880078 -1.0723603201699554e-06 0 -0.054989112939537725 -1.153393132861368e-06 0 -0.054999986039048425 -1.766966962266383e-07 0 -0.054989112939537725 -1.153393132861368e-06 0 -0.054999927393570056 3.4804404583345336e-07 0 -0.054977874850880078 -1.0723603201699554e-06 0 -0.054989112939537725 -1.153393132861368e-06 0 -0.054999927393570056 3.4804404583345336e-07 0 -0.054977874850880078 -1.0723603201699554e-06 0 -0.054999927393570056 3.4804404583345336e-07 0 -0.054795039021967334 0.00016227231854129415 0 -0.053762225980750637 -8.3018982764549804e-05 0 -0.054636420519302786 7.309238197448653e-05 0 -0.054921040847001619 5.5974490999164337e-05 0 -0.054464387457851253 0.0010841337827157086 0 -0.054999519184842062 -7.7450190700187193e-07 0 -0.054795039021967334 0.00016227231854129415 0 -0.055304077095889081 0.0009117300383066554 0 -0.054999927393570056 3.4804404583345336e-07 0 -0.054999519184842062 -7.7450190700187193e-07 0 -0.054795039021967334 0.00016227231854129415 0 -0.054795039021967334 0.00016227231854129415 0 -0.054463151382737586 0.00093183038495497418 0 -0.055211730870693108 0.0010046638236107749 0 -0.054795039021967334 0.00016227231854129415 0 -0.055304077095889081 0.0009117300383066554 0 -0.055211730870693108 0.0010046638236107749 0 -0.054795039021967334 0.00016227231854129415 0 -0.054463151382737586 0.00093183038495497418 0 -0.053317329613444195 0.00085241514215777267 0 -0.054463151382737586 0.00093183038495497418 0 -0.053317329613444195 0.00085241514215777267 0 -0.054308154105077784 0.0018987913772135919 0 -0.054463151382737586 0.00093183038495497418 0 -0.054906672273929751 0.0014597038499147756 0 -0.055211730870693108 0.0010046638236107749 0 -0.052361261566135638 -0.00028025239169732712 0 -0.054795039021967334 0.00016227231854129415 0 -0.053317329613444195 0.00085241514215777267 0 -0.050184465224572788 -0.0013913652442605511 0 -0.047950041674229185 -0.0017877051343389992 0 -0.044600879668914732 -0.0031479583230903949 0 -0.04277499973082885 -0.0034600264708400837 0 -0.043418047741783032 -0.005269451912919919 0 -0.045788057968960232 -0.0048254535429221278 0 -0.044600879668914732 -0.0031479583230903949 0 -0.043418047741783032 -0.005269451912919919 0 -0.053317329613444195 0.00085241514215777267 0 -0.054308154105077784 0.0018987913772135919 0 -0.052256633970635583 0.0017942957270505216 0 -0.045788057968960232 -0.0048254535429221278 0 -0.048330462545386289 -0.0042958202525937442 0 -0.047362081797008009 -0.003247079032024191 0 -0.054906672273929751 0.0014597038499147756 0 -0.054308154105077784 0.0018987913772135919 0 -0.055685399732605841 0.0020396505036341869 0 -0.050184465224572788 -0.0013913652442605511 0 -0.051107813346800916 -0.0016690378379480091 0 -0.054463151382737586 0.00093183038495497418 0 -0.054906672273929751 0.0014597038499147756 0 -0.054308154105077784 0.0018987913772135919 0 -0.045788057968960232 -0.0048254535429221278 0 -0.046223446133074303 -0.0025002243805004399 0 -0.044600879668914732 -0.0031479583230903949 0 -0.045788057968960232 -0.0048254535429221278 0 -0.046223446133074303 -0.0025002243805004399 0 -0.047362081797008009 -0.003247079032024191 0 -0.046223446133074303 -0.0025002243805004399 0 -0.047362081797008009 -0.003247079032024191 0 -0.047694619439357135 -0.0018580593669721859 0 -0.044600879668914732 -0.0031479583230903949 0 -0.04277499973082885 -0.0034600264708400837 0 -0.043349417832658749 -0.0021155072017869469 0 -0.046223446133074303 -0.0025002243805004399 0 -0.044600879668914732 -0.0031479583230903949 0 -0.044941427096031321 -0.0013636949432217105 0 -0.044600879668914732 -0.0031479583230903949 0 -0.043349417832658749 -0.0021155072017869469 0 -0.044941427096031321 -0.0013636949432217105 0 -0.04277499973082885 -0.0034600264708400837 0 -0.04206119075481788 -0.0020566697252406567 0 -0.043349417832658749 -0.0021155072017869469 0 -0.04277499973082885 -0.0034600264708400837 0 -0.041156309271541187 -0.0031849061183193321 0 -0.042113565035094218 -0.0045168111240345777 0 -0.04277499973082885 -0.0034600264708400837 0 -0.041156309271541187 -0.0031849061183193321 0 -0.04206119075481788 -0.0020566697252406567 0 -0.038496651177792961 6.3565692754519621e-05 0 -0.038594363694693684 0.0001811885072995203 0 -0.038430421531383353 0.00011238950313889446 0 -0.038496651177792961 6.3565692754519621e-05 0 -0.038430421531383353 0.00011238950313889446 0 -0.038420596084398552 1.099386289290614e-06 0 -0.038594363694693684 0.0001811885072995203 0 -0.038533187677387205 0.0002647741074198411 0 -0.038430421531383353 0.00011238950313889446 0 -0.041279660685578035 -0.0056802736261584563 0 -0.041156309271541187 -0.0031849061183193321 0 -0.042113565035094218 -0.0045168111240345777 0 -0.044579502951883662 -0.0014994584928967329 0 -0.039332207888093586 -0.0018166040460094164 0 -0.04277499973082885 -0.0034600264708400837 0 -0.043418047741783032 -0.005269451912919919 0 -0.042113565035094218 -0.0045168111240345777 0 -0.041279660685578035 -0.0056802736261584563 0 -0.043418047741783032 -0.005269451912919919 0 -0.042113565035094218 -0.0045168111240345777 0 -0.044579502951883662 -0.0014994584928967329 0 -0.047950041674229185 -0.0017877051343389992 0 -0.053412915997778643 0.00037159871604821389 0 -0.053026261077569956 0.00059604336036657348 0 -0.054076950891720141 0.00022001165529034794 0 -0.053412915997778643 0.00037159871604821389 0 -0.053026261077569956 0.00059604336036657348 0 -0.052351482279471513 0.00071835669937009576 0 -0.053412915997778643 0.00037159871604821389 0 -0.054994908606929363 -1.0342820523970453e-06 0 -0.051992337649938866 6.8274447224616665e-05 0 -0.053412915997778643 0.00037159871604821389 0 -0.054994908606929363 -1.0342820523970453e-06 0 -0.054076950891720141 0.00022001165529034794 0 -0.055000003295952692 -4.7378950392340404e-09 0 -0.054999988340159803 6.6986163784095366e-09 0 -0.054994585733433944 5.1488256644145689e-06 0 -0.054999527676192976 2.6822937438508978e-08 0 -0.053405353013113208 2.2995835568919051e-05 0 -0.051992337649938866 6.8274447224616665e-05 0 -0.052351482279471513 0.00071835669937009576 0 -0.05174702090110507 0.0005991312017610312 0 -0.053412915997778643 0.00037159871604821389 0 -0.051992337649938866 6.8274447224616665e-05 0 -0.052351482279471513 0.00071835669937009576 0 -0.053405353013113208 2.2995835568919051e-05 0 -0.053681445995802213 0.00083869398607552392 0 -0.051992337649938866 6.8274447224616665e-05 0 -0.05174702090110507 0.0005991312017610312 0 -0.051262390862783364 0.0005590547964672226 0 -0.05174702090110507 0.0005991312017610312 0 -0.051262390862783364 0.0005590547964672226 0 -0.051587324340592593 0.00079230453678632391 0 -0.054994585733433944 5.1488256644145689e-06 0 -0.054999991466862234 2.5910069055035233e-09 0 -0.054982852340238364 1.5745514777616773e-05 0 -0.054999988340159803 6.6986163784095366e-09 0 -0.054994585733433944 5.1488256644145689e-06 0 -0.054999991466862234 2.5910069055035233e-09 0 -0.054921040847001619 5.5974490999164337e-05 0 -0.053681445995802213 0.00083869398607552392 0 -0.054999979321382009 6.4160427220235396e-09 0 -0.054999991466862234 2.5910069055035233e-09 0 -0.054982852340238364 1.5745514777616773e-05 0 -0.054403242874046333 0.00022232072185644614 0 -0.054573133294604025 0.00085562426807187213 0 -0.054633195761360762 0.00082494990345135285 0 -0.054464387457851253 0.0010841337827157086 0 -0.054585025052967071 0.0010371754271281616 0 -0.054464387457851253 0.0010841337827157086 0 -0.053681445995802213 0.00083869398607552392 0 -0.054464387457851253 0.0010841337827157086 0 -0.051107813346800916 -0.0016690378379480091 0 -0.055348089106640116 0.0009337724670576311 0 -0.055211730870693108 0.0010046638236107749 0 -0.055685399732605841 0.0020396505036341869 0 -0.051262390862783364 0.0005590547964672226 0 -0.051545881955085991 0.00088743360940235548 0 -0.051587324340592593 0.00079230453678632391 0 -0.052563237602684207 0.0011006678837063395 0 -0.051354472447682334 -0.0016951927925608682 0 -0.052203987687590138 -0.0015009853556545807 0 -0.052966273084798232 0.00089643129468089107 0 -0.052563237602684207 0.0011006678837063395 0 -0.052203987687590138 -0.0015009853556545807 0 -0.053681445995802213 0.00083869398607552392 0 -0.050554361422168001 -0.0013645963034207777 0 -0.054906672273929751 0.0014597038499147756 0 -0.055211730870693108 0.0010046638236107749 0 -0.055685399732605841 0.0020396505036341869 0 -0.050554361422168001 -0.0013645963034207777 0 -0.051107813346800916 -0.0016690378379480091 0 -0.047362081797008009 -0.003247079032024191 0 -0.048864183393763715 -0.0026714697627702247 0 -0.047694619439357135 -0.0018580593669721859 0 -0.048330462545386289 -0.0042958202525937442 0 -0.047362081797008009 -0.003247079032024191 0 -0.048864183393763715 -0.0026714697627702247 0 -0.049081587799898387 -0.0041640541166148327 0 -0.048372393708666306 -0.0043219883972597127 0 -0.048864183393763715 -0.0026714697627702247 0 -0.051107813346800916 -0.0016690378379480091 0 -0.048824725855076537 -0.003827991076021206 0 -0.049081587799898387 -0.0041640541166148327 0 -0.048864183393763715 -0.0026714697627702247 0 -0.049925011691274182 -0.0022938192553996124 0 -0.051545881955085991 0.00088743360940235548 0 -0.051559683183544668 0.00083114474716886879 0 -0.051549556156570808 0.00073596341217767921 0 -0.050554361422168001 -0.0013645963034207777 0 -0.050666686927145599 -0.00078267503162845098 0 -0.051545881955085991 0.00088743360940235548 0 -0.051559683183544668 0.00083114474716886879 0 -0.051614242627228059 0.0008607718105153511 0 -0.048864183393763715 -0.0026714697627702247 0 -0.049925011691274182 -0.0022938192553996124 0 -0.048994004547972758 -0.0011177707624215633 0 -0.051559683183544668 0.00083114474716886879 0 -0.051549556156570808 0.00073596341217767921 0 -0.051536035466065 0.00080569793219532632 0 -0.051549556156570808 0.00073596341217767921 0 -0.051536035466065 0.00080569793219532632 0 -0.051377855914315748 0.00073455172738273993 0 -0.051536035466065 0.00080569793219532632 0 -0.051614863876056398 0.00086911615694473885 0 -0.051377855914315748 0.00073455172738273993 0 -0.051559683183544668 0.00083114474716886879 0 -0.051614863876056398 0.00086911615694473885 0 -0.051614242627228059 0.0008607718105153511 0 -0.051559683183544668 0.00083114474716886879 0 -0.051536035466065 0.00080569793219532632 0 -0.051614863876056398 0.00086911615694473885 0 -0.051614242627228059 0.0008607718105153511 0 -0.051587324340592593 0.00079230453678632391 0 -0.0517684279583761 0.00084558382048895327 0 -0.051614863876056398 0.00086911615694473885 0 -0.051614242627228059 0.0008607718105153511 0 -0.0517684279583761 0.00084558382048895327 0 -0.051545881955085991 0.00088743360940235548 0 -0.051614242627228059 0.0008607718105153511 0 -0.051587324340592593 0.00079230453678632391 0 -0.05174702090110507 0.0005991312017610312 0 -0.051587324340592593 0.00079230453678632391 0 -0.0517684279583761 0.00084558382048895327 0 -0.052351482279471513 0.00071835669937009576 0 -0.051834333499413729 0.00093410659800585239 0 -0.052230203929533606 0.00088432106944044968 0 -0.052351482279471513 0.00071835669937009576 0 -0.05174702090110507 0.0005991312017610312 0 -0.0517684279583761 0.00084558382048895327 0 -0.052351482279471513 0.00071835669937009576 0 -0.0517684279583761 0.00084558382048895327 0 -0.051834333499413729 0.00093410659800585239 0 -0.051614863876056398 0.00086911615694473885 0 -0.0517684279583761 0.00084558382048895327 0 -0.051834333499413729 0.00093410659800585239 0 -0.051614863876056398 0.00086911615694473885 0 -0.051834333499413729 0.00093410659800585239 0 -0.051377855914315748 0.00073455172738273993 0 -0.051377855914315748 0.00073455172738273993 0 -0.051657600200298699 0.0010182295422069513 0 -0.051417813380983328 0.00072526987890968501 0 -0.051834333499413729 0.00093410659800585239 0 -0.051377855914315748 0.00073455172738273993 0 -0.051657600200298699 0.0010182295422069513 0 -0.051657600200298699 0.0010182295422069513 0 -0.051417813380983328 0.00072526987890968501 0 -0.051263490854501853 0.0012079349992413068 0 -0.051657600200298699 0.0010182295422069513 0 -0.052277816443994707 0.00090720431621011169 0 -0.051263490854501853 0.0012079349992413068 0 -0.053026261077569956 0.00059604336036657348 0 -0.052351482279471513 0.00071835669937009576 0 -0.052230203929533606 0.00088432106944044968 0 -0.051657600200298699 0.0010182295422069513 0 -0.052230203929533606 0.00088432106944044968 0 -0.052277816443994707 0.00090720431621011169 0 -0.051834333499413729 0.00093410659800585239 0 -0.051657600200298699 0.0010182295422069513 0 -0.052230203929533606 0.00088432106944044968 0 -0.053026261077569956 0.00059604336036657348 0 -0.052230203929533606 0.00088432106944044968 0 -0.052277816443994707 0.00090720431621011169 0 -0.051632271898155092 0.00087685880902910597 0 -0.051417813380983328 0.00072526987890968501 0 -0.051263490854501853 0.0012079349992413068 0 -0.051299843614558797 0.00093028474069848386 0 -0.051021798330664926 0.001273716630887625 0 -0.051377855914315748 0.00073455172738273993 0 -0.051417813380983328 0.00072526987890968501 0 -0.050789442633770471 0.00017127663262990212 0 -0.051417813380983328 0.00072526987890968501 0 -0.051089084728067391 0.00082648304004413081 0 -0.050789442633770471 0.00017127663262990212 0 -0.051089084728067391 0.00082648304004413081 0 -0.050789442633770471 0.00017127663262990212 0 -0.050293074162978707 0.0016205081932740778 0 -0.051632271898155092 0.00087685880902910597 0 -0.051089084728067391 0.00082648304004413081 0 -0.051251828929893044 0.002762759231476823 0 -0.051632271898155092 0.00087685880902910597 0 -0.051417813380983328 0.00072526987890968501 0 -0.051089084728067391 0.00082648304004413081 0 -0.049474916991288295 0.0011092602996469513 0 -0.050789442633770471 0.00017127663262990212 0 -0.050293074162978707 0.0016205081932740778 0 -0.049474916991288295 0.0011092602996469513 0 -0.050789442633770471 0.00017127663262990212 0 -0.048860208470113971 0.00031681209146182528 0 -0.051549556156570808 0.00073596341217767921 0 -0.051377855914315748 0.00073455172738273993 0 -0.050789442633770471 0.00017127663262990212 0 -0.050666686927145599 -0.00078267503162845098 0 -0.050867981885343666 5.6897144861391316e-05 0 -0.049925011691274182 -0.0022938192553996124 0 -0.050789442633770471 0.00017127663262990212 0 -0.048994004547972758 -0.0011177707624215633 0 -0.050789442633770471 0.00017127663262990212 0 -0.048994004547972758 -0.0011177707624215633 0 -0.048860208470113971 0.00031681209146182528 0 -0.048994004547972758 -0.0011177707624215633 0 -0.047910148080271366 -0.00056904086166926419 0 -0.048860208470113971 0.00031681209146182528 0 -0.048994004547972758 -0.0011177707624215633 0 -0.047694619439357135 -0.0018580593669721859 0 -0.047910148080271366 -0.00056904086166926419 0 -0.048864183393763715 -0.0026714697627702247 0 -0.048994004547972758 -0.0011177707624215633 0 -0.047694619439357135 -0.0018580593669721859 0 -0.047694619439357135 -0.0018580593669721859 0 -0.047910148080271366 -0.00056904086166926419 0 -0.046616977435932884 -0.0011765279596777892 0 -0.047910148080271366 -0.00056904086166926419 0 -0.047782946807304535 0.00043940016008991241 0 -0.046865439492473508 -1.8059589478272612e-05 0 -0.047910148080271366 -0.00056904086166926419 0 -0.047782946807304535 0.00043940016008991241 0 -0.048860208470113971 0.00031681209146182528 0 -0.047782946807304535 0.00043940016008991241 0 -0.048860208470113971 0.00031681209146182528 0 -0.048283156962414808 0.0013553630142282883 0 -0.049474916991288295 0.0011092602996469513 0 -0.048860208470113971 0.00031681209146182528 0 -0.048283156962414808 0.0013553630142282883 0 -0.047782946807304535 0.00043940016008991241 0 -0.048283156962414808 0.0013553630142282883 0 -0.046967882761492233 0.0009852333362113466 0 -0.047848729802898664 0.0025975047684047119 0 -0.049372292072268481 0.0033998659171804299 0 -0.049058580296250882 0.0020416558155934776 0 -0.048283156962414808 0.0013553630142282883 0 -0.046967882761492233 0.0009852333362113466 0 -0.046937775983137482 0.0020206771580389277 0 -0.048283156962414808 0.0013553630142282883 0 -0.047848729802898664 0.0025975047684047119 0 -0.046937775983137482 0.0020206771580389277 0 -0.048283156962414808 0.0013553630142282883 0 -0.047848729802898664 0.0025975047684047119 0 -0.049058580296250882 0.0020416558155934776 0 -0.049474916991288295 0.0011092602996469513 0 -0.048283156962414808 0.0013553630142282883 0 -0.049058580296250882 0.0020416558155934776 0 -0.047848729802898664 0.0025975047684047119 0 -0.049372292072268481 0.0033998659171804299 0 -0.046942303663871518 0.0035152618462952201 0 -0.047360917773214918 0.0023132434495785883 0 -0.046458004678304292 0.002310110734720542 0 -0.045439694280570701 0.0010439254003845116 0 -0.045687318172244931 0.0012741241666862611 0 -0.04564988383922286 0.001017042567044299 0 -0.049372292072268481 0.0033998659171804299 0 -0.050293074162978707 0.0016205081932740778 0 -0.051251828929893044 0.002762759231476823 0 -0.049372292072268481 0.0033998659171804299 0 -0.049058580296250882 0.0020416558155934776 0 -0.050293074162978707 0.0016205081932740778 0 -0.049474916991288295 0.0011092602996469513 0 -0.049058580296250882 0.0020416558155934776 0 -0.050293074162978707 0.0016205081932740778 0 -0.051089084728067391 0.00082648304004413081 0 -0.050293074162978707 0.0016205081932740778 0 -0.051251828929893044 0.002762759231476823 0 -0.045439694280570701 0.0010439254003845116 0 -0.044947161112021301 0.001131185728642898 0 -0.045261997657523471 0.00040206886108114953 0 -0.048008351645947779 0.00061305346933845397 0 -0.044511010316014739 0.00048114704880133284 0 -0.047360917773214918 0.0023132434495785883 0 -0.048008351645947779 0.00061305346933845397 0 -0.046156319487476977 -0.00042655184099109968 0 -0.045648636542204205 0.00015852461034941551 0 -0.046277890836791451 -4.4355268422599928e-05 0 -0.048008351645947779 0.00061305346933845397 0 -0.047940768686399259 -0.0004996043256194953 0 -0.045551415246805359 -0.00033422829736633403 0 -0.046156319487476977 -0.00042655184099109968 0 -0.045648636542204205 0.00015852461034941551 0 -0.050020703241816844 0.00091440881702090429 0 -0.049652227716956182 -0.00069151820181686597 0 -0.049166886484208368 0.00033234709350286472 0 -0.050020703241816844 0.00091440881702090429 0 -0.050684676164917779 -0.00091033282016898917 0 -0.049652227716956182 -0.00069151820181686597 0 -0.051299843614558797 0.00093028474069848386 0 -0.048008351645947779 0.00061305346933845397 0 -0.04066660415385627 -0.00038191851430388 0 -0.040436223137864921 0.00092870561028702799 0 -0.040932973218809322 -0.00033083665790883368 0 -0.041985251775784493 0.0010517674551741546 0 -0.041772683222837066 0.002034385316959833 0 -0.040932973218809322 -0.00033083665790883368 0 -0.040937249824169825 -0.00050239720824256416 0 -0.042101438342102379 -0.0010034871955486178 0 -0.040932973218809322 -0.00033083665790883368 0 -0.042147387828523189 -0.00011416877777263327 0 -0.042101438342102379 -0.0010034871955486178 0 -0.040932973218809322 -0.00033083665790883368 0 -0.042147387828523189 -0.00011416877777263327 0 -0.042348670624423108 0.00071549094218718596 0 -0.042771409992994398 -0.00039443162778467336 0 -0.042147387828523189 -0.00011416877777263327 0 -0.042101438342102379 -0.0010034871955486178 0 -0.042771409992994398 -0.00039443162778467336 0 -0.042981358599490635 0.00030061498592518095 0 -0.043639145761508971 -9.2279101419918296e-05 0 -0.042771409992994398 -0.00039443162778467336 0 -0.042981358599490635 0.00030061498592518095 0 -0.042147387828523189 -0.00011416877777263327 0 -0.042981358599490635 0.00030061498592518095 0 -0.042147387828523189 -0.00011416877777263327 0 -0.042348670624423108 0.00071549094218718596 0 -0.042981358599490635 0.00030061498592518095 0 -0.042348670624423108 0.00071549094218718596 0 -0.043117140220362879 0.00097636630327479416 0 -0.042348670624423108 0.00071549094218718596 0 -0.043117140220362879 0.00097636630327479416 0 -0.042743894261985604 0.0016931117444808647 0 -0.042348670624423108 0.00071549094218718596 0 -0.041985251775784493 0.0010517674551741546 0 -0.042743894261985604 0.0016931117444808647 0 -0.040932973218809322 -0.00033083665790883368 0 -0.042348670624423108 0.00071549094218718596 0 -0.041985251775784493 0.0010517674551741546 0 -0.038233350763285129 -0.00012953617812452227 0 -0.038322569363417991 -0.00011777678039913673 0 -0.038499859435416416 -9.4218086769472766e-06 0 -0.040932973218809322 -0.00033083665790883368 0 -0.040937249824169825 -0.00050239720824256416 0 -0.038499859435416416 -9.4218086769472766e-06 0 -0.039562170191607231 -0.00019429308313017972 0 -0.038754422764197258 0.00010818832939590735 0 -0.038417957280122345 -3.829511903519612e-05 0 -0.038233350763285129 -0.00012953617812452227 0 -0.038322569363417991 -0.00011777678039913673 0 -0.039332207888093586 -0.0018166040460094164 0 -0.039562170191607231 -0.00019429308313017972 0 -0.038430421531383353 0.00011238950313889446 0 -0.038322569363417991 -0.00011777678039913673 0 -0.038420596084398552 1.099386289290614e-06 0 -0.041156309271541187 -0.0031849061183193321 0 -0.040937249824169825 -0.00050239720824256416 0 -0.04206119075481788 -0.0020566697252406567 0 -0.038417957280122345 -3.829511903519612e-05 0 -0.038322569363417991 -0.00011777678039913673 0 -0.038420596084398552 1.099386289290614e-06 0 -0.038417957280122345 -3.829511903519612e-05 0 -0.038496651177792961 6.3565692754519621e-05 0 -0.038420596084398552 1.099386289290614e-06 0 -0.040937249824169825 -0.00050239720824256416 0 -0.04206119075481788 -0.0020566697252406567 0 -0.042101438342102379 -0.0010034871955486178 0 -0.042771409992994398 -0.00039443162778467336 0 -0.042101438342102379 -0.0010034871955486178 0 -0.043536183558885388 -0.00092043875725418209 0 -0.042101438342102379 -0.0010034871955486178 0 -0.043349417832658749 -0.0021155072017869469 0 -0.043536183558885388 -0.00092043875725418209 0 -0.04206119075481788 -0.0020566697252406567 0 -0.042101438342102379 -0.0010034871955486178 0 -0.043349417832658749 -0.0021155072017869469 0 -0.043349417832658749 -0.0021155072017869469 0 -0.044941427096031321 -0.0013636949432217105 0 -0.043536183558885388 -0.00092043875725418209 0 -0.044941427096031321 -0.0013636949432217105 0 -0.044319900965238246 -0.00049924111175794295 0 -0.045067965547706298 -0.00015005905862940577 0 -0.044319900965238246 -0.00049924111175794295 0 -0.043536183558885388 -0.00092043875725418209 0 -0.043639145761508971 -9.2279101419918296e-05 0 -0.044941427096031321 -0.0013636949432217105 0 -0.044319900965238246 -0.00049924111175794295 0 -0.043536183558885388 -0.00092043875725418209 0 -0.046223446133074303 -0.0025002243805004399 0 -0.047694619439357135 -0.0018580593669721859 0 -0.046616977435932884 -0.0011765279596777892 0 -0.046223446133074303 -0.0025002243805004399 0 -0.044941427096031321 -0.0013636949432217105 0 -0.046616977435932884 -0.0011765279596777892 0 -0.044941427096031321 -0.0013636949432217105 0 -0.046616977435932884 -0.0011765279596777892 0 -0.045913419596183391 -0.00045295901807870451 0 -0.044941427096031321 -0.0013636949432217105 0 -0.045913419596183391 -0.00045295901807870451 0 -0.045067965547706298 -0.00015005905862940577 0 -0.047910148080271366 -0.00056904086166926419 0 -0.046616977435932884 -0.0011765279596777892 0 -0.046865439492473508 -1.8059589478272612e-05 0 -0.046616977435932884 -0.0011765279596777892 0 -0.045913419596183391 -0.00045295901807870451 0 -0.046865439492473508 -1.8059589478272612e-05 0 -0.046865439492473508 -1.8059589478272612e-05 0 -0.045928848204967246 0.00046026519408713049 0 -0.046967882761492233 0.0009852333362113466 0 -0.047782946807304535 0.00043940016008991241 0 -0.046865439492473508 -1.8059589478272612e-05 0 -0.046967882761492233 0.0009852333362113466 0 -0.045913419596183391 -0.00045295901807870451 0 -0.046865439492473508 -1.8059589478272612e-05 0 -0.045928848204967246 0.00046026519408713049 0 -0.045913419596183391 -0.00045295901807870451 0 -0.045928848204967246 0.00046026519408713049 0 -0.045067965547706298 -0.00015005905862940577 0 -0.045928848204967246 0.00046026519408713049 0 -0.046967882761492233 0.0009852333362113466 0 -0.045826772225594149 0.0015171913958820331 0 -0.045928848204967246 0.00046026519408713049 0 -0.044931047488540633 0.00075932696777406385 0 -0.045826772225594149 0.0015171913958820331 0 -0.043639145761508971 -9.2279101419918296e-05 0 -0.044354107110396349 0.00018615337997588042 0 -0.043873785264273914 0.00072296840485963751 0 -0.042981358599490635 0.00030061498592518095 0 -0.043639145761508971 -9.2279101419918296e-05 0 -0.043873785264273914 0.00072296840485963751 0 -0.042771409992994398 -0.00039443162778467336 0 -0.043536183558885388 -0.00092043875725418209 0 -0.043639145761508971 -9.2279101419918296e-05 0 -0.044319900965238246 -0.00049924111175794295 0 -0.043639145761508971 -9.2279101419918296e-05 0 -0.044354107110396349 0.00018615337997588042 0 -0.045928848204967246 0.00046026519408713049 0 -0.045067965547706298 -0.00015005905862940577 0 -0.044931047488540633 0.00075932696777406385 0 -0.044319900965238246 -0.00049924111175794295 0 -0.045067965547706298 -0.00015005905862940577 0 -0.044354107110396349 0.00018615337997588042 0 -0.045067965547706298 -0.00015005905862940577 0 -0.044354107110396349 0.00018615337997588042 0 -0.044931047488540633 0.00075932696777406385 0 -0.044354107110396349 0.00018615337997588042 0 -0.044931047488540633 0.00075932696777406385 0 -0.043873785264273914 0.00072296840485963751 0 -0.044931047488540633 0.00075932696777406385 0 -0.043873785264273914 0.00072296840485963751 0 -0.044526773442483139 0.0015529431214566598 0 -0.044931047488540633 0.00075932696777406385 0 -0.044526773442483139 0.0015529431214566598 0 -0.045826772225594149 0.0015171913958820331 0 -0.043873785264273914 0.00072296840485963751 0 -0.043601572915467977 0.0014523467083076718 0 -0.044526773442483139 0.0015529431214566598 0 -0.042981358599490635 0.00030061498592518095 0 -0.043117140220362879 0.00097636630327479416 0 -0.043873785264273914 0.00072296840485963751 0 -0.043117140220362879 0.00097636630327479416 0 -0.043873785264273914 0.00072296840485963751 0 -0.043601572915467977 0.0014523467083076718 0 -0.043601572915467977 0.0014523467083076718 0 -0.043804925223449608 0.0022848223537800597 0 -0.042743894261985604 0.0016931117444808647 0 -0.043601572915467977 0.0014523467083076718 0 -0.044526773442483139 0.0015529431214566598 0 -0.043804925223449608 0.0022848223537800597 0 -0.044526773442483139 0.0015529431214566598 0 -0.045044528149310495 0.0025697518093834885 0 -0.043804925223449608 0.0022848223537800597 0 -0.044526773442483139 0.0015529431214566598 0 -0.045044528149310495 0.0025697518093834885 0 -0.045826772225594149 0.0015171913958820331 0 -0.045044528149310495 0.0025697518093834885 0 -0.043804925223449608 0.0022848223537800597 0 -0.044385115342322999 0.003748970813465217 0 -0.043804925223449608 0.0022848223537800597 0 -0.044385115342322999 0.003748970813465217 0 -0.042852348742266788 0.0027532654210218653 0 -0.046967882761492233 0.0009852333362113466 0 -0.046937775983137482 0.0020206771580389277 0 -0.045826772225594149 0.0015171913958820331 0 -0.046937775983137482 0.0020206771580389277 0 -0.045826772225594149 0.0015171913958820331 0 -0.046107466630714265 0.0022979010066614897 0 -0.045044528149310495 0.0025697518093834885 0 -0.045826772225594149 0.0015171913958820331 0 -0.046107466630714265 0.0022979010066614897 0 -0.045044528149310495 0.0025697518093834885 0 -0.046107466630714265 0.0022979010066614897 0 -0.046550389999548421 0.0030239403439785762 0 -0.046937775983137482 0.0020206771580389277 0 -0.046107466630714265 0.0022979010066614897 0 -0.046550389999548421 0.0030239403439785762 0 -0.047848729802898664 0.0025975047684047119 0 -0.046937775983137482 0.0020206771580389277 0 -0.046550389999548421 0.0030239403439785762 0 -0.046458004678304292 0.002310110734720542 0 -0.046527399182109748 0.0020470873170856611 0 -0.046527651159308805 0.0027247058074724791 0 -0.046942303663871518 0.0035152618462952201 0 -0.046388571259823042 0.0019750182369691429 0 -0.046550389999548421 0.0030239403439785762 0 -0.046527651159308805 0.0027247058074724791 0 -0.046538735285837171 0.002582193912897315 0 -0.045936053799188303 0.003096187508646707 0 -0.046676181417812074 0.0030240085058145989 0 -0.047848729802898664 0.0025975047684047119 0 -0.046550389999548421 0.0030239403439785762 0 -0.046942303663871518 0.0035152618462952201 0 -0.046550389999548421 0.0030239403439785762 0 -0.046527651159308805 0.0027247058074724791 0 -0.046942303663871518 0.0035152618462952201 0 -0.045044528149310495 0.0025697518093834885 0 -0.046550389999548421 0.0030239403439785762 0 -0.044385115342322999 0.003748970813465217 0 -0.046538735285837171 0.002582193912897315 0 -0.047261388200397554 0.0024555192760456002 0 -0.046695708259602758 0.0018152119548077508 0 -0.046527651159308805 0.0027247058074724791 0 -0.046538735285837171 0.002582193912897315 0 -0.046388571259823042 0.0019750182369691429 0 -0.046538735285837171 0.002582193912897315 0 -0.046388571259823042 0.0019750182369691429 0 -0.046695708259602758 0.0018152119548077508 0 -0.044385115342322999 0.003748970813465217 0 -0.042167442461522313 0.0040393629396669245 0 -0.042852348742266788 0.0027532654210218653 0 -0.046676181417812074 0.0030240085058145989 0 -0.037470760571570096 0.0021534203674172269 0 -0.040932973218809322 -0.00033083665790883368 0 -0.038987908948667375 -0.00011232035927206438 0 -0.038499859435416416 -9.4218086769472766e-06 0 -0.037470760571570096 0.0021534203674172269 0 -0.040436223137864921 0.00092870561028702799 0 -0.038507751669831725 0.00065410893967181576 0 -0.038987908948667375 -0.00011232035927206438 0 -0.038499859435416416 -9.4218086769472766e-06 0 -0.042167442461522313 0.0040393629396669245 0 -0.042852348742266788 0.0027532654210218653 0 -0.041772683222837066 0.002034385316959833 0 -0.041985251775784493 0.0010517674551741546 0 -0.041772683222837066 0.002034385316959833 0 -0.042743894261985604 0.0016931117444808647 0 -0.043804925223449608 0.0022848223537800597 0 -0.042852348742266788 0.0027532654210218653 0 -0.042743894261985604 0.0016931117444808647 0 -0.042852348742266788 0.0027532654210218653 0 -0.041772683222837066 0.002034385316959833 0 -0.042743894261985604 0.0016931117444808647 0 -0.043117140220362879 0.00097636630327479416 0 -0.043601572915467977 0.0014523467083076718 0 -0.042743894261985604 0.0016931117444808647 0 -0.038233350763285129 -0.00012953617812452227 0 -0.038499859435416416 -9.4218086769472766e-06 0 -0.037728737298148213 -3.2638718972869157e-05 0 -0.038507751669831725 0.00065410893967181576 0 -0.038499859435416416 -9.4218086769472766e-06 0 -0.037728737298148213 -3.2638718972869157e-05 0 -0.036653457453125836 0.00073524451901357238 0 -0.038507751669831725 0.00065410893967181576 0 -0.037728737298148213 -3.2638718972869157e-05 0 -0.034256133614544319 0.0014791004010727415 0 -0.037470760571570096 0.0021534203674172269 0 -0.02864941800184052 0.0042784932070970162 0 -0.027145843054083969 0.0044798730956717558 0 -0.027547133124420749 0.0038815355943340262 0 -0.027547133124420749 0.0038815355943340262 0 -0.025578845162944158 0.0028971113395009529 0 -0.027358641263464344 0.0030514801438525068 0 -0.028274017453429695 0.0035694899021853819 0 -0.027547133124420749 0.0038815355943340262 0 -0.027358641263464344 0.0030514801438525068 0 -0.047261388200397554 0.0024555192760456002 0 -0.046907251772493011 0.00091100139301733855 0 -0.046695708259602758 0.0018152119548077508 0 -0.037470760571570096 0.0021534203674172269 0 -0.036205701802023711 0.0021410146831170756 0 -0.027145843054083969 0.0044798730956717558 0 -0.027547133124420749 0.0038815355943340262 0 -0.025578845162944158 0.0028971113395009529 0 -0.027173699229907717 0.0015369049373344121 0 -0.026016106591246327 0.0021045244750100695 0 -0.027358641263464344 0.0030514801438525068 0 -0.025578845162944158 0.0028971113395009529 0 -0.026016106591246327 0.0021045244750100695 0 -0.027358641263464344 0.0030514801438525068 0 -0.027173699229907717 0.0015369049373344121 0 -0.026016106591246327 0.0021045244750100695 0 -0.023872204262239662 0.00075145567216386108 0 -0.027173699229907717 0.0015369049373344121 0 -0.023872204262239662 0.00075145567216386108 0 -0.025430239992249311 -0.00069989811946491855 0 -0.036205701802023711 0.0021410146831170756 0 -0.0351606476163513 0.000196136581183013 0 -0.025578845162944158 0.0028971113395009529 0 -0.026016106591246327 0.0021045244750100695 0 -0.023872204262239662 0.00075145567216386108 0 -0.045955914345174827 -0.00035924395566485398 0 -0.045577140543634972 -0.00050542998549602534 0 -0.045599000309133907 4.8569691386738546e-05 0 -0.046470728829792453 -0.00014052998709244706 0 -0.045955914345174827 -0.00035924395566485398 0 -0.046174536834782114 -0.0010444595398731477 0 -0.046470728829792453 -0.00014052998709244706 0 -0.045955914345174827 -0.00035924395566485398 0 -0.046159639734674768 0.00034601752064935024 0 -0.046907251772493011 0.00091100139301733855 0 -0.046470728829792453 -0.00014052998709244706 0 -0.046159639734674768 0.00034601752064935024 0 -0.046159639734674768 0.00034601752064935024 0 -0.045599000309133907 4.8569691386738546e-05 0 -0.045744467307500286 0.00069150510371553597 0 -0.045955914345174827 -0.00035924395566485398 0 -0.046159639734674768 0.00034601752064935024 0 -0.045599000309133907 4.8569691386738546e-05 0 -0.046159639734674768 0.00034601752064935024 0 -0.045744467307500286 0.00069150510371553597 0 -0.046332119448663715 0.001082648653179985 0 -0.046907251772493011 0.00091100139301733855 0 -0.046159639734674768 0.00034601752064935024 0 -0.046332119448663715 0.001082648653179985 0 -0.046907251772493011 0.00091100139301733855 0 -0.046332119448663715 0.001082648653179985 0 -0.046695708259602758 0.0018152119548077508 0 -0.046332119448663715 0.001082648653179985 0 -0.046388571259823042 0.0019750182369691429 0 -0.045891653954091137 0.0011811665266554688 0 -0.046332119448663715 0.001082648653179985 0 -0.046388571259823042 0.0019750182369691429 0 -0.046695708259602758 0.0018152119548077508 0 -0.045744467307500286 0.00069150510371553597 0 -0.046332119448663715 0.001082648653179985 0 -0.045891653954091137 0.0011811665266554688 0 -0.045687318172244931 0.0012741241666862611 0 -0.046388571259823042 0.0019750182369691429 0 -0.045891653954091137 0.0011811665266554688 0 -0.045744467307500286 0.00069150510371553597 0 -0.045891653954091137 0.0011811665266554688 0 -0.04564988383922286 0.001017042567044299 0 -0.045687318172244931 0.0012741241666862611 0 -0.045891653954091137 0.0011811665266554688 0 -0.04564988383922286 0.001017042567044299 0 -0.045744467307500286 0.00069150510371553597 0 -0.04564988383922286 0.001017042567044299 0 -0.045479621915496767 0.0007369296261191486 0 -0.045439694280570701 0.0010439254003845116 0 -0.04564988383922286 0.001017042567044299 0 -0.045479621915496767 0.0007369296261191486 0 -0.045439694280570701 0.0010439254003845116 0 -0.045479621915496767 0.0007369296261191486 0 -0.045261997657523471 0.00040206886108114953 0 -0.045366916106627901 0.00038829404273272856 0 -0.045261997657523471 0.00040206886108114953 0 -0.045279988175764549 0.00019040677966922472 0 -0.045479621915496767 0.0007369296261191486 0 -0.045366916106627901 0.00038829404273272856 0 -0.045261997657523471 0.00040206886108114953 0 -0.045744467307500286 0.00069150510371553597 0 -0.045479621915496767 0.0007369296261191486 0 -0.045366916106627901 0.00038829404273272856 0 -0.045599000309133907 4.8569691386738546e-05 0 -0.045744467307500286 0.00069150510371553597 0 -0.045366916106627901 0.00038829404273272856 0 -0.045648636542204205 0.00015852461034941551 0 -0.045279988175764549 0.00019040677966922472 0 -0.04518195678044739 -0.0001710267406966031 0 -0.045551415246805359 -0.00033422829736633403 0 -0.045648636542204205 0.00015852461034941551 0 -0.045261997657523471 0.00040206886108114953 0 -0.045648636542204205 0.00015852461034941551 0 -0.045261997657523471 0.00040206886108114953 0 -0.045279988175764549 0.00019040677966922472 0 -0.045279988175764549 0.00019040677966922472 0 -0.045201150506492836 5.6162813942581468e-05 0 -0.04518195678044739 -0.0001710267406966031 0 -0.044694624432747757 -0.0002449225327672026 0 -0.045087517637452716 -0.00013955662439738069 0 -0.045279988175764549 0.00019040677966922472 0 -0.045201150506492836 5.6162813942581468e-05 0 -0.045280602840518977 4.3571427860368005e-05 0 -0.045201150506492836 5.6162813942581468e-05 0 -0.045280602840518977 4.3571427860368005e-05 0 -0.045230861857276823 -9.0568786076167989e-05 0 -0.044197893910188822 -0.00050820373214678887 0 -0.043849161556402984 -0.00069727197642866488 0 -0.04417122956687116 -0.00055655782422703044 0 -0.045599000309133907 4.8569691386738546e-05 0 -0.045366916106627901 0.00038829404273272856 0 -0.045305860081970309 0.00013373048051662891 0 -0.045279988175764549 0.00019040677966922472 0 -0.045305860081970309 0.00013373048051662891 0 -0.045280602840518977 4.3571427860368005e-05 0 -0.045366916106627901 0.00038829404273272856 0 -0.045279988175764549 0.00019040677966922472 0 -0.045305860081970309 0.00013373048051662891 0 -0.045305860081970309 0.00013373048051662891 0 -0.045280602840518977 4.3571427860368005e-05 0 -0.045380600543882856 4.6840409853141589e-06 0 -0.045298926130546709 2.8669396533024345e-05 0 -0.045379235512161623 -5.8833385753201535e-05 0 -0.045599000309133907 4.8569691386738546e-05 0 -0.045305860081970309 0.00013373048051662891 0 -0.045242918035266186 -0.0004325014842176759 0 -0.045577140543634972 -0.00050542998549602534 0 -0.045599000309133907 4.8569691386738546e-05 0 -0.045242918035266186 -0.0004325014842176759 0 -0.045242918035266186 -0.0004325014842176759 0 -0.045356443330723771 -0.00095903415698751077 0 -0.045270903326927459 -0.0010840170340159422 0 -0.045577140543634972 -0.00050542998549602534 0 -0.045242918035266186 -0.0004325014842176759 0 -0.045356443330723771 -0.00095903415698751077 0 -0.045379235512161623 -5.8833385753201535e-05 0 -0.04370789953097079 -0.0019568229021625079 0 -0.045380600543882856 4.6840409853141589e-06 0 -0.045354664820947889 -8.824165426298206e-05 0 -0.045439107570866652 -0.00015634132473519595 0 -0.044304156848871228 -0.0012715466321305173 0 -0.04370789953097079 -0.0019568229021625079 0 -0.045354664820947889 -8.824165426298206e-05 0 -0.045439107570866652 -0.00015634132473519595 0 -0.045373871469006392 -0.00015835153090073813 0 -0.045354664820947889 -8.824165426298206e-05 0 -0.045328665682245743 -0.00017912281403044389 0 -0.045230861857276823 -9.0568786076167989e-05 0 -0.045280602840518977 4.3571427860368005e-05 0 -0.045380600543882856 4.6840409853141589e-06 0 -0.045354664820947889 -8.824165426298206e-05 0 -0.045280602840518977 4.3571427860368005e-05 0 -0.045354664820947889 -8.824165426298206e-05 0 -0.045230861857276823 -9.0568786076167989e-05 0 -0.044822060129194249 -0.00011193961499227146 0 -0.043565293337696882 -0.0023573729815846247 0 -0.044079967186224811 -0.00068135013084631496 0 -0.043934906852534983 -0.0011134154025061124 0 -0.044360056510424378 -0.0010579117474925166 0 -0.045328665682245743 -0.00017912281403044389 0 -0.045230861857276823 -9.0568786076167989e-05 0 -0.045336806810404237 -0.000324976525745823 0 -0.041173440888326453 -0.0051609843420203248 0 -0.041177527563182291 -0.0054251291362372748 0 -0.041284431475001222 -0.0050825507738894828 0 -0.04370789953097079 -0.0019568229021625079 0 -0.043565293337696882 -0.0023573729815846247 0 -0.045439107570866652 -0.00015634132473519595 0 -0.045369216849132983 -0.00020445509194931335 0 -0.045336806810404237 -0.000324976525745823 0 -0.041177527563182291 -0.0054251291362372748 0 -0.041284431475001222 -0.0050825507738894828 0 -0.041401970211589145 -0.0050163880516895356 0 -0.045328665682245743 -0.00017912281403044389 0 -0.045369216849132983 -0.00020445509194931335 0 -0.045336806810404237 -0.000324976525745823 0 -0.041173440888326453 -0.0051609843420203248 0 -0.041177527563182291 -0.0054251291362372748 0 -0.040811929984054023 -0.0047917853841368523 0 -0.045439107570866652 -0.00015634132473519595 0 -0.045373871469006392 -0.00015835153090073813 0 -0.045369216849132983 -0.00020445509194931335 0 -0.045354664820947889 -8.824165426298206e-05 0 -0.045328665682245743 -0.00017912281403044389 0 -0.045373871469006392 -0.00015835153090073813 0 -0.045328665682245743 -0.00017912281403044389 0 -0.045373871469006392 -0.00015835153090073813 0 -0.045369216849132983 -0.00020445509194931335 0 -0.044197893910188822 -0.00050820373214678887 0 -0.043849161556402984 -0.00069727197642866488 0 -0.044079967186224811 -0.00068135013084631496 0 -0.044694624432747757 -0.0002449225327672026 0 -0.044822060129194249 -0.00011193961499227146 0 -0.044079967186224811 -0.00068135013084631496 0 -0.043736301535254402 -0.0009211746307944119 0 -0.043934906852534983 -0.0011134154025061124 0 -0.043849161556402984 -0.00069727197642866488 0 -0.044079967186224811 -0.00068135013084631496 0 -0.043736301535254402 -0.0009211746307944119 0 -0.043736301535254402 -0.0009211746307944119 0 -0.043934906852534983 -0.0011134154025061124 0 -0.043430009887944439 -0.0012750283847491346 0 -0.043934906852534983 -0.0011134154025061124 0 -0.04373819255952785 -0.0015234666422291588 0 -0.043430009887944439 -0.0012750283847491346 0 -0.043934906852534983 -0.0011134154025061124 0 -0.04373819255952785 -0.0015234666422291588 0 -0.044171602228524412 -0.0014398841821600006 0 -0.043430009887944439 -0.0012750283847491346 0 -0.042875723389488953 -0.0015150162086342018 0 -0.043250074736743895 -0.0019377430051576853 0 -0.04373819255952785 -0.0015234666422291588 0 -0.043430009887944439 -0.0012750283847491346 0 -0.043250074736743895 -0.0019377430051576853 0 -0.041173440888326453 -0.0051609843420203248 0 -0.041126778096544997 -0.004971827705905347 0 -0.040811929984054023 -0.0047917853841368523 0 -0.041282279359165307 -0.0048304172844231023 0 -0.041401970211589145 -0.0050163880516895356 0 -0.041413063221674658 -0.0047388609600912558 0 -0.041282279359165307 -0.0048304172844231023 0 -0.04126368273251816 -0.0049589933785460713 0 -0.041401970211589145 -0.0050163880516895356 0 -0.041118176638880816 -0.0048409857874894841 0 -0.041126778096544997 -0.004971827705905347 0 -0.040811929984054023 -0.0047917853841368523 0 -0.041282279359165307 -0.0048304172844231023 0 -0.041118176638880816 -0.0048409857874894841 0 -0.041129578696977122 -0.0046116154761121639 0 -0.041118176638880816 -0.0048409857874894841 0 -0.041129578696977122 -0.0046116154761121639 0 -0.040811929984054023 -0.0047917853841368523 0 -0.041118176638880816 -0.0048409857874894841 0 -0.041126778096544997 -0.004971827705905347 0 -0.04126368273251816 -0.0049589933785460713 0 -0.041282279359165307 -0.0048304172844231023 0 -0.041118176638880816 -0.0048409857874894841 0 -0.04126368273251816 -0.0049589933785460713 0 -0.041173440888326453 -0.0051609843420203248 0 -0.041126778096544997 -0.004971827705905347 0 -0.041284431475001222 -0.0050825507738894828 0 -0.041126778096544997 -0.004971827705905347 0 -0.041284431475001222 -0.0050825507738894828 0 -0.04126368273251816 -0.0049589933785460713 0 -0.041284431475001222 -0.0050825507738894828 0 -0.041326671268642125 -0.0050175923900438249 0 -0.041401970211589145 -0.0050163880516895356 0 -0.041326671268642125 -0.0050175923900438249 0 -0.04126368273251816 -0.0049589933785460713 0 -0.041401970211589145 -0.0050163880516895356 0 -0.041284431475001222 -0.0050825507738894828 0 -0.041326671268642125 -0.0050175923900438249 0 -0.04126368273251816 -0.0049589933785460713 0 -0.043934906852534983 -0.0011134154025061124 0 -0.044360056510424378 -0.0010579117474925166 0 -0.044171602228524412 -0.0014398841821600006 0 -0.043565293337696882 -0.0023573729815846247 0 -0.042916512966459208 -0.0031546442332576127 0 -0.041401970211589145 -0.0050163880516895356 0 -0.041859515655836288 -0.0045858969376669535 0 -0.041413063221674658 -0.0047388609600912558 0 -0.041859515655836288 -0.0045858969376669535 0 -0.04127734837845505 -0.0043606039520783218 0 -0.041413063221674658 -0.0047388609600912558 0 -0.041282279359165307 -0.0048304172844231023 0 -0.041413063221674658 -0.0047388609600912558 0 -0.041129578696977122 -0.0046116154761121639 0 -0.04127734837845505 -0.0043606039520783218 0 -0.041413063221674658 -0.0047388609600912558 0 -0.041129578696977122 -0.0046116154761121639 0 -0.04127734837845505 -0.0043606039520783218 0 -0.041129578696977122 -0.0046116154761121639 0 -0.040901282843899892 -0.0042633981213961985 0 -0.044500631775287854 -0.0037100435414893916 0 -0.033082523033464657 -0.0049004697035294345 0 -0.040811929984054023 -0.0047917853841368523 0 -0.040901282843899892 -0.0042633981213961985 0 -0.040398085904472782 -0.0039787639115895987 0 -0.041129578696977122 -0.0046116154761121639 0 -0.040811929984054023 -0.0047917853841368523 0 -0.040901282843899892 -0.0042633981213961985 0 -0.045347946094452259 -0.0021320799885007403 0 -0.045518997109813206 -0.0013375528064390675 0 -0.045737215392452221 -0.0015614357244793881 0 -0.045347946094452259 -0.0021320799885007403 0 -0.045858221756118561 -0.002097907523934725 0 -0.045737215392452221 -0.0015614357244793881 0 -0.04370789953097079 -0.0019568229021625079 0 -0.044500631775287854 -0.0037100435414893916 0 -0.019281355609752741 -0.006196110717029228 0 -0.020089775734860933 -0.0060510610603238943 0 -0.022627573621343169 -0.0036680369536611799 0 -0.045347946094452259 -0.0021320799885007403 0 -0.045858221756118561 -0.002097907523934725 0 -0.045454203986776104 -0.0031832827905416785 0 -0.019281355609752741 -0.006196110717029228 0 -0.018359564977490927 -0.0061584901245251471 0 -0.01804131728447287 -0.0060781335484908078 0 -0.019281355609752741 -0.006196110717029228 0 -0.018359564977490927 -0.0061584901245251471 0 -0.018556789130908011 -0.0062565041336553901 0 -0.019281355609752741 -0.006196110717029228 0 -0.020089775734860933 -0.0060510610603238943 0 -0.018556789130908011 -0.0062565041336553901 0 -0.032367288062412999 -0.0041278239840040823 0 -0.033082523033464657 -0.0049004697035294345 0 -0.019281355609752741 -0.006196110717029228 0 -0.017724687734747748 -0.0060020827374600502 0 -0.01804131728447287 -0.0060781335484908078 0 -0.020089775734860933 -0.0060510610603238943 0 -0.025200633674506132 -0.0068179335281272581 0 -0.024145460031317102 -0.0050659149213463789 0 -0.020089775734860933 -0.0060510610603238943 0 -0.018556789130908011 -0.0062565041336553901 0 -0.016155904787383778 -0.0066297560424652072 0 -0.018359564977490927 -0.0061584901245251471 0 -0.018556789130908011 -0.0062565041336553901 0 -0.017400776118407374 -0.0060419328309227376 0 -0.018556789130908011 -0.0062565041336553901 0 -0.016155904787383778 -0.0066297560424652072 0 -0.017400776118407374 -0.0060419328309227376 0 -0.019900184317001829 -0.0059833913052912231 0 -0.020567683325697739 -0.0065514237771170832 0 -0.025981008389962153 -0.0050945308343426617 0 -0.025200633674506132 -0.0068179335281272581 0 -0.024145460031317102 -0.0050659149213463789 0 -0.024145460031317102 -0.0050659149213463789 0 -0.022627573621343169 -0.0036680369536611799 0 -0.02533591131841539 -0.0036804769034753516 0 -0.025981008389962153 -0.0050945308343426617 0 -0.024145460031317102 -0.0050659149213463789 0 -0.02533591131841539 -0.0036804769034753516 0 -0.020089775734860933 -0.0060510610603238943 0 -0.024145460031317102 -0.0050659149213463789 0 -0.022627573621343169 -0.0036680369536611799 0 -0.022627573621343169 -0.0036680369536611799 0 -0.024326892202566352 -0.0024060946981198806 0 -0.021906646916573951 -0.0019044784845160324 0 -0.022627573621343169 -0.0036680369536611799 0 -0.024326892202566352 -0.0024060946981198806 0 -0.02533591131841539 -0.0036804769034753516 0 -0.026272620763766342 -0.0023175239488635413 0 -0.024326892202566352 -0.0024060946981198806 0 -0.02533591131841539 -0.0036804769034753516 0 -0.026272620763766342 -0.0023175239488635413 0 -0.024326892202566352 -0.0024060946981198806 0 -0.025430239992249311 -0.00069989811946491855 0 -0.023872204262239662 0.00075145567216386108 0 -0.025430239992249311 -0.00069989811946491855 0 -0.021906646916573951 -0.0019044784845160324 0 -0.024326892202566352 -0.0024060946981198806 0 -0.025430239992249311 -0.00069989811946491855 0 -0.021906646916573951 -0.0019044784845160324 0 -0.0351606476163513 0.000196136581183013 0 -0.034039357991315425 -0.0015647331182693219 0 -0.045955914345174827 -0.00035924395566485398 0 -0.046174536834782114 -0.0010444595398731477 0 -0.045745860095434895 -0.00086461678455134806 0 -0.046174536834782114 -0.0010444595398731477 0 -0.045745860095434895 -0.00086461678455134806 0 -0.045771859803882597 -0.0012125756163453049 0 -0.045955914345174827 -0.00035924395566485398 0 -0.045577140543634972 -0.00050542998549602534 0 -0.045745860095434895 -0.00086461678455134806 0 -0.045577140543634972 -0.00050542998549602534 0 -0.045356443330723771 -0.00095903415698751077 0 -0.045745860095434895 -0.00086461678455134806 0 -0.045356443330723771 -0.00095903415698751077 0 -0.045745860095434895 -0.00086461678455134806 0 -0.045518997109813206 -0.0013375528064390675 0 -0.045238002200757556 -0.0011083851363697637 0 -0.045347946094452259 -0.0021320799885007403 0 -0.045518997109813206 -0.0013375528064390675 0 -0.045745860095434895 -0.00086461678455134806 0 -0.045771859803882597 -0.0012125756163453049 0 -0.045518997109813206 -0.0013375528064390675 0 -0.045356443330723771 -0.00095903415698751077 0 -0.045238002200757556 -0.0011083851363697637 0 -0.045518997109813206 -0.0013375528064390675 0 -0.045771859803882597 -0.0012125756163453049 0 -0.045518997109813206 -0.0013375528064390675 0 -0.045737215392452221 -0.0015614357244793881 0 -0.019281355609752741 -0.006196110717029228 0 -0.022627573621343169 -0.0036680369536611799 0 -0.021906646916573951 -0.0019044784845160324 0 -0.045858221756118561 -0.002097907523934725 0 -0.046174536834782114 -0.0010444595398731477 0 -0.045737215392452221 -0.0015614357244793881 0 -0.032367288062412999 -0.0041278239840040823 0 -0.034039357991315425 -0.0015647331182693219 0 -0.046174536834782114 -0.0010444595398731477 0 -0.045771859803882597 -0.0012125756163453049 0 -0.045737215392452221 -0.0015614357244793881 0 -0.042345147221427182 -0.00085579419333499363 0 -0.042144847276428463 -0.00088222135700131011 0 -0.041606443218353446 -0.00098737681299087112 0 -0.042345147221427182 -0.00085579419333499363 0 -0.041606443218353446 -0.00098737681299087112 0 -0.041613304372283867 -0.0010184372422872155 0 -0.042345147221427182 -0.00085579419333499363 0 -0.041613304372283867 -0.0010184372422872155 0 -0.042458750546647182 -0.0009831272994359336 0 -0.042345147221427182 -0.00085579419333499363 0 -0.043421119376601834 -0.00067808356925847977 0 -0.043302855311684527 -0.00071908046849134162 0 -0.042460365829215224 -0.0008709833401709167 0 -0.042926723700709581 -0.00077527910874995915 0 -0.042345147221427182 -0.00085579419333499363 0 -0.042144847276428463 -0.00088222135700131011 0 -0.042600171308369281 -0.00077704322803828817 0 -0.042144847276428463 -0.00088222135700131011 0 -0.042600171308369281 -0.00077704322803828817 0 -0.042486410320373653 -0.00085241818244210306 0 -0.042144847276428463 -0.00088222135700131011 0 -0.042221739894624383 -0.00088076301919978934 0 -0.042486410320373653 -0.00085241818244210306 0 -0.042221739894624383 -0.00088076301919978934 0 -0.042486410320373653 -0.00085241818244210306 0 -0.042528470894864327 -0.00088780754181571437 0 -0.042014866679495867 -0.00094678197046691196 0 -0.042221739894624383 -0.00088076301919978934 0 -0.042067629514689481 -0.00093765208731258942 0 -0.042144847276428463 -0.00088222135700131011 0 -0.042014866679495867 -0.00094678197046691196 0 -0.042221739894624383 -0.00088076301919978934 0 -0.042144847276428463 -0.00088222135700131011 0 -0.042014866679495867 -0.00094678197046691196 0 -0.041606443218353446 -0.00098737681299087112 0 -0.042014866679495867 -0.00094678197046691196 0 -0.041606443218353446 -0.00098737681299087112 0 -0.041920360943388947 -0.00082465963877727179 0 -0.042014866679495867 -0.00094678197046691196 0 -0.041920360943388947 -0.00082465963877727179 0 -0.042067629514689481 -0.00093765208731258942 0 -0.038698269192097158 0.00014620031785551578 0 -0.038362156213235986 -0.00083436387567232216 0 -0.039309231961344157 -0.0010885212118576886 0 -0.038698269192097158 0.00014620031785551578 0 -0.040658235345487889 -0.00090478877288406633 0 -0.039309231961344157 -0.0010885212118576886 0 -0.040093802375074358 -0.00026469286970608028 0 -0.0407798182752801 -0.00089036677285973223 0 -0.041606443218353446 -0.00098737681299087112 0 -0.041920360943388947 -0.00082465963877727179 0 -0.040658235345487889 -0.00090478877288406633 0 -0.040658235345487889 -0.00090478877288406633 0 -0.041613304372283867 -0.0010184372422872155 0 -0.041357146475487522 -0.0013661003267772282 0 -0.041606443218353446 -0.00098737681299087112 0 -0.040658235345487889 -0.00090478877288406633 0 -0.041613304372283867 -0.0010184372422872155 0 -0.041613304372283867 -0.0010184372422872155 0 -0.041357146475487522 -0.0013661003267772282 0 -0.042458750546647182 -0.0009831272994359336 0 -0.041357146475487522 -0.0013661003267772282 0 -0.041946551641999057 -0.0013362760928268378 0 -0.041611022348717677 -0.0016621237420433679 0 -0.041357146475487522 -0.0013661003267772282 0 -0.041946551641999057 -0.0013362760928268378 0 -0.042458750546647182 -0.0009831272994359336 0 -0.041946551641999057 -0.0013362760928268378 0 -0.042394232519641216 -0.0013754754591315083 0 -0.041611022348717677 -0.0016621237420433679 0 -0.041946551641999057 -0.0013362760928268378 0 -0.042458750546647182 -0.0009831272994359336 0 -0.042394232519641216 -0.0013754754591315083 0 -0.042458750546647182 -0.0009831272994359336 0 -0.042394232519641216 -0.0013754754591315083 0 -0.043183585335194313 -0.0010219181324437583 0 -0.043430009887944439 -0.0012750283847491346 0 -0.042875723389488953 -0.0015150162086342018 0 -0.043183585335194313 -0.0010219181324437583 0 -0.042875723389488953 -0.0015150162086342018 0 -0.042394232519641216 -0.0013754754591315083 0 -0.043183585335194313 -0.0010219181324437583 0 -0.043736301535254402 -0.0009211746307944119 0 -0.043430009887944439 -0.0012750283847491346 0 -0.043183585335194313 -0.0010219181324437583 0 -0.042458750546647182 -0.0009831272994359336 0 -0.043183585335194313 -0.0010219181324437583 0 -0.043516106928847574 -0.00072990866232383979 0 -0.043849161556402984 -0.00069727197642866488 0 -0.043736301535254402 -0.0009211746307944119 0 -0.043183585335194313 -0.0010219181324437583 0 -0.043849161556402984 -0.00069727197642866488 0 -0.043183585335194313 -0.0010219181324437583 0 -0.043516106928847574 -0.00072990866232383979 0 -0.043849161556402984 -0.00069727197642866488 0 -0.043516106928847574 -0.00072990866232383979 0 -0.04417122956687116 -0.00055655782422703044 0 -0.042458750546647182 -0.0009831272994359336 0 -0.043516106928847574 -0.00072990866232383979 0 -0.043421119376601834 -0.00067808356925847977 0 -0.042345147221427182 -0.00085579419333499363 0 -0.042458750546647182 -0.0009831272994359336 0 -0.043421119376601834 -0.00067808356925847977 0 -0.043516106928847574 -0.00072990866232383979 0 -0.043421119376601834 -0.00067808356925847977 0 -0.044220293419392168 -0.00053702222216413091 0 -0.043421119376601834 -0.00067808356925847977 0 -0.044218225115576403 -0.00056995972688439109 0 -0.044220293419392168 -0.00053702222216413091 0 -0.044218225115576403 -0.00056995972688439109 0 -0.044220293419392168 -0.00053702222216413091 0 -0.044867322512329354 -0.00040265232834341006 0 -0.043421119376601834 -0.00067808356925847977 0 -0.044218225115576403 -0.00056995972688439109 0 -0.043991309628958947 -0.00065204788561984428 0 -0.043516106928847574 -0.00072990866232383979 0 -0.04417122956687116 -0.00055655782422703044 0 -0.044220293419392168 -0.00053702222216413091 0 -0.044220293419392168 -0.00053702222216413091 0 -0.04518195678044739 -0.0001710267406966031 0 -0.044867322512329354 -0.00040265232834341006 0 -0.04417122956687116 -0.00055655782422703044 0 -0.044220293419392168 -0.00053702222216413091 0 -0.04518195678044739 -0.0001710267406966031 0 -0.044197893910188822 -0.00050820373214678887 0 -0.04417122956687116 -0.00055655782422703044 0 -0.04518195678044739 -0.0001710267406966031 0 -0.04518195678044739 -0.0001710267406966031 0 -0.044867322512329354 -0.00040265232834341006 0 -0.04583801374082043 -0.00026334450350324132 0 -0.045648636542204205 0.00015852461034941551 0 -0.04518195678044739 -0.0001710267406966031 0 -0.046277890836791451 -4.4355268422599928e-05 0 -0.04518195678044739 -0.0001710267406966031 0 -0.04583801374082043 -0.00026334450350324132 0 -0.046277890836791451 -4.4355268422599928e-05 0 -0.04479856159732707 -0.00048616164295771797 0 -0.044355193310609886 -0.0005051128329248472 0 -0.043991309628958947 -0.00065204788561984428 0 -0.044218225115576403 -0.00056995972688439109 0 -0.04479856159732707 -0.00048616164295771797 0 -0.043991309628958947 -0.00065204788561984428 0 -0.044867322512329354 -0.00040265232834341006 0 -0.04583801374082043 -0.00026334450350324132 0 -0.04479856159732707 -0.00048616164295771797 0 -0.044218225115576403 -0.00056995972688439109 0 -0.044867322512329354 -0.00040265232834341006 0 -0.04479856159732707 -0.00048616164295771797 0 -0.04583801374082043 -0.00026334450350324132 0 -0.04479856159732707 -0.00048616164295771797 0 -0.045304556044710176 -0.00030981974635522114 0 -0.04479856159732707 -0.00048616164295771797 0 -0.044355193310609886 -0.0005051128329248472 0 -0.045304556044710176 -0.00030981974635522114 0 -0.044355193310609886 -0.0005051128329248472 0 -0.043863416862347189 -0.00054445525090623904 0 -0.043728646857266379 -0.00046489721231154658 0 -0.044355193310609886 -0.0005051128329248472 0 -0.043863416862347189 -0.00054445525090623904 0 -0.043728810952997604 -0.0007064698695051861 0 -0.043008020754607475 -0.00074984533778425333 0 -0.043221505777459091 -0.00069518901851368573 0 -0.043552734673097601 -0.00058612490929733539 0 -0.043863416862347189 -0.00054445525090623904 0 -0.043728810952997604 -0.0007064698695051861 0 -0.043552734673097601 -0.00058612490929733539 0 -0.043354447909382726 -0.00070554510489530373 0 -0.043515031172783825 -0.00056172623898995491 0 -0.044355193310609886 -0.0005051128329248472 0 -0.043728810952997604 -0.0007064698695051861 0 -0.043991309628958947 -0.00065204788561984428 0 -0.043008020754607475 -0.00074984533778425333 0 -0.042600171308369281 -0.00077704322803828817 0 -0.042795265465679341 -0.0007759291292361518 0 -0.043354447909382726 -0.00070554510489530373 0 -0.042926723700709581 -0.00077527910874995915 0 -0.043728810952997604 -0.0007064698695051861 0 -0.043991309628958947 -0.00065204788561984428 0 -0.043302855311684527 -0.00071908046849134162 0 -0.043421119376601834 -0.00067808356925847977 0 -0.043991309628958947 -0.00065204788561984428 0 -0.043302855311684527 -0.00071908046849134162 0 -0.042486410320373653 -0.00085241818244210306 0 -0.042777918645248547 -0.00080603071195866727 0 -0.042528470894864327 -0.00088780754181571437 0 -0.042486410320373653 -0.00085241818244210306 0 -0.042795265465679341 -0.0007759291292361518 0 -0.042777918645248547 -0.00080603071195866727 0 -0.042600171308369281 -0.00077704322803828817 0 -0.042486410320373653 -0.00085241818244210306 0 -0.042795265465679341 -0.0007759291292361518 0 -0.042777918645248547 -0.00080603071195866727 0 -0.043075419224988885 -0.00071411959854610638 0 -0.04299390578353595 -0.00072720688660223899 0 -0.042795265465679341 -0.0007759291292361518 0 -0.042777918645248547 -0.00080603071195866727 0 -0.043075419224988885 -0.00071411959854610638 0 -0.043075419224988885 -0.00071411959854610638 0 -0.043224119221891961 -0.00066008331982772474 0 -0.043356131841678885 -0.00066280446720588901 0 -0.043075419224988885 -0.00071411959854610638 0 -0.043224119221891961 -0.00066008331982772474 0 -0.04299390578353595 -0.00072720688660223899 0 -0.043008020754607475 -0.00074984533778425333 0 -0.042795265465679341 -0.0007759291292361518 0 -0.043075419224988885 -0.00071411959854610638 0 -0.043008020754607475 -0.00074984533778425333 0 -0.043075419224988885 -0.00071411959854610638 0 -0.043221505777459091 -0.00069518901851368573 0 -0.043075419224988885 -0.00071411959854610638 0 -0.043221505777459091 -0.00069518901851368573 0 -0.043356131841678885 -0.00066280446720588901 0 -0.043221505777459091 -0.00069518901851368573 0 -0.043356131841678885 -0.00066280446720588901 0 -0.043406677776474722 -0.00065820062555813389 0 -0.043221505777459091 -0.00069518901851368573 0 -0.043406677776474722 -0.00065820062555813389 0 -0.043552734673097601 -0.00058612490929733539 0 -0.043224119221891961 -0.00066008331982772474 0 -0.043356131841678885 -0.00066280446720588901 0 -0.043482011399386844 -0.00067706497615902471 0 -0.043356131841678885 -0.00066280446720588901 0 -0.043482011399386844 -0.00067706497615902471 0 -0.043608122309726965 -0.00074539215524927187 0 -0.043356131841678885 -0.00066280446720588901 0 -0.043608122309726965 -0.00074539215524927187 0 -0.043530339200403355 -0.00075647449829334054 0 -0.043482011399386844 -0.00067706497615902471 0 -0.043608122309726965 -0.00074539215524927187 0 -0.044169901815377145 -0.00091484161952674263 0 -0.043356131841678885 -0.00066280446720588901 0 -0.043530339200403355 -0.00075647449829334054 0 -0.043406677776474722 -0.00065820062555813389 0 -0.043530339200403355 -0.00075647449829334054 0 -0.043686629617432075 -0.0008257413507361715 0 -0.043538316668392155 -0.0008600512063272176 0 -0.043608122309726965 -0.00074539215524927187 0 -0.043530339200403355 -0.00075647449829334054 0 -0.043686629617432075 -0.0008257413507361715 0 -0.043686629617432075 -0.0008257413507361715 0 -0.043538316668392155 -0.0008600512063272176 0 -0.044169901815377145 -0.00091484161952674263 0 -0.043608122309726965 -0.00074539215524927187 0 -0.043686629617432075 -0.0008257413507361715 0 -0.044169901815377145 -0.00091484161952674263 0 -0.043530339200403355 -0.00075647449829334054 0 -0.043538316668392155 -0.0008600512063272176 0 -0.043546260402840521 -0.00074377611545692693 0 -0.043546260402840521 -0.00074377611545692693 0 -0.043556221789101089 -0.00067047998081586459 0 -0.043579451504437677 -0.00069169973567871342 0 -0.043538316668392155 -0.0008600512063272176 0 -0.043546260402840521 -0.00074377611545692693 0 -0.043579451504437677 -0.00069169973567871342 0 -0.043546260402840521 -0.00074377611545692693 0 -0.043518904588001228 -0.00064709636675574361 0 -0.043556221789101089 -0.00067047998081586459 0 -0.043530339200403355 -0.00075647449829334054 0 -0.043546260402840521 -0.00074377611545692693 0 -0.043518904588001228 -0.00064709636675574361 0 -0.043530339200403355 -0.00075647449829334054 0 -0.043518904588001228 -0.00064709636675574361 0 -0.043406677776474722 -0.00065820062555813389 0 -0.043518904588001228 -0.00064709636675574361 0 -0.043406677776474722 -0.00065820062555813389 0 -0.043552734673097601 -0.00058612490929733539 0 -0.043518904588001228 -0.00064709636675574361 0 -0.043552734673097601 -0.00058612490929733539 0 -0.043728646857266379 -0.00046489721231154658 0 -0.043518904588001228 -0.00064709636675574361 0 -0.043728646857266379 -0.00046489721231154658 0 -0.043556221789101089 -0.00067047998081586459 0 -0.043863416862347189 -0.00054445525090623904 0 -0.043552734673097601 -0.00058612490929733539 0 -0.043728646857266379 -0.00046489721231154658 0 -0.0443327531936843 -0.00051557151386376441 0 -0.044183326127268323 -0.00041687313059541405 0 -0.044355193310609886 -0.0005051128329248472 0 -0.044483114943109449 -0.0001771384161213797 0 -0.044934402967084286 -9.655588847988931e-05 0 -0.044483114943109449 -0.0001771384161213797 0 -0.044934402967084286 -9.655588847988931e-05 0 -0.044545032095756228 0.00026556577782345234 0 -0.04507099658248287 0.0005279029116784245 0 -0.044545032095756228 0.00026556577782345234 0 -0.044243451997565797 0.00096131854780388078 0 -0.044934402967084286 -9.655588847988931e-05 0 -0.04507099658248287 0.0005279029116784245 0 -0.044545032095756228 0.00026556577782345234 0 -0.044183326127268323 -0.00041687313059541405 0 -0.043389637483948321 9.1272827800023125e-05 0 -0.044545032095756228 0.00026556577782345234 0 -0.044041097164832246 0.00039800654957728679 0 -0.044243451997565797 0.00096131854780388078 0 -0.044483114943109449 -0.0001771384161213797 0 -0.044545032095756228 0.00026556577782345234 0 -0.044041097164832246 0.00039800654957728679 0 -0.044243451997565797 0.00096131854780388078 0 -0.044861480682576962 0.0014228672072662671 0 -0.044030468116100174 0.0016480247017877188 0 -0.04507099658248287 0.0005279029116784245 0 -0.044861480682576962 0.0014228672072662671 0 -0.045638655327661891 0.0013221330112911207 0 -0.04507099658248287 0.0005279029116784245 0 -0.044243451997565797 0.00096131854780388078 0 -0.044861480682576962 0.0014228672072662671 0 -0.043697824772689783 0.002366528236319913 0 -0.049520290010344782 0.0015793169076179824 0 -0.044861480682576962 0.0014228672072662671 0 -0.045638655327661891 0.0013221330112911207 0 -0.045604057165163192 0.0026487762424843003 0 -0.044861480682576962 0.0014228672072662671 0 -0.044082635934682382 0.0029342574155355968 0 -0.044928552537987866 0.0028495862854112822 0 -0.044861480682576962 0.0014228672072662671 0 -0.045604057165163192 0.0026487762424843003 0 -0.044928552537987866 0.0028495862854112822 0 -0.044861480682576962 0.0014228672072662671 0 -0.044030468116100174 0.0016480247017877188 0 -0.044498441071196777 0.0021695039823147869 0 -0.049241879682134608 0.0012082246191764373 0 -0.049520290010344782 0.0015793169076179824 0 -0.054414783431293912 0.00071940723004943082 0 -0.05465709466440874 0.00059718465611098429 0 -0.054597847793262481 0.00042681912414295595 0 -0.054414783431293912 0.00071940723004943082 0 -0.054585828147203821 0.00075453510507303314 0 -0.05465709466440874 0.00059718465611098429 0 -0.049241879682134608 0.0012082246191764373 0 -0.048348458996488125 0.0010229841704515149 0 -0.054414783431293912 0.00071940723004943082 0 -0.054585828147203821 0.00075453510507303314 0 -0.054562951036690989 0.0009343360427418769 0 -0.054585828147203821 0.00075453510507303314 0 -0.054743859970386506 0.00074018678603705846 0 -0.054562951036690989 0.0009343360427418769 0 -0.054585828147203821 0.00075453510507303314 0 -0.05465709466440874 0.00059718465611098429 0 -0.054743859970386506 0.00074018678603705846 0 -0.050922441367378633 0.0029327933434929424 0 -0.050826085074909703 0.0026664619695445577 0 -0.050680604304617433 0.0031227468727099686 0 -0.050922441367378633 0.0029327933434929424 0 -0.050974227497355487 0.0029389352899743728 0 -0.050674055712661058 0.0029041026811620746 0 -0.05110936415994579 0.002822128369085439 0 -0.051175553242648018 0.0026871706559239016 0 -0.051588355802002467 0.0022232438326605874 0 -0.050826085074909703 0.0026664619695445577 0 -0.051091679099551812 0.0027983907273799158 0 -0.051175553242648018 0.0026871706559239016 0 -0.05237724881091857 0.001799072758004369 0 -0.052164625923213206 0.0021204002833091072 0 -0.051830676315557614 0.0024079452238482757 0 -0.05237724881091857 0.001799072758004369 0 -0.050922441367378633 0.0029327933434929424 0 -0.050826085074909703 0.0026664619695445577 0 -0.051091679099551812 0.0027983907273799158 0 -0.050819184724377645 0.0012705536514604767 0 -0.050838498781944984 0.00218561818882953 0 -0.050133072308927232 0.0017679912475020681 0 -0.051175553242648018 0.0026871706559239016 0 -0.050838498781944984 0.00218561818882953 0 -0.051588355802002467 0.0022232438326605874 0 -0.050819184724377645 0.0012705536514604767 0 -0.050838498781944984 0.00218561818882953 0 -0.051588355802002467 0.0022232438326605874 0 -0.050826085074909703 0.0026664619695445577 0 -0.051175553242648018 0.0026871706559239016 0 -0.050838498781944984 0.00218561818882953 0 -0.047097210802549194 0.00011766256246051049 0 -0.048348458996488125 0.0010229841704515149 0 -0.050826085074909703 0.0026664619695445577 0 -0.050838498781944984 0.00218561818882953 0 -0.050464846697750379 0.0024312458993083156 0 -0.043389637483948321 9.1272827800023125e-05 0 -0.048348458996488125 0.0010229841704515149 0 -0.044243451997565797 0.00096131854780388078 0 -0.044030468116100174 0.0016480247017877188 0 -0.043565275917465757 0.001091311018974965 0 -0.044041097164832246 0.00039800654957728679 0 -0.044243451997565797 0.00096131854780388078 0 -0.043565275917465757 0.001091311018974965 0 -0.05237724881091857 0.001799072758004369 0 -0.048348458996488125 0.0010229841704515149 0 -0.049166886484208368 0.00033234709350286472 0 -0.047620266398390322 -0.00035886028343225582 0 -0.049277562820511552 0.00090364544829948598 0 -0.047620266398390322 -0.00035886028343225582 0 -0.047541823912653353 5.1068962939061349e-06 0 -0.049277562820511552 0.00090364544829948598 0 -0.047940768686399259 -0.0004996043256194953 0 -0.0475954126811639 -0.00040110302466808413 0 -0.049652227716956182 -0.00069151820181686597 0 -0.049166886484208368 0.00033234709350286472 0 -0.047620266398390322 -0.00035886028343225582 0 -0.047620266398390322 -0.00035886028343225582 0 -0.046277890836791451 -4.4355268422599928e-05 0 -0.046763740860547146 -0.00022357271612708212 0 -0.046156319487476977 -0.00042655184099109968 0 -0.047620266398390322 -0.00035886028343225582 0 -0.046277890836791451 -4.4355268422599928e-05 0 -0.04583801374082043 -0.00026334450350324132 0 -0.046277890836791451 -4.4355268422599928e-05 0 -0.046763740860547146 -0.00022357271612708212 0 -0.04583801374082043 -0.00026334450350324132 0 -0.046763740860547146 -0.00022357271612708212 0 -0.046730253284803035 -0.00011045545170977542 0 -0.046763740860547146 -0.00022357271612708212 0 -0.046730253284803035 -0.00011045545170977542 0 -0.047541823912653353 5.1068962939061349e-06 0 -0.046730253284803035 -0.00011045545170977542 0 -0.047541823912653353 5.1068962939061349e-06 0 -0.046786159726971248 0.00014710203888134053 0 -0.047620266398390322 -0.00035886028343225582 0 -0.046763740860547146 -0.00022357271612708212 0 -0.047541823912653353 5.1068962939061349e-06 0 -0.047541823912653353 5.1068962939061349e-06 0 -0.046786159726971248 0.00014710203888134053 0 -0.047749127523574152 0.0005306180630995969 0 -0.046786159726971248 0.00014710203888134053 0 -0.045843676640341606 9.4936384322802993e-05 0 -0.04671792010943035 0.0006223286706935388 0 -0.046786159726971248 0.00014710203888134053 0 -0.045980297483005264 -0.00017190814428365739 0 -0.045843676640341606 9.4936384322802993e-05 0 -0.046730253284803035 -0.00011045545170977542 0 -0.046786159726971248 0.00014710203888134053 0 -0.045980297483005264 -0.00017190814428365739 0 -0.045980297483005264 -0.00017190814428365739 0 -0.045304556044710176 -0.00030981974635522114 0 -0.045843676640341606 9.4936384322802993e-05 0 -0.04583801374082043 -0.00026334450350324132 0 -0.045980297483005264 -0.00017190814428365739 0 -0.045304556044710176 -0.00030981974635522114 0 -0.04583801374082043 -0.00026334450350324132 0 -0.046730253284803035 -0.00011045545170977542 0 -0.045980297483005264 -0.00017190814428365739 0 -0.044934402967084286 -9.655588847988931e-05 0 -0.045304556044710176 -0.00030981974635522114 0 -0.045843676640341606 9.4936384322802993e-05 0 -0.044355193310609886 -0.0005051128329248472 0 -0.044934402967084286 -9.655588847988931e-05 0 -0.045304556044710176 -0.00030981974635522114 0 -0.04507099658248287 0.0005279029116784245 0 -0.045843676640341606 9.4936384322802993e-05 0 -0.045861392526094072 0.00068594008117611261 0 -0.044934402967084286 -9.655588847988931e-05 0 -0.04507099658248287 0.0005279029116784245 0 -0.045843676640341606 9.4936384322802993e-05 0 -0.045843676640341606 9.4936384322802993e-05 0 -0.045861392526094072 0.00068594008117611261 0 -0.04671792010943035 0.0006223286706935388 0 -0.04507099658248287 0.0005279029116784245 0 -0.045861392526094072 0.00068594008117611261 0 -0.045638655327661891 0.0013221330112911207 0 -0.045861392526094072 0.00068594008117611261 0 -0.046465801059546598 0.0013202782650626398 0 -0.04671792010943035 0.0006223286706935388 0 -0.045861392526094072 0.00068594008117611261 0 -0.046465801059546598 0.0013202782650626398 0 -0.045638655327661891 0.0013221330112911207 0 -0.045638655327661891 0.0013221330112911207 0 -0.046206280529991262 0.0019954869487235965 0 -0.045604057165163192 0.0026487762424843003 0 -0.046206280529991262 0.0019954869487235965 0 -0.046518610937529306 0.0027493407388126481 0 -0.045604057165163192 0.0026487762424843003 0 -0.046206280529991262 0.0019954869487235965 0 -0.046957086457359763 0.0020787431540178558 0 -0.046518610937529306 0.0027493407388126481 0 -0.046465801059546598 0.0013202782650626398 0 -0.046206280529991262 0.0019954869487235965 0 -0.046957086457359763 0.0020787431540178558 0 -0.046465801059546598 0.0013202782650626398 0 -0.045638655327661891 0.0013221330112911207 0 -0.046206280529991262 0.0019954869487235965 0 -0.046465801059546598 0.0013202782650626398 0 -0.046957086457359763 0.0020787431540178558 0 -0.047781921258598627 0.001241730304942678 0 -0.046957086457359763 0.0020787431540178558 0 -0.047833503000322998 0.0022241931226956824 0 -0.047150698822500878 0.0027891810502934985 0 -0.046957086457359763 0.0020787431540178558 0 -0.047150698822500878 0.0027891810502934985 0 -0.046518610937529306 0.0027493407388126481 0 -0.047833503000322998 0.0022241931226956824 0 -0.050131657376813132 0.0017737855757861717 0 -0.047602369090046753 0.0033948153171121606 0 -0.046957086457359763 0.0020787431540178558 0 -0.047833503000322998 0.0022241931226956824 0 -0.047781921258598627 0.001241730304942678 0 -0.047781921258598627 0.001241730304942678 0 -0.04671792010943035 0.0006223286706935388 0 -0.047749127523574152 0.0005306180630995969 0 -0.046465801059546598 0.0013202782650626398 0 -0.047781921258598627 0.001241730304942678 0 -0.04671792010943035 0.0006223286706935388 0 -0.046786159726971248 0.00014710203888134053 0 -0.04671792010943035 0.0006223286706935388 0 -0.047749127523574152 0.0005306180630995969 0 -0.047541823912653353 5.1068962939061349e-06 0 -0.047749127523574152 0.0005306180630995969 0 -0.049277562820511552 0.00090364544829948598 0 -0.047749127523574152 0.0005306180630995969 0 -0.048811754412074561 0.0010783181048020488 0 -0.049277562820511552 0.00090364544829948598 0 -0.047781921258598627 0.001241730304942678 0 -0.047749127523574152 0.0005306180630995969 0 -0.048811754412074561 0.0010783181048020488 0 -0.048811754412074561 0.0010783181048020488 0 -0.050131657376813132 0.0017737855757861717 0 -0.049277562820511552 0.00090364544829948598 0 -0.047833503000322998 0.0022241931226956824 0 -0.047781921258598627 0.001241730304942678 0 -0.050131657376813132 0.0017737855757861717 0 -0.047781921258598627 0.001241730304942678 0 -0.048811754412074561 0.0010783181048020488 0 -0.050131657376813132 0.0017737855757861717 0 -0.050131657376813132 0.0017737855757861717 0 -0.049277562820511552 0.00090364544829948598 0 -0.051263490854501853 0.0012079349992413068 0 -0.050020703241816844 0.00091440881702090429 0 -0.049277562820511552 0.00090364544829948598 0 -0.051263490854501853 0.0012079349992413068 0 -0.050020703241816844 0.00091440881702090429 0 -0.049166886484208368 0.00033234709350286472 0 -0.049277562820511552 0.00090364544829948598 0 -0.052277816443994707 0.00090720431621011169 0 -0.053064521196329137 0.00055245225286255949 0 -0.053293449966434675 0.00050052196323488484 0 -0.052277816443994707 0.00090720431621011169 0 -0.05190702354801445 0.0010841578259704035 0 -0.053064521196329137 0.00055245225286255949 0 -0.050131657376813132 0.0017737855757861717 0 -0.051263490854501853 0.0012079349992413068 0 -0.05190702354801445 0.0010841578259704035 0 -0.052277816443994707 0.00090720431621011169 0 -0.051263490854501853 0.0012079349992413068 0 -0.05190702354801445 0.0010841578259704035 0 -0.050131657376813132 0.0017737855757861717 0 -0.05190702354801445 0.0010841578259704035 0 -0.051817193372663377 0.0013118749224897011 0 -0.050284528945598872 0.0019144948638516563 0 -0.050460995112336267 0.0021870607260637063 0 -0.050131657376813132 0.0017737855757861717 0 -0.051817193372663377 0.0013118749224897011 0 -0.053019692972703043 0.0015375385070132814 0 -0.05190702354801445 0.0010841578259704035 0 -0.051817193372663377 0.0013118749224897011 0 -0.052536702355133774 0.0010240017075861172 0 -0.05190702354801445 0.0010841578259704035 0 -0.053064521196329137 0.00055245225286255949 0 -0.053091619487511767 0.00063494620155659114 0 -0.05190702354801445 0.0010841578259704035 0 -0.052536702355133774 0.0010240017075861172 0 -0.053091619487511767 0.00063494620155659114 0 -0.053064521196329137 0.00055245225286255949 0 -0.053091619487511767 0.00063494620155659114 0 -0.053637003465397057 0.00032497235968258518 0 -0.05370594854476942 0.00047903575196815788 0 -0.053091619487511767 0.00063494620155659114 0 -0.053637003465397057 0.00032497235968258518 0 -0.05370594854476942 0.00047903575196815788 0 -0.053350145658895259 0.00084427356042804489 0 -0.053942018659822275 0.00084805568785062695 0 -0.05370594854476942 0.00047903575196815788 0 -0.053350145658895259 0.00084427356042804489 0 -0.053091619487511767 0.00063494620155659114 0 -0.052536702355133774 0.0010240017075861172 0 -0.053350145658895259 0.00084427356042804489 0 -0.053091619487511767 0.00063494620155659114 0 -0.051817193372663377 0.0013118749224897011 0 -0.052536702355133774 0.0010240017075861172 0 -0.053019692972703043 0.0015375385070132814 0 -0.052536702355133774 0.0010240017075861172 0 -0.053350145658895259 0.00084427356042804489 0 -0.053019692972703043 0.0015375385070132814 0 -0.047833503000322998 0.0022241931226956824 0 -0.047602369090046753 0.0033948153171121606 0 -0.047150698822500878 0.0027891810502934985 0 -0.047150698822500878 0.0027891810502934985 0 -0.047029228339297763 0.0034130385541465452 0 -0.046518610937529306 0.0027493407388126481 0 -0.047602369090046753 0.0033948153171121606 0 -0.047150698822500878 0.0027891810502934985 0 -0.047029228339297763 0.0034130385541465452 0 -0.053350145658895259 0.00084427356042804489 0 -0.053019692972703043 0.0015375385070132814 0 -0.053942018659822275 0.00084805568785062695 0 -0.047602369090046753 0.0033948153171121606 0 -0.047029228339297763 0.0034130385541465452 0 -0.046256348434133301 0.0039117549426420954 0 -0.050460995112336267 0.0021870607260637063 0 -0.04917993696298853 0.0029026441142338995 0 -0.047029228339297763 0.0034130385541465452 0 -0.046166144571037911 0.0032875599263021355 0 -0.046332843436406271 0.0039755442532076486 0 -0.04668705374563982 0.0041343905219310391 0 -0.04917993696298853 0.0029026441142338995 0 -0.046166144571037911 0.0032875599263021355 0 -0.046518610937529306 0.0027493407388126481 0 -0.045604057165163192 0.0026487762424843003 0 -0.047029228339297763 0.0034130385541465452 0 -0.046166144571037911 0.0032875599263021355 0 -0.046518610937529306 0.0027493407388126481 0 -0.046166144571037911 0.0032875599263021355 0 -0.045604057165163192 0.0026487762424843003 0 -0.045412455563177856 0.003623497591292219 0 -0.046166144571037911 0.0032875599263021355 0 -0.046332843436406271 0.0039755442532076486 0 -0.045412455563177856 0.003623497591292219 0 -0.04917993696298853 0.0029026441142338995 0 -0.05155487183899729 0.0011156381974319004 0 -0.046332843436406271 0.0039755442532076486 0 -0.045412455563177856 0.003623497591292219 0 -0.045510739167397347 0.0045891574467221393 0 -0.05370594854476942 0.00047903575196815788 0 -0.053942018659822275 0.00084805568785062695 0 -0.054182554923764323 0.0005103432089645449 0 -0.04917993696298853 0.0029026441142338995 0 -0.053300712167987881 0.00066830011519389255 0 -0.049706125828622202 0.0032305336651397044 0 -0.052184670436746468 0.00053307092873607076 0 -0.052599918174444274 0.001017897017531519 0 -0.053300712167987881 0.00066830011519389255 0 -0.05155487183899729 0.0011156381974319004 0 -0.054983081325866705 1.2866904783776049e-05 0 -0.054994875869023831 2.3965988966535832e-06 0 -0.05499250187265646 3.0776246982352138e-06 0 -0.053300712167987881 0.00066830011519389255 0 -0.054653921268183109 5.2892606822695358e-05 0 -0.05370594854476942 0.00047903575196815788 0 -0.054182554923764323 0.0005103432089645449 0 -0.053980489559044428 0.00016545420277896093 0 -0.054999988826335736 2.5577136489015072e-09 0 -0.054994875869023831 2.3965988966535832e-06 0 -0.05499999458772397 9.4661969072396982e-10 0 -0.054999988826335736 2.5577136489015072e-09 0 -0.054994875869023831 2.3965988966535832e-06 0 -0.05499250187265646 3.0776246982352138e-06 0 -0.054999988826335736 2.5577136489015072e-09 0 -0.054999998364854023 -5.4872014511346909e-10 0 -0.05499250187265646 3.0776246982352138e-06 0 -0.054999560763728889 -1.3795266635893564e-07 0 -0.054653921268183109 5.2892606822695358e-05 0 -0.054997297850536538 1.7035969899869373e-07 0 -0.053980489559044428 0.00016545420277896093 0 -0.054182027837881862 0.00017647941541587141 0 -0.053980489559044428 0.00016545420277896093 0 -0.053637003465397057 0.00032497235968258518 0 -0.054182027837881862 0.00017647941541587141 0 -0.05370594854476942 0.00047903575196815788 0 -0.053980489559044428 0.00016545420277896093 0 -0.053637003465397057 0.00032497235968258518 0 -0.053064521196329137 0.00055245225286255949 0 -0.053637003465397057 0.00032497235968258518 0 -0.054182027837881862 0.00017647941541587141 0 -0.053064521196329137 0.00055245225286255949 0 -0.054182027837881862 0.00017647941541587141 0 -0.053293449966434675 0.00050052196323488484 0 -0.054997297850536538 1.7035969899869373e-07 0 -0.054182027837881862 0.00017647941541587141 0 -0.055000390388875602 3.244846707246783e-07 0 -0.054182027837881862 0.00017647941541587141 0 -0.055000390388875602 3.244846707246783e-07 0 -0.054076950891720141 0.00022001165529034794 0 -0.054994908606929363 -1.0342820523970453e-06 0 -0.055000390388875602 3.244846707246783e-07 0 -0.054076950891720141 0.00022001165529034794 0 -0.054182027837881862 0.00017647941541587141 0 -0.054076950891720141 0.00022001165529034794 0 -0.053293449966434675 0.00050052196323488484 0 -0.053026261077569956 0.00059604336036657348 0 -0.054076950891720141 0.00022001165529034794 0 -0.053293449966434675 0.00050052196323488484 0 -0.053026261077569956 0.00059604336036657348 0 -0.052277816443994707 0.00090720431621011169 0 -0.053293449966434675 0.00050052196323488484 0 -0.05472558218373446 0.00024761162337022118 0 -0.054573636901249195 0.00014258030922943173 0 -0.054597847793262481 0.00042681912414295595 0 -0.05472558218373446 0.00024761162337022118 0 -0.054573636901249195 0.00014258030922943173 0 -0.054846234224107435 9.1842601532696422e-05 0 -0.05472558218373446 0.00024761162337022118 0 -0.054919334935620248 0.00035414883995694876 0 -0.054846234224107435 9.1842601532696422e-05 0 -0.054919334935620248 0.00035414883995694876 0 -0.054846234224107435 9.1842601532696422e-05 0 -0.054968200914977762 4.8699678007182728e-05 0 -0.05237724881091857 0.001799072758004369 0 -0.052877043590090121 0.0015866418098686936 0 -0.05465709466440874 0.00059718465611098429 0 -0.054919334935620248 0.00035414883995694876 0 -0.054597847793262481 0.00042681912414295595 0 -0.05465709466440874 0.00059718465611098429 0 -0.054743859970386506 0.00074018678603705846 0 -0.054919334935620248 0.00035414883995694876 0 -0.05472558218373446 0.00024761162337022118 0 -0.054919334935620248 0.00035414883995694876 0 -0.054597847793262481 0.00042681912414295595 0 -0.050922441367378633 0.0029327933434929424 0 -0.050674055712661058 0.0029041026811620746 0 -0.050680604304617433 0.0031227468727099686 0 -0.054573636901249195 0.00014258030922943173 0 -0.054597847793262481 0.00042681912414295595 0 -0.054252689911941925 0.00051355899243352371 0 -0.054414783431293912 0.00071940723004943082 0 -0.054597847793262481 0.00042681912414295595 0 -0.054252689911941925 0.00051355899243352371 0 -0.044082635934682382 0.0029342574155355968 0 -0.045412455563177856 0.003623497591292219 0 -0.045510739167397347 0.0045891574467221393 0 -0.049520290010344782 0.0015793169076179824 0 -0.05155487183899729 0.0011156381974319004 0 -0.044082635934682382 0.0029342574155355968 0 -0.044928552537987866 0.0028495862854112822 0 -0.045412455563177856 0.003623497591292219 0 -0.045604057165163192 0.0026487762424843003 0 -0.044928552537987866 0.0028495862854112822 0 -0.045412455563177856 0.003623497591292219 0 -0.054544902550511656 0.0010586059217918076 0 -0.054109282005523437 0.00051492017334428607 0 -0.05451317919890232 0.00049544464230547849 0 -0.055501128331412991 -8.1561316975001355e-05 0 -0.049520290010344782 0.0015793169076179824 0 -0.054888105816705307 0.00043144531140286207 0 -0.054544902550511656 0.0010586059217918076 0 -0.05451317919890232 0.00049544464230547849 0 -0.054888105816705307 0.00043144531140286207 0 -0.05451317919890232 0.00049544464230547849 0 -0.054705472443075484 0.00036249766328539946 0 -0.054888105816705307 0.00043144531140286207 0 -0.054705472443075484 0.00036249766328539946 0 -0.054837498424008507 0.00013346145103099448 0 -0.05451317919890232 0.00049544464230547849 0 -0.054705472443075484 0.00036249766328539946 0 -0.05468408473655012 0.00018572553509839124 0 -0.05468408473655012 0.00018572553509839124 0 -0.054837498424008507 0.00013346145103099448 0 -0.054567000288120171 0.00011808435702065733 0 -0.054705472443075484 0.00036249766328539946 0 -0.05468408473655012 0.00018572553509839124 0 -0.054837498424008507 0.00013346145103099448 0 -0.054214676583475938 0.0005456751796208731 0 -0.05468408473655012 0.00018572553509839124 0 -0.054567000288120171 0.00011808435702065733 0 -0.054177213098419726 0.00050255117970420926 0 -0.054214676583475938 0.0005456751796208731 0 -0.054567000288120171 0.00011808435702065733 0 -0.05155487183899729 0.0011156381974319004 0 -0.055614017415621435 -0.00021584366834748674 0 -0.054983081325866705 1.2866904783776049e-05 0 -0.054994875869023831 2.3965988966535832e-06 0 -0.05499802959791375 3.8000552607818675e-06 0 -0.053300712167987881 0.00066830011519389255 0 -0.054986167335798024 -5.6000399125409249e-05 0 -0.054109282005523437 0.00051492017334428607 0 -0.05451317919890232 0.00049544464230547849 0 -0.05468408473655012 0.00018572553509839124 0 -0.054994875869023831 2.3965988966535832e-06 0 -0.05499802959791375 3.8000552607818675e-06 0 -0.05499999458772397 9.4661969072396982e-10 0 -0.054837498424008507 0.00013346145103099448 0 -0.054567000288120171 0.00011808435702065733 0 -0.054999283822259867 -1.6949060289307282e-07 0 -0.054986167335798024 -5.6000399125409249e-05 0 -0.05499967035402098 2.4637884012457836e-07 0 -0.05499802959791375 3.8000552607818675e-06 0 -0.05499999458772397 9.4661969072396982e-10 0 -0.055000004824357539 1.1782842703784669e-10 0 -0.054837498424008507 0.00013346145103099448 0 -0.054999283822259867 -1.6949060289307282e-07 0 -0.054956893012871273 6.2486639697468282e-06 0 -0.054999283822259867 -1.6949060289307282e-07 0 -0.054956893012871273 6.2486639697468282e-06 0 -0.055000484017293232 1.0292728614493221e-07 0 -0.054888105816705307 0.00043144531140286207 0 -0.054837498424008507 0.00013346145103099448 0 -0.054956893012871273 6.2486639697468282e-06 0 -0.054573636901249195 0.00014258030922943173 0 -0.054956893012871273 6.2486639697468282e-06 0 -0.054846234224107435 9.1842601532696422e-05 0 -0.055501128331412991 -8.1561316975001355e-05 0 -0.05467753696627984 0.00023976198122985094 0 -0.054956893012871273 6.2486639697468282e-06 0 -0.054846234224107435 9.1842601532696422e-05 0 -0.054920361863580285 1.35762282722395e-05 0 -0.054846234224107435 9.1842601532696422e-05 0 -0.054920361863580285 1.35762282722395e-05 0 -0.054968200914977762 4.8699678007182728e-05 0 -0.054956893012871273 6.2486639697468282e-06 0 -0.054920361863580285 1.35762282722395e-05 0 -0.055000484017293232 1.0292728614493221e-07 0 -0.054920361863580285 1.35762282722395e-05 0 -0.055000484017293232 1.0292728614493221e-07 0 -0.054911129151689796 -6.115843769176834e-06 0 -0.055000484017293232 1.0292728614493221e-07 0 -0.054911129151689796 -6.115843769176834e-06 0 -0.054765108567202091 -1.8461223047693886e-05 0 -0.055000484017293232 1.0292728614493221e-07 0 -0.054997855003023226 1.0229752747483134e-08 0 -0.054765108567202091 -1.8461223047693886e-05 0 -0.054911129151689796 -6.115843769176834e-06 0 -0.054765108567202091 -1.8461223047693886e-05 0 -0.054968200914977762 4.8699678007182728e-05 0 -0.0545653682814796 0.0001324431334647778 0 -0.054997855003023226 1.0229752747483134e-08 0 -0.054619459398835439 0.00017564727577604601 0 -0.0545653682814796 0.0001324431334647778 0 -0.054997855003023226 1.0229752747483134e-08 0 -0.054765108567202091 -1.8461223047693886e-05 0 -0.0545653682814796 0.0001324431334647778 0 -0.054765108567202091 -1.8461223047693886e-05 0 -0.053895738421214465 0.00049332751214088331 0 -0.0545653682814796 0.0001324431334647778 0 -0.053895738421214465 0.00049332751214088331 0 -0.054619459398835439 0.00017564727577604601 0 -0.053895738421214465 0.00049332751214088331 0 -0.053994051550847418 0.00073113492173779713 0 -0.054619459398835439 0.00017564727577604601 0 -0.054765108567202091 -1.8461223047693886e-05 0 -0.053895738421214465 0.00049332751214088331 0 -0.051613315317968617 0.0013402413185669383 0 -0.053895738421214465 0.00049332751214088331 0 -0.052919039940402889 0.0014370938981901654 0 -0.053994051550847418 0.00073113492173779713 0 -0.053895738421214465 0.00049332751214088331 0 -0.052919039940402889 0.0014370938981901654 0 -0.051613315317968617 0.0013402413185669383 0 -0.052919039940402889 0.0014370938981901654 0 -0.053555140280448325 0.0013832245730648709 0 -0.053994051550847418 0.00073113492173779713 0 -0.05446451234698383 9.2105246412754283e-05 0 -0.053368617320776184 0.0007982250890265207 0 -0.054920361863580285 1.35762282722395e-05 0 -0.054911129151689796 -6.115843769176834e-06 0 -0.054968200914977762 4.8699678007182728e-05 0 -0.052919039940402889 0.0014370938981901654 0 -0.051613315317968617 0.0013402413185669383 0 -0.051403602228298866 0.0026010265602369881 0 -0.052877043590090121 0.0015866418098686936 0 -0.053368617320776184 0.0007982250890265207 0 -0.050674055712661058 0.0029041026811620746 0 -0.051613315317968617 0.0013402413185669383 0 -0.051403602228298866 0.0026010265602369881 0 -0.052919039940402889 0.0014370938981901654 0 -0.051403602228298866 0.0026010265602369881 0 -0.052676703400853987 0.0021991144859891515 0 -0.052919039940402889 0.0014370938981901654 0 -0.052676703400853987 0.0021991144859891515 0 -0.053555140280448325 0.0013832245730648709 0 -0.051403602228298866 0.0026010265602369881 0 -0.052676703400853987 0.0021991144859891515 0 -0.050869176980813717 0.0035349949417043461 0 -0.051403602228298866 0.0026010265602369881 0 -0.050869176980813717 0.0035349949417043461 0 -0.050680604304617433 0.0031227468727099686 0 -0.050674055712661058 0.0029041026811620746 0 -0.051403602228298866 0.0026010265602369881 0 -0.050680604304617433 0.0031227468727099686 0 -0.04730968896253452 0.0042645088782155361 0 -0.048193300164580836 0.0035051383209502521 0 -0.047780732454005007 0.0057950814695983772 0 -0.04730968896253452 0.0042645088782155361 0 -0.046199979882014124 0.003993544996910881 0 -0.046291001418690247 0.0023381458805382376 0 -0.04730968896253452 0.0042645088782155361 0 -0.047414867855677556 0.0054161619601566912 0 -0.046199979882014124 0.003993544996910881 0 -0.050869176980813717 0.0035349949417043461 0 -0.048193300164580836 0.0035051383209502521 0 -0.047780732454005007 0.0057950814695983772 0 -0.05122468388816348 0.0033460868108477603 0 -0.050765413208412172 0.0042410890444103634 0 -0.052676703400853987 0.0021991144859891515 0 -0.050869176980813717 0.0035349949417043461 0 -0.054846736366398072 0.0018555986172620264 0 -0.052676703400853987 0.0021991144859891515 0 -0.053863594463622079 0.0015928058283712942 0 -0.054846736366398072 0.0018555986172620264 0 -0.052676703400853987 0.0021991144859891515 0 -0.053863594463622079 0.0015928058283712942 0 -0.053555140280448325 0.0013832245730648709 0 -0.053863594463622079 0.0015928058283712942 0 -0.054846736366398072 0.0018555986172620264 0 -0.054274145851887265 0.0010979433642420758 0 -0.047780732454005007 0.0057950814695983772 0 -0.046687335749055037 0.0064100662465494682 0 -0.04678416631714595 0.0056071946044895741 0 -0.047414867855677556 0.0054161619601566912 0 -0.045919738607831453 0.0058086590696875568 0 -0.046199979882014124 0.003993544996910881 0 -0.047780732454005007 0.0057950814695983772 0 -0.047414867855677556 0.0054161619601566912 0 -0.04678416631714595 0.0056071946044895741 0 -0.04730968896253452 0.0042645088782155361 0 -0.047780732454005007 0.0057950814695983772 0 -0.047414867855677556 0.0054161619601566912 0 -0.046603039220312899 0.0055283755219933386 0 -0.048328158566720424 0.0041378708140699513 0 -0.054846736366398072 0.0018555986172620264 0 -0.054808280638261347 0.00067491211899616444 0 -0.055305154257991589 0.00041723740098003107 0 -0.050765413208412172 0.0042410890444103634 0 -0.052925718306944446 0.001309908555306291 0 -0.054846736366398072 0.0018555986172620264 0 -0.054808280638261347 0.00067491211899616444 0 -0.054274145851887265 0.0010979433642420758 0 -0.053555140280448325 0.0013832245730648709 0 -0.054274145851887265 0.0010979433642420758 0 -0.053994051550847418 0.00073113492173779713 0 -0.053863594463622079 0.0015928058283712942 0 -0.053555140280448325 0.0013832245730648709 0 -0.054274145851887265 0.0010979433642420758 0 -0.054808280638261347 0.00067491211899616444 0 -0.054274145851887265 0.0010979433642420758 0 -0.054464018975109406 0.00056996193085219883 0 -0.054464018975109406 0.00056996193085219883 0 -0.053994051550847418 0.00073113492173779713 0 -0.054619459398835439 0.00017564727577604601 0 -0.054274145851887265 0.0010979433642420758 0 -0.054464018975109406 0.00056996193085219883 0 -0.053994051550847418 0.00073113492173779713 0 -0.054808280638261347 0.00067491211899616444 0 -0.054464018975109406 0.00056996193085219883 0 -0.054999525408049407 6.7367020844919405e-08 0 -0.054997855003023226 1.0229752747483134e-08 0 -0.054619459398835439 0.00017564727577604601 0 -0.054999525408049407 6.7367020844919405e-08 0 -0.054464018975109406 0.00056996193085219883 0 -0.054619459398835439 0.00017564727577604601 0 -0.054999525408049407 6.7367020844919405e-08 0 -0.054808280638261347 0.00067491211899616444 0 -0.054999525408049407 6.7367020844919405e-08 0 -0.055305154257991589 0.00041723740098003107 0 -0.054999525408049407 6.7367020844919405e-08 0 -0.055001097941628357 3.4981713270332085e-07 0 -0.055305154257991589 0.00041723740098003107 0 -0.055000561563268595 -1.2568095125977164e-06 0 -0.052925718306944446 0.001309908555306291 0 -0.055002973555458287 -2.3768838695586939e-06 0 -0.052925718306944446 0.001309908555306291 0 -0.054999903811696532 4.6658810594919222e-08 0 -0.055000064155375894 -2.2203584800789036e-08 0 -0.054979266578500316 3.2662459736741487e-05 0 -0.054999658122243278 -5.8180613209102109e-07 0 -0.054705364976734824 5.9556487231298205e-05 0 -0.054424980129814643 6.1669996006094029e-05 0 -0.054705364976734824 5.9556487231298205e-05 0 -0.054424980129814643 6.1669996006094029e-05 0 -0.054602036566365128 0.00013964553425024418 0 -0.054705364976734824 5.9556487231298205e-05 0 -0.054729821209367181 4.6766511878972551e-05 0 -0.054602036566365128 0.00013964553425024418 0 -0.054424980129814643 6.1669996006094029e-05 0 -0.054315070638004878 0.00029252503241158884 0 -0.054602036566365128 0.00013964553425024418 0 -0.052925718306944446 0.001309908555306291 0 -0.048328158566720424 0.0041378708140699513 0 -0.055030879743512874 1.7189070467421816e-05 0 -0.055000122786267043 -5.8190852475970791e-10 0 -0.054999813687896609 2.5657747124788529e-08 0 -0.055068372030251819 0.00033812045873894757 0 -0.054999319101359488 -2.366676899820086e-07 0 -0.054999658122243278 -5.8180613209102109e-07 0 -0.054705364976734824 5.9556487231298205e-05 0 -0.054729821209367181 4.6766511878972551e-05 0 -0.054190288162674183 0.00022760370618245772 0 -0.054998966385949942 1.0050356666147116e-06 0 -0.054729821209367181 4.6766511878972551e-05 0 -0.054999658122243278 -5.8180613209102109e-07 0 -0.054998966385949942 1.0050356666147116e-06 0 -0.054729821209367181 4.6766511878972551e-05 0 -0.049256724508814735 0.0014458812339403721 0 -0.05028395726278545 0.001202546898138491 0 -0.054729821209367181 4.6766511878972551e-05 0 -0.054299827719938867 -0.00012452177201312148 0 -0.054602036566365128 0.00013964553425024418 0 -0.049256724508814735 0.0014458812339403721 0 -0.049087270786227682 0.0013896239694748712 0 -0.054190288162674183 0.00022760370618245772 0 -0.054299827719938867 -0.00012452177201312148 0 -0.053354595845387681 -9.2979950264947817e-06 0 -0.054190288162674183 0.00022760370618245772 0 -0.054729821209367181 4.6766511878972551e-05 0 -0.054299827719938867 -0.00012452177201312148 0 -0.044603894073862074 0.0028574279059766497 0 -0.044379421967087752 0.0024107563643793939 0 -0.044074151339924879 0.0026291424246754551 0 -0.044379421967087752 0.0024107563643793939 0 -0.044074151339924879 0.0026291424246754551 0 -0.043716115467160095 0.0023087305026100228 0 -0.044603894073862074 0.0028574279059766497 0 -0.044379421967087752 0.0024107563643793939 0 -0.045133164898625837 0.0029143608640640971 0 -0.044379421967087752 0.0024107563643793939 0 -0.045133164898625837 0.0029143608640640971 0 -0.045192366847977408 0.0025882445646400209 0 -0.044379421967087752 0.0024107563643793939 0 -0.045192366847977408 0.0025882445646400209 0 -0.044690614752832952 0.0020677059813499292 0 -0.044379421967087752 0.0024107563643793939 0 -0.043716115467160095 0.0023087305026100228 0 -0.043620215605665279 0.0019357357486795013 0 -0.048328158566720424 0.0041378708140699513 0 -0.05028395726278545 0.001202546898138491 0 -0.04562326052508342 0.0029330710078999981 0 -0.045133164898625837 0.0029143608640640971 0 -0.045192366847977408 0.0025882445646400209 0 -0.045192366847977408 0.0025882445646400209 0 -0.045772923609452072 0.0026260471311188283 0 -0.045419544255299857 0.0023443668650100476 0 -0.04562326052508342 0.0029330710078999981 0 -0.045192366847977408 0.0025882445646400209 0 -0.045772923609452072 0.0026260471311188283 0 -0.048328158566720424 0.0041378708140699513 0 -0.04594766420152737 0.0033879607333936732 0 -0.045772923609452072 0.0026260471311188283 0 -0.045419544255299857 0.0023443668650100476 0 -0.046291001418690247 0.0023381458805382376 0 -0.045419544255299857 0.0023443668650100476 0 -0.04523457224477305 0.0018032047623544579 0 -0.046291001418690247 0.0023381458805382376 0 -0.045192366847977408 0.0025882445646400209 0 -0.045419544255299857 0.0023443668650100476 0 -0.044690614752832952 0.0020677059813499292 0 -0.045419544255299857 0.0023443668650100476 0 -0.044690614752832952 0.0020677059813499292 0 -0.04523457224477305 0.0018032047623544579 0 -0.044690614752832952 0.0020677059813499292 0 -0.04523457224477305 0.0018032047623544579 0 -0.0441564981815196 0.0012766186684757949 0 -0.04523457224477305 0.0018032047623544579 0 -0.046291001418690247 0.0023381458805382376 0 -0.046725571427727479 0.0015286470044839067 0 -0.04523457224477305 0.0018032047623544579 0 -0.045222400555298081 0.0010453789886493568 0 -0.046725571427727479 0.0015286470044839067 0 -0.044379421967087752 0.0024107563643793939 0 -0.044045587950642555 0.0017865970510761524 0 -0.043620215605665279 0.0019357357486795013 0 -0.044379421967087752 0.0024107563643793939 0 -0.044690614752832952 0.0020677059813499292 0 -0.044045587950642555 0.0017865970510761524 0 -0.044690614752832952 0.0020677059813499292 0 -0.044045587950642555 0.0017865970510761524 0 -0.0441564981815196 0.0012766186684757949 0 -0.044045587950642555 0.0017865970510761524 0 -0.043620215605665279 0.0019357357486795013 0 -0.043403919461805822 0.0011650225501884683 0 -0.044045587950642555 0.0017865970510761524 0 -0.0441564981815196 0.0012766186684757949 0 -0.043403919461805822 0.0011650225501884683 0 -0.0441564981815196 0.0012766186684757949 0 -0.043156025350898977 0.00063571096287722874 0 -0.043403919461805822 0.0011650225501884683 0 -0.0441564981815196 0.0012766186684757949 0 -0.043156025350898977 0.00063571096287722874 0 -0.044257058261912195 0.00059697626937278508 0 -0.0441564981815196 0.0012766186684757949 0 -0.045222400555298081 0.0010453789886493568 0 -0.044257058261912195 0.00059697626937278508 0 -0.04523457224477305 0.0018032047623544579 0 -0.0441564981815196 0.0012766186684757949 0 -0.045222400555298081 0.0010453789886493568 0 -0.045222400555298081 0.0010453789886493568 0 -0.045297056875436198 0.00037475623574285082 0 -0.046238887503853472 0.00066155558739950412 0 -0.044257058261912195 0.00059697626937278508 0 -0.045297056875436198 0.00037475623574285082 0 -0.044734833260325263 -0.00020891998380767642 0 -0.045222400555298081 0.0010453789886493568 0 -0.044257058261912195 0.00059697626937278508 0 -0.045297056875436198 0.00037475623574285082 0 -0.045297056875436198 0.00037475623574285082 0 -0.046238887503853472 0.00066155558739950412 0 -0.046148118279468249 -0.00021681380527685881 0 -0.046238887503853472 0.00066155558739950412 0 -0.047225649017174832 0.00038874538905240582 0 -0.046148118279468249 -0.00021681380527685881 0 -0.046238887503853472 0.00066155558739950412 0 -0.047376368517520945 0.00099033820898988736 0 -0.046725571427727479 0.0015286470044839067 0 -0.045222400555298081 0.0010453789886493568 0 -0.046238887503853472 0.00066155558739950412 0 -0.046725571427727479 0.0015286470044839067 0 -0.047376368517520945 0.00099033820898988736 0 -0.046725571427727479 0.0015286470044839067 0 -0.048468013745086073 0.0016090952864500929 0 -0.047376368517520945 0.00099033820898988736 0 -0.048348762422825368 0.00096698674652576891 0 -0.048468013745086073 0.0016090952864500929 0 -0.047376368517520945 0.00099033820898988736 0 -0.047225649017174832 0.00038874538905240582 0 -0.048348762422825368 0.00096698674652576891 0 -0.047225649017174832 0.00038874538905240582 0 -0.048169224673149172 0.00031375631526781418 0 -0.048348762422825368 0.00096698674652576891 0 -0.046238887503853472 0.00066155558739950412 0 -0.047376368517520945 0.00099033820898988736 0 -0.047225649017174832 0.00038874538905240582 0 -0.047225649017174832 0.00038874538905240582 0 -0.048169224673149172 0.00031375631526781418 0 -0.047265615427933096 -0.00026015126308057265 0 -0.048824560228998226 0.00016165873927850968 0 -0.049661132609406168 0.00015108788473325126 0 -0.048108164721150752 -0.0007336594549715433 0 -0.048169224673149172 0.00031375631526781418 0 -0.048824560228998226 0.00016165873927850968 0 -0.048090750521502759 -0.0001264751355345323 0 -0.048169224673149172 0.00031375631526781418 0 -0.048090750521502759 -0.0001264751355345323 0 -0.047265615427933096 -0.00026015126308057265 0 -0.048169224673149172 0.00031375631526781418 0 -0.048824560228998226 0.00016165873927850968 0 -0.048992567244081388 0.00071633867162666667 0 -0.048824560228998226 0.00016165873927850968 0 -0.048992567244081388 0.00071633867162666667 0 -0.049328314467045879 0.00050112117693407328 0 -0.048169224673149172 0.00031375631526781418 0 -0.048992567244081388 0.00071633867162666667 0 -0.048348762422825368 0.00096698674652576891 0 -0.047097210802549194 0.00011766256246051049 0 -0.047136092269529049 -0.00033304084439730175 0 -0.043538316668392155 -0.0008600512063272176 0 -0.044445487516820842 -0.00098782597910528611 0 -0.044169901815377145 -0.00091484161952674263 0 -0.048824560228998226 0.00016165873927850968 0 -0.049661132609406168 0.00015108788473325126 0 -0.049328314467045879 0.00050112117693407328 0 -0.044445487516820842 -0.00098782597910528611 0 -0.044169901815377145 -0.00091484161952674263 0 -0.045048048651643968 -0.0010923961045014553 0 -0.048992567244081388 0.00071633867162666667 0 -0.049328314467045879 0.00050112117693407328 0 -0.049842420178367625 0.00096167613114031959 0 -0.049661132609406168 0.00015108788473325126 0 -0.049328314467045879 0.00050112117693407328 0 -0.049842420178367625 0.00096167613114031959 0 -0.050819184724377645 0.0012705536514604767 0 -0.049661132609406168 0.00015108788473325126 0 -0.049842420178367625 0.00096167613114031959 0 -0.048992567244081388 0.00071633867162666667 0 -0.049842420178367625 0.00096167613114031959 0 -0.049248678024285869 0.0014400545051537587 0 -0.049842420178367625 0.00096167613114031959 0 -0.049248678024285869 0.0014400545051537587 0 -0.050133072308927232 0.0017679912475020681 0 -0.050819184724377645 0.0012705536514604767 0 -0.049842420178367625 0.00096167613114031959 0 -0.050133072308927232 0.0017679912475020681 0 -0.048992567244081388 0.00071633867162666667 0 -0.048348762422825368 0.00096698674652576891 0 -0.049248678024285869 0.0014400545051537587 0 -0.048348762422825368 0.00096698674652576891 0 -0.049248678024285869 0.0014400545051537587 0 -0.048468013745086073 0.0016090952864500929 0 -0.049248678024285869 0.0014400545051537587 0 -0.049814785366186463 0.0023864574861312618 0 -0.048468013745086073 0.0016090952864500929 0 -0.049814785366186463 0.0023864574861312618 0 -0.048391099751236712 0.0023159955210912322 0 -0.048468013745086073 0.0016090952864500929 0 -0.049248678024285869 0.0014400545051537587 0 -0.049814785366186463 0.0023864574861312618 0 -0.050133072308927232 0.0017679912475020681 0 -0.050838498781944984 0.00218561818882953 0 -0.050133072308927232 0.0017679912475020681 0 -0.050464846697750379 0.0024312458993083156 0 -0.049814785366186463 0.0023864574861312618 0 -0.050133072308927232 0.0017679912475020681 0 -0.050464846697750379 0.0024312458993083156 0 -0.050826085074909703 0.0026664619695445577 0 -0.050464846697750379 0.0024312458993083156 0 -0.050680604304617433 0.0031227468727099686 0 -0.049814785366186463 0.0023864574861312618 0 -0.050464846697750379 0.0024312458993083156 0 -0.050680604304617433 0.0031227468727099686 0 -0.050869176980813717 0.0035349949417043461 0 -0.049814785366186463 0.0023864574861312618 0 -0.048391099751236712 0.0023159955210912322 0 -0.050869176980813717 0.0035349949417043461 0 -0.049814785366186463 0.0023864574861312618 0 -0.050680604304617433 0.0031227468727099686 0 -0.050869176980813717 0.0035349949417043461 0 -0.048193300164580836 0.0035051383209502521 0 -0.048391099751236712 0.0023159955210912322 0 -0.048193300164580836 0.0035051383209502521 0 -0.048391099751236712 0.0023159955210912322 0 -0.046291001418690247 0.0023381458805382376 0 -0.04730968896253452 0.0042645088782155361 0 -0.048193300164580836 0.0035051383209502521 0 -0.046291001418690247 0.0023381458805382376 0 -0.04594766420152737 0.0033879607333936732 0 -0.046251298433651958 0.0023429790136025442 0 -0.048391099751236712 0.0023159955210912322 0 -0.046291001418690247 0.0023381458805382376 0 -0.046725571427727479 0.0015286470044839067 0 -0.048391099751236712 0.0023159955210912322 0 -0.046725571427727479 0.0015286470044839067 0 -0.048468013745086073 0.0016090952864500929 0 -0.04867787112102033 0.00031884911463571738 0 -0.049076944374112974 0.00017219527772397583 0 -0.050194482170703277 1.4755413942760787e-06 0 -0.04867787112102033 0.00031884911463571738 0 -0.050194482170703277 1.4755413942760787e-06 0 -0.047560453136170543 1.1700898352078717e-06 0 -0.044697283798480439 0.0012458038227377776 0 -0.044282163024641372 0.001318987358213373 0 -0.044526148546546143 0.0018996948632404402 0 -0.04867787112102033 0.00031884911463571738 0 -0.049076944374112974 0.00017219527772397583 0 -0.048355063831447609 0.00045937820548173073 0 -0.046623097417611468 0.00090600827341199392 0 -0.046689641876165117 0.0011570839742187935 0 -0.049076944374112974 0.00017219527772397583 0 -0.050194482170703277 1.4755413942760787e-06 0 -0.050111133309364397 -0.00027528142846935185 0 -0.046623097417611468 0.00090600827341199392 0 -0.051160498049290487 -0.0001870113193684837 0 -0.044697283798480439 0.0012458038227377776 0 -0.044919378520803466 0.00097978928927944264 0 -0.044548762156911351 0.0011783369582369586 0 -0.050194482170703277 1.4755413942760787e-06 0 -0.052817374667933167 -2.7974129475496369e-06 0 -0.050111133309364397 -0.00027528142846935185 0 -0.052825644186406978 -5.3767988085348503e-07 0 -0.051160498049290487 -0.0001870113193684837 0 -0.052828677678433265 -1.6637237403317644e-06 0 -0.05441858943686325 6.588449688498423e-05 0 -0.055107983360401409 -0.00068613599701236529 0 -0.052828677678433265 -1.6637237403317644e-06 0 -0.054997502339576058 5.1788585601375898e-07 0 -0.05441858943686325 6.588449688498423e-05 0 -0.054997502339576058 5.1788585601375898e-07 0 -0.05441858943686325 6.588449688498423e-05 0 -0.054999960213504138 6.3592106374222827e-07 0 -0.054999755373765162 2.9257583500695518e-08 0 -0.054729470297849941 2.3634179585734939e-05 0 -0.054863431278425787 1.5980996010617837e-05 0 -0.055001334221091991 -5.6427435051835818e-07 0 -0.051160498049290487 -0.0001870113193684837 0 -0.05441858943686325 6.588449688498423e-05 0 -0.054999960213504138 6.3592106374222827e-07 0 -0.055107983360401409 -0.00068613599701236529 0 -0.051160498049290487 -0.0001870113193684837 0 -0.049827685602139626 0.00061340208651034791 0 -0.044919378520803466 0.00097978928927944264 0 -0.044676889835812708 0.001182631451139224 0 -0.044548762156911351 0.0011783369582369586 0 -0.054729470297849941 2.3634179585734939e-05 0 -0.054863431278425787 1.5980996010617837e-05 0 -0.054771808916884712 2.2171073709115072e-06 0 -0.054999755373765162 2.9257583500695518e-08 0 -0.054863431278425787 1.5980996010617837e-05 0 -0.054999776676139187 1.6866442873181972e-08 0 -0.054863431278425787 1.5980996010617837e-05 0 -0.054999776676139187 1.6866442873181972e-08 0 -0.054902242831111212 8.1925202707923654e-06 0 -0.054999776676139187 1.6866442873181972e-08 0 -0.054902242831111212 8.1925202707923654e-06 0 -0.054999857419701897 1.8994936979403873e-08 0 -0.054863431278425787 1.5980996010617837e-05 0 -0.054902242831111212 8.1925202707923654e-06 0 -0.054771808916884712 2.2171073709115072e-06 0 -0.054902242831111212 8.1925202707923654e-06 0 -0.054771808916884712 2.2171073709115072e-06 0 -0.05483848641700189 -1.369488014947965e-05 0 -0.04329903345776509 0.0011839261366064795 0 -0.044550846755399671 0.0014435705711809707 0 -0.044676889835812708 0.001182631451139224 0 -0.044749541551129805 0.001084367363266305 0 -0.044548762156911351 0.0011783369582369586 0 -0.044749541551129805 0.001084367363266305 0 -0.044548762156911351 0.0011783369582369586 0 -0.044282163024641372 0.001318987358213373 0 -0.044697283798480439 0.0012458038227377776 0 -0.044548762156911351 0.0011783369582369586 0 -0.044282163024641372 0.001318987358213373 0 -0.044282163024641372 0.001318987358213373 0 -0.043413388039180691 0.0016731539663845066 0 -0.043866933591110845 0.0019100479162608406 0 -0.044282163024641372 0.001318987358213373 0 -0.043866933591110845 0.0019100479162608406 0 -0.044526148546546143 0.0018996948632404402 0 -0.043056267962464971 0.0015025709225448584 0 -0.044282163024641372 0.001318987358213373 0 -0.043413388039180691 0.0016731539663845066 0 -0.043413388039180691 0.0016731539663845066 0 -0.043228704361608715 0.0018667767311823435 0 -0.043866933591110845 0.0019100479162608406 0 -0.043413388039180691 0.0016731539663845066 0 -0.042917992325674836 0.0017624166742358147 0 -0.043228704361608715 0.0018667767311823435 0 -0.043056267962464971 0.0015025709225448584 0 -0.043413388039180691 0.0016731539663845066 0 -0.042917992325674836 0.0017624166742358147 0 -0.042905509879317717 0.0018831135162974241 0 -0.042917992325674836 0.0017624166742358147 0 -0.042935260769961167 0.0018598051248416576 0 -0.042917992325674836 0.0017624166742358147 0 -0.042695267584396623 0.0018320865842511519 0 -0.043228704361608715 0.0018667767311823435 0 -0.042905509879317717 0.0018831135162974241 0 -0.042917992325674836 0.0017624166742358147 0 -0.042768805394601622 0.0018981339276684286 0 -0.042917992325674836 0.0017624166742358147 0 -0.042768805394601622 0.0018981339276684286 0 -0.042695267584396623 0.0018320865842511519 0 -0.042768805394601622 0.0018981339276684286 0 -0.043034616042435588 0.0020282182814128523 0 -0.043228591284864108 0.0020354600615080181 0 -0.042905509879317717 0.0018831135162974241 0 -0.042768805394601622 0.0018981339276684286 0 -0.043034616042435588 0.0020282182814128523 0 -0.042905509879317717 0.0018831135162974241 0 -0.042970942359955709 0.0020108894707059569 0 -0.043034616042435588 0.0020282182814128523 0 -0.042970942359955709 0.0020108894707059569 0 -0.043034616042435588 0.0020282182814128523 0 -0.043157714840541067 0.0021640363796804111 0 -0.043034616042435588 0.0020282182814128523 0 -0.043157714840541067 0.0021640363796804111 0 -0.043364531340930434 0.0022278404464834466 0 -0.043157714840541067 0.0021640363796804111 0 -0.043379657536296211 0.0023403118966337988 0 -0.043364531340930434 0.0022278404464834466 0 -0.043157714840541067 0.0021640363796804111 0 -0.043379657536296211 0.0023403118966337988 0 -0.042908185468844853 0.0022860345292565675 0 -0.042970942359955709 0.0020108894707059569 0 -0.043157714840541067 0.0021640363796804111 0 -0.042908185468844853 0.0022860345292565675 0 -0.042970942359955709 0.0020108894707059569 0 -0.042935260769961167 0.0018598051248416576 0 -0.042908185468844853 0.0022860345292565675 0 -0.048178829092045482 0.00095108147901631229 0 -0.048646630404034122 0.0011327818194187117 0 -0.043056267962464971 0.0015025709225448584 0 -0.042905833838088041 0.0022026847898725757 0 -0.042935260769961167 0.0018598051248416576 0 -0.042905833838088041 0.0022026847898725757 0 -0.042935260769961167 0.0018598051248416576 0 -0.042908185468844853 0.0022860345292565675 0 -0.04329903345776509 0.0011839261366064795 0 -0.048178829092045482 0.00095108147901631229 0 -0.044676889835812708 0.001182631451139224 0 -0.044749541551129805 0.001084367363266305 0 -0.045078056535836228 0.0011949119689898635 0 -0.042905509879317717 0.0018831135162974241 0 -0.042970942359955709 0.0020108894707059569 0 -0.042935260769961167 0.0018598051248416576 0 -0.043056267962464971 0.0015025709225448584 0 -0.042917992325674836 0.0017624166742358147 0 -0.042935260769961167 0.0018598051248416576 0 -0.049827685602139626 0.00061340208651034791 0 -0.048178829092045482 0.00095108147901631229 0 -0.054771808916884712 2.2171073709115072e-06 0 -0.054852917200248992 -5.7639893391218644e-05 0 -0.05483848641700189 -1.369488014947965e-05 0 -0.054852917200248992 -5.7639893391218644e-05 0 -0.05483848641700189 -1.369488014947965e-05 0 -0.054867728215733512 -2.4552898041895332e-05 0 -0.054852917200248992 -5.7639893391218644e-05 0 -0.054867728215733512 -2.4552898041895332e-05 0 -0.054873293767105272 -3.6375970287066896e-05 0 -0.054867728215733512 -2.4552898041895332e-05 0 -0.054889209760274664 -2.0791789710146656e-05 0 -0.054873293767105272 -3.6375970287066896e-05 0 -0.05483848641700189 -1.369488014947965e-05 0 -0.054867728215733512 -2.4552898041895332e-05 0 -0.054912822460050512 -2.5941095862242872e-06 0 -0.054867728215733512 -2.4552898041895332e-05 0 -0.054912822460050512 -2.5941095862242872e-06 0 -0.054889209760274664 -2.0791789710146656e-05 0 -0.054902242831111212 8.1925202707923654e-06 0 -0.05483848641700189 -1.369488014947965e-05 0 -0.054912822460050512 -2.5941095862242872e-06 0 -0.054912822460050512 -2.5941095862242872e-06 0 -0.054999857419701897 1.8994936979403873e-08 0 -0.054962471956434583 1.9506967865799984e-06 0 -0.054902242831111212 8.1925202707923654e-06 0 -0.054912822460050512 -2.5941095862242872e-06 0 -0.054999857419701897 1.8994936979403873e-08 0 -0.054999857419701897 1.8994936979403873e-08 0 -0.054962471956434583 1.9506967865799984e-06 0 -0.054999962240812501 -1.0875916286149963e-08 0 -0.054962471956434583 1.9506967865799984e-06 0 -0.054969273405622764 4.7173999516482336e-08 0 -0.054999962240812501 -1.0875916286149963e-08 0 -0.054912822460050512 -2.5941095862242872e-06 0 -0.054962471956434583 1.9506967865799984e-06 0 -0.054932182924320123 -6.99166575165532e-06 0 -0.054962471956434583 1.9506967865799984e-06 0 -0.054932182924320123 -6.99166575165532e-06 0 -0.054969273405622764 4.7173999516482336e-08 0 -0.054932182924320123 -6.99166575165532e-06 0 -0.054905527936832947 -2.3862048684834856e-05 0 -0.054956194034364303 3.6490621175117498e-06 0 -0.054867248152698792 -5.5062677859031963e-05 0 -0.054905527936832947 -2.3862048684834856e-05 0 -0.054956194034364303 3.6490621175117498e-06 0 -0.048646630404034122 0.0011327818194187117 0 -0.049728245339990949 0.0012173274861077966 0 -0.043379657536296211 0.0023403118966337988 0 -0.042908185468844853 0.0022860345292565675 0 -0.044057574473865928 0.0030152028400773773 0 -0.054932182924320123 -6.99166575165532e-06 0 -0.054889209760274664 -2.0791789710146656e-05 0 -0.054905527936832947 -2.3862048684834856e-05 0 -0.054912822460050512 -2.5941095862242872e-06 0 -0.054932182924320123 -6.99166575165532e-06 0 -0.054889209760274664 -2.0791789710146656e-05 0 -0.054889209760274664 -2.0791789710146656e-05 0 -0.054883620304073455 -3.3427503495895039e-05 0 -0.054873293767105272 -3.6375970287066896e-05 0 -0.054889209760274664 -2.0791789710146656e-05 0 -0.054883620304073455 -3.3427503495895039e-05 0 -0.054905527936832947 -2.3862048684834856e-05 0 -0.054883620304073455 -3.3427503495895039e-05 0 -0.054867248152698792 -5.5062677859031963e-05 0 -0.054905527936832947 -2.3862048684834856e-05 0 -0.054852917200248992 -5.7639893391218644e-05 0 -0.054873293767105272 -3.6375970287066896e-05 0 -0.054867248152698792 -5.5062677859031963e-05 0 -0.054883620304073455 -3.3427503495895039e-05 0 -0.054873293767105272 -3.6375970287066896e-05 0 -0.054867248152698792 -5.5062677859031963e-05 0 -0.042029212981813897 0.0023553756351172858 0 -0.049087270786227682 0.0013896239694748712 0 -0.043379657536296211 0.0023403118966337988 0 -0.043920523769059062 0.0028967294708222391 0 -0.043687005982304031 0.0024845965097878451 0 -0.043379657536296211 0.0023403118966337988 0 -0.044057574473865928 0.0030152028400773773 0 -0.045019032549227282 0.0030362111305056441 0 -0.054956194034364303 3.6490621175117498e-06 0 -0.054945766541495855 1.975117846741948e-05 0 -0.054971093964337685 -7.4636135938193761e-06 0 -0.044057574473865928 0.0030152028400773773 0 -0.044659769058653105 0.0031790322771970345 0 -0.045019032549227282 0.0030362111305056441 0 -0.049728245339990949 0.0012173274861077966 0 -0.050902507248080348 0.00079230415657542631 0 -0.054932182924320123 -6.99166575165532e-06 0 -0.054956194034364303 3.6490621175117498e-06 0 -0.054969273405622764 4.7173999516482336e-08 0 -0.054971093964337685 -7.4636135938193761e-06 0 -0.054999962240812501 -1.0875916286149963e-08 0 -0.054999813687896609 2.5657747124788529e-08 0 -0.054956194034364303 3.6490621175117498e-06 0 -0.054969273405622764 4.7173999516482336e-08 0 -0.054971093964337685 -7.4636135938193761e-06 0 -0.054969273405622764 4.7173999516482336e-08 0 -0.054971093964337685 -7.4636135938193761e-06 0 -0.054999962240812501 -1.0875916286149963e-08 0 -0.055030879743512874 1.7189070467421816e-05 0 -0.054999813687896609 2.5657747124788529e-08 0 -0.054837044028436623 -1.2402741554280308e-05 0 -0.054971093964337685 -7.4636135938193761e-06 0 -0.054999813687896609 2.5657747124788529e-08 0 -0.054837044028436623 -1.2402741554280308e-05 0 -0.054945766541495855 1.975117846741948e-05 0 -0.054971093964337685 -7.4636135938193761e-06 0 -0.054837044028436623 -1.2402741554280308e-05 0 -0.055030879743512874 1.7189070467421816e-05 0 -0.054837044028436623 -1.2402741554280308e-05 0 -0.054435226849093521 -0.00012582047497337797 0 -0.055068372030251819 0.00033812045873894757 0 -0.049087270786227682 0.0013896239694748712 0 -0.044603894073862074 0.0028574279059766497 0 -0.043920523769059062 0.0028967294708222391 0 -0.044074151339924879 0.0026291424246754551 0 -0.054219939592789305 -3.03584603126793e-05 0 -0.054837044028436623 -1.2402741554280308e-05 0 -0.054435226849093521 -0.00012582047497337797 0 -0.050902507248080348 0.00079230415657542631 0 -0.055476446695715012 0.00055467482174915907 0 -0.050902507248080348 0.00079230415657542631 0 -0.049087270786227682 0.0013896239694748712 0 -0.043920523769059062 0.0028967294708222391 0 -0.044074151339924879 0.0026291424246754551 0 -0.043687005982304031 0.0024845965097878451 0 -0.044074151339924879 0.0026291424246754551 0 -0.043716115467160095 0.0023087305026100228 0 -0.043687005982304031 0.0024845965097878451 0 -0.043716115467160095 0.0023087305026100228 0 -0.043687005982304031 0.0024845965097878451 0 -0.043364531340930434 0.0022278404464834466 0 -0.043379657536296211 0.0023403118966337988 0 -0.043687005982304031 0.0024845965097878451 0 -0.043364531340930434 0.0022278404464834466 0 -0.043716115467160095 0.0023087305026100228 0 -0.043364531340930434 0.0022278404464834466 0 -0.043228591284864108 0.0020354600615080181 0 -0.043034616042435588 0.0020282182814128523 0 -0.043364531340930434 0.0022278404464834466 0 -0.043228591284864108 0.0020354600615080181 0 -0.043716115467160095 0.0023087305026100228 0 -0.043228591284864108 0.0020354600615080181 0 -0.043620215605665279 0.0019357357486795013 0 -0.042768805394601622 0.0018981339276684286 0 -0.043228591284864108 0.0020354600615080181 0 -0.042962819668033572 0.0017265598124486072 0 -0.043228591284864108 0.0020354600615080181 0 -0.043620215605665279 0.0019357357486795013 0 -0.042962819668033572 0.0017265598124486072 0 -0.042962819668033572 0.0017265598124486072 0 -0.043403919461805822 0.0011650225501884683 0 -0.04269412698985238 0.0010146592351783688 0 -0.043620215605665279 0.0019357357486795013 0 -0.042962819668033572 0.0017265598124486072 0 -0.043403919461805822 0.0011650225501884683 0 -0.043403919461805822 0.0011650225501884683 0 -0.043055950363092559 0.00042206924181837035 0 -0.04269412698985238 0.0010146592351783688 0 -0.043085371032715571 0.00064074123448542761 0 -0.042158758322393353 0.00060293841687078162 0 -0.043156025350898977 0.00063571096287722874 0 -0.043403919461805822 0.0011650225501884683 0 -0.043055950363092559 0.00042206924181837035 0 -0.043055950363092559 0.00042206924181837035 0 -0.04269412698985238 0.0010146592351783688 0 -0.041858958948103007 -5.394489084282288e-05 0 -0.042158758322393353 0.00060293841687078162 0 -0.040858869558693077 0.00031812685722427085 0 -0.04269412698985238 0.0010146592351783688 0 -0.040951079339416462 0.00068772964100710676 0 -0.04214882503161644 0.0018123387110191276 0 -0.04269412698985238 0.0010146592351783688 0 -0.041858958948103007 -5.394489084282288e-05 0 -0.040951079339416462 0.00068772964100710676 0 -0.040858869558693077 0.00031812685722427085 0 -0.039864847327496677 0.00016447906716674703 0 -0.041858958948103007 -5.394489084282288e-05 0 -0.040951079339416462 0.00068772964100710676 0 -0.039761732332567495 0.00013556402188280502 0 -0.039856312429728799 0.00065869004904878096 0 -0.039761732332567495 0.00013556402188280502 0 -0.039362286509006333 0.00017909972549274916 0 -0.04214882503161644 0.0018123387110191276 0 -0.042695267584396623 0.0018320865842511519 0 -0.043332793739560685 0.0025096521562896581 0 -0.042312530375162555 0.0018140887696896548 0 -0.041545209625389636 0.0016681203298278455 0 -0.040951079339416462 0.00068772964100710676 0 -0.04214882503161644 0.0018123387110191276 0 -0.040191988717590159 0.00088433083118948672 0 -0.042962819668033572 0.0017265598124486072 0 -0.04269412698985238 0.0010146592351783688 0 -0.04214882503161644 0.0018123387110191276 0 -0.042768805394601622 0.0018981339276684286 0 -0.042962819668033572 0.0017265598124486072 0 -0.04214882503161644 0.0018123387110191276 0 -0.042768805394601622 0.0018981339276684286 0 -0.04214882503161644 0.0018123387110191276 0 -0.042695267584396623 0.0018320865842511519 0 -0.042695267584396623 0.0018320865842511519 0 -0.043228704361608715 0.0018667767311823435 0 -0.043332793739560685 0.0025096521562896581 0 -0.043228704361608715 0.0018667767311823435 0 -0.043866933591110845 0.0019100479162608406 0 -0.043332793739560685 0.0025096521562896581 0 -0.043866933591110845 0.0019100479162608406 0 -0.044063440984273318 0.0022661776322958913 0 -0.043332793739560685 0.0025096521562896581 0 -0.043866933591110845 0.0019100479162608406 0 -0.044063440984273318 0.0022661776322958913 0 -0.044526148546546143 0.0018996948632404402 0 -0.044063440984273318 0.0022661776322958913 0 -0.043332793739560685 0.0025096521562896581 0 -0.044416885863348604 0.0027174567477332 0 -0.040191988717590159 0.00088433083118948672 0 -0.039904019008149161 0.00027670639064754284 0 -0.040304377122638742 -0.00063898481599101889 0 -0.041545209625389636 0.0016681203298278455 0 -0.043874163763567613 0.00075967724306743559 0 -0.040951079339416462 0.00068772964100710676 0 -0.039761732332567495 0.00013556402188280502 0 -0.039904019008149161 0.00027670639064754284 0 -0.040951079339416462 0.00068772964100710676 0 -0.040191988717590159 0.00088433083118948672 0 -0.039904019008149161 0.00027670639064754284 0 -0.039761732332567495 0.00013556402188280502 0 -0.039904019008149161 0.00027670639064754284 0 -0.039919762970031664 0.00032291923454299783 0 -0.039904019008149161 0.00027670639064754284 0 -0.040404025429017554 0.00017163055331285794 0 -0.039919762970031664 0.00032291923454299783 0 -0.039904019008149161 0.00027670639064754284 0 -0.040404025429017554 0.00017163055331285794 0 -0.040304377122638742 -0.00063898481599101889 0 -0.041409528093311443 -5.3309330199903682e-05 0 -0.040404025429017554 0.00017163055331285794 0 -0.040304377122638742 -0.00063898481599101889 0 -0.041409528093311443 -5.3309330199903682e-05 0 -0.040404025429017554 0.00017163055331285794 0 -0.041379119263475587 0.00025106348945017466 0 -0.039919762970031664 0.00032291923454299783 0 -0.041379119263475587 0.00025106348945017466 0 -0.040390306565631931 0.00025460075890001819 0 -0.040404025429017554 0.00017163055331285794 0 -0.039919762970031664 0.00032291923454299783 0 -0.041379119263475587 0.00025106348945017466 0 -0.042399030964129912 1.6667954264463116e-06 0 -0.041379119263475587 0.00025106348945017466 0 -0.040390306565631931 0.00025460075890001819 0 -0.042399030964129912 1.6667954264463116e-06 0 -0.041379119263475587 0.00025106348945017466 0 -0.044924970168375232 -3.4000875262954719e-06 0 -0.041409528093311443 -5.3309330199903682e-05 0 -0.041379119263475587 0.00025106348945017466 0 -0.044924970168375232 -3.4000875262954719e-06 0 -0.044935772897375541 -2.4438443802134619e-06 0 -0.047560453136170543 1.1700898352078717e-06 0 -0.047354843309062242 0.0001749996020615885 0 -0.044935772897375541 -2.4438443802134619e-06 0 -0.04843973921937058 -0.00079239098851821435 0 -0.047354843309062242 0.0001749996020615885 0 -0.044931493018107706 -1.0599489329393211e-06 0 -0.043874163763567613 0.00075967724306743559 0 -0.043874163763567613 0.00075967724306743559 0 -0.046689641876165117 0.0011570839742187935 0 -0.041409528093311443 -5.3309330199903682e-05 0 -0.044924970168375232 -3.4000875262954719e-06 0 -0.040304377122638742 -0.00063898481599101889 0 -0.044063440984273318 0.0022661776322958913 0 -0.044416885863348604 0.0027174567477332 0 -0.044526148546546143 0.0018996948632404402 0 -0.04867787112102033 0.00031884911463571738 0 -0.048355063831447609 0.00045937820548173073 0 -0.047354843309062242 0.0001749996020615885 0 -0.04843973921937058 -0.00079239098851821435 0 -0.048355063831447609 0.00045937820548173073 0 -0.047354843309062242 0.0001749996020615885 0 -0.04867787112102033 0.00031884911463571738 0 -0.047560453136170543 1.1700898352078717e-06 0 -0.047354843309062242 0.0001749996020615885 0 -0.034809647935006238 -1.929132813533476e-06 0 -0.037137759295750014 -0.00038912272272139206 0 -0.037304465988270565 0.00010891222246299468 0 -0.037304465988270565 0.00010891222246299468 0 -0.03885832862549711 0.00025946635834733496 0 -0.0380562538210409 -4.2534645877384293e-06 0 -0.037137759295750014 -0.00038912272272139206 0 -0.037304465988270565 0.00010891222246299468 0 -0.0380562538210409 -4.2534645877384293e-06 0 -0.034809647935006238 -1.929132813533476e-06 0 -0.037304465988270565 0.00010891222246299468 0 -0.037334493462399893 1.0910838683523396e-06 0 -0.037304465988270565 0.00010891222246299468 0 -0.037334493462399893 1.0910838683523396e-06 0 -0.03885832862549711 0.00025946635834733496 0 -0.037334493462399893 1.0910838683523396e-06 0 -0.039866654433307329 1.2255296978051152e-07 0 -0.03885832862549711 0.00025946635834733496 0 -0.042399030964129912 1.6667954264463116e-06 0 -0.039866654433307329 1.2255296978051152e-07 0 -0.040390306565631931 0.00025460075890001819 0 -0.039866654433307329 1.2255296978051152e-07 0 -0.040390306565631931 0.00025460075890001819 0 -0.03885832862549711 0.00025946635834733496 0 -0.039919762970031664 0.00032291923454299783 0 -0.03885832862549711 0.00025946635834733496 0 -0.039014843348909693 0.00011625855364596583 0 -0.039919762970031664 0.00032291923454299783 0 -0.040390306565631931 0.00025460075890001819 0 -0.03885832862549711 0.00025946635834733496 0 -0.03885832862549711 0.00025946635834733496 0 -0.039014843348909693 0.00011625855364596583 0 -0.0380562538210409 -4.2534645877384293e-06 0 -0.039761732332567495 0.00013556402188280502 0 -0.039919762970031664 0.00032291923454299783 0 -0.039014843348909693 0.00011625855364596583 0 -0.039761732332567495 0.00013556402188280502 0 -0.039014843348909693 0.00011625855364596583 0 -0.039362286509006333 0.00017909972549274916 0 -0.039014843348909693 0.00011625855364596583 0 -0.038409342260066176 -0.00026928224532205008 0 -0.039362286509006333 0.00017909972549274916 0 -0.039014843348909693 0.00011625855364596583 0 -0.038409342260066176 -0.00026928224532205008 0 -0.0380562538210409 -4.2534645877384293e-06 0 -0.038409342260066176 -0.00026928224532205008 0 -0.037519822363656835 -0.00027282106723933766 0 -0.037399844043961981 -0.00028888688066362576 0 -0.038409342260066176 -0.00026928224532205008 0 -0.0380562538210409 -4.2534645877384293e-06 0 -0.037519822363656835 -0.00027282106723933766 0 -0.037137759295750014 -0.00038912272272139206 0 -0.037519822363656835 -0.00027282106723933766 0 -0.036886880161510822 -0.00056037976517911664 0 -0.037137759295750014 -0.00038912272272139206 0 -0.0380562538210409 -4.2534645877384293e-06 0 -0.037519822363656835 -0.00027282106723933766 0 -0.037519822363656835 -0.00027282106723933766 0 -0.037399844043961981 -0.00028888688066362576 0 -0.036886880161510822 -0.00056037976517911664 0 -0.037399844043961981 -0.00028888688066362576 0 -0.037157370903851121 -0.00041649609737346539 0 -0.036634877257346182 -0.0005461359611703163 0 -0.037157370903851121 -0.00041649609737346539 0 -0.037481147124940266 -0.00059619703070476775 0 -0.036780697911181943 -0.00060576927646867817 0 -0.037157370903851121 -0.00041649609737346539 0 -0.037663872978240268 -0.00033307870388736777 0 -0.037481147124940266 -0.00059619703070476775 0 -0.037157370903851121 -0.00041649609737346539 0 -0.03744828488642285 -0.00013320571982395753 0 -0.037663872978240268 -0.00033307870388736777 0 -0.037399844043961981 -0.00028888688066362576 0 -0.037157370903851121 -0.00041649609737346539 0 -0.03744828488642285 -0.00013320571982395753 0 -0.038409342260066176 -0.00026928224532205008 0 -0.037399844043961981 -0.00028888688066362576 0 -0.03744828488642285 -0.00013320571982395753 0 -0.038409342260066176 -0.00026928224532205008 0 -0.039362286509006333 0.00017909972549274916 0 -0.04006991534274703 -0.00065784649482749963 0 -0.038444622868338774 -0.00030161527728161936 0 -0.038799522973893968 -0.00035319572601361061 0 -0.039856312429728799 0.00065869004904878096 0 -0.039362286509006333 0.00017909972549274916 0 -0.040662783681700891 6.0798833866629395e-05 0 -0.039362286509006333 0.00017909972549274916 0 -0.04006991534274703 -0.00065784649482749963 0 -0.040662783681700891 6.0798833866629395e-05 0 -0.038799522973893968 -0.00035319572601361061 0 -0.040015995148880962 -0.000196269524105164 0 -0.04006991534274703 -0.00065784649482749963 0 -0.040662783681700891 6.0798833866629395e-05 0 -0.041518389380490621 -0.00066785178643171675 0 -0.041296494697994311 0.00084926146505791809 0 -0.039856312429728799 0.00065869004904878096 0 -0.040662783681700891 6.0798833866629395e-05 0 -0.043156025350898977 0.00063571096287722874 0 -0.041296494697994311 0.00084926146505791809 0 -0.042171265348902427 -7.9451809221527076e-05 0 -0.041296494697994311 0.00084926146505791809 0 -0.040662783681700891 6.0798833866629395e-05 0 -0.042171265348902427 -7.9451809221527076e-05 0 -0.040662783681700891 6.0798833866629395e-05 0 -0.041518389380490621 -0.00066785178643171675 0 -0.042171265348902427 -7.9451809221527076e-05 0 -0.038427962610952313 0.00036279717235881325 0 -0.038351914705332328 -0.00069134155238678371 0 -0.040415327732915 -0.00063062196054388395 0 -0.03744828488642285 -0.00013320571982395753 0 -0.038427962610952313 0.00036279717235881325 0 -0.037663872978240268 -0.00033307870388736777 0 -0.038427962610952313 0.00036279717235881325 0 -0.038351914705332328 -0.00069134155238678371 0 -0.037663872978240268 -0.00033307870388736777 0 -0.038351914705332328 -0.00069134155238678371 0 -0.037663872978240268 -0.00033307870388736777 0 -0.037481147124940266 -0.00059619703070476775 0 -0.038351914705332328 -0.00069134155238678371 0 -0.03806669053987035 -0.00089597842982544506 0 -0.040415327732915 -0.00063062196054388395 0 -0.038351914705332328 -0.00069134155238678371 0 -0.037481147124940266 -0.00059619703070476775 0 -0.03806669053987035 -0.00089597842982544506 0 -0.04070906216321072 -0.0024473757460037084 0 -0.040555038112996621 -0.003189474713303182 0 -0.041289396847089092 -0.0028817669055336147 0 -0.03806669053987035 -0.00089597842982544506 0 -0.037122290340548952 -0.00070385310560840153 0 -0.037152678349801953 -0.00071350788746241166 0 -0.039455579040169081 -0.0015544468055095483 0 -0.038868293161610362 -0.0019589486334927455 0 -0.037481147124940266 -0.00059619703070476775 0 -0.037122290340548952 -0.00070385310560840153 0 -0.036780697911181943 -0.00060576927646867817 0 -0.037481147124940266 -0.00059619703070476775 0 -0.03806669053987035 -0.00089597842982544506 0 -0.037122290340548952 -0.00070385310560840153 0 -0.037122290340548952 -0.00070385310560840153 0 -0.037152678349801953 -0.00071350788746241166 0 -0.036680068917110904 -0.00094480143930663306 0 -0.037122290340548952 -0.00070385310560840153 0 -0.036680068917110904 -0.00094480143930663306 0 -0.036271989902521291 -0.00082037071486212691 0 -0.037122290340548952 -0.00070385310560840153 0 -0.036271989902521291 -0.00082037071486212691 0 -0.036780697911181943 -0.00060576927646867817 0 -0.040555038112996621 -0.003189474713303182 0 -0.040503968011182369 -0.0035239616098768885 0 -0.039979207377674179 -0.0037487057713115695 0 -0.037152678349801953 -0.00071350788746241166 0 -0.036774176224581193 -0.0015389926242356698 0 -0.037133284049470375 -0.0019199539690423826 0 -0.037152678349801953 -0.00071350788746241166 0 -0.036774176224581193 -0.0015389926242356698 0 -0.036680068917110904 -0.00094480143930663306 0 -0.038868293161610362 -0.0019589486334927455 0 -0.038587792009593017 -0.0029708019034439029 0 -0.040555038112996621 -0.003189474713303182 0 -0.040503968011182369 -0.0035239616098768885 0 -0.041021777775514225 -0.0032608461837465102 0 -0.040503968011182369 -0.0035239616098768885 0 -0.040231070000405385 -0.0038362664310367233 0 -0.040623580390169764 -0.003823850714249915 0 -0.040503968011182369 -0.0035239616098768885 0 -0.039979207377674179 -0.0037487057713115695 0 -0.040231070000405385 -0.0038362664310367233 0 -0.039979207377674179 -0.0037487057713115695 0 -0.039976762624425337 -0.0039464236017655715 0 -0.040231070000405385 -0.0038362664310367233 0 -0.039979207377674179 -0.0037487057713115695 0 -0.039976762624425337 -0.0039464236017655715 0 -0.039663205542957519 -0.0041817683407574802 0 -0.039976762624425337 -0.0039464236017655715 0 -0.040009015195366676 -0.0040467493077652669 0 -0.039663205542957519 -0.0041817683407574802 0 -0.039976762624425337 -0.0039464236017655715 0 -0.040009015195366676 -0.0040467493077652669 0 -0.040231070000405385 -0.0038362664310367233 0 -0.040009015195366676 -0.0040467493077652669 0 -0.040231070000405385 -0.0038362664310367233 0 -0.040394276248512336 -0.0041161968347542353 0 -0.036803651626717018 -0.0013444519419421989 0 -0.036818098141068442 -0.00307300190102907 0 -0.036774176224581193 -0.0015389926242356698 0 -0.035517983244914453 -0.0016797953961995402 0 -0.03529501430997703 -0.0019908916970273632 0 -0.036774176224581193 -0.0015389926242356698 0 -0.037133284049470375 -0.0019199539690423826 0 -0.037911066429407309 -0.0037445354111620434 0 -0.036774176224581193 -0.0015389926242356698 0 -0.035517983244914453 -0.0016797953961995402 0 -0.036024220457674422 -0.0013808017370313781 0 -0.036024220457674422 -0.0013808017370313781 0 -0.036061081360665034 -0.0011004920647396416 0 -0.035470134625262655 -0.0013773949542446613 0 -0.035517983244914453 -0.0016797953961995402 0 -0.036024220457674422 -0.0013808017370313781 0 -0.035470134625262655 -0.0013773949542446613 0 -0.036024220457674422 -0.0013808017370313781 0 -0.036061081360665034 -0.0011004920647396416 0 -0.03636490004268611 -0.0012278310815695655 0 -0.036774176224581193 -0.0015389926242356698 0 -0.036024220457674422 -0.0013808017370313781 0 -0.03636490004268611 -0.0012278310815695655 0 -0.036774176224581193 -0.0015389926242356698 0 -0.03636490004268611 -0.0012278310815695655 0 -0.036680068917110904 -0.00094480143930663306 0 -0.036061081360665034 -0.0011004920647396416 0 -0.03636490004268611 -0.0012278310815695655 0 -0.036680068917110904 -0.00094480143930663306 0 -0.036061081360665034 -0.0011004920647396416 0 -0.036680068917110904 -0.00094480143930663306 0 -0.036271989902521291 -0.00082037071486212691 0 -0.036061081360665034 -0.0011004920647396416 0 -0.035581848020721688 -0.0009935617035701865 0 -0.036271989902521291 -0.00082037071486212691 0 -0.035581848020721688 -0.0009935617035701865 0 -0.035919784238539733 -0.00069527529470520119 0 -0.036271989902521291 -0.00082037071486212691 0 -0.035581848020721688 -0.0009935617035701865 0 -0.034915571360924179 -0.001412445218399151 0 -0.034960607906433065 -0.00085999191820290038 0 -0.036061081360665034 -0.0011004920647396416 0 -0.035581848020721688 -0.0009935617035701865 0 -0.035470134625262655 -0.0013773949542446613 0 -0.035581848020721688 -0.0009935617035701865 0 -0.035470134625262655 -0.0013773949542446613 0 -0.034915571360924179 -0.001412445218399151 0 -0.035470134625262655 -0.0013773949542446613 0 -0.034915571360924179 -0.001412445218399151 0 -0.034547976511063783 -0.0018581730747248236 0 -0.035517983244914453 -0.0016797953961995402 0 -0.035470134625262655 -0.0013773949542446613 0 -0.034547976511063783 -0.0018581730747248236 0 -0.034915571360924179 -0.001412445218399151 0 -0.034233670002293402 -0.0014382633910210323 0 -0.033841378713284721 -0.002095101868599584 0 -0.034915571360924179 -0.001412445218399151 0 -0.034233670002293402 -0.0014382633910210323 0 -0.034960607906433065 -0.00085999191820290038 0 -0.034233670002293402 -0.0014382633910210323 0 -0.034960607906433065 -0.00085999191820290038 0 -0.033573606720149328 -0.00069947430709403743 0 -0.035581848020721688 -0.0009935617035701865 0 -0.034960607906433065 -0.00085999191820290038 0 -0.035919784238539733 -0.00069527529470520119 0 -0.034960607906433065 -0.00085999191820290038 0 -0.035919784238539733 -0.00069527529470520119 0 -0.035509425030991526 -0.00069720009054158804 0 -0.034960607906433065 -0.00085999191820290038 0 -0.035509425030991526 -0.00069720009054158804 0 -0.034808463139977465 -0.00071993962781495818 0 -0.035919784238539733 -0.00069527529470520119 0 -0.036634877257346182 -0.0005461359611703163 0 -0.036354391145386328 -0.00062193425196173672 0 -0.035919784238539733 -0.00069527529470520119 0 -0.036354391145386328 -0.00062193425196173672 0 -0.035509425030991526 -0.00069720009054158804 0 -0.035919784238539733 -0.00069527529470520119 0 -0.036271989902521291 -0.00082037071486212691 0 -0.036780697911181943 -0.00060576927646867817 0 -0.035919784238539733 -0.00069527529470520119 0 -0.036780697911181943 -0.00060576927646867817 0 -0.036634877257346182 -0.0005461359611703163 0 -0.037157370903851121 -0.00041649609737346539 0 -0.036780697911181943 -0.00060576927646867817 0 -0.036634877257346182 -0.0005461359611703163 0 -0.037399844043961981 -0.00028888688066362576 0 -0.036634877257346182 -0.0005461359611703163 0 -0.036354391145386328 -0.00062193425196173672 0 -0.037399844043961981 -0.00028888688066362576 0 -0.036354391145386328 -0.00062193425196173672 0 -0.036886880161510822 -0.00056037976517911664 0 -0.036354391145386328 -0.00062193425196173672 0 -0.036886880161510822 -0.00056037976517911664 0 -0.036129774726037268 -0.00076187324178394805 0 -0.037137759295750014 -0.00038912272272139206 0 -0.036624274422635696 -0.00078798290392875683 0 -0.036886880161510822 -0.00056037976517911664 0 -0.036624274422635696 -0.00078798290392875683 0 -0.036886880161510822 -0.00056037976517911664 0 -0.036129774726037268 -0.00076187324178394805 0 -0.036624274422635696 -0.00078798290392875683 0 -0.036129774726037268 -0.00076187324178394805 0 -0.036282710680280009 -0.00059747053551117838 0 -0.036129774726037268 -0.00076187324178394805 0 -0.035356039058396037 -0.00069975285673904298 0 -0.036282710680280009 -0.00059747053551117838 0 -0.036129774726037268 -0.00076187324178394805 0 -0.035509425030991526 -0.00069720009054158804 0 -0.035356039058396037 -0.00069975285673904298 0 -0.036354391145386328 -0.00062193425196173672 0 -0.036129774726037268 -0.00076187324178394805 0 -0.035509425030991526 -0.00069720009054158804 0 -0.035356039058396037 -0.00069975285673904298 0 -0.033573606720149328 -0.00069947430709403743 0 -0.036282710680280009 -0.00059747053551117838 0 -0.035356039058396037 -0.00069975285673904298 0 -0.034808463139977465 -0.00071993962781495818 0 -0.033573606720149328 -0.00069947430709403743 0 -0.033636062662959217 -0.00081485240650514066 0 -0.032583260624888387 5.5988744554644962e-05 0 -0.035509425030991526 -0.00069720009054158804 0 -0.035356039058396037 -0.00069975285673904298 0 -0.034808463139977465 -0.00071993962781495818 0 -0.034960607906433065 -0.00085999191820290038 0 -0.034808463139977465 -0.00071993962781495818 0 -0.033573606720149328 -0.00069947430709403743 0 -0.034233670002293402 -0.0014382633910210323 0 -0.033573606720149328 -0.00069947430709403743 0 -0.033385110184887913 -0.002631704307997642 0 -0.033573606720149328 -0.00069947430709403743 0 -0.029385574028966507 -0.00012789716390612345 0 -0.033385110184887913 -0.002631704307997642 0 -0.029314151112644481 4.1688059411540931e-05 0 -0.029851069005218406 -0.00074133857003348051 0 -0.029385574028966507 -0.00012789716390612345 0 -0.027622432265976753 0.00036999643995117303 0 -0.026430563188552723 0.00076265832268039319 0 -0.029385574028966507 -0.00012789716390612345 0 -0.02830676514346317 0.00020228357328886431 0 -0.027622432265976753 0.00036999643995117303 0 -0.033573606720149328 -0.00069947430709403743 0 -0.029385574028966507 -0.00012789716390612345 0 -0.028551992249154824 0.00098841065779004195 0 -0.029385574028966507 -0.00012789716390612345 0 -0.028551992249154824 0.00098841065779004195 0 -0.02830676514346317 0.00020228357328886431 0 -0.028551992249154824 0.00098841065779004195 0 -0.028638102417975961 0.00039502929299428473 0 -0.02830676514346317 0.00020228357328886431 0 -0.028551992249154824 0.00098841065779004195 0 -0.028638102417975961 0.00039502929299428473 0 -0.029616891538821636 0.00032283062544085094 0 -0.02830676514346317 0.00020228357328886431 0 -0.027148271188719989 0.00039318106872187838 0 -0.027622432265976753 0.00036999643995117303 0 -0.028638102417975961 0.00039502929299428473 0 -0.02830676514346317 0.00020228357328886431 0 -0.027148271188719989 0.00039318106872187838 0 -0.028638102417975961 0.00039502929299428473 0 -0.02833145218868011 6.249822262776204e-07 0 -0.027148271188719989 0.00039318106872187838 0 -0.028638102417975961 0.00039502929299428473 0 -0.02833145218868011 6.249822262776204e-07 0 -0.03156711924597886 1.1223239806371742e-06 0 -0.028638102417975961 0.00039502929299428473 0 -0.03156711924597886 1.1223239806371742e-06 0 -0.029616891538821636 0.00032283062544085094 0 -0.03156711924597886 1.1223239806371742e-06 0 -0.029616891538821636 0.00032283062544085094 0 -0.030494814233372768 -0.00038699374498300863 0 -0.036624274422635696 -0.00078798290392875683 0 -0.036282710680280009 -0.00059747053551117838 0 -0.036510843000266767 -0.0010217013467737316 0 -0.032583260624888387 5.5988744554644962e-05 0 -0.033428464704034176 -0.00047637507871448905 0 -0.028551992249154824 0.00098841065779004195 0 -0.029616891538821636 0.00032283062544085094 0 -0.030494814233372768 -0.00038699374498300863 0 -0.034809647935006238 -1.929132813533476e-06 0 -0.037137759295750014 -0.00038912272272139206 0 -0.036510843000266767 -0.0010217013467737316 0 -0.037137759295750014 -0.00038912272272139206 0 -0.036624274422635696 -0.00078798290392875683 0 -0.036510843000266767 -0.0010217013467737316 0 -0.034802762855516457 6.9113602983818238e-08 0 -0.033428464704034176 -0.00047637507871448905 0 -0.034799948292816942 -2.5398176411518698e-06 0 -0.03156711924597886 1.1223239806371742e-06 0 -0.030494814233372768 -0.00038699374498300863 0 -0.045603591357404577 -0.0016399077336552077 0 -0.045990077071891067 -0.002152930492959572 0 -0.046323722395857546 -0.0013121089528923837 0 -0.045603591357404577 -0.0016399077336552077 0 -0.045536640584451414 -0.00090801682595592322 0 -0.044739081017558281 -0.0014787716307210507 0 -0.045603591357404577 -0.0016399077336552077 0 -0.045165528438789335 -0.0023269154778292225 0 -0.044739081017558281 -0.0014787716307210507 0 -0.045603591357404577 -0.0016399077336552077 0 -0.045165528438789335 -0.0023269154778292225 0 -0.045990077071891067 -0.002152930492959572 0 -0.045990077071891067 -0.002152930492959572 0 -0.046412328799874419 -0.0015731194955472666 0 -0.046518076383236011 -0.0025774069250311879 0 -0.044513078343432169 -0.0012444330024642058 0 -0.044700617251816212 -0.001756560820942525 0 -0.042777918645248547 -0.00080603071195866727 0 -0.042528470894864327 -0.00088780754181571437 0 -0.042680836025403297 -0.00084610857045754051 0 -0.042528470894864327 -0.00088780754181571437 0 -0.042680836025403297 -0.00084610857045754051 0 -0.04254754051278084 -0.0009018913840333541 0 -0.042777918645248547 -0.00080603071195866727 0 -0.042680836025403297 -0.00084610857045754051 0 -0.04299390578353595 -0.00072720688660223899 0 -0.046412328799874419 -0.0015731194955472666 0 -0.046104296302163214 -0.0013225103359158716 0 -0.046323722395857546 -0.0013121089528923837 0 -0.045990077071891067 -0.002152930492959572 0 -0.046412328799874419 -0.0015731194955472666 0 -0.046323722395857546 -0.0013121089528923837 0 -0.046963079291761911 -0.0008957074801299404 0 -0.046463228110361313 -0.0012690176479789065 0 -0.046104296302163214 -0.0013225103359158716 0 -0.045841428893521635 -0.0012629756385141243 0 -0.046323722395857546 -0.0013121089528923837 0 -0.046412328799874419 -0.0015731194955472666 0 -0.046104296302163214 -0.0013225103359158716 0 -0.045736775185463832 -0.0012007521234901092 0 -0.046104296302163214 -0.0013225103359158716 0 -0.045736775185463832 -0.0012007521234901092 0 -0.045841428893521635 -0.0012629756385141243 0 -0.044513078343432169 -0.0012444330024642058 0 -0.044403445248194354 -0.0010031341302869695 0 -0.042680836025403297 -0.00084610857045754051 0 -0.04299390578353595 -0.00072720688660223899 0 -0.043128607037145821 -0.00061830021799675976 0 -0.043224119221891961 -0.00066008331982772474 0 -0.04299390578353595 -0.00072720688660223899 0 -0.043128607037145821 -0.00061830021799675976 0 -0.044445487516820842 -0.00098782597910528611 0 -0.045048048651643968 -0.0010923961045014553 0 -0.045841428893521635 -0.0012629756385141243 0 -0.043482011399386844 -0.00067706497615902471 0 -0.044169901815377145 -0.00091484161952674263 0 -0.043128607037145821 -0.00061830021799675976 0 -0.044169901815377145 -0.00091484161952674263 0 -0.045736775185463832 -0.0012007521234901092 0 -0.045048048651643968 -0.0010923961045014553 0 -0.044188808360230772 -0.0010548921969359671 0 -0.044403445248194354 -0.0010031341302869695 0 -0.043224119221891961 -0.00066008331982772474 0 -0.043482011399386844 -0.00067706497615902471 0 -0.043128607037145821 -0.00061830021799675976 0 -0.045736775185463832 -0.0012007521234901092 0 -0.045048048651643968 -0.0010923961045014553 0 -0.045841428893521635 -0.0012629756385141243 0 -0.047136092269529049 -0.00033304084439730175 0 -0.046963079291761911 -0.0008957074801299404 0 -0.048824560228998226 0.00016165873927850968 0 -0.048108164721150752 -0.0007336594549715433 0 -0.048090750521502759 -0.0001264751355345323 0 -0.048108164721150752 -0.0007336594549715433 0 -0.048090750521502759 -0.0001264751355345323 0 -0.047265615427933096 -0.00026015126308057265 0 -0.048108164721150752 -0.0007336594549715433 0 -0.047265615427933096 -0.00026015126308057265 0 -0.046323722395857546 -0.0013121089528923837 0 -0.047225649017174832 0.00038874538905240582 0 -0.047265615427933096 -0.00026015126308057265 0 -0.046148118279468249 -0.00021681380527685881 0 -0.047265615427933096 -0.00026015126308057265 0 -0.046323722395857546 -0.0013121089528923837 0 -0.046148118279468249 -0.00021681380527685881 0 -0.046323722395857546 -0.0013121089528923837 0 -0.045536640584451414 -0.00090801682595592322 0 -0.046148118279468249 -0.00021681380527685881 0 -0.045603591357404577 -0.0016399077336552077 0 -0.046323722395857546 -0.0013121089528923837 0 -0.045536640584451414 -0.00090801682595592322 0 -0.045536640584451414 -0.00090801682595592322 0 -0.046148118279468249 -0.00021681380527685881 0 -0.044734833260325263 -0.00020891998380767642 0 -0.045297056875436198 0.00037475623574285082 0 -0.046148118279468249 -0.00021681380527685881 0 -0.044734833260325263 -0.00020891998380767642 0 -0.044257058261912195 0.00059697626937278508 0 -0.044734833260325263 -0.00020891998380767642 0 -0.043266977531529409 -7.1668638195447273e-05 0 -0.044734833260325263 -0.00020891998380767642 0 -0.04393721166334956 -0.00079776606980999697 0 -0.043266977531529409 -7.1668638195447273e-05 0 -0.045536640584451414 -0.00090801682595592322 0 -0.044742624234358118 -0.00084269035768245407 0 -0.044739081017558281 -0.0014787716307210507 0 -0.044734833260325263 -0.00020891998380767642 0 -0.04393721166334956 -0.00079776606980999697 0 -0.044742624234358118 -0.00084269035768245407 0 -0.045536640584451414 -0.00090801682595592322 0 -0.044734833260325263 -0.00020891998380767642 0 -0.044742624234358118 -0.00084269035768245407 0 -0.043156025350898977 0.00063571096287722874 0 -0.042171265348902427 -7.9451809221527076e-05 0 -0.043266977531529409 -7.1668638195447273e-05 0 -0.043156025350898977 0.00063571096287722874 0 -0.044257058261912195 0.00059697626937278508 0 -0.043266977531529409 -7.1668638195447273e-05 0 -0.04393721166334956 -0.00079776606980999697 0 -0.043266977531529409 -7.1668638195447273e-05 0 -0.042917434529356611 -0.00091085848153395807 0 -0.043266977531529409 -7.1668638195447273e-05 0 -0.042183268373724006 -0.00030213172719836183 0 -0.042917434529356611 -0.00091085848153395807 0 -0.038427962610952313 0.00036279717235881325 0 -0.042183268373724006 -0.00030213172719836183 0 -0.040415327732915 -0.00063062196054388395 0 -0.041518389380490621 -0.00066785178643171675 0 -0.042171265348902427 -7.9451809221527076e-05 0 -0.042183268373724006 -0.00030213172719836183 0 -0.042171265348902427 -7.9451809221527076e-05 0 -0.043266977531529409 -7.1668638195447273e-05 0 -0.042183268373724006 -0.00030213172719836183 0 -0.040015995148880962 -0.000196269524105164 0 -0.041981503740514396 -0.00026697502372560267 0 -0.042183268373724006 -0.00030213172719836183 0 -0.040415327732915 -0.00063062196054388395 0 -0.041962062591653235 -0.0017592709924778762 0 -0.042183268373724006 -0.00030213172719836183 0 -0.042917434529356611 -0.00091085848153395807 0 -0.041962062591653235 -0.0017592709924778762 0 -0.042917434529356611 -0.00091085848153395807 0 -0.041962062591653235 -0.0017592709924778762 0 -0.043455380057409468 -0.001618774032655828 0 -0.041962062591653235 -0.0017592709924778762 0 -0.041289396847089092 -0.0028817669055336147 0 -0.042412924349749782 -0.0025754021746542612 0 -0.041962062591653235 -0.0017592709924778762 0 -0.043455380057409468 -0.001618774032655828 0 -0.042412924349749782 -0.0025754021746542612 0 -0.039455579040169081 -0.0015544468055095483 0 -0.040286366926725256 -0.00052985224518473193 0 -0.04070906216321072 -0.0024473757460037084 0 -0.040415327732915 -0.00063062196054388395 0 -0.041962062591653235 -0.0017592709924778762 0 -0.04070906216321072 -0.0024473757460037084 0 -0.041962062591653235 -0.0017592709924778762 0 -0.041289396847089092 -0.0028817669055336147 0 -0.04393721166334956 -0.00079776606980999697 0 -0.044742624234358118 -0.00084269035768245407 0 -0.044739081017558281 -0.0014787716307210507 0 -0.04393721166334956 -0.00079776606980999697 0 -0.042917434529356611 -0.00091085848153395807 0 -0.043455380057409468 -0.001618774032655828 0 -0.04393721166334956 -0.00079776606980999697 0 -0.044739081017558281 -0.0014787716307210507 0 -0.043455380057409468 -0.001618774032655828 0 -0.043455380057409468 -0.001618774032655828 0 -0.044136496562073434 -0.0021861851948859483 0 -0.042412924349749782 -0.0025754021746542612 0 -0.044739081017558281 -0.0014787716307210507 0 -0.043455380057409468 -0.001618774032655828 0 -0.044136496562073434 -0.0021861851948859483 0 -0.045165528438789335 -0.0023269154778292225 0 -0.044739081017558281 -0.0014787716307210507 0 -0.044136496562073434 -0.0021861851948859483 0 -0.045165528438789335 -0.0023269154778292225 0 -0.044136496562073434 -0.0021861851948859483 0 -0.044460475148798098 -0.0031395790587041179 0 -0.043257152357474217 -0.0029436562989528614 0 -0.042476091446867974 -0.0026097415887068915 0 -0.042312155315104488 -0.0029171551901015333 0 -0.042169453253027248 -0.0029516203891948828 0 -0.042412924349749782 -0.0025754021746542612 0 -0.044136496562073434 -0.0021861851948859483 0 -0.044460475148798098 -0.0031395790587041179 0 -0.042412924349749782 -0.0025754021746542612 0 -0.042312155315104488 -0.0029171551901015333 0 -0.042169453253027248 -0.0029516203891948828 0 -0.042254965277816969 -0.0031367100757600805 0 -0.042169453253027248 -0.0029516203891948828 0 -0.042254965277816969 -0.0031367100757600805 0 -0.041817306617661323 -0.003432929062503648 0 -0.042312155315104488 -0.0029171551901015333 0 -0.042254965277816969 -0.0031367100757600805 0 -0.042360655440310348 -0.0031280723668597374 0 -0.042312155315104488 -0.0029171551901015333 0 -0.042360655440310348 -0.0031280723668597374 0 -0.042486107785934916 -0.0030676977567289918 0 -0.041289396847089092 -0.0028817669055336147 0 -0.042412924349749782 -0.0025754021746542612 0 -0.041671308406845499 -0.0031176096285459817 0 -0.042169453253027248 -0.0029516203891948828 0 -0.042412924349749782 -0.0025754021746542612 0 -0.041671308406845499 -0.0031176096285459817 0 -0.042169453253027248 -0.0029516203891948828 0 -0.041671308406845499 -0.0031176096285459817 0 -0.041817306617661323 -0.003432929062503648 0 -0.041289396847089092 -0.0028817669055336147 0 -0.041671308406845499 -0.0031176096285459817 0 -0.041021777775514225 -0.0032608461837465102 0 -0.040555038112996621 -0.003189474713303182 0 -0.041289396847089092 -0.0028817669055336147 0 -0.041021777775514225 -0.0032608461837465102 0 -0.040503968011182369 -0.0035239616098768885 0 -0.041021777775514225 -0.0032608461837465102 0 -0.041097854474441378 -0.0036218629493662961 0 -0.041671308406845499 -0.0031176096285459817 0 -0.041021777775514225 -0.0032608461837465102 0 -0.041097854474441378 -0.0036218629493662961 0 -0.041097854474441378 -0.0036218629493662961 0 -0.041482260564477624 -0.0038665264963007513 0 -0.041817306617661323 -0.003432929062503648 0 -0.041671308406845499 -0.0031176096285459817 0 -0.041097854474441378 -0.0036218629493662961 0 -0.041817306617661323 -0.003432929062503648 0 -0.041482260564477624 -0.0038665264963007513 0 -0.042033606680850079 -0.0038914440795121525 0 -0.041454193525330411 -0.0044083880697059112 0 -0.041482260564477624 -0.0038665264963007513 0 -0.040986492911728706 -0.0040602086435361211 0 -0.041454193525330411 -0.0044083880697059112 0 -0.041097854474441378 -0.0036218629493662961 0 -0.041482260564477624 -0.0038665264963007513 0 -0.040986492911728706 -0.0040602086435361211 0 -0.040503968011182369 -0.0035239616098768885 0 -0.041097854474441378 -0.0036218629493662961 0 -0.040623580390169764 -0.003823850714249915 0 -0.041097854474441378 -0.0036218629493662961 0 -0.040986492911728706 -0.0040602086435361211 0 -0.040623580390169764 -0.003823850714249915 0 -0.040986492911728706 -0.0040602086435361211 0 -0.040623580390169764 -0.003823850714249915 0 -0.040394276248512336 -0.0041161968347542353 0 -0.040231070000405385 -0.0038362664310367233 0 -0.040623580390169764 -0.003823850714249915 0 -0.040394276248512336 -0.0041161968347542353 0 -0.042254965277816969 -0.0031367100757600805 0 -0.042299163678497897 -0.0032438071167424222 0 -0.042121150957473784 -0.003326581945223229 0 -0.042360655440310348 -0.0031280723668597374 0 -0.042299163678497897 -0.0032438071167424222 0 -0.042423047342743408 -0.0032017071409582089 0 -0.042254965277816969 -0.0031367100757600805 0 -0.042360655440310348 -0.0031280723668597374 0 -0.042299163678497897 -0.0032438071167424222 0 -0.042254965277816969 -0.0031367100757600805 0 -0.041817306617661323 -0.003432929062503648 0 -0.042033606680850079 -0.0038914440795121525 0 -0.042188613811642815 -0.0031500844122216991 0 -0.042297506581370888 -0.00366868359418966 0 -0.041482260564477624 -0.0038665264963007513 0 -0.041817306617661323 -0.003432929062503648 0 -0.042033606680850079 -0.0038914440795121525 0 -0.042121150957473784 -0.003326581945223229 0 -0.042249929506593828 -0.0033571610486479082 0 -0.042152899318008127 -0.0034585424642750149 0 -0.042299163678497897 -0.0032438071167424222 0 -0.042121150957473784 -0.003326581945223229 0 -0.042249929506593828 -0.0033571610486479082 0 -0.042299163678497897 -0.0032438071167424222 0 -0.042249929506593828 -0.0033571610486479082 0 -0.042358693882223554 -0.0033099019280134262 0 -0.042249929506593828 -0.0033571610486479082 0 -0.042358693882223554 -0.0033099019280134262 0 -0.042313770421502882 -0.0034374910590643784 0 -0.039681105735235957 -0.0019399500658280589 0 -0.039904441559217581 -0.0019370810304938149 0 -0.042358693882223554 -0.0033099019280134262 0 -0.042485449770069864 -0.0032968936653629492 0 -0.042313770421502882 -0.0034374910590643784 0 -0.037070214328546659 -0.00036866535469526015 0 -0.03697211840450939 -0.00060437140617257282 0 -0.036798096043008467 -0.00059543735480993988 0 -0.037070214328546659 -0.00036866535469526015 0 -0.037098955762974645 -0.00053584940035526253 0 -0.03697211840450939 -0.00060437140617257282 0 -0.042358693882223554 -0.0033099019280134262 0 -0.042485449770069864 -0.0032968936653629492 0 -0.042423047342743408 -0.0032017071409582089 0 -0.037268196289329154 -0.00047011217352879318 0 -0.037070214328546659 -0.00036866535469526015 0 -0.037362937455741978 -0.00018128753895917257 0 -0.037268196289329154 -0.00047011217352879318 0 -0.037070214328546659 -0.00036866535469526015 0 -0.037098955762974645 -0.00053584940035526253 0 -0.039681105735235957 -0.0019399500658280589 0 -0.040013385999430363 -0.0010759205616134213 0 -0.042485449770069864 -0.0032968936653629492 0 -0.042534688484455636 -0.0031809654339449065 0 -0.042624673183690072 -0.0031801978533455497 0 -0.042534688484455636 -0.0031809654339449065 0 -0.042634376267333671 -0.00314481901234469 0 -0.042624673183690072 -0.0031801978533455497 0 -0.042534688484455636 -0.0031809654339449065 0 -0.042423047342743408 -0.0032017071409582089 0 -0.042486107785934916 -0.0030676977567289918 0 -0.042299163678497897 -0.0032438071167424222 0 -0.042358693882223554 -0.0033099019280134262 0 -0.042423047342743408 -0.0032017071409582089 0 -0.042485449770069864 -0.0032968936653629492 0 -0.042534688484455636 -0.0031809654339449065 0 -0.042423047342743408 -0.0032017071409582089 0 -0.042360655440310348 -0.0031280723668597374 0 -0.042423047342743408 -0.0032017071409582089 0 -0.042486107785934916 -0.0030676977567289918 0 -0.043257152357474217 -0.0029436562989528614 0 -0.044347915243059879 -0.003432416576516929 0 -0.045521635970919849 -0.0032831787575654317 0 -0.04610708971013279 -0.0029880963286042657 0 -0.04635503849554512 -0.0035705664987537148 0 -0.042534688484455636 -0.0031809654339449065 0 -0.042486107785934916 -0.0030676977567289918 0 -0.042634376267333671 -0.00314481901234469 0 -0.044347915243059879 -0.003432416576516929 0 -0.043028169838312806 -0.0019421407283968469 0 -0.045990077071891067 -0.002152930492959572 0 -0.045521635970919849 -0.0032831787575654317 0 -0.04610708971013279 -0.0029880963286042657 0 -0.045165528438789335 -0.0023269154778292225 0 -0.044460475148798098 -0.0031395790587041179 0 -0.045521635970919849 -0.0032831787575654317 0 -0.045165528438789335 -0.0023269154778292225 0 -0.045990077071891067 -0.002152930492959572 0 -0.045521635970919849 -0.0032831787575654317 0 -0.042221739894624383 -0.00088076301919978934 0 -0.042528470894864327 -0.00088780754181571437 0 -0.04254754051278084 -0.0009018913840333541 0 -0.045990077071891067 -0.002152930492959572 0 -0.04610708971013279 -0.0029880963286042657 0 -0.046518076383236011 -0.0025774069250311879 0 -0.04610708971013279 -0.0029880963286042657 0 -0.046518076383236011 -0.0025774069250311879 0 -0.04635503849554512 -0.0035705664987537148 0 -0.04254754051278084 -0.0009018913840333541 0 -0.042401280728460014 -0.0007428165089646702 0 -0.042554249660178949 -0.00068764647773309959 0 -0.044700617251816212 -0.001756560820942525 0 -0.043028169838312806 -0.0019421407283968469 0 -0.042387476712975908 -0.00070346091112971588 0 -0.040759501092241843 -0.00073136866072668759 0 -0.042221739894624383 -0.00088076301919978934 0 -0.04254754051278084 -0.0009018913840333541 0 -0.042401280728460014 -0.0007428165089646702 0 -0.042165268871602636 -0.00090689381024368061 0 -0.042387476712975908 -0.00070346091112971588 0 -0.038698269192097158 0.00014620031785551578 0 -0.037586706247997793 0.00054065385390337877 0 -0.037883184223539819 -0.00011494243980294828 0 -0.040093802375074358 -0.00026469286970608028 0 -0.040759501092241843 -0.00073136866072668759 0 -0.041920360943388947 -0.00082465963877727179 0 -0.042067629514689481 -0.00093765208731258942 0 -0.042134461924825874 -0.00087841594174910915 0 -0.037399953492914417 0.0003921625873553526 0 -0.037586706247997793 0.00054065385390337877 0 -0.037883184223539819 -0.00011494243980294828 0 -0.042401280728460014 -0.0007428165089646702 0 -0.042554249660178949 -0.00068764647773309959 0 -0.042517815927514122 -0.00067058379560583847 0 -0.043028169838312806 -0.0019421407283968469 0 -0.040759501092241843 -0.00073136866072668759 0 -0.040013385999430363 -0.0010759205616134213 0 -0.040759501092241843 -0.00073136866072668759 0 -0.041102568398130451 -0.0003689067750431262 0 -0.04093953127045237 -0.0011453747665282784 0 -0.041666853478125231 -0.0006338660979951894 0 -0.043028169838312806 -0.0019421407283968469 0 -0.040013385999430363 -0.0010759205616134213 0 -0.0368967653811672 -9.2281162580839138e-05 0 -0.040013385999430363 -0.0010759205616134213 0 -0.037268196289329154 -0.00047011217352879318 0 -0.037399953492914417 0.0003921625873553526 0 -0.037883184223539819 -0.00011494243980294828 0 -0.037268196289329154 -0.00047011217352879318 0 -0.037883184223539819 -0.00011494243980294828 0 -0.037495031056095238 -0.00085035656939433564 0 -0.038698269192097158 0.00014620031785551578 0 -0.037883184223539819 -0.00011494243980294828 0 -0.038362156213235986 -0.00083436387567232216 0 -0.038362156213235986 -0.00083436387567232216 0 -0.037495031056095238 -0.00085035656939433564 0 -0.03819890566483139 -0.0012964753195453664 0 -0.037883184223539819 -0.00011494243980294828 0 -0.038362156213235986 -0.00083436387567232216 0 -0.037495031056095238 -0.00085035656939433564 0 -0.038362156213235986 -0.00083436387567232216 0 -0.03819890566483139 -0.0012964753195453664 0 -0.038946154878457179 -0.0016512807628542368 0 -0.037495031056095238 -0.00085035656939433564 0 -0.037997453819737882 -0.0018605562418125116 0 -0.036721876335776567 -0.001494500472987628 0 -0.037495031056095238 -0.00085035656939433564 0 -0.03819890566483139 -0.0012964753195453664 0 -0.037997453819737882 -0.0018605562418125116 0 -0.03819890566483139 -0.0012964753195453664 0 -0.037997453819737882 -0.0018605562418125116 0 -0.038946154878457179 -0.0016512807628542368 0 -0.037997453819737882 -0.0018605562418125116 0 -0.0378597556879844 -0.002562760130535142 0 -0.038568970955915237 -0.0026627567121838792 0 -0.037997453819737882 -0.0018605562418125116 0 -0.038742227094517932 -0.0021736175336991475 0 -0.038568970955915237 -0.0026627567121838792 0 -0.037997453819737882 -0.0018605562418125116 0 -0.037050897233838392 -0.0022260478979950677 0 -0.0378597556879844 -0.002562760130535142 0 -0.037997453819737882 -0.0018605562418125116 0 -0.037050897233838392 -0.0022260478979950677 0 -0.036721876335776567 -0.001494500472987628 0 -0.037050897233838392 -0.0022260478979950677 0 -0.037379765399197684 -0.0030661271615902513 0 -0.0378597556879844 -0.002562760130535142 0 -0.037050897233838392 -0.0022260478979950677 0 -0.037379765399197684 -0.0030661271615902513 0 -0.0358261063076677 -0.0026724351204376541 0 -0.038122291999568354 -0.0029676933289516714 0 -0.0378597556879844 -0.002562760130535142 0 -0.038568970955915237 -0.0026627567121838792 0 -0.037379765399197684 -0.0030661271615902513 0 -0.038122291999568354 -0.0029676933289516714 0 -0.0378597556879844 -0.002562760130535142 0 -0.038122291999568354 -0.0029676933289516714 0 -0.038568970955915237 -0.0026627567121838792 0 -0.038565028513291945 -0.0030804905496370025 0 -0.0358261063076677 -0.0026724351204376541 0 -0.035272420761623152 -0.001636728087013696 0 -0.03372232526010345 -0.0024440209840710576 0 -0.0358261063076677 -0.0026724351204376541 0 -0.03372232526010345 -0.0024440209840710576 0 -0.034498164356973157 -0.0033526407220782245 0 -0.037379765399197684 -0.0030661271615902513 0 -0.0358261063076677 -0.0026724351204376541 0 -0.036647576567357003 -0.0037768279690867908 0 -0.037050897233838392 -0.0022260478979950677 0 -0.0358261063076677 -0.0026724351204376541 0 -0.036156518041215689 -0.0020085244154703892 0 -0.036156518041215689 -0.0020085244154703892 0 -0.035272420761623152 -0.001636728087013696 0 -0.036721876335776567 -0.001494500472987628 0 -0.0358261063076677 -0.0026724351204376541 0 -0.036156518041215689 -0.0020085244154703892 0 -0.035272420761623152 -0.001636728087013696 0 -0.037050897233838392 -0.0022260478979950677 0 -0.036156518041215689 -0.0020085244154703892 0 -0.036721876335776567 -0.001494500472987628 0 -0.035272420761623152 -0.001636728087013696 0 -0.034090267895258895 -0.0015554685023962342 0 -0.03372232526010345 -0.0024440209840710576 0 -0.035272420761623152 -0.001636728087013696 0 -0.034662016493298385 -0.00098260264545695975 0 -0.034090267895258895 -0.0015554685023962342 0 -0.035272420761623152 -0.001636728087013696 0 -0.034662016493298385 -0.00098260264545695975 0 -0.035962637657914846 -0.00037186227649899784 0 -0.034662016493298385 -0.00098260264545695975 0 -0.035962637657914846 -0.00037186227649899784 0 -0.034366668424113567 -0.00023113372334408234 0 -0.035272420761623152 -0.001636728087013696 0 -0.036721876335776567 -0.001494500472987628 0 -0.035962637657914846 -0.00037186227649899784 0 -0.037495031056095238 -0.00085035656939433564 0 -0.036721876335776567 -0.001494500472987628 0 -0.035962637657914846 -0.00037186227649899784 0 -0.037343867451416095 -0.00076899994239733815 0 -0.03662198556476895 -0.00059792824426397619 0 -0.037268196289329154 -0.00047011217352879318 0 -0.037495031056095238 -0.00085035656939433564 0 -0.037098131923480548 -0.00076407736741283209 0 -0.037098131923480548 -0.00076407736741283209 0 -0.037098955762974645 -0.00053584940035526253 0 -0.03697211840450939 -0.00060437140617257282 0 -0.037268196289329154 -0.00047011217352879318 0 -0.037098131923480548 -0.00076407736741283209 0 -0.037098955762974645 -0.00053584940035526253 0 -0.037098131923480548 -0.00076407736741283209 0 -0.03697211840450939 -0.00060437140617257282 0 -0.036818359643126214 -0.00075027695794688981 0 -0.03662198556476895 -0.00059792824426397619 0 -0.035127765271705733 -0.00045732918798420001 0 -0.03697211840450939 -0.00060437140617257282 0 -0.036798096043008467 -0.00059543735480993988 0 -0.036818359643126214 -0.00075027695794688981 0 -0.042313770421502882 -0.0034374910590643784 0 -0.042152899318008127 -0.0034585424642750149 0 -0.042081693907022433 -0.0035975250780320191 0 -0.035127765271705733 -0.00045732918798420001 0 -0.037158861970643227 -0.0017081934195315234 0 -0.036798096043008467 -0.00059543735480993988 0 -0.036818359643126214 -0.00075027695794688981 0 -0.036578360081381878 -0.00077918528546853602 0 -0.039904441559217581 -0.0019370810304938149 0 -0.037158861970643227 -0.0017081934195315234 0 -0.042249929506593828 -0.0033571610486479082 0 -0.042313770421502882 -0.0034374910590643784 0 -0.042152899318008127 -0.0034585424642750149 0 -0.042033606680850079 -0.0038914440795121525 0 -0.041775508601583411 -0.0048411033003340825 0 -0.041454193525330411 -0.0044083880697059112 0 -0.042121150957473784 -0.003326581945223229 0 -0.042152899318008127 -0.0034585424642750149 0 -0.041986812335027657 -0.0036016804606774045 0 -0.042297506581370888 -0.00366868359418966 0 -0.039977248326974871 -0.003722704282696475 0 -0.042152899318008127 -0.0034585424642750149 0 -0.042081693907022433 -0.0035975250780320191 0 -0.041986812335027657 -0.0036016804606774045 0 -0.032980280407908569 -0.0003270538887545134 0 -0.033022299865804912 -0.00099266776367246102 0 -0.033678899366719327 -0.00092614996086589946 0 -0.037158861970643227 -0.0017081934195315234 0 -0.035512436555752216 -0.0019232737181538019 0 -0.037588523295079439 -0.0016308601110352633 0 -0.036945068184368005 -0.0016702130088542733 0 -0.036810497944006204 -0.0021793052589823589 0 -0.032980280407908569 -0.0003270538887545134 0 -0.032435338781186623 -0.00074259429763153385 0 -0.033022299865804912 -0.00099266776367246102 0 -0.039977248326974871 -0.003722704282696475 0 -0.035512436555752216 -0.0019232737181538019 0 -0.037158861970643227 -0.0017081934195315234 0 -0.039977248326974871 -0.003722704282696475 0 -0.032435338781186623 -0.00074259429763153385 0 -0.033022299865804912 -0.00099266776367246102 0 -0.032727254403299093 -0.0014589154704818053 0 -0.034366668424113567 -0.00023113372334408234 0 -0.032980280407908569 -0.0003270538887545134 0 -0.033678899366719327 -0.00092614996086589946 0 -0.033022299865804912 -0.00099266776367246102 0 -0.033678899366719327 -0.00092614996086589946 0 -0.033250495104317296 -0.0017153374883877325 0 -0.034662016493298385 -0.00098260264545695975 0 -0.033678899366719327 -0.00092614996086589946 0 -0.034090267895258895 -0.0015554685023962342 0 -0.034662016493298385 -0.00098260264545695975 0 -0.034366668424113567 -0.00023113372334408234 0 -0.033678899366719327 -0.00092614996086589946 0 -0.040308626229896637 -0.0044789992196806747 0 -0.040487550275336487 -0.0049627198486103504 0 -0.039930057245320262 -0.0047327100051577607 0 -0.040308626229896637 -0.0044789992196806747 0 -0.040785588278537892 -0.0044756728790626187 0 -0.040487550275336487 -0.0049627198486103504 0 -0.040308626229896637 -0.0044789992196806747 0 -0.040394276248512336 -0.0041161968347542353 0 -0.040785588278537892 -0.0044756728790626187 0 -0.040986492911728706 -0.0040602086435361211 0 -0.040394276248512336 -0.0041161968347542353 0 -0.040785588278537892 -0.0044756728790626187 0 -0.040785588278537892 -0.0044756728790626187 0 -0.041224661010019183 -0.0049045201773133262 0 -0.040487550275336487 -0.0049627198486103504 0 -0.040785588278537892 -0.0044756728790626187 0 -0.041454193525330411 -0.0044083880697059112 0 -0.041224661010019183 -0.0049045201773133262 0 -0.040986492911728706 -0.0040602086435361211 0 -0.040785588278537892 -0.0044756728790626187 0 -0.041454193525330411 -0.0044083880697059112 0 -0.041775508601583411 -0.0048411033003340825 0 -0.041454193525330411 -0.0044083880697059112 0 -0.041224661010019183 -0.0049045201773133262 0 -0.041855742827337866 -0.0051896709183884403 0 -0.041224661010019183 -0.0049045201773133262 0 -0.040618316762198473 -0.0061482659560235546 0 -0.035512436555752216 -0.0019232737181538019 0 -0.036616304386783996 -0.0035155948165899896 0 -0.041935351552182629 -0.0048607268508534598 0 -0.041855742827337866 -0.0051896709183884403 0 -0.041224661010019183 -0.0049045201773133262 0 -0.039977248326974871 -0.003722704282696475 0 -0.041745612387577277 -0.0046309282679626645 0 -0.041224661010019183 -0.0049045201773133262 0 -0.040487550275336487 -0.0049627198486103504 0 -0.040618316762198473 -0.0061482659560235546 0 -0.040487550275336487 -0.0049627198486103504 0 -0.040618316762198473 -0.0061482659560235546 0 -0.039853410824017305 -0.0053662570257272894 0 -0.040487550275336487 -0.0049627198486103504 0 -0.039930057245320262 -0.0047327100051577607 0 -0.039853410824017305 -0.0053662570257272894 0 -0.030964580847434212 -0.00023531248509675175 0 -0.030944438799857806 -0.00022947834452987601 0 -0.030933939201068347 -0.00020048334505855798 0 -0.035512436555752216 -0.0019232737181538019 0 -0.030326294631071251 -0.00092886243162052006 0 -0.032435338781186623 -0.00074259429763153385 0 -0.032194765919223281 -0.0019185490498941375 0 -0.03206837853041717 -0.0021638997915707772 0 -0.031018346597277056 -0.00025627907093617186 0 -0.030964580847434212 -0.00023531248509675175 0 -0.030944438799857806 -0.00022947834452987601 0 -0.032194765919223281 -0.0019185490498941375 0 -0.03207570351695483 -0.0021419884132897098 0 -0.032624400883913995 -0.0019351914249708295 0 -0.030676506070600736 -0.0011843565130956158 0 -0.030326294631071251 -0.00092886243162052006 0 -0.030944438799857806 -0.00022947834452987601 0 -0.030933939201068347 -0.00020048334505855798 0 -0.030893013044130491 -0.00017121454905613396 0 -0.028049960860393769 -0.00037102991308481554 0 -0.028061853998331887 -0.00018197796292783 0 -0.028018218486224877 -0.00013111359923455393 0 -0.03207570351695483 -0.0021419884132897098 0 -0.032399381771733397 -0.0027776857814035376 0 -0.03173369034851433 -0.0033062621509272624 0 -0.030326294631071251 -0.00092886243162052006 0 -0.029694257507887407 -0.00011377672438509888 0 -0.030326294631071251 -0.00092886243162052006 0 -0.029725432837120508 -0.0017580634746708441 0 -0.030964580847434212 -0.00023531248509675175 0 -0.030933939201068347 -0.00020048334505855798 0 -0.030962252410176788 -0.00019969901372006614 0 -0.034090267895258895 -0.0015554685023962342 0 -0.033250495104317296 -0.0017153374883877325 0 -0.03372232526010345 -0.0024440209840710576 0 -0.033678899366719327 -0.00092614996086589946 0 -0.034090267895258895 -0.0015554685023962342 0 -0.033250495104317296 -0.0017153374883877325 0 -0.033250495104317296 -0.0017153374883877325 0 -0.032727254403299093 -0.0014589154704818053 0 -0.032624400883913995 -0.0019351914249708295 0 -0.032435338781186623 -0.00074259429763153385 0 -0.032194765919223281 -0.0019185490498941375 0 -0.032727254403299093 -0.0014589154704818053 0 -0.033022299865804912 -0.00099266776367246102 0 -0.033250495104317296 -0.0017153374883877325 0 -0.032727254403299093 -0.0014589154704818053 0 -0.032194765919223281 -0.0019185490498941375 0 -0.032727254403299093 -0.0014589154704818053 0 -0.032624400883913995 -0.0019351914249708295 0 -0.033250495104317296 -0.0017153374883877325 0 -0.032624400883913995 -0.0019351914249708295 0 -0.032894379359016165 -0.0024204554973514649 0 -0.032894379359016165 -0.0024204554973514649 0 -0.032399381771733397 -0.0027776857814035376 0 -0.032890104072777482 -0.0032384235559320914 0 -0.032894379359016165 -0.0024204554973514649 0 -0.03372232526010345 -0.0024440209840710576 0 -0.032890104072777482 -0.0032384235559320914 0 -0.03207570351695483 -0.0021419884132897098 0 -0.032894379359016165 -0.0024204554973514649 0 -0.032399381771733397 -0.0027776857814035376 0 -0.03207570351695483 -0.0021419884132897098 0 -0.032624400883913995 -0.0019351914249708295 0 -0.032894379359016165 -0.0024204554973514649 0 -0.033250495104317296 -0.0017153374883877325 0 -0.032894379359016165 -0.0024204554973514649 0 -0.03372232526010345 -0.0024440209840710576 0 -0.033465144946894627 -0.002475431005129401 0 -0.032421185207247231 -0.0037159585853868199 0 -0.03372232526010345 -0.0024440209840710576 0 -0.033208814100247716 -0.003798300043442704 0 -0.034498164356973157 -0.0033526407220782245 0 -0.033208814100247716 -0.003798300043442704 0 -0.032270853794449585 -0.0046775904348203114 0 -0.031307801339254725 -0.0036807349185427789 0 -0.03372232526010345 -0.0024440209840710576 0 -0.033208814100247716 -0.003798300043442704 0 -0.031307801339254725 -0.0036807349185427789 0 -0.033208814100247716 -0.003798300043442704 0 -0.032270853794449585 -0.0046775904348203114 0 -0.033237001392240562 -0.0046673639798398203 0 -0.033208814100247716 -0.003798300043442704 0 -0.033237001392240562 -0.0046673639798398203 0 -0.034230862632383362 -0.004217209325945933 0 -0.032270853794449585 -0.0046775904348203114 0 -0.031307801339254725 -0.0036807349185427789 0 -0.031174236427175487 -0.0055510524916419501 0 -0.032421185207247231 -0.0037159585853868199 0 -0.027477492738753925 -0.0016728753008815379 0 -0.026287798957965666 -0.00084953308308085185 0 -0.027477492738753925 -0.0016728753008815379 0 -0.022865804650005081 0.0036551257681882877 0 -0.021964487760536586 0.0037916915953846901 0 -0.022076753469228855 0.0033394718058778333 0 -0.031307801339254725 -0.0036807349185427789 0 -0.031174236427175487 -0.0055510524916419501 0 -0.029408887144268692 -0.0052824901081087059 0 -0.031174236427175487 -0.0055510524916419501 0 -0.032886390242607831 -0.0057726193371554959 0 -0.032783593306073278 -0.0054842294919391372 0 -0.026287798957965666 -0.00084953308308085185 0 -0.030853644496521254 0.00014938443797457625 0 -0.022865804650005081 0.0036551257681882877 0 -0.023546649949352884 0.0035201755473354087 0 -0.023007942156959449 0.0030296337374566295 0 -0.033153196689372354 -0.0059363378485220962 0 -0.032783593306073278 -0.0054842294919391372 0 -0.033923969294408156 -0.0051803119666203653 0 -0.030853644496521254 0.00014938443797457625 0 -0.032131374190275355 -0.0020770312799474446 0 -0.032783593306073278 -0.0054842294919391372 0 -0.033237001392240562 -0.0046673639798398203 0 -0.033923969294408156 -0.0051803119666203653 0 -0.032270853794449585 -0.0046775904348203114 0 -0.032783593306073278 -0.0054842294919391372 0 -0.033237001392240562 -0.0046673639798398203 0 -0.032270853794449585 -0.0046775904348203114 0 -0.031174236427175487 -0.0055510524916419501 0 -0.032783593306073278 -0.0054842294919391372 0 -0.030893013044130491 -0.00017121454905613396 0 -0.030864383100737813 -8.4233468903705352e-05 0 -0.030926105166589592 -0.00014736580645547534 0 -0.029694257507887407 -0.00011377672438509888 0 -0.025153433044496888 0.0014800988723088575 0 -0.028061853998331887 -0.00018197796292783 0 -0.028018218486224877 -0.00013111359923455393 0 -0.028115989111336819 3.4861330556841052e-05 0 -0.030933939201068347 -0.00020048334505855798 0 -0.030893013044130491 -0.00017121454905613396 0 -0.030926105166589592 -0.00014736580645547534 0 -0.025153433044496888 0.0014800988723088575 0 -0.025346115108707903 0.0022996091798904218 0 -0.032890104072777482 -0.0032384235559320914 0 -0.03173369034851433 -0.0033062621509272624 0 -0.031981729990729506 -0.0040595476082560464 0 -0.032399381771733397 -0.0027776857814035376 0 -0.032890104072777482 -0.0032384235559320914 0 -0.03173369034851433 -0.0033062621509272624 0 -0.029725432837120508 -0.0017580634746708441 0 -0.028247280594013872 -0.0017386403778228304 0 -0.021964487760536586 0.0037916915953846901 0 -0.021543221905502889 0.0034388801947690096 0 -0.022076753469228855 0.0033394718058778333 0 -0.026261598405834422 8.9696790089081971e-05 0 -0.026181673246430445 0.00010458096199718736 0 -0.026148893118233346 2.9262091213436789e-05 0 -0.027477492738753925 -0.0016728753008815379 0 -0.023582185593224982 0.0025255569573678096 0 -0.027477492738753925 -0.0016728753008815379 0 -0.028247280594013872 -0.0017386403778228304 0 -0.03173369034851433 -0.0033062621509272624 0 -0.031981729990729506 -0.0040595476082560464 0 -0.031528427621856044 -0.0039894153377517646 0 -0.025153433044496888 0.0014800988723088575 0 -0.01950822469031888 0.0024250362978536265 0 -0.028018218486224877 -0.00013111359923455393 0 -0.028016757604792549 3.3066080357290834e-05 0 -0.028115989111336819 3.4861330556841052e-05 0 -0.023582185593224982 0.0025255569573678096 0 -0.025153433044496888 0.0014800988723088575 0 -0.020274877852834092 0.0038506354165494124 0 -0.019985664545556631 0.0042968370475891717 0 -0.02023267695753822 0.0037121803996752159 0 -0.028247280594013872 -0.0017386403778228304 0 -0.023582185593224982 0.0025255569573678096 0 -0.028016757604792549 3.3066080357290834e-05 0 -0.02802425307858096 0.00016568990828414197 0 -0.028115989111336819 3.4861330556841052e-05 0 -0.021630192360884447 0.0032895296261032307 0 -0.019106380704136845 0.0030173286445049755 0 -0.019985664545556631 0.0042968370475891717 0 -0.02023267695753822 0.0037121803996752159 0 -0.019378039788228541 0.0033460759234001007 0 -0.02023267695753822 0.0037121803996752159 0 -0.019378039788228541 0.0033460759234001007 0 -0.019380814452830731 0.0030165035424538265 0 -0.020177101844474746 0.0037776326686216159 0 -0.019972875111719086 0.0030335095524904152 0 -0.019380814452830731 0.0030165035424538265 0 -0.023582185593224982 0.0025255569573678096 0 -0.021630192360884447 0.0032895296261032307 0 -0.020362711053992174 0.0043487368371039059 0 -0.021064785095118093 0.0036096207020059391 0 -0.020063678869873931 0.0033085078533358404 0 -0.021630192360884447 0.0032895296261032307 0 -0.020076542007087243 0.0032041675113867454 0 -0.021543221905502889 0.0034388801947690096 0 -0.022076753469228855 0.0033394718058778333 0 -0.02184896044369445 0.0029516866940901684 0 -0.023582185593224982 0.0025255569573678096 0 -0.021188619523444408 0.0036501498050634548 0 -0.020417852959286584 0.0045514214501263615 0 -0.020362711053992174 0.0043487368371039059 0 -0.021064785095118093 0.0036096207020059391 0 -0.022076753469228855 0.0033394718058778333 0 -0.02184896044369445 0.0029516866940901684 0 -0.022297141182210382 0.003013404577455405 0 -0.021188619523444408 0.0036501498050634548 0 -0.021838780256514419 0.0025873071461858773 0 -0.02184896044369445 0.0029516866940901684 0 -0.022297141182210382 0.003013404577455405 0 -0.021764773911477787 0.0026175849937029572 0 -0.021064785095118093 0.0036096207020059391 0 -0.020676745829304247 0.0026232515757998258 0 -0.021764773911477787 0.0026175849937029572 0 -0.021064785095118093 0.0036096207020059391 0 -0.020676745829304247 0.0026232515757998258 0 -0.020063678869873931 0.0033085078533358404 0 -0.020676745829304247 0.0026232515757998258 0 -0.020063678869873931 0.0033085078533358404 0 -0.019778314330156633 0.0023002408504777696 0 -0.020076542007087243 0.0032041675113867454 0 -0.019812050104991579 0.002396292407305278 0 -0.019972875111719086 0.0030335095524904152 0 -0.019323671091673766 0.0025092735136567602 0 -0.019778314330156633 0.0023002408504777696 0 -0.019972875111719086 0.0030335095524904152 0 -0.019380814452830731 0.0030165035424538265 0 -0.019323671091673766 0.0025092735136567602 0 -0.023546649949352884 0.0035201755473354087 0 -0.023007942156959449 0.0030296337374566295 0 -0.023648862854641 0.0028465908785028963 0 -0.022865804650005081 0.0036551257681882877 0 -0.022076753469228855 0.0033394718058778333 0 -0.022297141182210382 0.003013404577455405 0 -0.023007942156959449 0.0030296337374566295 0 -0.022297141182210382 0.003013404577455405 0 -0.022427779200385668 0.0025686836223357151 0 -0.022865804650005081 0.0036551257681882877 0 -0.023007942156959449 0.0030296337374566295 0 -0.022297141182210382 0.003013404577455405 0 -0.022297141182210382 0.003013404577455405 0 -0.021764773911477787 0.0026175849937029572 0 -0.022427779200385668 0.0025686836223357151 0 -0.021764773911477787 0.0026175849937029572 0 -0.022427779200385668 0.0025686836223357151 0 -0.021786004169009349 0.0020364510657193179 0 -0.022427779200385668 0.0025686836223357151 0 -0.023159706413164151 0.0024643232921097843 0 -0.022547635047824036 0.0019801629756314209 0 -0.023007942156959449 0.0030296337374566295 0 -0.022427779200385668 0.0025686836223357151 0 -0.023159706413164151 0.0024643232921097843 0 -0.023159706413164151 0.0024643232921097843 0 -0.023648862854641 0.0028465908785028963 0 -0.024178504682572016 0.0020176977949588845 0 -0.023007942156959449 0.0030296337374566295 0 -0.023159706413164151 0.0024643232921097843 0 -0.023648862854641 0.0028465908785028963 0 -0.035339935869740928 0.0026487851704487067 0 -0.03639438835752077 0.0013089562491024277 0 -0.03683075794314998 0.0018025341561053955 0 -0.035339935869740928 0.0026487851704487067 0 -0.03683075794314998 0.0018025341561053955 0 -0.036850351555732415 0.0024627480043857507 0 -0.030853644496521254 0.00014938443797457625 0 -0.029667460431960606 0.0027050337170028164 0 -0.037369744220843909 0.0020378581819287993 0 -0.038250850779966317 0.0022191735928853637 0 -0.036850351555732415 0.0024627480043857507 0 -0.037369744220843909 0.0020378581819287993 0 -0.03683075794314998 0.0018025341561053955 0 -0.036850351555732415 0.0024627480043857507 0 -0.03639438835752077 0.0013089562491024277 0 -0.03683075794314998 0.0018025341561053955 0 -0.037377067614484019 0.0014426078478540205 0 -0.037369744220843909 0.0020378581819287993 0 -0.03683075794314998 0.0018025341561053955 0 -0.037377067614484019 0.0014426078478540205 0 -0.037369744220843909 0.0020378581819287993 0 -0.037377067614484019 0.0014426078478540205 0 -0.037812528332725533 0.0017199241143318208 0 -0.029667460431960606 0.0027050337170028164 0 -0.030913207294277417 0.00092881385152116826 0 -0.03639438835752077 0.0013089562491024277 0 -0.037377067614484019 0.0014426078478540205 0 -0.037446786306022599 0.00010470118286991473 0 -0.037377067614484019 0.0014426078478540205 0 -0.038125337066107386 0.0010566216605619482 0 -0.037446786306022599 0.00010470118286991473 0 -0.038125337066107386 0.0010566216605619482 0 -0.038933232062747368 0.00074375864789575882 0 -0.038662071288878108 -7.8098033363432104e-05 0 -0.04033382302264784 -0.0014860044094641299 0 -0.03990098567607353 -0.0021000604528687819 0 -0.039733314945884175 -0.0013591210413539639 0 -0.04033382302264784 -0.0014860044094641299 0 -0.040179556512752977 -0.0023230099362715022 0 -0.040787670498992019 -0.0023996336436534044 0 -0.04033382302264784 -0.0014860044094641299 0 -0.040179556512752977 -0.0023230099362715022 0 -0.03990098567607353 -0.0021000604528687819 0 -0.040891934569685602 -0.0024202457776849803 0 -0.038648119677154466 -0.0020498584703670429 0 -0.040179556512752977 -0.0023230099362715022 0 -0.040063906555738542 -0.0024675587830732502 0 -0.03990098567607353 -0.0021000604528687819 0 -0.038125337066107386 0.0010566216605619482 0 -0.037812528332725533 0.0017199241143318208 0 -0.038250850779966317 0.0022191735928853637 0 -0.039646122195633814 -1.0562189705984669e-05 0 -0.038648119677154466 -0.0020498584703670429 0 -0.038125337066107386 0.0010566216605619482 0 -0.038933232062747368 0.00074375864789575882 0 -0.038250850779966317 0.0022191735928853637 0 -0.037377067614484019 0.0014426078478540205 0 -0.038125337066107386 0.0010566216605619482 0 -0.037812528332725533 0.0017199241143318208 0 -0.037369744220843909 0.0020378581819287993 0 -0.037812528332725533 0.0017199241143318208 0 -0.038250850779966317 0.0022191735928853637 0 -0.038407613251032181 -0.0041495374857626532 0 -0.036737071404448041 -0.0039466424201793845 0 -0.040179556512752977 -0.0023230099362715022 0 -0.040521955396029936 -0.0023789132251880079 0 -0.040586013533256332 -0.0025122249380665298 0 -0.037325429214760487 -0.004145846142709457 0 -0.037449220164148096 -0.0036668074161732662 0 -0.036647576567357003 -0.0037768279690867908 0 -0.038648119677154466 -0.0020498584703670429 0 -0.038407613251032181 -0.0041495374857626532 0 -0.037325429214760487 -0.004145846142709457 0 -0.03794984124342031 -0.0036903437894459227 0 -0.037449220164148096 -0.0036668074161732662 0 -0.038407613251032181 -0.0041495374857626532 0 -0.03931055013844019 -0.0030036720349306831 0 -0.040179556512752977 -0.0023230099362715022 0 -0.040586013533256332 -0.0025122249380665298 0 -0.040063906555738542 -0.0024675587830732502 0 -0.037325429214760487 -0.004145846142709457 0 -0.038492799097394344 -0.0037655797101057912 0 -0.03794984124342031 -0.0036903437894459227 0 -0.038492799097394344 -0.0037655797101057912 0 -0.03794984124342031 -0.0036903437894459227 0 -0.038473134607678823 -0.0034183344158958111 0 -0.038473134607678823 -0.0034183344158958111 0 -0.038009193701013633 -0.0033610224589198478 0 -0.038565028513291945 -0.0030804905496370025 0 -0.03794984124342031 -0.0036903437894459227 0 -0.038009193701013633 -0.0033610224589198478 0 -0.037449220164148096 -0.0036668074161732662 0 -0.03794984124342031 -0.0036903437894459227 0 -0.038473134607678823 -0.0034183344158958111 0 -0.038009193701013633 -0.0033610224589198478 0 -0.037379765399197684 -0.0030661271615902513 0 -0.038122291999568354 -0.0029676933289516714 0 -0.038009193701013633 -0.0033610224589198478 0 -0.038122291999568354 -0.0029676933289516714 0 -0.038009193701013633 -0.0033610224589198478 0 -0.038565028513291945 -0.0030804905496370025 0 -0.037379765399197684 -0.0030661271615902513 0 -0.038009193701013633 -0.0033610224589198478 0 -0.037449220164148096 -0.0036668074161732662 0 -0.037379765399197684 -0.0030661271615902513 0 -0.037449220164148096 -0.0036668074161732662 0 -0.036647576567357003 -0.0037768279690867908 0 -0.0358261063076677 -0.0026724351204376541 0 -0.036647576567357003 -0.0037768279690867908 0 -0.035317017977099595 -0.0038603074423766443 0 -0.036647576567357003 -0.0037768279690867908 0 -0.035899231012622559 -0.0044326756500325283 0 -0.035317017977099595 -0.0038603074423766443 0 -0.035899231012622559 -0.0044326756500325283 0 -0.035317017977099595 -0.0038603074423766443 0 -0.035030275750426422 -0.0046044614839087818 0 -0.034498164356973157 -0.0033526407220782245 0 -0.034230862632383362 -0.004217209325945933 0 -0.035317017977099595 -0.0038603074423766443 0 -0.0358261063076677 -0.0026724351204376541 0 -0.034498164356973157 -0.0033526407220782245 0 -0.035317017977099595 -0.0038603074423766443 0 -0.033208814100247716 -0.003798300043442704 0 -0.034498164356973157 -0.0033526407220782245 0 -0.034230862632383362 -0.004217209325945933 0 -0.034230862632383362 -0.004217209325945933 0 -0.035317017977099595 -0.0038603074423766443 0 -0.035030275750426422 -0.0046044614839087818 0 -0.034189987342279085 -0.0051967525980641527 0 -0.035798861927769113 -0.0053997326904126255 0 -0.035030275750426422 -0.0046044614839087818 0 -0.033923969294408156 -0.0051803119666203653 0 -0.035769082824016196 -0.0054108353135904367 0 -0.033923969294408156 -0.0051803119666203653 0 -0.035867423036792058 -0.0061760364451892476 0 -0.036024997707927275 -0.0054339256760555484 0 -0.030853644496521254 0.00014938443797457625 0 -0.036957443248644591 -0.0020362790121950646 0 -0.033153196689372354 -0.0059363378485220962 0 -0.033923969294408156 -0.0051803119666203653 0 -0.035867423036792058 -0.0061760364451892476 0 -0.034230862632383362 -0.004217209325945933 0 -0.035030275750426422 -0.0046044614839087818 0 -0.033923969294408156 -0.0051803119666203653 0 -0.033237001392240562 -0.0046673639798398203 0 -0.034230862632383362 -0.004217209325945933 0 -0.033923969294408156 -0.0051803119666203653 0 -0.038392174649017653 -0.006442026653835556 0 -0.038029495518763452 -0.0057096729117808867 0 -0.035867423036792058 -0.0061760364451892476 0 -0.038407613251032181 -0.0041495374857626532 0 -0.035798861927769113 -0.0053997326904126255 0 -0.038648119677154466 -0.0020498584703670429 0 -0.036957443248644591 -0.0020362790121950646 0 -0.037586330115021084 -0.0056832609962723501 0 -0.035899231012622559 -0.0044326756500325283 0 -0.035769082824016196 -0.0054108353135904367 0 -0.038029495518763452 -0.0057096729117808867 0 -0.035867423036792058 -0.0061760364451892476 0 -0.036024997707927275 -0.0054339256760555484 0 -0.037586330115021084 -0.0056832609962723501 0 -0.036647576567357003 -0.0037768279690867908 0 -0.035899231012622559 -0.0044326756500325283 0 -0.035899231012622559 -0.0044326756500325283 0 -0.035030275750426422 -0.0046044614839087818 0 -0.035769082824016196 -0.0054108353135904367 0 -0.021860836114589513 8.2985527657105602e-07 0 -0.023517412218793339 0.00049466025071640517 0 -0.021562639386563769 0.00015772378689013925 0 -0.023517412218793339 0.00049466025071640517 0 -0.023889217647103639 0.0003287246024764534 0 -0.021562639386563769 0.00015772378689013925 0 -0.023517412218793339 0.00049466025071640517 0 -0.025096820466252119 0.00060340443185993473 0 -0.025329488457779173 0.0010341752447390452 0 -0.021860836114589513 8.2985527657105602e-07 0 -0.025096458257105922 1.0083942972495909e-06 0 -0.025096820466252119 0.00060340443185993473 0 -0.021860836114589513 8.2985527657105602e-07 0 -0.023517412218793339 0.00049466025071640517 0 -0.025096820466252119 0.00060340443185993473 0 -0.025096458257105922 1.0083942972495909e-06 0 -0.027148271188719989 0.00039318106872187838 0 -0.025096820466252119 0.00060340443185993473 0 -0.02833145218868011 6.249822262776204e-07 0 -0.025096458257105922 1.0083942972495909e-06 0 -0.027148271188719989 0.00039318106872187838 0 -0.027148271188719989 0.00039318106872187838 0 -0.025096820466252119 0.00060340443185993473 0 -0.02629623201036297 0.00096554916372954057 0 -0.025096820466252119 0.00060340443185993473 0 -0.02629623201036297 0.00096554916372954057 0 -0.025329488457779173 0.0010341752447390452 0 -0.02629623201036297 0.00096554916372954057 0 -0.027622432265976753 0.00036999643995117303 0 -0.026430563188552723 0.00076265832268039319 0 -0.027148271188719989 0.00039318106872187838 0 -0.02629623201036297 0.00096554916372954057 0 -0.027622432265976753 0.00036999643995117303 0 -0.029851069005218406 -0.00074133857003348051 0 -0.029863438852289238 -7.4945789557617551e-05 0 -0.02629623201036297 0.00096554916372954057 0 -0.026430563188552723 0.00076265832268039319 0 -0.02647562354026094 0.0016743941884411878 0 -0.02629623201036297 0.00096554916372954057 0 -0.025329488457779173 0.0010341752447390452 0 -0.02647562354026094 0.0016743941884411878 0 -0.025329488457779173 0.0010341752447390452 0 -0.026023579575438514 0.00079389860102012529 0 -0.02647562354026094 0.0016743941884411878 0 -0.025329488457779173 0.0010341752447390452 0 -0.023889217647103639 0.0003287246024764534 0 -0.026023579575438514 0.00079389860102012529 0 -0.023517412218793339 0.00049466025071640517 0 -0.025329488457779173 0.0010341752447390452 0 -0.023889217647103639 0.0003287246024764534 0 -0.023889217647103639 0.0003287246024764534 0 -0.026023579575438514 0.00079389860102012529 0 -0.026478242524182488 -0.00032317046831855213 0 -0.026023579575438514 0.00079389860102012529 0 -0.029412837845911158 0.00028264963604251976 0 -0.026478242524182488 -0.00032317046831855213 0 -0.029412837845911158 0.00028264963604251976 0 -0.030303887737893394 -2.6755332954783194e-05 0 -0.030261260160417709 -0.00041665234416750786 0 -0.030303887737893394 -2.6755332954783194e-05 0 -0.030477555345143147 -0.00011040581271111094 0 -0.030261260160417709 -0.00041665234416750786 0 -0.030684398784043235 0.00030380680736496416 0 -0.030292725083512967 -0.00046743325910939373 0 -0.029412837845911158 0.00028264963604251976 0 -0.030303887737893394 -2.6755332954783194e-05 0 -0.031498503342160783 -0.00087476485463954207 0 -0.031498503342160783 -0.00087476485463954207 0 -0.030879631353926417 -0.001240588081120518 0 -0.030477555345143147 -0.00011040581271111094 0 -0.030303887737893394 -2.6755332954783194e-05 0 -0.031498503342160783 -0.00087476485463954207 0 -0.030477555345143147 -0.00011040581271111094 0 -0.029412837845911158 0.00028264963604251976 0 -0.031498503342160783 -0.00087476485463954207 0 -0.0332495894275745 -0.0014708573189657853 0 -0.026023579575438514 0.00079389860102012529 0 -0.029412837845911158 0.00028264963604251976 0 -0.02647562354026094 0.0016743941884411878 0 -0.029596131388493995 8.0124016065206369e-05 0 -0.029863438852289238 -7.4945789557617551e-05 0 -0.031498503342160783 -0.00087476485463954207 0 -0.0332495894275745 -0.0014708573189657853 0 -0.033213627961817226 -0.0021368975842103524 0 -0.033385110184887913 -0.002631704307997642 0 -0.0332495894275745 -0.0014708573189657853 0 -0.033213627961817226 -0.0021368975842103524 0 -0.033385110184887913 -0.002631704307997642 0 -0.033213627961817226 -0.0021368975842103524 0 -0.033841378713284721 -0.002095101868599584 0 -0.034233670002293402 -0.0014382633910210323 0 -0.033385110184887913 -0.002631704307997642 0 -0.033841378713284721 -0.002095101868599584 0 -0.033213627961817226 -0.0021368975842103524 0 -0.033841378713284721 -0.002095101868599584 0 -0.03323534429678511 -0.0024597637844024243 0 -0.034915571360924179 -0.001412445218399151 0 -0.033841378713284721 -0.002095101868599584 0 -0.034547976511063783 -0.0018581730747248236 0 -0.033841378713284721 -0.002095101868599584 0 -0.034547976511063783 -0.0018581730747248236 0 -0.03323534429678511 -0.0024597637844024243 0 -0.034547976511063783 -0.0018581730747248236 0 -0.03323534429678511 -0.0024597637844024243 0 -0.034377033576866937 -0.0022506786418383978 0 -0.031498503342160783 -0.00087476485463954207 0 -0.033213627961817226 -0.0021368975842103524 0 -0.03323534429678511 -0.0024597637844024243 0 -0.031498503342160783 -0.00087476485463954207 0 -0.03323534429678511 -0.0024597637844024243 0 -0.030879631353926417 -0.001240588081120518 0 -0.032734396813283932 -0.0020668414946585349 0 -0.034136386708384196 -0.0033853163390520236 0 -0.036818098141068442 -0.00307300190102907 0 -0.034136386708384196 -0.0033853163390520236 0 -0.03323534429678511 -0.0024597637844024243 0 -0.034377033576866937 -0.0022506786418383978 0 -0.034559959537622038 -0.0041589337600785644 0 -0.038664841452918708 -0.0046589798154751602 0 -0.037911066429407309 -0.0037445354111620434 0 -0.038079284586309436 -0.0059257763832962756 0 -0.034377033576866937 -0.0022506786418383978 0 -0.03529501430997703 -0.0019908916970273632 0 -0.034559959537622038 -0.0041589337600785644 0 -0.038664841452918708 -0.0046589798154751602 0 -0.038994186354157648 -0.005517749228810969 0 -0.038079284586309436 -0.0059257763832962756 0 -0.034377033576866937 -0.0022506786418383978 0 -0.03529501430997703 -0.0019908916970273632 0 -0.034995041080362006 -0.0018956097392101164 0 -0.037133284049470375 -0.0019199539690423826 0 -0.038664841452918708 -0.0046589798154751602 0 -0.037911066429407309 -0.0037445354111620434 0 -0.035517983244914453 -0.0016797953961995402 0 -0.03529501430997703 -0.0019908916970273632 0 -0.034995041080362006 -0.0018956097392101164 0 -0.034547976511063783 -0.0018581730747248236 0 -0.034377033576866937 -0.0022506786418383978 0 -0.034995041080362006 -0.0018956097392101164 0 -0.035517983244914453 -0.0016797953961995402 0 -0.034547976511063783 -0.0018581730747248236 0 -0.034995041080362006 -0.0018956097392101164 0 -0.038587792009593017 -0.0029708019034439029 0 -0.038566434429387744 -0.0047063513628906222 0 -0.039979207377674179 -0.0037487057713115695 0 -0.038664841452918708 -0.0046589798154751602 0 -0.039663205542957519 -0.0041817683407574802 0 -0.040308626229896637 -0.0044789992196806747 0 -0.040394276248512336 -0.0041161968347542353 0 -0.039955875885782102 -0.0043135214332090622 0 -0.040009015195366676 -0.0040467493077652669 0 -0.040394276248512336 -0.0041161968347542353 0 -0.039955875885782102 -0.0043135214332090622 0 -0.040009015195366676 -0.0040467493077652669 0 -0.039955875885782102 -0.0043135214332090622 0 -0.039663205542957519 -0.0041817683407574802 0 -0.039955875885782102 -0.0043135214332090622 0 -0.039663205542957519 -0.0041817683407574802 0 -0.039534214547219206 -0.0045220677161504812 0 -0.038664841452918708 -0.0046589798154751602 0 -0.039663205542957519 -0.0041817683407574802 0 -0.039534214547219206 -0.0045220677161504812 0 -0.040308626229896637 -0.0044789992196806747 0 -0.039955875885782102 -0.0043135214332090622 0 -0.039930057245320262 -0.0047327100051577607 0 -0.039534214547219206 -0.0045220677161504812 0 -0.039930057245320262 -0.0047327100051577607 0 -0.039425155526256979 -0.0049298358888443423 0 -0.039955875885782102 -0.0043135214332090622 0 -0.039534214547219206 -0.0045220677161504812 0 -0.039930057245320262 -0.0047327100051577607 0 -0.039930057245320262 -0.0047327100051577607 0 -0.039425155526256979 -0.0049298358888443423 0 -0.039853410824017305 -0.0053662570257272894 0 -0.038664841452918708 -0.0046589798154751602 0 -0.039425155526256979 -0.0049298358888443423 0 -0.038994186354157648 -0.005517749228810969 0 -0.038664841452918708 -0.0046589798154751602 0 -0.039534214547219206 -0.0045220677161504812 0 -0.039425155526256979 -0.0049298358888443423 0 -0.039425155526256979 -0.0049298358888443423 0 -0.038994186354157648 -0.005517749228810969 0 -0.039853410824017305 -0.0053662570257272894 0 -0.038994186354157648 -0.005517749228810969 0 -0.039853410824017305 -0.0053662570257272894 0 -0.039226404586385287 -0.0061488095172384455 0 -0.036616304386783996 -0.0035155948165899896 0 -0.030603279716030139 -0.0009413307637578471 0 -0.040618316762198473 -0.0061482659560235546 0 -0.039853410824017305 -0.0053662570257272894 0 -0.039226404586385287 -0.0061488095172384455 0 -0.040618316762198473 -0.0061482659560235546 0 -0.039226404586385287 -0.0061488095172384455 0 -0.039082733205224519 -0.0072176422651551277 0 -0.039226404586385287 -0.0061488095172384455 0 -0.038079284586309436 -0.0059257763832962756 0 -0.039082733205224519 -0.0072176422651551277 0 -0.034136386708384196 -0.0033853163390520236 0 -0.030603279716030139 -0.0009413307637578471 0 -0.034136386708384196 -0.0033853163390520236 0 -0.030684398784043235 0.00030380680736496416 0 -0.038994186354157648 -0.005517749228810969 0 -0.039226404586385287 -0.0061488095172384455 0 -0.038079284586309436 -0.0059257763832962756 0 -0.030630169313110148 0.00063014622701852382 0 -0.030469885457908102 0.00012751525418528795 0 -0.031140150016227219 -4.8507390987286731e-05 0 -0.030603279716030139 -0.0009413307637578471 0 -0.023699232843445335 0.0015991415991906356 0 -0.030469885457908102 0.00012751525418528795 0 -0.031140150016227219 -4.8507390987286731e-05 0 -0.030261260160417709 -0.00041665234416750786 0 -0.031140150016227219 -4.8507390987286731e-05 0 -0.030346007280332925 -0.00071687085488330942 0 -0.030261260160417709 -0.00041665234416750786 0 -0.030933939201068347 -0.00020048334505855798 0 -0.030962252410176788 -0.00019969901372006614 0 -0.030926105166589592 -0.00014736580645547534 0 -0.030603279716030139 -0.0009413307637578471 0 -0.025346115108707903 0.0022996091798904218 0 -0.020101324519432771 0.0043653881179408528 0 -0.019843525396146724 0.0031180476773798255 0 -0.020669611163155164 0.0034570778731024127 0 -0.019843525396146724 0.0031180476773798255 0 -0.020669611163155164 0.0034570778731024127 0 -0.020263493742092388 0.0022054874446699609 0 -0.020101324519432771 0.0043653881179408528 0 -0.019843525396146724 0.0031180476773798255 0 -0.018663505114014042 0.0034719203958059439 0 -0.019777708612058881 0.0030371160504264211 0 -0.018857900810567679 0.0016112891473487332 0 -0.019843525396146724 0.0031180476773798255 0 -0.018887778678566166 0.0015482970096508161 0 -0.018663505114014042 0.0034719203958059439 0 -0.019843525396146724 0.0031180476773798255 0 -0.020263493742092388 0.0022054874446699609 0 -0.018802896841401247 0.0016396887155906963 0 -0.02127473539429265 0.0025460061702939074 0 -0.020263493742092388 0.0022054874446699609 0 -0.020521230361518979 0.0011996458527216191 0 -0.02127473539429265 0.0025460061702939074 0 -0.020669611163155164 0.0034570778731024127 0 -0.020263493742092388 0.0022054874446699609 0 -0.020263493742092388 0.0022054874446699609 0 -0.020521230361518979 0.0011996458527216191 0 -0.018802896841401247 0.0016396887155906963 0 -0.01950822469031888 0.0024250362978536265 0 -0.019207875850181199 0.0010389482666930173 0 -0.019378039788228541 0.0033460759234001007 0 -0.019380814452830731 0.0030165035424538265 0 -0.018726278627390205 0.0023417193104936485 0 -0.019380814452830731 0.0030165035424538265 0 -0.019323671091673766 0.0025092735136567602 0 -0.018726278627390205 0.0023417193104936485 0 -0.018802896841401247 0.0016396887155906963 0 -0.017777494965710339 8.2753780663243385e-05 0 -0.01971925145766763 -0.00019097849331177507 0 -0.020521230361518979 0.0011996458527216191 0 -0.018802896841401247 0.0016396887155906963 0 -0.01971925145766763 -0.00019097849331177507 0 -0.018887778678566166 0.0015482970096508161 0 -0.017040569470000867 0.0010160956717549365 0 -0.017180489815910222 0.0024992650274215517 0 -0.018887778678566166 0.0015482970096508161 0 -0.017864015262466244 -2.7534132375767775e-05 0 -0.017040569470000867 0.0010160956717549365 0 -0.018857900810567679 0.0016112891473487332 0 -0.017808368091571193 1.0094670442080036e-05 0 -0.017864015262466244 -2.7534132375767775e-05 0 -0.017040569470000867 0.0010160956717549365 0 -0.016658596013222747 -0.00036658946256776166 0 -0.017040569470000867 0.0010160956717549365 0 -0.017180489815910222 0.0024992650274215517 0 -0.01571150737819528 0.0014942565262620186 0 -0.018887778678566166 0.0015482970096508161 0 -0.017180489815910222 0.0024992650274215517 0 -0.018663505114014042 0.0034719203958059439 0 -0.027363832849077629 -0.0019233431467372637 0 -0.030346007280332925 -0.00071687085488330942 0 -0.028815120677945359 -0.00077776163457292293 0 -0.02243313314995881 0.00036861809023258359 0 -0.023699232843445335 0.0015991415991906356 0 -0.030346007280332925 -0.00071687085488330942 0 -0.030261260160417709 -0.00041665234416750786 0 -0.028815120677945359 -0.00077776163457292293 0 -0.029412837845911158 0.00028264963604251976 0 -0.030261260160417709 -0.00041665234416750786 0 -0.028815120677945359 -0.00077776163457292293 0 -0.029412837845911158 0.00028264963604251976 0 -0.028815120677945359 -0.00077776163457292293 0 -0.026478242524182488 -0.00032317046831855213 0 -0.027363832849077629 -0.0019233431467372637 0 -0.028815120677945359 -0.00077776163457292293 0 -0.026478242524182488 -0.00032317046831855213 0 -0.023889217647103639 0.0003287246024764534 0 -0.026478242524182488 -0.00032317046831855213 0 -0.024259898399902769 -0.00081253057892937167 0 -0.027363832849077629 -0.0019233431467372637 0 -0.026478242524182488 -0.00032317046831855213 0 -0.024259898399902769 -0.00081253057892937167 0 -0.023889217647103639 0.0003287246024764534 0 -0.024259898399902769 -0.00081253057892937167 0 -0.021077844078782163 -0.00048490549592858004 0 -0.024259898399902769 -0.00081253057892937167 0 -0.023721965932985933 -0.0022783345939216227 0 -0.021077844078782163 -0.00048490549592858004 0 -0.027363832849077629 -0.0019233431467372637 0 -0.024259898399902769 -0.00081253057892937167 0 -0.023721965932985933 -0.0022783345939216227 0 -0.02243313314995881 0.00036861809023258359 0 -0.019772455493501664 -0.00032946268233359098 0 -0.017040569470000867 0.0010160956717549365 0 -0.01571150737819528 0.0014942565262620186 0 -0.015488910029728988 -0.00012075428787980977 0 -0.017040569470000867 0.0010160956717549365 0 -0.015488910029728988 -0.00012075428787980977 0 -0.016658596013222747 -0.00036658946256776166 0 -0.01571150737819528 0.0014942565262620186 0 -0.015488910029728988 -0.00012075428787980977 0 -0.014272978681523869 0.00043909316263908194 0 -0.015488910029728988 -0.00012075428787980977 0 -0.014272978681523869 0.00043909316263908194 0 -0.014082558131958925 -0.00039556930401491683 0 -0.023721965932985933 -0.0022783345939216227 0 -0.01969755938126283 -0.0020137289118866827 0 -0.021077844078782163 -0.00048490549592858004 0 -0.019772455493501664 -0.00032946268233359098 0 -0.017031797914072062 -0.00059619904582061505 0 -0.01969755938126283 -0.0020137289118866827 0 -0.018074434033822261 -0.00036067942422395803 0 -0.021077844078782163 -0.00048490549592858004 0 -0.01969755938126283 -0.0020137289118866827 0 -0.016558511057270839 -0.00075122814203362927 0 -0.018074434033822261 -0.00036067942422395803 0 -0.017031797914072062 -0.00059619904582061505 0 -0.014095565505495525 -0.00069820932859690564 0 -0.014272978681523869 0.00043909316263908194 0 -0.013492977167442004 -0.00060076499992503963 0 -0.014082558131958925 -0.00039556930401491683 0 -0.016558511057270839 -0.00075122814203362927 0 -0.015389735453684654 -2.3560664508736317e-06 0 -0.013492977167442004 -0.00060076499992503963 0 -0.01969755938126283 -0.0020137289118866827 0 -0.016558511057270839 -0.00075122814203362927 0 -0.013492977167442004 -0.00060076499992503963 0 -0.015389735453684654 -2.3560664508736317e-06 0 -0.018074434033822261 -0.00036067942422395803 0 -0.018625223435026959 1.3869382916893151e-07 0 -0.016558511057270839 -0.00075122814203362927 0 -0.015389735453684654 -2.3560664508736317e-06 0 -0.018074434033822261 -0.00036067942422395803 0 -0.018074434033822261 -0.00036067942422395803 0 -0.018625223435026959 1.3869382916893151e-07 0 -0.021077844078782163 -0.00048490549592858004 0 -0.023889217647103639 0.0003287246024764534 0 -0.021077844078782163 -0.00048490549592858004 0 -0.021562639386563769 0.00015772378689013925 0 -0.018625223435026959 1.3869382916893151e-07 0 -0.021077844078782163 -0.00048490549592858004 0 -0.021562639386563769 0.00015772378689013925 0 -0.021860836114589513 8.2985527657105602e-07 0 -0.018625223435026959 1.3869382916893151e-07 0 -0.021562639386563769 0.00015772378689013925 0 -0.0074682041332117081 0.00046872215784120709 0 -0.0089162708108624471 1.2446491150480754e-06 0 -0.0056807609057225195 1.2531763354289463e-06 0 -0.0074682041332117081 0.00046872215784120709 0 -0.0086822935591307146 0.00040163001015560513 0 -0.0089162708108624471 1.2446491150480754e-06 0 -0.0074682041332117081 0.00046872215784120709 0 -0.0086822935591307146 0.00040163001015560513 0 -0.0079384084493604352 0.00052501860386598936 0 -0.0074682041332117081 0.00046872215784120709 0 -0.0079384084493604352 0.00052501860386598936 0 -0.0076712863515038723 0.00048059565091209652 0 -0.0086822935591307146 0.00040163001015560513 0 -0.0089162708108624471 1.2446491150480754e-06 0 -0.010457357764118606 9.5297041990404608e-05 0 -0.0089162708108624471 1.2446491150480754e-06 0 -0.010457357764118606 9.5297041990404608e-05 0 -0.012151841995770777 -1.6198493989753112e-06 0 -0.010457357764118606 9.5297041990404608e-05 0 -0.012151841995770777 -1.6198493989753112e-06 0 -0.012899417264691359 -0.00059861012344476728 0 -0.015389735453684654 -2.3560664508736317e-06 0 -0.012151841995770777 -1.6198493989753112e-06 0 -0.013492977167442004 -0.00060076499992503963 0 -0.012899417264691359 -0.00059861012344476728 0 -0.013492977167442004 -0.00060076499992503963 0 -0.014082558131958925 -0.00039556930401491683 0 -0.012151841995770777 -1.6198493989753112e-06 0 -0.012899417264691359 -0.00059861012344476728 0 -0.013492977167442004 -0.00060076499992503963 0 -0.012899417264691359 -0.00059861012344476728 0 -0.014082558131958925 -0.00039556930401491683 0 -0.01474110373271934 -0.0014426276332462689 0 -0.01270423228526643 -0.00068181387435810943 0 -0.011680087506408685 -0.00085828336982882603 0 -0.0086822935591307146 0.00040163001015560513 0 -0.010457357764118606 9.5297041990404608e-05 0 -0.0085197436326231481 -0.00047477327212544566 0 -0.010457357764118606 9.5297041990404608e-05 0 -0.012899417264691359 -0.00059861012344476728 0 -0.0085197436326231481 -0.00047477327212544566 0 -0.015488910029728988 -0.00012075428787980977 0 -0.014082558131958925 -0.00039556930401491683 0 -0.01474110373271934 -0.0014426276332462689 0 -0.015488910029728988 -0.00012075428787980977 0 -0.01474110373271934 -0.0014426276332462689 0 -0.016069506565251399 -0.0011465300254036883 0 -0.015488910029728988 -0.00012075428787980977 0 -0.016069506565251399 -0.0011465300254036883 0 -0.016658596013222747 -0.00036658946256776166 0 -0.0085197436326231481 -0.00047477327212544566 0 -0.0076069563872324959 5.0298573102237228e-05 0 -0.0076880873553391606 0.00033434088246468854 0 -0.011680087506408685 -0.00085828336982882603 0 -0.011976121821040471 -0.0012088688791510275 0 -0.016069506565251399 -0.0011465300254036883 0 -0.01641323240380612 -0.0021442486297652535 0 -0.016830858408937499 -0.0014877333811971298 0 -0.01474110373271934 -0.0014426276332462689 0 -0.016069506565251399 -0.0011465300254036883 0 -0.01641323240380612 -0.0021442486297652535 0 -0.0076069563872324959 5.0298573102237228e-05 0 -0.0076880873553391606 0.00033434088246468854 0 -0.0075661992677915806 0.00039090573606894455 0 -0.0085197436326231481 -0.00047477327212544566 0 -0.0076880873553391606 0.00033434088246468854 0 -0.0079627275985910632 0.00043871801102736397 0 -0.0086822935591307146 0.00040163001015560513 0 -0.0085197436326231481 -0.00047477327212544566 0 -0.0079627275985910632 0.00043871801102736397 0 -0.0086822935591307146 0.00040163001015560513 0 -0.0079627275985910632 0.00043871801102736397 0 -0.0079384084493604352 0.00052501860386598936 0 -0.0079627275985910632 0.00043871801102736397 0 -0.0079384084493604352 0.00052501860386598936 0 -0.0077116144132139399 0.00049681692599447378 0 -0.0079384084493604352 0.00052501860386598936 0 -0.0077116144132139399 0.00049681692599447378 0 -0.0076712863515038723 0.00048059565091209652 0 -0.0079627275985910632 0.00043871801102736397 0 -0.0077116144132139399 0.00049681692599447378 0 -0.0076102976276539959 0.00047195101660690571 0 -0.0077116144132139399 0.00049681692599447378 0 -0.0076102976276539959 0.00047195101660690571 0 -0.0071646992631016716 0.00058041299754302083 0 -0.0076102976276539959 0.00047195101660690571 0 -0.0075107565178042478 0.00054231917918217537 0 -0.0071646992631016716 0.00058041299754302083 0 -0.0076880873553391606 0.00033434088246468854 0 -0.0076102976276539959 0.00047195101660690571 0 -0.0075107565178042478 0.00054231917918217537 0 -0.0076880873553391606 0.00033434088246468854 0 -0.0075107565178042478 0.00054231917918217537 0 -0.0075661992677915806 0.00039090573606894455 0 -0.0076880873553391606 0.00033434088246468854 0 -0.0079627275985910632 0.00043871801102736397 0 -0.0076102976276539959 0.00047195101660690571 0 -0.0075860003508153671 0.00049652041597853652 0 -0.0074942894129394685 0.0004032712218253198 0 -0.0075661992677915806 0.00039090573606894455 0 -0.0075860003508153671 0.00049652041597853652 0 -0.0075107565178042478 0.00054231917918217537 0 -0.0075661992677915806 0.00039090573606894455 0 -0.0075107565178042478 0.00054231917918217537 0 -0.0077504802433098659 0.00061157619068283461 0 -0.0071646992631016716 0.00058041299754302083 0 -0.0075860003508153671 0.00049652041597853652 0 -0.0075107565178042478 0.00054231917918217537 0 -0.0077504802433098659 0.00061157619068283461 0 -0.0075860003508153671 0.00049652041597853652 0 -0.00739166495842449 0.00044642996415205955 0 -0.0077504802433098659 0.00061157619068283461 0 -0.0072957893288801198 0.00041043452275756368 0 -0.0067306335129495611 2.6804678746330983e-05 0 -0.0070432270522679634 -0.00051622135595850408 0 -0.0073354962728586458 0.00044972815343986052 0 -0.0058221932688065541 -0.00057630835320166246 0 -0.0073354962728586458 0.00044972815343986052 0 -0.00739166495842449 0.00044642996415205955 0 -0.0077504802433098659 0.00061157619068283461 0 -0.0070432270522679634 -0.00051622135595850408 0 -0.0069639704651291304 -0.00065910211151825064 0 -0.0058221932688065541 -0.00057630835320166246 0 -0.0019338585097174261 -0.00093178594355369858 0 -0.0015966487054206485 -0.0012298359248663409 0 -0.0070432270522679634 -0.00051622135595850408 0 -0.0081492169828392674 0.00035980537031513998 0 -0.0069748267888122602 -0.00065197456716922168 0 -0.007251564938034959 -0.00060819039893417995 0 -0.0015966487054206485 -0.0012298359248663409 0 -0.0073354962728586458 0.00044972815343986052 0 -0.007359289291360289 0.00076673622065379988 0 -0.0081492169828392674 0.00035980537031513998 0 -0.0070432270522679634 -0.00051622135595850408 0 -0.0073354962728586458 0.00044972815343986052 0 -0.0081492169828392674 0.00035980537031513998 0 -0.0073354962728586458 0.00044972815343986052 0 -0.00739166495842449 0.00044642996415205955 0 -0.007359289291360289 0.00076673622065379988 0 -0.0075860003508153671 0.00049652041597853652 0 -0.0074942894129394685 0.0004032712218253198 0 -0.00739166495842449 0.00044642996415205955 0 -0.018073055389240665 -0.0028717657067756932 0 -0.017279969251239844 -0.0020739758185442134 0 -0.017801743251084204 -0.0017895503775274531 0 -0.0074942894129394685 0.0004032712218253198 0 -0.00739166495842449 0.00044642996415205955 0 -0.0073991928284405728 0.000360260704463348 0 -0.010311560325902859 -0.00076738999341320548 0 -0.013081932716396794 -0.00024906737132886024 0 -0.01641323240380612 -0.0021442486297652535 0 -0.018073055389240665 -0.0028717657067756932 0 -0.017279969251239844 -0.0020739758185442134 0 -0.011976121821040471 -0.0012088688791510275 0 -0.013081932716396794 -0.00024906737132886024 0 -0.0076069563872324959 5.0298573102237228e-05 0 -0.0074942894129394685 0.0004032712218253198 0 -0.0073991928284405728 0.000360260704463348 0 -0.0076069563872324959 5.0298573102237228e-05 0 -0.0074942894129394685 0.0004032712218253198 0 -0.0075661992677915806 0.00039090573606894455 0 -0.01641323240380612 -0.0021442486297652535 0 -0.017279969251239844 -0.0020739758185442134 0 -0.016830858408937499 -0.0014877333811971298 0 -0.017279969251239844 -0.0020739758185442134 0 -0.016830858408937499 -0.0014877333811971298 0 -0.017801743251084204 -0.0017895503775274531 0 -0.017808368091571193 1.0094670442080036e-05 0 -0.016896323136891576 -0.0014063640162963592 0 -0.017864015262466244 -2.7534132375767775e-05 0 -0.016830858408937499 -0.0014877333811971298 0 -0.016658596013222747 -0.00036658946256776166 0 -0.016069506565251399 -0.0011465300254036883 0 -0.016830858408937499 -0.0014877333811971298 0 -0.016658596013222747 -0.00036658946256776166 0 -0.017777494965710339 8.2753780663243385e-05 0 -0.01815499873160023 -0.00095040921506096062 0 -0.01971925145766763 -0.00019097849331177507 0 -0.017777494965710339 8.2753780663243385e-05 0 -0.016830858408937499 -0.0014877333811971298 0 -0.01815499873160023 -0.00095040921506096062 0 -0.018073055389240665 -0.0028717657067756932 0 -0.017801743251084204 -0.0017895503775274531 0 -0.018894521286853642 -0.0015707588376254107 0 -0.016830858408937499 -0.0014877333811971298 0 -0.01815499873160023 -0.00095040921506096062 0 -0.017801743251084204 -0.0017895503775274531 0 -0.01815499873160023 -0.00095040921506096062 0 -0.017801743251084204 -0.0017895503775274531 0 -0.018894521286853642 -0.0015707588376254107 0 -0.018074951292779976 0.0012431871538225105 0 -0.018886664362466048 0.00092521539269319227 0 -0.018509141358897759 0.00019675807194868302 0 -0.01815499873160023 -0.00095040921506096062 0 -0.018894521286853642 -0.0015707588376254107 0 -0.01971925145766763 -0.00019097849331177507 0 -0.018986650369191733 -0.00014124259283903855 0 -0.019207875850181199 0.0010389482666930173 0 -0.019323671091673766 0.0025092735136567602 0 -0.018726278627390205 0.0023417193104936485 0 -0.019145581078597838 0.0017049991085309176 0 -0.018074951292779976 0.0012431871538225105 0 -0.018726278627390205 0.0023417193104936485 0 -0.019145581078597838 0.0017049991085309176 0 -0.019323671091673766 0.0025092735136567602 0 -0.019145581078597838 0.0017049991085309176 0 -0.019778314330156633 0.0023002408504777696 0 -0.019145581078597838 0.0017049991085309176 0 -0.018886664362466048 0.00092521539269319227 0 -0.019520553338332785 0.0010439338535766995 0 -0.018074951292779976 0.0012431871538225105 0 -0.019145581078597838 0.0017049991085309176 0 -0.018886664362466048 0.00092521539269319227 0 -0.018886664362466048 0.00092521539269319227 0 -0.019188930018662894 0.00048280762330361746 0 -0.019520553338332785 0.0010439338535766995 0 -0.019188930018662894 0.00048280762330361746 0 -0.018881434254465083 5.5616291512262853e-05 0 -0.019613939485345802 0.00014783710891232664 0 -0.019188930018662894 0.00048280762330361746 0 -0.018881434254465083 5.5616291512262853e-05 0 -0.018509141358897759 0.00019675807194868302 0 -0.018886664362466048 0.00092521539269319227 0 -0.019188930018662894 0.00048280762330361746 0 -0.018509141358897759 0.00019675807194868302 0 -0.017457520447807417 0.00017010604491604712 0 -0.018074951292779976 0.0012431871538225105 0 -0.018509141358897759 0.00019675807194868302 0 -0.017457520447807417 0.00017010604491604712 0 -0.018509141358897759 0.00019675807194868302 0 -0.018126380718915296 -0.00012044913086996139 0 -0.013081932716396794 -0.00024906737132886024 0 -0.018986650369191733 -0.00014124259283903855 0 -0.018881434254465083 5.5616291512262853e-05 0 -0.018509141358897759 0.00019675807194868302 0 -0.01822593227037338 -4.0442355511342556e-05 0 -0.013081932716396794 -0.00024906737132886024 0 -0.014080554128575718 0.00079307312044976837 0 -0.017524029229410501 0.0013324653150944309 0 -0.014080554128575718 0.00079307312044976837 0 -0.017547831761974501 0.00023095622661265433 0 -0.017429252436583779 0.00013648267841540442 0 -0.01821420782426688 -0.0011245426164620384 0 0.0030168831028452013 -0.0013815789369589933 0 0.0030640452552843588 -0.001367030297633252 0 0.0030818596648003915 -0.0014033644894734631 0 -0.007251564938034959 -0.00060819039893417995 0 -0.0075255809830622215 -0.00118802800433829 0 -0.007359289291360289 0.00076673622065379988 0 -0.0082779262493117636 0.00046775438681649249 0 -0.0081492169828392674 0.00035980537031513998 0 -0.014080554128575718 0.00079307312044976837 0 -0.007251564938034959 -0.00060819039893417995 0 0.0030168831028452013 -0.0013815789369589933 0 0.0030818596648003915 -0.0014033644894734631 0 0.0031137286603361417 -0.0014280780194217163 0 -0.018881434254465083 5.5616291512262853e-05 0 -0.01822593227037338 -4.0442355511342556e-05 0 -0.019024614841117254 -0.00044686544266534797 0 -0.017547831761974501 0.00023095622661265433 0 -0.019024614841117254 -0.00044686544266534797 0 -0.01821420782426688 -0.0011245426164620384 0 -0.014080554128575718 0.00079307312044976837 0 -0.020424005160664834 -0.00087830780553213486 0 -0.018881434254465083 5.5616291512262853e-05 0 -0.019024614841117254 -0.00044686544266534797 0 -0.019613939485345802 0.00014783710891232664 0 -0.019024614841117254 -0.00044686544266534797 0 -0.01821420782426688 -0.0011245426164620384 0 -0.019093417969918845 -0.0010682049235444236 0 -0.01821420782426688 -0.0011245426164620384 0 -0.018627760643776935 -0.0020025262875647738 0 -0.019093417969918845 -0.0010682049235444236 0 0.0030818596648003915 -0.0014033644894734631 0 0.0031413829928469447 -0.0014979298652336088 0 0.0031506074918792796 -0.0014840519838706266 0 0.0030640452552843588 -0.001367030297633252 0 0.0030818596648003915 -0.0014033644894734631 0 0.0031413829928469447 -0.0014979298652336088 0 0.0031413829928469447 -0.0014979298652336088 0 0.0031930692565418791 -0.0015105070085178745 0 0.0031506074918792796 -0.0014840519838706266 0 0.0031413829928469447 -0.0014979298652336088 0 0.0031930692565418791 -0.0015105070085178745 0 0.0031424684933094712 -0.0015864855113530449 0 -0.0075255809830622215 -0.00118802800433829 0 -0.0084545023413891592 -0.0022273751409327999 0 0.0030640452552843588 -0.001367030297633252 0 0.0024731499197201312 -0.0019242428535951183 0 0.0027974162674311762 -0.0017681965000141437 0 0.0030640452552843588 -0.001367030297633252 0 0.0031413829928469447 -0.0014979298652336088 0 0.0027974162674311762 -0.0017681965000141437 0 0.0031413829928469447 -0.0014979298652336088 0 0.0031424684933094712 -0.0015864855113530449 0 0.0027974162674311762 -0.0017681965000141437 0 0.0028636861730905474 -0.0017378558847410139 0 0.002709473635439347 -0.0017158818619752675 0 0.0024731499197201312 -0.0019242428535951183 0 0.0018585975438402133 -0.0026875567116107328 0 0.0018280536765561105 -0.0025592992074159452 0 0.0027974162674311762 -0.0017681965000141437 0 0.0033242281946821045 -0.0014458766675298973 0 0.0038861864142067655 -0.0011172960843068281 0 0.0024731499197201312 -0.0019242428535951183 0 0.0027974162674311762 -0.0017681965000141437 0 0.0018585975438402133 -0.0026875567116107328 0 0.0031424684933094712 -0.0015864855113530449 0 0.0027974162674311762 -0.0017681965000141437 0 0.0033242281946821045 -0.0014458766675298973 0 0.0039392777543807763 -0.00075775421324232627 0 0.0038861864142067655 -0.0011172960843068281 0 0.0037685007548743693 -0.00097168871870320715 0 0.0038861864142067655 -0.0011172960843068281 0 0.0035589115781824391 -0.001216436621852783 0 0.0037685007548743693 -0.00097168871870320715 0 0.0035589115781824391 -0.001216436621852783 0 0.0037685007548743693 -0.00097168871870320715 0 0.0036080201464775007 -0.00104682020500678 0 0.0033242281946821045 -0.0014458766675298973 0 0.0038861864142067655 -0.0011172960843068281 0 0.0035589115781824391 -0.001216436621852783 0 0.0036985613933772786 -0.00071785839461410695 0 0.0036080201464775007 -0.00104682020500678 0 0.0034382078081881531 -0.0010623529026420988 0 0.0038304491286164756 -0.00073501783688718209 0 0.0037685007548743693 -0.00097168871870320715 0 0.0036080201464775007 -0.00104682020500678 0 0.0035589115781824391 -0.001216436621852783 0 0.0036080201464775007 -0.00104682020500678 0 0.0033316966078754187 -0.0013990065933382771 0 0.0036080201464775007 -0.00104682020500678 0 0.0033316966078754187 -0.0013990065933382771 0 0.0034382078081881531 -0.0010623529026420988 0 0.0033316966078754187 -0.0013990065933382771 0 0.0032166772329249747 -0.0013991019118666907 0 0.0034382078081881531 -0.0010623529026420988 0 0.0033242281946821045 -0.0014458766675298973 0 0.0035589115781824391 -0.001216436621852783 0 0.0033316966078754187 -0.0013990065933382771 0 0.0031930692565418791 -0.0015105070085178745 0 0.0031424684933094712 -0.0015864855113530449 0 0.0033316966078754187 -0.0013990065933382771 0 0.0031424684933094712 -0.0015864855113530449 0 0.0033242281946821045 -0.0014458766675298973 0 0.0033316966078754187 -0.0013990065933382771 0 0.0031930692565418791 -0.0015105070085178745 0 0.0033316966078754187 -0.0013990065933382771 0 0.0032166772329249747 -0.0013991019118666907 0 0.0032166772329249747 -0.0013991019118666907 0 0.003111821570035222 -0.0012297310939522756 0 0.0030801131658834578 -0.0014829101058388991 0 0.0032166772329249747 -0.0013991019118666907 0 0.0034382078081881531 -0.0010623529026420988 0 0.003111821570035222 -0.0012297310939522756 0 0.0036148660657888284 -0.0003997531918123519 0 0.0033546897189785686 -0.0010586743536808055 0 0.003069755662412711 -0.00087576137316765917 0 0.0034382078081881531 -0.0010623529026420988 0 0.003111821570035222 -0.0012297310939522756 0 0.003069755662412711 -0.00087576137316765917 0 0.003111821570035222 -0.0012297310939522756 0 0.0028419104929426789 -0.0011595539653709041 0 0.0036148660657888284 -0.0003997531918123519 0 0.0017323943961081065 -0.00074701673572535844 0 0.0031343382703646395 -0.000313638721750281 0 0.0031044252725995866 -0.00031630185043272002 0 0.0030926463794667645 -0.00034877288284071185 0 0.003111821570035222 -0.0012297310939522756 0 0.0030801131658834578 -0.0014829101058388991 0 0.0028419104929426789 -0.0011595539653709041 0 0.0015813195281774947 -0.0015083899855483569 0 0.0017323943961081065 -0.00074701673572535844 0 0.0032166772329249747 -0.0013991019118666907 0 0.0030801131658834578 -0.0014829101058388991 0 0.0031506074918792796 -0.0014840519838706266 0 0.0031930692565418791 -0.0015105070085178745 0 0.0032166772329249747 -0.0013991019118666907 0 0.0031506074918792796 -0.0014840519838706266 0 0.0030818596648003915 -0.0014033644894734631 0 0.0031506074918792796 -0.0014840519838706266 0 0.0031137286603361417 -0.0014280780194217163 0 0.0030801131658834578 -0.0014829101058388991 0 0.0031506074918792796 -0.0014840519838706266 0 0.0031137286603361417 -0.0014280780194217163 0 0.0015813195281774947 -0.0015083899855483569 0 -0.0015966487054206485 -0.0012298359248663409 0 -0.0052222117013708954 -0.002039104725495951 0 -0.0069639704651291304 -0.00065910211151825064 0 -0.0058221932688065541 -0.00057630835320166246 0 -0.00059692147033499712 -0.0011984873912844736 0 -0.00054945031282858578 -0.0011400705683035667 0 -0.00071750798944818564 -0.0010108234209538032 0 -0.0052222117013708954 -0.002039104725495951 0 -0.0058221932688065541 -0.00057630835320166246 0 -0.0043321843250440509 -0.0016666444374777878 0 -0.0034525655009483226 -0.0015245982255902614 0 -0.0015966487054206485 -0.0012298359248663409 0 -0.0067306335129495611 2.6804678746330983e-05 0 -0.0052989695318306851 -0.00081724269309914495 0 -0.0077504802433098659 0.00061157619068283461 0 -0.0060407121150626584 -8.8853468245426202e-06 0 -0.0071646992631016716 0.00058041299754302083 0 -0.0077116144132139399 0.00049681692599447378 0 -0.0071646992631016716 0.00058041299754302083 0 -0.0078237156662962406 0.00033258595612973554 0 -0.0060407121150626584 -8.8853468245426202e-06 0 -0.0071646992631016716 0.00058041299754302083 0 -0.0040964924591352881 0.00023784986349199432 0 -0.0069887802027113243 0.00056636917511932166 0 -0.0058585921476139394 0.00021018199553502571 0 -0.0076712863515038723 0.00048059565091209652 0 -0.0078237156662962406 0.00033258595612973554 0 -0.007102665543921147 0.00027046955795995739 0 -0.0077116144132139399 0.00049681692599447378 0 -0.0076712863515038723 0.00048059565091209652 0 -0.0078237156662962406 0.00033258595612973554 0 -0.0043321843250440509 -0.0016666444374777878 0 -0.0028705043481928117 -0.0027656647697522408 0 -0.0038244224017117282 -0.0025051571707270328 0 -0.0060407121150626584 -8.8853468245426202e-06 0 -0.0040964924591352881 0.00023784986349199432 0 -0.0033908388883521156 -0.00099946317747892405 0 -0.0052989695318306851 -0.00081724269309914495 0 -0.002330590326937471 -0.0013446084540578646 0 -0.0040964924591352881 0.00023784986349199432 0 -0.0027631565966569206 -0.00024289756836817116 0 -0.0033908388883521156 -0.00099946317747892405 0 -0.0024302634384133774 -0.00092627114736005503 0 -0.002330590326937471 -0.0013446084540578646 0 -0.002330590326937471 -0.0013446084540578646 0 -0.000766415507007491 -0.001332855165040452 0 -0.0028705043481928117 -0.0027656647697522408 0 -0.0038244224017117282 -0.0025051571707270328 0 -0.0035101724280786569 -0.0034272400931635583 0 -0.0052222117013708954 -0.002039104725495951 0 -0.0043321843250440509 -0.0016666444374777878 0 -0.0038244224017117282 -0.0025051571707270328 0 -0.0034525655009483226 -0.0015245982255902614 0 -0.000766415507007491 -0.001332855165040452 0 -0.0052222117013708954 -0.002039104725495951 0 -0.0038244224017117282 -0.0025051571707270328 0 -0.0035101724280786569 -0.0034272400931635583 0 -0.00059692147033499712 -0.0011984873912844736 0 -0.00054945031282858578 -0.0011400705683035667 0 -0.00040122152345467696 -0.0012577629543231844 0 -0.00059692147033499712 -0.0011984873912844736 0 -0.00049004575394287681 -0.0013619871550284021 0 -0.00040122152345467696 -0.0012577629543231844 0 0.001915281919739556 -0.00042805512037313295 0 0.0014954766578173853 -0.00043374358663300411 0 0.0014895512418215265 -0.00089888181239681164 0 0.0017323943961081065 -0.00074701673572535844 0 -0.000766415507007491 -0.001332855165040452 0 0.0031044252725995866 -0.00031630185043272002 0 0.0030842367713461187 -0.00030649890182930583 0 0.0030926463794667645 -0.00034877288284071185 0 0.002278371597299518 -3.4125810413670731e-05 0 0.0017323943961081065 -0.00074701673572535844 0 0.0016272641313182722 4.8255966993723706e-05 0 0.001915281919739556 -0.00042805512037313295 0 0.0014954766578173853 -0.00043374358663300411 0 0.0016272641313182722 4.8255966993723706e-05 0 0.0012882145883799491 -0.00020860514657780721 0 0.0014954766578173853 -0.00043374358663300411 0 0.0012882145883799491 -0.00020860514657780721 0 0.0014954766578173853 -0.00043374358663300411 0 0.0010112383720703349 -0.00056902917207067312 0 -0.00058824498970636669 -0.00045480299819383361 0 -0.00072809671367056678 -0.00041788567963960339 0 -0.0007736479580328395 -0.00010336191537020731 0 -0.00035205867217221381 -0.00048912699085591901 0 -0.00058824498970636669 -0.00045480299819383361 0 -0.0007736479580328395 -0.00010336191537020731 0 0.0014954766578173853 -0.00043374358663300411 0 0.0014895512418215265 -0.00089888181239681164 0 0.0010112383720703349 -0.00056902917207067312 0 -0.000766415507007491 -0.001332855165040452 0 0.00028010816936018847 -0.00031538304542715404 0 -0.00056995025890498551 -0.00071079798131992158 0 -0.00058824498970636669 -0.00045480299819383361 0 -0.00072809671367056678 -0.00041788567963960339 0 -0.00056995025890498551 -0.00071079798131992158 0 -0.00035205867217221381 -0.00048912699085591901 0 -0.00058824498970636669 -0.00045480299819383361 0 -0.002330590326937471 -0.0013446084540578646 0 -0.0011653481826491671 -0.0003271462142790241 0 -0.0029029467568645767 -0.00065588199613926361 0 -0.0010251437288244692 -0.00034107692343388692 0 -0.0012686919084066123 -0.00050748117715770761 0 -0.00056995025890498551 -0.00071079798131992158 0 -0.00072809671367056678 -0.00041788567963960339 0 -0.0010251437288244692 -0.00034107692343388692 0 -0.0010251437288244692 -0.00034107692343388692 0 -0.0007736479580328395 -0.00010336191537020731 0 -0.00083247916345360949 3.8167419792141629e-05 0 -0.00072809671367056678 -0.00041788567963960339 0 -0.0010251437288244692 -0.00034107692343388692 0 -0.0007736479580328395 -0.00010336191537020731 0 0.0012882145883799491 -0.00020860514657780721 0 0.0010112383720703349 -0.00056902917207067312 0 0.00016361983476119568 2.883725923732121e-05 0 -0.0007736479580328395 -0.00010336191537020731 0 -0.00083247916345360949 3.8167419792141629e-05 0 0.00016361983476119568 2.883725923732121e-05 0 0.00028010816936018847 -0.00031538304542715404 0 3.3065266288283832e-05 1.7617805181006167e-05 0 0.00060734474833346887 1.1352344539048291e-06 0 -0.00083247916345360949 3.8167419792141629e-05 0 0.00016361983476119568 2.883725923732121e-05 0 0.00060734474833346887 1.1352344539048291e-06 0 -0.00083247916345360949 3.8167419792141629e-05 0 -0.0024395426208170872 -1.7569444007345571e-06 0 -0.0010251437288244692 -0.00034107692343388692 0 -0.00083247916345360949 3.8167419792141629e-05 0 -0.0024395426208170872 -1.7569444007345571e-06 0 -0.0024453301157511711 -8.8130491803467929e-08 0 -0.0039255240693203148 -0.00037846406615345127 0 -0.0010251437288244692 -0.00034107692343388692 0 -0.0024395426208170872 -1.7569444007345571e-06 0 -0.0012686919084066123 -0.00050748117715770761 0 -0.0024485457770821715 -2.6994217057118734e-06 0 -0.0059602875740311168 7.3915111485878946e-05 0 -0.0064388953579379467 -0.00052218828599857599 0 -0.0024485457770821715 -2.6994217057118734e-06 0 -0.0059602875740311168 7.3915111485878946e-05 0 -0.0056807609057225195 1.2531763354289463e-06 0 -0.0058585921476139394 0.00021018199553502571 0 -0.0039255240693203148 -0.00037846406615345127 0 -0.0078237156662962406 0.00033258595612973554 0 -0.0064388953579379467 -0.00052218828599857599 0 -0.007102665543921147 0.00027046955795995739 0 -0.0040964924591352881 0.00023784986349199432 0 -0.0027631565966569206 -0.00024289756836817116 0 -0.0012686919084066123 -0.00050748117715770761 0 -0.0027631565966569206 -0.00024289756836817116 0 -0.0029029467568645767 -0.00065588199613926361 0 -0.0012686919084066123 -0.00050748117715770761 0 -0.0059602875740311168 7.3915111485878946e-05 0 -0.0064388953579379467 -0.00052218828599857599 0 -0.007102665543921147 0.00027046955795995739 0 -0.0074682041332117081 0.00046872215784120709 0 -0.0059602875740311168 7.3915111485878946e-05 0 -0.007102665543921147 0.00027046955795995739 0 -0.0074682041332117081 0.00046872215784120709 0 -0.0076712863515038723 0.00048059565091209652 0 -0.007102665543921147 0.00027046955795995739 0 -0.0074682041332117081 0.00046872215784120709 0 -0.0059602875740311168 7.3915111485878946e-05 0 -0.0056807609057225195 1.2531763354289463e-06 0 -0.023294765468592177 0.0010393791787685607 0 -0.02321224530540348 0.0010761636097120983 0 -0.023104322167195955 0.0011211152178537218 0 -0.023294765468592177 0.0010393791787685607 0 -0.023268824485958618 0.0010924939186484556 0 -0.023354573813807889 0.0012338407747742558 0 -0.023294765468592177 0.0010393791787685607 0 -0.023268824485958618 0.0010924939186484556 0 -0.02321224530540348 0.0010761636097120983 0 -0.023268824485958618 0.0010924939186484556 0 -0.023194722103269814 0.001045923334691474 0 -0.023224073168684307 0.0011942612665572822 0 -0.023268824485958618 0.0010924939186484556 0 -0.023194722103269814 0.001045923334691474 0 -0.02321224530540348 0.0010761636097120983 0 -0.023194722103269814 0.001045923334691474 0 -0.02321224530540348 0.0010761636097120983 0 -0.023170454267440691 0.001184549293780709 0 -0.013979421030021859 0.0021064342708600604 0 -0.01430625114253898 0.0012199003526098544 0 -0.013407002283897435 0.0014382579368635191 0 -0.01901187765396746 0.0011665034270792723 0 -0.019377303299034192 0.0012744427191498753 0 -0.023104322167195955 0.0011211152178537218 0 -0.02288853770297546 0.0011579948291211915 0 -0.022952783714392414 0.0013138693498355295 0 -0.02321224530540348 0.0010761636097120983 0 -0.023170454267440691 0.001184549293780709 0 -0.023104322167195955 0.0011211152178537218 0 -0.023170454267440691 0.001184549293780709 0 -0.023104322167195955 0.0011211152178537218 0 -0.022952783714392414 0.0013138693498355295 0 -0.023294765468592177 0.0010393791787685607 0 -0.023104322167195955 0.0011211152178537218 0 -0.02288853770297546 0.0011579948291211915 0 -0.023727116547640044 0.00085676613711856088 0 -0.024439082776409483 4.6650203610605001e-08 0 -0.024872901955040255 -0.00069014121766035536 0 -0.025315391234121968 -0.00080497220873190127 0 -0.025192889830092834 -0.00040277680589566897 0 -0.025192889830092834 -0.00040277680589566897 0 -0.025800172679285114 -4.0041377233218084e-05 0 -0.025017108325413415 1.3887143467867575e-05 0 -0.024872901955040255 -0.00069014121766035536 0 -0.025192889830092834 -0.00040277680589566897 0 -0.025017108325413415 1.3887143467867575e-05 0 -0.032478379823037161 -0.00096491400263247929 0 -0.03329683209251641 0.0013639720959018769 0 -0.025890506077470531 -0.00081061904870728121 0 -0.025800172679285114 -4.0041377233218084e-05 0 -0.026542908209345472 -0.00099439371970253009 0 -0.025315391234121968 -0.00080497220873190127 0 -0.025890506077470531 -0.00081061904870728121 0 -0.025800172679285114 -4.0041377233218084e-05 0 -0.025315391234121968 -0.00080497220873190127 0 -0.025192889830092834 -0.00040277680589566897 0 -0.025800172679285114 -4.0041377233218084e-05 0 -0.032478379823037161 -0.00096491400263247929 0 -0.031707505209938557 0.00018977223758190451 0 -0.039042927923408813 -0.0010573321548852362 0 -0.039224802257970232 -0.00089511890752094129 0 -0.038475005486136853 -0.00081864148004209608 0 -0.039042927923408813 -0.0010573321548852362 0 -0.039224802257970232 -0.00089511890752094129 0 -0.039245914852368717 -0.0010045552948241005 0 -0.024326869551626371 0.00040859529521593572 0 -0.025017108325413415 1.3887143467867575e-05 0 -0.025080256629063002 0.00094582147756773949 0 -0.025800172679285114 -4.0041377233218084e-05 0 -0.025017108325413415 1.3887143467867575e-05 0 -0.025080256629063002 0.00094582147756773949 0 -0.024326869551626371 0.00040859529521593572 0 -0.024872901955040255 -0.00069014121766035536 0 -0.025017108325413415 1.3887143467867575e-05 0 -0.039224802257970232 -0.00089511890752094129 0 -0.038475005486136853 -0.00081864148004209608 0 -0.039455618527354151 -0.00061329781199255073 0 -0.038475005486136853 -0.00081864148004209608 0 -0.039455618527354151 -0.00061329781199255073 0 -0.038662071288878108 -7.8098033363432104e-05 0 -0.039646122195633814 -1.0562189705984669e-05 0 -0.039527049259712121 -0.00074309937291422911 0 -0.04033382302264784 -0.0014860044094641299 0 -0.039455618527354151 -0.00061329781199255073 0 -0.039733314945884175 -0.0013591210413539639 0 -0.038933232062747368 0.00074375864789575882 0 -0.039455618527354151 -0.00061329781199255073 0 -0.038662071288878108 -7.8098033363432104e-05 0 -0.031707505209938557 0.00018977223758190451 0 -0.030913207294277417 0.00092881385152116826 0 -0.038125337066107386 0.0010566216605619482 0 -0.038662071288878108 -7.8098033363432104e-05 0 -0.037446786306022599 0.00010470118286991473 0 -0.038475005486136853 -0.00081864148004209608 0 -0.038662071288878108 -7.8098033363432104e-05 0 -0.037446786306022599 0.00010470118286991473 0 -0.025080256629063002 0.00094582147756773949 0 -0.024178504682572016 0.0020176977949588845 0 -0.023703163766649139 0.0016557897098521529 0 -0.024178504682572016 0.0020176977949588845 0 -0.023703163766649139 0.0016557897098521529 0 -0.023238397151486088 0.0018227252623326127 0 -0.023727116547640044 0.00085676613711856088 0 -0.023689660145060472 0.0015827835809882375 0 -0.024326869551626371 0.00040859529521593572 0 -0.025080256629063002 0.00094582147756773949 0 -0.023703163766649139 0.0016557897098521529 0 -0.023294765468592177 0.0010393791787685607 0 -0.023703163766649139 0.0016557897098521529 0 -0.023354573813807889 0.0012338407747742558 0 -0.023194722103269814 0.001045923334691474 0 -0.023224073168684307 0.0011942612665572822 0 -0.022865437719415207 0.0013331605727103103 0 -0.01901187765396746 0.0011665034270792723 0 -0.023144724968401975 0.0006915963846293975 0 -0.023354573813807889 0.0012338407747742558 0 -0.023224073168684307 0.0011942612665572822 0 -0.023294344898689451 0.0014202681077578789 0 -0.023268824485958618 0.0010924939186484556 0 -0.023354573813807889 0.0012338407747742558 0 -0.023224073168684307 0.0011942612665572822 0 -0.023703163766649139 0.0016557897098521529 0 -0.023354573813807889 0.0012338407747742558 0 -0.023294344898689451 0.0014202681077578789 0 -0.023294344898689451 0.0014202681077578789 0 -0.023238397151486088 0.0018227252623326127 0 -0.022865437719415207 0.0013331605727103103 0 -0.023224073168684307 0.0011942612665572822 0 -0.023294344898689451 0.0014202681077578789 0 -0.022865437719415207 0.0013331605727103103 0 -0.023159706413164151 0.0024643232921097843 0 -0.024178504682572016 0.0020176977949588845 0 -0.023238397151486088 0.0018227252623326127 0 -0.023703163766649139 0.0016557897098521529 0 -0.023294344898689451 0.0014202681077578789 0 -0.023238397151486088 0.0018227252623326127 0 -0.023159706413164151 0.0024643232921097843 0 -0.023238397151486088 0.0018227252623326127 0 -0.022547635047824036 0.0019801629756314209 0 -0.022547635047824036 0.0019801629756314209 0 -0.021843565755152946 0.0014415364706600068 0 -0.022865437719415207 0.0013331605727103103 0 -0.023238397151486088 0.0018227252623326127 0 -0.022547635047824036 0.0019801629756314209 0 -0.022865437719415207 0.0013331605727103103 0 -0.022427779200385668 0.0025686836223357151 0 -0.022547635047824036 0.0019801629756314209 0 -0.021786004169009349 0.0020364510657193179 0 -0.021786004169009349 0.0020364510657193179 0 -0.021843565755152946 0.0014415364706600068 0 -0.020837306586508935 0.0017928074012881598 0 -0.022547635047824036 0.0019801629756314209 0 -0.021786004169009349 0.0020364510657193179 0 -0.021843565755152946 0.0014415364706600068 0 -0.021843565755152946 0.0014415364706600068 0 -0.020951976585815379 0.00088946883455295021 0 -0.022025852153269767 0.00065792465113007233 0 -0.021843565755152946 0.0014415364706600068 0 -0.022865437719415207 0.0013331605727103103 0 -0.022025852153269767 0.00065792465113007233 0 -0.023083648519139497 0.0005015771031708935 0 -0.022865437719415207 0.0013331605727103103 0 -0.022025852153269767 0.00065792465113007233 0 -0.020676745829304247 0.0026232515757998258 0 -0.019778314330156633 0.0023002408504777696 0 -0.020837306586508935 0.0017928074012881598 0 -0.019778314330156633 0.0023002408504777696 0 -0.019956266768089242 0.0016071371753382953 0 -0.020837306586508935 0.0017928074012881598 0 -0.019145581078597838 0.0017049991085309176 0 -0.019778314330156633 0.0023002408504777696 0 -0.019956266768089242 0.0016071371753382953 0 -0.021764773911477787 0.0026175849937029572 0 -0.021786004169009349 0.0020364510657193179 0 -0.020837306586508935 0.0017928074012881598 0 -0.020676745829304247 0.0026232515757998258 0 -0.021764773911477787 0.0026175849937029572 0 -0.020837306586508935 0.0017928074012881598 0 -0.020837306586508935 0.0017928074012881598 0 -0.020951976585815379 0.00088946883455295021 0 -0.020315628514192326 0.0012191560218986531 0 -0.021843565755152946 0.0014415364706600068 0 -0.020837306586508935 0.0017928074012881598 0 -0.020951976585815379 0.00088946883455295021 0 -0.020951976585815379 0.00088946883455295021 0 -0.020315628514192326 0.0012191560218986531 0 -0.020048955977358975 0.00072215434369445953 0 -0.019956266768089242 0.0016071371753382953 0 -0.020837306586508935 0.0017928074012881598 0 -0.020315628514192326 0.0012191560218986531 0 -0.019956266768089242 0.0016071371753382953 0 -0.020315628514192326 0.0012191560218986531 0 -0.019520553338332785 0.0010439338535766995 0 -0.020315628514192326 0.0012191560218986531 0 -0.019520553338332785 0.0010439338535766995 0 -0.020048955977358975 0.00072215434369445953 0 -0.019145581078597838 0.0017049991085309176 0 -0.019956266768089242 0.0016071371753382953 0 -0.019520553338332785 0.0010439338535766995 0 -0.019188930018662894 0.00048280762330361746 0 -0.019613939485345802 0.00014783710891232664 0 -0.020048955977358975 0.00072215434369445953 0 -0.019188930018662894 0.00048280762330361746 0 -0.019520553338332785 0.0010439338535766995 0 -0.020048955977358975 0.00072215434369445953 0 -0.019613939485345802 0.00014783710891232664 0 -0.020048955977358975 0.00072215434369445953 0 -0.020316297740756464 0.00019964891879157632 0 -0.020951976585815379 0.00088946883455295021 0 -0.020048955977358975 0.00072215434369445953 0 -0.020316297740756464 0.00019964891879157632 0 -0.020951976585815379 0.00088946883455295021 0 -0.020316297740756464 0.00019964891879157632 0 -0.021157792553689669 0.00016422786134238812 0 -0.020432848835754518 -0.00035147785030292865 0 -0.019722103054154248 -0.000460813593730715 0 -0.019877835472061837 -0.0012837259438571028 0 -0.020432848835754518 -0.00035147785030292865 0 -0.021157792553689669 0.00016422786134238812 0 -0.021064797000832833 -0.00050967821023080754 0 -0.020316297740756464 0.00019964891879157632 0 -0.020432848835754518 -0.00035147785030292865 0 -0.021157792553689669 0.00016422786134238812 0 -0.020432848835754518 -0.00035147785030292865 0 -0.021064797000832833 -0.00050967821023080754 0 -0.020561805069301803 -0.00095048737571728549 0 -0.020316297740756464 0.00019964891879157632 0 -0.020432848835754518 -0.00035147785030292865 0 -0.019722103054154248 -0.000460813593730715 0 -0.019613939485345802 0.00014783710891232664 0 -0.020316297740756464 0.00019964891879157632 0 -0.019722103054154248 -0.000460813593730715 0 -0.019024614841117254 -0.00044686544266534797 0 -0.019722103054154248 -0.000460813593730715 0 -0.019093417969918845 -0.0010682049235444236 0 -0.019024614841117254 -0.00044686544266534797 0 -0.019613939485345802 0.00014783710891232664 0 -0.019722103054154248 -0.000460813593730715 0 -0.01901187765396746 0.0011665034270792723 0 -0.018440094575258699 0.00070762116680972572 0 -0.023083648519139497 0.0005015771031708935 0 -0.022025852153269767 0.00065792465113007233 0 -0.022162462269217913 -0.00044741505394114539 0 -0.022025852153269767 0.00065792465113007233 0 -0.021157792553689669 0.00016422786134238812 0 -0.022162462269217913 -0.00044741505394114539 0 -0.020951976585815379 0.00088946883455295021 0 -0.022025852153269767 0.00065792465113007233 0 -0.021157792553689669 0.00016422786134238812 0 -0.021064797000832833 -0.00050967821023080754 0 -0.022162462269217913 -0.00044741505394114539 0 -0.021196018079950304 -0.00092616444775732432 0 -0.021157792553689669 0.00016422786134238812 0 -0.021064797000832833 -0.00050967821023080754 0 -0.022162462269217913 -0.00044741505394114539 0 -0.013407002283897435 0.0014382579368635191 0 -0.012824490642922256 0.00075165718447763334 0 -0.013744305761995857 0.00054666342797724931 0 -0.011167977666437788 0.000431351503103189 0 -0.0077239857246419333 0.0013476881100062989 0 -0.022162462269217913 -0.00044741505394114539 0 -0.021196018079950304 -0.00092616444775732432 0 -0.021114395974344644 -0.0013641289697535585 0 -0.018440094575258699 0.00070762116680972572 0 -0.011167977666437788 0.000431351503103189 0 -0.021196018079950304 -0.00092616444775732432 0 -0.021114395974344644 -0.0013641289697535585 0 -0.020561805069301803 -0.00095048737571728549 0 -0.021064797000832833 -0.00050967821023080754 0 -0.021196018079950304 -0.00092616444775732432 0 -0.020561805069301803 -0.00095048737571728549 0 -0.011167977666437788 0.000431351503103189 0 -0.010967431810211193 -0.00067619921248816383 0 -0.0022779985255172866 0.0020353021821634867 0 -0.00091582009401380122 0.00046809200488232851 0 -0.0027091349973180738 0.00013977997951767005 0 -0.0039748200593016283 -9.5381767276963672e-05 0 -0.0027091349973180738 0.00013977997951767005 0 -0.0042781682928197638 0.0015199592492456432 0 -0.0022779985255172866 0.0020353021821634867 0 -0.0027091349973180738 0.00013977997951767005 0 -0.0042781682928197638 0.0015199592492456432 0 -0.019722103054154248 -0.000460813593730715 0 -0.019093417969918845 -0.0010682049235444236 0 -0.019877835472061837 -0.0012837259438571028 0 -0.020432848835754518 -0.00035147785030292865 0 -0.019877835472061837 -0.0012837259438571028 0 -0.020561805069301803 -0.00095048737571728549 0 -0.021114395974344644 -0.0013641289697535585 0 -0.019877835472061837 -0.0012837259438571028 0 -0.020561805069301803 -0.00095048737571728549 0 -0.021114395974344644 -0.0013641289697535585 0 -0.019877835472061837 -0.0012837259438571028 0 -0.019948323653043276 -0.0022406449075184831 0 -0.018627760643776935 -0.0020025262875647738 0 -0.019877835472061837 -0.0012837259438571028 0 -0.019948323653043276 -0.0022406449075184831 0 -0.018627760643776935 -0.0020025262875647738 0 -0.019093417969918845 -0.0010682049235444236 0 -0.019877835472061837 -0.0012837259438571028 0 -0.00091582009401380122 0.00046809200488232851 0 0.00042625207809036394 -0.0014039964576417017 0 0.00053790411010234994 -0.0013525723787559149 0 0.0024731499197201312 -0.0019242428535951183 0 0.0014474786380650302 -0.0026747687451443292 0 0.0018280536765561105 -0.0025592992074159452 0 -0.018627760643776935 -0.0020025262875647738 0 -0.019948323653043276 -0.0022406449075184831 0 -0.018887873143748211 -0.002941710535309883 0 -0.0084545023413891592 -0.0022273751409327999 0 -0.0060334316634205864 -0.002298345206862719 0 -0.010967431810211193 -0.00067619921248816383 0 -0.0060334316634205864 -0.002298345206862719 0 -0.00091582009401380122 0.00046809200488232851 0 0.00042625207809036394 -0.0014039964576417017 0 -0.0015235820474560876 -0.0011042589030651954 0 -0.0007232984698578135 -0.0024605384167961726 0 0.00042625207809036394 -0.0014039964576417017 0 -0.0015235820474560876 -0.0011042589030651954 0 0.00084863174375182692 -0.0021192904234182057 0 0.00034931118060546043 -0.0016592145988722677 0 0.00083769325805658384 -0.0019256724529274061 0 0.00079270178322630037 -0.001946110696304199 0 0.00042625207809036394 -0.0014039964576417017 0 0.00083769325805658384 -0.0019256724529274061 0 0.00096953835251919725 -0.0020772704682675853 0 0.00053790411010234994 -0.0013525723787559149 0 0.001703536823039395 -0.0025292388424645244 0 0.0016775867405402854 -0.0027018060777650918 0 0.0016696949242530979 -0.0026773607771247753 0 0.0019543829412624059 -0.0017979594905904101 0 -0.0060334316634205864 -0.002298345206862719 0 0.00083769325805658384 -0.0019256724529274061 0 0.00042625207809036394 -0.0014039964576417017 0 0.00053790411010234994 -0.0013525723787559149 0 0.0016670017105141221 -0.0025541328147601107 0 0.0018585975438402133 -0.0026875567116107328 0 0.0016696949242530979 -0.0026773607771247753 0 0.0018585975438402133 -0.0026875567116107328 0 0.0016696949242530979 -0.0026773607771247753 0 0.0018280536765561105 -0.0025592992074159452 0 0.0014474786380650302 -0.0026747687451443292 0 0.0016696949242530979 -0.0026773607771247753 0 0.0018280536765561105 -0.0025592992074159452 0 -0.0060334316634205864 -0.002298345206862719 0 -0.0033999970392141372 -0.0038164470726537933 0 -0.0039748200593016283 -9.5381767276963672e-05 0 -0.0027091349973180738 0.00013977997951767005 0 -0.0032427745299931266 -0.0020319350879070327 0 -0.00091582009401380122 0.00046809200488232851 0 -0.0027091349973180738 0.00013977997951767005 0 -0.0015235820474560876 -0.0011042589030651954 0 -0.0007232984698578135 -0.0024605384167961726 0 -0.0015235820474560876 -0.0011042589030651954 0 -0.0032427745299931266 -0.0020319350879070327 0 -0.0027091349973180738 0.00013977997951767005 0 -0.0015235820474560876 -0.0011042589030651954 0 -0.0032427745299931266 -0.0020319350879070327 0 0.00084863174375182692 -0.0021192904234182057 0 -1.0439849234391901e-05 -0.0022835097497482023 0 -0.0039748200593016283 -9.5381767276963672e-05 0 -0.0032427745299931266 -0.0020319350879070327 0 -0.0046372501538440953 -0.00088161372614856972 0 -1.0439849234391901e-05 -0.0022835097497482023 0 0.0034079107359324015 -0.0018844679987741174 0 -0.0032427745299931266 -0.0020319350879070327 0 -0.0053473971915930047 -0.0016371980659291739 0 -0.0046372501538440953 -0.00088161372614856972 0 0.0051307275062160967 -0.0014523225653015881 0 0.0044518661551450865 -0.0024675754565613725 0 0.0069274758943949234 -0.0027508464088981028 0 -0.0053473971915930047 -0.0016371980659291739 0 -0.0056650206866488695 -0.00089279862658474892 0 -0.0046372501538440953 -0.00088161372614856972 0 0.018429878889461102 0.00112398501233957 0 0.018284932368762639 0.0010700770521031677 0 0.018340980198732822 0.0010636204089767259 0 0.0080063097225099144 -0.0017460213392734882 0 0.0079358731575027881 -0.0015572528158398365 0 0.0077047113018676129 -0.0017063217604235698 0 0.0078586705942862017 -0.0012057854614358201 0 0.008039402052584169 -0.0031701652962976071 0 0.0076215910750978373 -0.0031185498339164827 0 0.00978404589366174 -0.0020458713905736861 0 0.0077235957842009904 -0.00097119840613701903 0 0.00978404589366174 -0.0020458713905736861 0 0.0034079107359324015 -0.0018844679987741174 0 0.0041658421028292177 -0.0033811479858697232 0 0.005215728687133412 -0.0035210111227169838 0 0.003911417616114069 -0.00090211627048532186 0 0.0034079107359324015 -0.0018844679987741174 0 0.0017753240646740879 -0.0014439520354460787 0 0.00978404589366174 -0.0020458713905736861 0 0.0017753240646740879 -0.0014439520354460787 0 0.0079358731575027881 -0.0015572528158398365 0 0.0077465585093816737 -0.001289300397139764 0 0.0077047113018676129 -0.0017063217604235698 0 -0.0056807432007994511 0.00015612153492705952 0 -0.0062245307723134101 0.00010051614558909382 0 -0.0046372501538440953 -0.00088161372614856972 0 -0.0056650206866488695 -0.00089279862658474892 0 -0.0057265834723764656 -0.00017514047588985674 0 -0.0046372501538440953 -0.00088161372614856972 0 0.0017753240646740879 -0.0014439520354460787 0 -0.0043956111998636324 -0.00044820155393786277 0 0.0017753240646740879 -0.0014439520354460787 0 -0.004042211832352473 -0.00086486803538747407 0 -0.0013138072149791627 -0.0020537160232689013 0 -0.0015169317897564592 -0.00023337187513416824 0 -0.0023083673891008015 0.00029879784046257774 0 -0.0043956111998636324 -0.00044820155393786277 0 -0.004042211832352473 -0.00086486803538747407 0 -0.0043956111998636324 -0.00044820155393786277 0 -0.0052715482032186902 -0.00054255097602916812 0 -0.0056807432007994511 0.00015612153492705952 0 -0.0046372501538440953 -0.00088161372614856972 0 -0.0049166333197197759 0.00040566702424355336 0 -0.0039748200593016283 -9.5381767276963672e-05 0 -0.0046372501538440953 -0.00088161372614856972 0 -0.0049166333197197759 0.00040566702424355336 0 -0.0042781682928197638 0.0015199592492456432 0 -0.0049166333197197759 0.00040566702424355336 0 -0.0063842979893518155 0.0010279421547841386 0 -0.0077239857246419333 0.0013476881100062989 0 -0.013071098790386775 9.802716864120769e-05 0 -0.0039748200593016283 -9.5381767276963672e-05 0 -0.0042781682928197638 0.0015199592492456432 0 -0.0049166333197197759 0.00040566702424355336 0 -0.0056807432007994511 0.00015612153492705952 0 -0.0062245307723134101 0.00010051614558909382 0 -0.0063842979893518155 0.0010279421547841386 0 -0.0056807432007994511 0.00015612153492705952 0 -0.0049166333197197759 0.00040566702424355336 0 -0.0063842979893518155 0.0010279421547841386 0 -0.0062245307723134101 0.00010051614558909382 0 -0.0066524931820138699 0.00038722943980940298 0 -0.0063842979893518155 0.0010279421547841386 0 -0.011752048644784987 0.00055050745473167277 0 -0.012136877890296242 0.00081647270568665467 0 -0.012791483753597633 -0.00066416830288885357 0 -0.0088292299887659225 1.9899910367894174e-05 0 -0.004042211832352473 -0.00086486803538747407 0 -0.004042211832352473 -0.00086486803538747407 0 -0.013071098790386775 9.802716864120769e-05 0 -0.013071098790386775 9.802716864120769e-05 0 -0.015434748829283392 0.001027804638089396 0 -0.011752048644784987 0.00055050745473167277 0 -0.012791483753597633 -0.00066416830288885357 0 -0.011335782602570095 -0.00032030270929579962 0 -0.022829702537560569 0.0014798429197034797 0 -0.022896082088445815 0.0015907362284664143 0 -0.022757383175637212 0.0016301153588673656 0 -0.023170454267440691 0.001184549293780709 0 -0.022896082088445815 0.0015907362284664143 0 -0.022952783714392414 0.0013138693498355295 0 -0.022829702537560569 0.0014798429197034797 0 -0.022896082088445815 0.0015907362284664143 0 -0.022952783714392414 0.0013138693498355295 0 -0.019377303299034192 0.0012744427191498753 0 -0.013071098790386775 9.802716864120769e-05 0 -0.01430625114253898 0.0012199003526098544 0 -0.013407002283897435 0.0014382579368635191 0 -0.013744305761995857 0.00054666342797724931 0 -0.01430625114253898 0.0012199003526098544 0 -0.013744305761995857 0.00054666342797724931 0 -0.014640280274917717 0.00034133067634736325 0 -0.025607762656325056 -0.0011963283819323891 0 -0.025269730889862112 -0.0010488868462481375 0 -0.025214229936391309 -0.0014856921088773679 0 -0.024111822165858481 0.001032282943479363 0 -0.03329683209251641 0.0013639720959018769 0 -0.025890506077470531 -0.00081061904870728121 0 -0.025895596767582681 -0.0014383912315511153 0 -0.026542908209345472 -0.00099439371970253009 0 -0.025315391234121968 -0.00080497220873190127 0 -0.025607762656325056 -0.0011963283819323891 0 -0.025269730889862112 -0.0010488868462481375 0 -0.025315391234121968 -0.00080497220873190127 0 -0.025890506077470531 -0.00081061904870728121 0 -0.025895596767582681 -0.0014383912315511153 0 -0.02595950328041035 -0.0015265389224855834 0 -0.024111822165858481 0.001032282943479363 0 -0.02288853770297546 0.0011579948291211915 0 -0.022952783714392414 0.0013138693498355295 0 -0.022697056363820644 0.001410071427562973 0 -0.024872901955040255 -0.00069014121766035536 0 -0.025269730889862112 -0.0010488868462481375 0 -0.025214229936391309 -0.0014856921088773679 0 -0.024439082776409483 4.6650203610605001e-08 0 -0.019368244207035788 0.0004175760716631721 0 -0.02288853770297546 0.0011579948291211915 0 -0.022697056363820644 0.001410071427562973 0 -0.02255273415587912 0.0014956861189673227 0 -0.024872901955040255 -0.00069014121766035536 0 -0.025315391234121968 -0.00080497220873190127 0 -0.025269730889862112 -0.0010488868462481375 0 -0.022829702537560569 0.0014798429197034797 0 -0.022952783714392414 0.0013138693498355295 0 -0.022697056363820644 0.001410071427562973 0 -0.019368244207035788 0.0004175760716631721 0 -0.012773103634972497 0.0010254347986678361 0 -0.022697056363820644 0.001410071427562973 0 -0.02255273415587912 0.0014956861189673227 0 -0.022627675561085407 0.001542138120394754 0 -0.022697056363820644 0.001410071427562973 0 -0.022647070023822918 0.001533948326202611 0 -0.022627675561085407 0.001542138120394754 0 -0.021708461348286009 0.0028002727881620755 0 -0.015434748829283392 0.001027804638089396 0 -0.022829702537560569 0.0014798429197034797 0 -0.022697056363820644 0.001410071427562973 0 -0.022757383175637212 0.0016301153588673656 0 -0.0088292299887659225 1.9899910367894174e-05 0 -0.012773103634972497 0.0010254347986678361 0 -0.0088292299887659225 1.9899910367894174e-05 0 -0.015434748829283392 0.001027804638089396 0 -0.011158117564189414 0.00025987129262269783 0 -0.012173049442897174 0.0022980050870287311 0 -0.013641789187338977 0.0019559317106451557 0 -0.015434748829283392 0.001027804638089396 0 -0.012773103634972497 0.0010254347986678361 0 -0.0025475649902377061 0.0011599724883880086 0 -0.0024483054634315787 -3.3581399996389271e-05 0 -0.0036612619245967749 -0.00012875850638371684 0 -0.001523246428542831 0.00039835032093049253 0 -0.0025475649902377061 0.0011599724883880086 0 -0.0024483054634315787 -3.3581399996389271e-05 0 -0.001523246428542831 0.00039835032093049253 0 -0.0011532423644155377 0.00011252202232274678 0 -0.0024483054634315787 -3.3581399996389271e-05 0 -0.012773103634972497 0.0010254347986678361 0 -0.010010083540592471 0.0011236253519543782 0 -0.019368244207035788 0.0004175760716631721 0 -0.010010083540592471 0.0011236253519543782 0 -0.013829556695641936 0.00047790377169797804 0 -0.014066732693395046 0.00064553305834225106 0 -0.013717002908508972 0.00073115729268168311 0 -0.0025475649902377061 0.0011599724883880086 0 -0.0048183515199266913 0.0007436434987535441 0 -0.0036612619245967749 -0.00012875850638371684 0 -0.0048183515199266913 0.0007436434987535441 0 -0.0051405187917279932 4.7456464818599852e-06 0 -0.0036612619245967749 -0.00012875850638371684 0 -0.017968086350991275 0.002406005913584299 0 -0.016930048817856844 0.00059825930326088848 0 -0.019072511621244584 0.0011234639117550242 0 -0.010010083540592471 0.0011236253519543782 0 -0.0090954125360912554 0.0012903945845752654 0 -0.017968086350991275 0.002406005913584299 0 -0.016600971735065227 0.0014965569803441505 0 -0.016930048817856844 0.00059825930326088848 0 -0.024111822165858481 0.001032282943479363 0 -0.019368244207035788 0.0004175760716631721 0 -0.024111822165858481 0.001032282943479363 0 -0.025008651644694194 0.0017510674533346921 0 -0.0058750146135567007 -0.0021564466930446028 0 -0.0081446528582953797 -0.0030665327448618591 0 -0.0031712902986520183 -0.0033663353366744516 0 -0.010010083540592471 0.0011236253519543782 0 -0.021190815833020044 -0.0010401980259195341 0 -0.0047913158448243199 0.00093360702113449144 0 -0.0069191206440615367 -0.001005081640822621 0 -0.011762515788327498 -0.00058748210186595703 0 -0.0047913158448243199 0.00093360702113449144 0 -0.0069191206440615367 -0.001005081640822621 0 -0.0051405187917279932 4.7456464818599852e-06 0 -0.0051405187917279932 4.7456464818599852e-06 0 -0.0053919680042647088 -0.001224773747671439 0 -0.0042057009234764062 -0.0011525192370173975 0 -0.0069191206440615367 -0.001005081640822621 0 -0.0051405187917279932 4.7456464818599852e-06 0 -0.0053919680042647088 -0.001224773747671439 0 -0.0069191206440615367 -0.001005081640822621 0 -0.0053919680042647088 -0.001224773747671439 0 -0.0058750146135567007 -0.0021564466930446028 0 -0.0053919680042647088 -0.001224773747671439 0 -0.0058750146135567007 -0.0021564466930446028 0 -0.0045540097350484209 -0.0019847611959669001 0 -0.0069191206440615367 -0.001005081640822621 0 -0.0058750146135567007 -0.0021564466930446028 0 -0.0081446528582953797 -0.0030665327448618591 0 -0.0011532423644155377 0.00011252202232274678 0 -0.0029395442667713898 -0.0040188894877046868 0 -0.0031712902986520183 -0.0033663353366744516 0 -0.004042211832352473 -0.00086486803538747407 0 0.0077235957842009904 -0.00097119840613701903 0 -0.0011532423644155377 0.00011252202232274678 0 -0.0030630844487085371 -0.001197326990489573 0 -0.0031712902986520183 -0.0033663353366744516 0 -0.0011532423644155377 0.00011252202232274678 0 -0.0024483054634315787 -3.3581399996389271e-05 0 -0.0030630844487085371 -0.001197326990489573 0 -0.0024483054634315787 -3.3581399996389271e-05 0 -0.0030630844487085371 -0.001197326990489573 0 -0.0036612619245967749 -0.00012875850638371684 0 -0.0030630844487085371 -0.001197326990489573 0 -0.0042057009234764062 -0.0011525192370173975 0 -0.003702587144335137 -0.0020153022773179191 0 -0.0030630844487085371 -0.001197326990489573 0 -0.0036612619245967749 -0.00012875850638371684 0 -0.0042057009234764062 -0.0011525192370173975 0 -0.0051405187917279932 4.7456464818599852e-06 0 -0.0036612619245967749 -0.00012875850638371684 0 -0.0042057009234764062 -0.0011525192370173975 0 -0.0053919680042647088 -0.001224773747671439 0 -0.0042057009234764062 -0.0011525192370173975 0 -0.0045540097350484209 -0.0019847611959669001 0 -0.0058750146135567007 -0.0021564466930446028 0 -0.0045540097350484209 -0.0019847611959669001 0 -0.0031712902986520183 -0.0033663353366744516 0 -0.0030630844487085371 -0.001197326990489573 0 -0.003702587144335137 -0.0020153022773179191 0 -0.0031712902986520183 -0.0033663353366744516 0 -0.0042057009234764062 -0.0011525192370173975 0 -0.0045540097350484209 -0.0019847611959669001 0 -0.003702587144335137 -0.0020153022773179191 0 -0.0045540097350484209 -0.0019847611959669001 0 -0.003702587144335137 -0.0020153022773179191 0 -0.0031712902986520183 -0.0033663353366744516 0 -0.0060154302578219283 -0.0030689521044075011 0 -0.0036380681757742948 -0.0033394177056660073 0 0.00698792624315596 -0.0013169203882178414 0 0.0075711926882781732 0.00025531930954039641 0 0.0058713256681049118 0.00047826787425557049 0 -0.0029395442667713898 -0.0040188894877046868 0 -0.0031712902986520183 -0.0033663353366744516 0 -0.0048593840712290457 -0.0032982561429742612 0 -0.0047964985634916359 -0.0030086887827442256 0 -0.0031712902986520183 -0.0033663353366744516 0 -0.0048593840712290457 -0.0032982561429742612 0 0.0077235957842009904 -0.00097119840613701903 0 -0.00015949596029710733 -0.0014042343454134772 0 -0.00015949596029710733 -0.0014042343454134772 0 -0.0030398722293501694 -0.001916332553660247 0 0.0052548223741218985 -0.00069077715105996993 0 0.0058713256681049118 0.00047826787425557049 0 0.0041883907043669955 0.00069956028407081473 0 0.011013533315492621 0.0018664689031146729 0 0.0088976308500434472 0.0021267227514630005 0 0.0052548223741218985 -0.00069077715105996993 0 0.0041883907043669955 0.00069956028407081473 0 0.0035621395470386849 -5.2167549307790657e-05 0 -0.0030398722293501694 -0.001916332553660247 0 0.0088976308500434472 0.0021267227514630005 0 -0.021592470785243168 -0.0025027179623777381 0 -0.021724205390456424 -0.0026225263605730922 0 -0.021377144383200604 -0.0025306764317859971 0 -0.032053677067235636 0.0019053703430156664 0 -0.033622819758546099 0.0016252704239753391 0 -0.033046416799229504 0.0023297609964316934 0 -0.021190815833020044 -0.0010401980259195341 0 -0.02423703162654936 0.00096220492298825259 0 -0.011664787551848672 -0.002516568672261109 0 -0.0030398722293501694 -0.001916332553660247 0 -0.01102631600731066 -0.00089904350076424906 0 -0.011051047535919088 -0.00095467471355855824 0 -0.011260325977565726 -0.00083428828728744566 0 -0.011664787551848672 -0.002516568672261109 0 -0.02423703162654936 0.00096220492298825259 0 -0.011664787551848672 -0.002516568672261109 0 -0.021190815833020044 -0.0010401980259195341 0 -0.0048593840712290457 -0.0032982561429742612 0 -0.006051535512702929 -0.002818888788916838 0 -0.0062538739441043503 -0.0030578687183154588 0 -0.0069191206440615367 -0.001005081640822621 0 -0.0081446528582953797 -0.0030665327448618591 0 -0.011762515788327498 -0.00058748210186595703 0 -0.0060154302578219283 -0.0030689521044075011 0 -0.011664787551848672 -0.002516568672261109 0 -0.0081446528582953797 -0.0030665327448618591 0 -0.013298110184903558 -0.0023506491652266 0 -0.011762515788327498 -0.00058748210186595703 0 -0.0047964985634916359 -0.0030086887827442256 0 -0.0048593840712290457 -0.0032982561429742612 0 -0.006051535512702929 -0.002818888788916838 0 -0.014990129745673016 -0.0016275381212743753 0 -0.01613415193489021 -0.0041442018717300555 0 -0.014979849836135217 -0.0030503953013813916 0 -0.01613415193489021 -0.0041442018717300555 0 -0.014993265549169389 -0.0045285628346016724 0 -0.014979849836135217 -0.0030503953013813916 0 -0.0041793777983128938 0.0027904521945926689 0 -0.018698346191400234 0.0074492859421716479 0 -0.0041793777983128938 0.0027904521945926689 0 -0.015433342651427914 0.0065485350438108415 0 0.012155160999355258 0.0044467130780329262 0 0.011392140025183354 0.0055425799493566737 0 0.012957529461692655 0.0049373467343818821 0 -0.0012920570370333123 -0.0020868032956077214 0 -0.0011800613374721139 -0.0021037365133832818 0 -0.0013325410031187286 -0.0020580882754096326 0 -0.0041793777983128938 0.0027904521945926689 0 0.0088976308500434472 0.0021267227514630005 0 -0.0012742653207809197 -0.0020607220645101005 0 -0.0011800613374721139 -0.0021037365133832818 0 -0.0013325410031187286 -0.0020580882754096326 0 -0.011051047535919088 -0.00095467471355855824 0 -0.011260325977565726 -0.00083428828728744566 0 -0.011423360621303332 -0.00084579644260630578 0 -0.0030398722293501694 -0.001916332553660247 0 -0.012034440508044798 0.0037753595709613774 0 -0.033622819758546099 0.0016252704239753391 0 -0.034220814997299939 0.0023778380261349663 0 -0.033046416799229504 0.0023297609964316934 0 -0.023117185828837001 0.006639398563355027 0 -0.023594858015349895 0.0065689394826415311 0 -0.023840537859054586 0.0068069519187285545 0 -0.02423703162654936 0.00096220492298825259 0 -0.030357945161905368 0.0090722527891491794 0 -0.033622819758546099 0.0016252704239753391 0 -0.034976693831994921 0.001873799627106693 0 -0.034220814997299939 0.0023778380261349663 0 -0.02423703162654936 0.00096220492298825259 0 -0.012034440508044798 0.0037753595709613774 0 -0.01255274647382503 0.00670410958248608 0 -0.014624689124501102 0.0069836633016819869 0 -0.014655902020862366 0.0062214094686776035 0 -0.012034440508044798 0.0037753595709613774 0 -0.015433342651427914 0.0065485350438108415 0 -0.0012920570370333123 -0.0020868032956077214 0 -0.0013325410031187286 -0.0020580882754096326 0 -0.0013430083906569626 -0.0020599193098505501 0 -0.012034440508044798 0.0037753595709613774 0 -0.022282532036283987 0.0089933293555641263 0 -0.023594858015349895 0.0065689394826415311 0 -0.023840537859054586 0.0068069519187285545 0 -0.023824507094329823 0.0066119301552665403 0 -0.035218413227507989 0.014275730374113426 0 -0.034156373086154337 0.014145082288766956 0 -0.033865189570478321 0.012561419191591996 0 -0.030357945161905368 0.0090722527891491794 0 -0.033874764300974795 0.011021808636791584 0 -0.035117094501555556 0.01426185133781231 0 -0.034156373086154337 0.014145082288766956 0 -0.035088109407611125 0.01504281091587303 0 -0.023174009905050908 0.014217536861358741 0 -0.023174852772221474 0.014112053043880827 0 -0.023562495507315564 0.014047322050149833 0 -0.01171884043624407 0.0060332042548024165 0 -0.011608452233388501 0.0082429548521012752 0 -0.01532929904701711 0.0073855510732455335 0 -0.015433342651427914 0.0065485350438108415 0 -0.018698346191400234 0.0074492859421716479 0 -0.023174009905050908 0.014217536861358741 0 -0.023562495507315564 0.014047322050149833 0 -0.023803251818827392 0.014158007312862646 0 -0.030357945161905368 0.0090722527891491794 0 -0.022282532036283987 0.0089933293555641263 0 -0.022282532036283987 0.0089933293555641263 0 -0.015433342651427914 0.0065485350438108415 0 -0.034976693831994921 0.001873799627106693 0 -0.034220814997299939 0.0023778380261349663 0 -0.035071954604690335 0.0037598540469102903 0 -0.035218413227507989 0.014275730374113426 0 -0.035442360661931259 0.0096732997456597247 0 -0.033865189570478321 0.012561419191591996 0 -0.030357945161905368 0.0090722527891491794 0 -0.035854523826416969 0.006464205257338468 0 -0.034220814997299939 0.0023778380261349663 0 -0.033766828032438495 0.0029981914531202088 0 -0.035071954604690335 0.0037598540469102903 0 -0.034220814997299939 0.0023778380261349663 0 -0.033766828032438495 0.0029981914531202088 0 -0.033046416799229504 0.0023297609964316934 0 -0.033766828032438495 0.0029981914531202088 0 -0.034135540634763241 0.0038567335912773619 0 -0.035071954604690335 0.0037598540469102903 0 -0.033766828032438495 0.0029981914531202088 0 -0.034135540634763241 0.0038567335912773619 0 -0.033296037397586187 0.0040588569839435998 0 -0.034135540634763241 0.0038567335912773619 0 -0.033296037397586187 0.0040588569839435998 0 -0.034356560103820731 0.0046050136552275092 0 -0.034135540634763241 0.0038567335912773619 0 -0.035071954604690335 0.0037598540469102903 0 -0.034356560103820731 0.0046050136552275092 0 -0.016930048817856844 0.00059825930326088848 0 -0.020185660177032435 -0.00016401836268139266 0 -0.019072511621244584 0.0011234639117550242 0 -0.021190815833020044 -0.0010401980259195341 0 -0.025008651644694194 0.0017510674533346921 0 -0.032053677067235636 0.0019053703430156664 0 -0.031256205623725886 0.0027467899088676672 0 -0.032427160213801667 0.0030201724559266426 0 -0.032053677067235636 0.0019053703430156664 0 -0.033046416799229504 0.0023297609964316934 0 -0.032427160213801667 0.0030201724559266426 0 -0.033766828032438495 0.0029981914531202088 0 -0.033046416799229504 0.0023297609964316934 0 -0.032427160213801667 0.0030201724559266426 0 -0.033766828032438495 0.0029981914531202088 0 -0.032427160213801667 0.0030201724559266426 0 -0.033296037397586187 0.0040588569839435998 0 -0.032427160213801667 0.0030201724559266426 0 -0.033296037397586187 0.0040588569839435998 0 -0.031653479425044852 0.0042059708974144794 0 -0.031256205623725886 0.0027467899088676672 0 -0.032427160213801667 0.0030201724559266426 0 -0.031419990422598666 0.0043954013611761343 0 -0.03164164636564936 0.0041859323125558023 0 -0.03329683209251641 0.0013639720959018769 0 -0.030370243144054076 0.0036994616250165596 0 -0.031256205623725886 0.0027467899088676672 0 -0.031419990422598666 0.0043954013611761343 0 -0.039042927923408813 -0.0010573321548852362 0 -0.039184969104465443 -0.0011419040757026325 0 -0.039245914852368717 -0.0010045552948241005 0 -0.039184969104465443 -0.0011419040757026325 0 -0.039245914852368717 -0.0010045552948241005 0 -0.039391268818716706 -0.0010192276414674089 0 -0.03329683209251641 0.0013639720959018769 0 -0.035787601098221766 0.0035548890231229115 0 -0.039224802257970232 -0.00089511890752094129 0 -0.039245914852368717 -0.0010045552948241005 0 -0.039301224506137128 -0.00087791380692130204 0 -0.039245914852368717 -0.0010045552948241005 0 -0.039301224506137128 -0.00087791380692130204 0 -0.039337797647124653 -0.0009017553994928963 0 -0.039301224506137128 -0.00087791380692130204 0 -0.039348763381704246 -0.0007944843093336682 0 -0.039337797647124653 -0.0009017553994928963 0 -0.039301224506137128 -0.00087791380692130204 0 -0.039348763381704246 -0.0007944843093336682 0 -0.039335920426140931 -0.00079578322582027523 0 -0.039224802257970232 -0.00089511890752094129 0 -0.039301224506137128 -0.00087791380692130204 0 -0.039335920426140931 -0.00079578322582027523 0 -0.039341237939961804 0.0011671156116736 0 -0.035787601098221766 0.0035548890231229115 0 -0.039398513296443054 -0.00078212317404649707 0 -0.039337797647124653 -0.0009017553994928963 0 -0.039391268818716706 -0.0010192276414674089 0 -0.038046019630566717 0.0044652393536943535 0 -0.03762352618935047 0.0063774869024364458 0 -0.036853318277921106 0.0048670415876029827 0 -0.039348763381704246 -0.0007944843093336682 0 -0.039398513296443054 -0.00078212317404649707 0 -0.039337797647124653 -0.0009017553994928963 0 -0.039150091832196844 0.00074546494783701747 0 -0.039341237939961804 0.0011671156116736 0 -0.039245914852368717 -0.0010045552948241005 0 -0.039337797647124653 -0.0009017553994928963 0 -0.039391268818716706 -0.0010192276414674089 0 -0.033296037397586187 0.0040588569839435998 0 -0.031653479425044852 0.0042059708974144794 0 -0.033081448821065056 0.005154448978352261 0 -0.033296037397586187 0.0040588569839435998 0 -0.033327652703799011 0.0049721259505582528 0 -0.034356560103820731 0.0046050136552275092 0 -0.035787601098221766 0.0035548890231229115 0 -0.035560017599068253 0.0054519286762630716 0 -0.033432549802928042 0.0047891820230755392 0 -0.035787601098221766 0.0035548890231229115 0 -0.033327652703799011 0.0049721259505582528 0 -0.034356560103820731 0.0046050136552275092 0 -0.034402518393558845 0.0054465401008958452 0 -0.034356560103820731 0.0046050136552275092 0 -0.035190004390579351 0.0054679551388112473 0 -0.034402518393558845 0.0054465401008958452 0 -0.035071954604690335 0.0037598540469102903 0 -0.034356560103820731 0.0046050136552275092 0 -0.035190004390579351 0.0054679551388112473 0 -0.035854523826416969 0.006464205257338468 0 -0.035054451760998327 0.0056870463258653801 0 -0.035442360661931259 0.0096732997456597247 0 -0.035190004390579351 0.0054679551388112473 0 -0.03363983750319164 0.0065221417712053899 0 -0.035190004390579351 0.0054679551388112473 0 -0.034008227008179764 0.0046863338639837309 0 -0.03363983750319164 0.0065221417712053899 0 -0.035190004390579351 0.0054679551388112473 0 -0.035247387621427269 0.0049151860206406144 0 -0.034008227008179764 0.0046863338639837309 0 -0.03762352618935047 0.0063774869024364458 0 -0.036480880243437833 0.0056240005642508454 0 -0.036853318277921106 0.0048670415876029827 0 -0.035121811469571433 0.0050058641646554981 0 -0.035560017599068253 0.0054519286762630716 0 -0.035190004390579351 0.0054679551388112473 0 -0.035247387621427269 0.0049151860206406144 0 -0.034402518393558845 0.0054465401008958452 0 -0.035247387621427269 0.0049151860206406144 0 -0.036076787802104042 0.0046490636507712296 0 -0.035948213149963715 0.0038125792279574788 0 -0.035247387621427269 0.0049151860206406144 0 -0.036480880243437833 0.0056240005642508454 0 -0.036076787802104042 0.0046490636507712296 0 -0.036480880243437833 0.0056240005642508454 0 -0.036076787802104042 0.0046490636507712296 0 -0.036853318277921106 0.0048670415876029827 0 -0.036076787802104042 0.0046490636507712296 0 -0.036853318277921106 0.0048670415876029827 0 -0.035948213149963715 0.0038125792279574788 0 -0.038046019630566717 0.0044652393536943535 0 -0.036853318277921106 0.0048670415876029827 0 -0.035948213149963715 0.0038125792279574788 0 -0.039341237939961804 0.0011671156116736 0 -0.036989983671501962 0.00265641174063463 0 -0.038149227066787715 0.0011385127705459774 0 -0.038457599258395085 0.00040196971144251082 0 -0.037962592104687026 0.00015432337903030944 0 -0.038149227066787715 0.0011385127705459774 0 -0.038457599258395085 0.00040196971144251082 0 -0.039051340549233204 0.00056727788440514291 0 -0.038149227066787715 0.0011385127705459774 0 -0.037962592104687026 0.00015432337903030944 0 -0.036603231403769948 0.0012825802080117473 0 -0.035247387621427269 0.0049151860206406144 0 -0.03388791725684398 0.0028498560813987155 0 -0.034008227008179764 0.0046863338639837309 0 -0.035247387621427269 0.0049151860206406144 0 -0.035948213149963715 0.0038125792279574788 0 -0.03388791725684398 0.0028498560813987155 0 -0.036989983671501962 0.00265641174063463 0 -0.035118207068372105 0.0019781491567466185 0 -0.03698904050650869 -0.000453300635669232 0 -0.037962592104687026 0.00015432337903030944 0 -0.036603231403769948 0.0012825802080117473 0 -0.038457599258395085 0.00040196971144251082 0 -0.038806375191498203 -0.00063271212194892775 0 -0.039051340549233204 0.00056727788440514291 0 -0.038457599258395085 0.00040196971144251082 0 -0.037962592104687026 0.00015432337903030944 0 -0.038806375191498203 -0.00063271212194892775 0 -0.038806375191498203 -0.00063271212194892775 0 -0.039831524347124558 -0.00017208281078590876 0 -0.039051340549233204 0.00056727788440514291 0 -0.039455618527354151 -0.00061329781199255073 0 -0.039274199439527951 -0.00089382461694659807 0 -0.039733314945884175 -0.0013591210413539639 0 -0.039455618527354151 -0.00061329781199255073 0 -0.039274199439527951 -0.00089382461694659807 0 -0.039357837701081991 -0.00075417777442234209 0 -0.039350392417935913 -0.00074254232654811765 0 -0.039274199439527951 -0.00089382461694659807 0 -0.039357837701081991 -0.00075417777442234209 0 -0.039224802257970232 -0.00089511890752094129 0 -0.039455618527354151 -0.00061329781199255073 0 -0.039335920426140931 -0.00079578322582027523 0 -0.039455618527354151 -0.00061329781199255073 0 -0.039335920426140931 -0.00079578322582027523 0 -0.039357837701081991 -0.00075417777442234209 0 -0.039348763381704246 -0.0007944843093336682 0 -0.039335920426140931 -0.00079578322582027523 0 -0.039357837701081991 -0.00075417777442234209 0 -0.039341237939961804 0.0011671156116736 0 -0.039581275063507781 -0.00072561860015790127 0 -0.039586556170128476 0.0014807249483954985 0 -0.039831524347124558 -0.00017208281078590876 0 -0.039051340549233204 0.00056727788440514291 0 -0.039586556170128476 0.0014807249483954985 0 -0.038149227066787715 0.0011385127705459774 0 -0.039051340549233204 0.00056727788440514291 0 -0.039348763381704246 -0.0007944843093336682 0 -0.039350392417935913 -0.00074254232654811765 0 -0.039357837701081991 -0.00075417777442234209 0 -0.028544245161476457 0.0039721051406474989 0 -0.031491584349252928 0.0026069530571124727 0 -0.031356376716206516 0.0039635119201949813 0 -0.029755596491400443 0.0018559052668372332 0 -0.028544245161476457 0.0039721051406474989 0 -0.026707261027613383 0.0027025947143420976 0 -0.029755596491400443 0.0018559052668372332 0 -0.028544245161476457 0.0039721051406474989 0 -0.031491584349252928 0.0026069530571124727 0 -0.029755596491400443 0.0018559052668372332 0 -0.032873376821116698 0.0012200046975743241 0 -0.031491584349252928 0.0026069530571124727 0 -0.028544245161476457 0.0039721051406474989 0 -0.026707261027613383 0.0027025947143420976 0 -0.025309335059305497 0.0044484119712514727 0 -0.029755596491400443 0.0018559052668372332 0 -0.026707261027613383 0.0027025947143420976 0 -0.02589876916210428 7.2014483498442338e-05 0 -0.026707261027613383 0.0027025947143420976 0 -0.025309335059305497 0.0044484119712514727 0 -0.024192947241506699 0.0027690842443005479 0 -0.026707261027613383 0.0027025947143420976 0 -0.02589876916210428 7.2014483498442338e-05 0 -0.024192947241506699 0.0027690842443005479 0 -0.031303969664443973 0.00019787484724206522 0 -0.030123147929868001 -0.00052625282642306524 0 -0.031872637478528927 -0.00064670901491938396 0 -0.031303969664443973 0.00019787484724206522 0 -0.032352155228314895 -6.6500944406369233e-05 0 -0.031872637478528927 -0.00064670901491938396 0 -0.029755596491400443 0.0018559052668372332 0 -0.02589876916210428 7.2014483498442338e-05 0 -0.032352155228314895 -6.6500944406369233e-05 0 -0.028847275982406977 0.00014221762900965337 0 -0.031992995723066978 -8.6963510833295315e-05 0 -0.029755596491400443 0.0018559052668372332 0 -0.032352155228314895 -6.6500944406369233e-05 0 -0.032873376821116698 0.0012200046975743241 0 -0.032352155228314895 -6.6500944406369233e-05 0 -0.034074754913191257 -0.00037865331829094407 0 -0.032873376821116698 0.0012200046975743241 0 -0.034074754913191257 -0.00037865331829094407 0 -0.032873376821116698 0.0012200046975743241 0 -0.03550011034471573 5.6190700974247285e-05 0 -0.032873376821116698 0.0012200046975743241 0 -0.03550011034471573 5.6190700974247285e-05 0 -0.036603231403769948 0.0012825802080117473 0 -0.03698904050650869 -0.000453300635669232 0 -0.03550011034471573 5.6190700974247285e-05 0 -0.036603231403769948 0.0012825802080117473 0 -0.032908364608566658 0.0012672491460859786 0 -0.035118207068372105 0.0019781491567466185 0 -0.032873376821116698 0.0012200046975743241 0 -0.03388791725684398 0.0028498560813987155 0 -0.032799722671547279 0.0033540555300619231 0 -0.03388791725684398 0.0028498560813987155 0 -0.032799722671547279 0.0033540555300619231 0 -0.034008227008179764 0.0046863338639837309 0 -0.032873376821116698 0.0012200046975743241 0 -0.031491584349252928 0.0026069530571124727 0 -0.032799722671547279 0.0033540555300619231 0 -0.031491584349252928 0.0026069530571124727 0 -0.032799722671547279 0.0033540555300619231 0 -0.031356376716206516 0.0039635119201949813 0 -0.031356376716206516 0.0039635119201949813 0 -0.030920840449113481 0.0057474776822302592 0 -0.032832728085025319 0.0050748036062171036 0 -0.032799722671547279 0.0033540555300619231 0 -0.031356376716206516 0.0039635119201949813 0 -0.032832728085025319 0.0050748036062171036 0 -0.030920840449113481 0.0057474776822302592 0 -0.032832728085025319 0.0050748036062171036 0 -0.031740924323676839 0.0067963729287343969 0 -0.031356376716206516 0.0039635119201949813 0 -0.030920840449113481 0.0057474776822302592 0 -0.029068034857715773 0.0058809456142932814 0 -0.032799722671547279 0.0033540555300619231 0 -0.034008227008179764 0.0046863338639837309 0 -0.032832728085025319 0.0050748036062171036 0 -0.034008227008179764 0.0046863338639837309 0 -0.032832728085025319 0.0050748036062171036 0 -0.03363983750319164 0.0065221417712053899 0 -0.035442360661931259 0.0096732997456597247 0 -0.03363983750319164 0.0065221417712053899 0 -0.032542902881061729 0.0082503127444226824 0 -0.032832728085025319 0.0050748036062171036 0 -0.03363983750319164 0.0065221417712053899 0 -0.031740924323676839 0.0067963729287343969 0 -0.03363983750319164 0.0065221417712053899 0 -0.031740924323676839 0.0067963729287343969 0 -0.032542902881061729 0.0082503127444226824 0 -0.030920840449113481 0.0057474776822302592 0 -0.029772314359511071 0.0071071696973207168 0 -0.031740924323676839 0.0067963729287343969 0 -0.031740924323676839 0.0067963729287343969 0 -0.032542902881061729 0.0082503127444226824 0 -0.030617671221015028 0.0086449010259178963 0 -0.029772314359511071 0.0071071696973207168 0 -0.031740924323676839 0.0067963729287343969 0 -0.030617671221015028 0.0086449010259178963 0 -0.029772314359511071 0.0071071696973207168 0 -0.028523639299057709 0.0090701511921072089 0 -0.030617671221015028 0.0086449010259178963 0 -0.029772314359511071 0.0071071696973207168 0 -0.027862551647170775 0.0076473915203366626 0 -0.028523639299057709 0.0090701511921072089 0 -0.027862551647170775 0.0076473915203366626 0 -0.029068034857715773 0.0058809456142932814 0 -0.025835527634202979 0.0068537525039335991 0 -0.030920840449113481 0.0057474776822302592 0 -0.029772314359511071 0.0071071696973207168 0 -0.029068034857715773 0.0058809456142932814 0 -0.029772314359511071 0.0071071696973207168 0 -0.027862551647170775 0.0076473915203366626 0 -0.029068034857715773 0.0058809456142932814 0 -0.028544245161476457 0.0039721051406474989 0 -0.031356376716206516 0.0039635119201949813 0 -0.029068034857715773 0.0058809456142932814 0 -0.028544245161476457 0.0039721051406474989 0 -0.029068034857715773 0.0058809456142932814 0 -0.025835527634202979 0.0068537525039335991 0 -0.028544245161476457 0.0039721051406474989 0 -0.025309335059305497 0.0044484119712514727 0 -0.025835527634202979 0.0068537525039335991 0 -0.027862551647170775 0.0076473915203366626 0 -0.025835527634202979 0.0068537525039335991 0 -0.026456801674878939 0.0093942779684676372 0 -0.025835527634202979 0.0068537525039335991 0 -0.024588937677315192 0.0096843481455926028 0 -0.026456801674878939 0.0093942779684676372 0 -0.024588937677315192 0.0096843481455926028 0 -0.025258088133645527 0.011492490953855513 0 -0.023495177654790853 0.011193926691151698 0 -0.024588937677315192 0.0096843481455926028 0 -0.026456801674878939 0.0093942779684676372 0 -0.025258088133645527 0.011492490953855513 0 -0.027862551647170775 0.0076473915203366626 0 -0.026456801674878939 0.0093942779684676372 0 -0.028523639299057709 0.0090701511921072089 0 -0.028523639299057709 0.0090701511921072089 0 -0.027290287774151732 0.011279152052251988 0 -0.02949783263717223 0.010761936887044431 0 -0.026456801674878939 0.0093942779684676372 0 -0.027290287774151732 0.011279152052251988 0 -0.025258088133645527 0.011492490953855513 0 -0.026456801674878939 0.0093942779684676372 0 -0.028523639299057709 0.0090701511921072089 0 -0.027290287774151732 0.011279152052251988 0 -0.027290287774151732 0.011279152052251988 0 -0.025258088133645527 0.011492490953855513 0 -0.025658575248761899 0.014113615221193435 0 -0.027290287774151732 0.011279152052251988 0 -0.028835591298679911 0.012668659184811082 0 -0.025658575248761899 0.014113615221193435 0 -0.027290287774151732 0.011279152052251988 0 -0.02949783263717223 0.010761936887044431 0 -0.028835591298679911 0.012668659184811082 0 -0.025258088133645527 0.011492490953855513 0 -0.024054089898024246 0.0131117220726845 0 -0.025658575248761899 0.014113615221193435 0 -0.025258088133645527 0.011492490953855513 0 -0.024054089898024246 0.0131117220726845 0 -0.023495177654790853 0.011193926691151698 0 -0.035442360661931259 0.0096732997456597247 0 -0.032542902881061729 0.0082503127444226824 0 -0.031577564001620505 0.010103025176261311 0 -0.035442360661931259 0.0096732997456597247 0 -0.031577564001620505 0.010103025176261311 0 -0.032322024895004332 0.011849640030082173 0 -0.031577564001620505 0.010103025176261311 0 -0.030617671221015028 0.0086449010259178963 0 -0.02949783263717223 0.010761936887044431 0 -0.032542902881061729 0.0082503127444226824 0 -0.031577564001620505 0.010103025176261311 0 -0.030617671221015028 0.0086449010259178963 0 -0.028523639299057709 0.0090701511921072089 0 -0.030617671221015028 0.0086449010259178963 0 -0.02949783263717223 0.010761936887044431 0 -0.02949783263717223 0.010761936887044431 0 -0.028835591298679911 0.012668659184811082 0 -0.030980418599540378 0.012245754886115593 0 -0.028835591298679911 0.012668659184811082 0 -0.030980418599540378 0.012245754886115593 0 -0.031136749010259555 0.014829617759571312 0 -0.031577564001620505 0.010103025176261311 0 -0.02949783263717223 0.010761936887044431 0 -0.030980418599540378 0.012245754886115593 0 -0.035442360661931259 0.0096732997456597247 0 -0.032322024895004332 0.011849640030082173 0 -0.033865189570478321 0.012561419191591996 0 -0.031577564001620505 0.010103025176261311 0 -0.030980418599540378 0.012245754886115593 0 -0.032322024895004332 0.011849640030082173 0 -0.030980418599540378 0.012245754886115593 0 -0.032322024895004332 0.011849640030082173 0 -0.032502867798641991 0.013124602891572317 0 -0.032322024895004332 0.011849640030082173 0 -0.032502867798641991 0.013124602891572317 0 -0.033865189570478321 0.012561419191591996 0 -0.034156373086154337 0.014145082288766956 0 -0.032502867798641991 0.013124602891572317 0 -0.033865189570478321 0.012561419191591996 0 -0.022282532036283987 0.0089933293555641263 0 -0.029302647931294067 0.015297627184447453 0 -0.034156373086154337 0.014145082288766956 0 -0.032502867798641991 0.013124602891572317 0 -0.031136749010259555 0.014829617759571312 0 -0.034156373086154337 0.014145082288766956 0 -0.035088109407611125 0.01504281091587303 0 -0.031136749010259555 0.014829617759571312 0 -0.023174009905050908 0.014217536861358741 0 -0.023803251818827392 0.014158007312862646 0 -0.024346931083000192 0.014449767040283857 0 -0.018698346191400234 0.0074492859421716479 0 -0.022511941645132112 0.0099802708015251651 0 -0.030980418599540378 0.012245754886115593 0 -0.032502867798641991 0.013124602891572317 0 -0.031136749010259555 0.014829617759571312 0 -0.024346931083000192 0.014449767040283857 0 -0.024664328437069526 0.014121117437651163 0 -0.024795885376680996 0.014175618520497764 0 -0.028835591298679911 0.012668659184811082 0 -0.031136749010259555 0.014829617759571312 0 -0.025658575248761899 0.014113615221193435 0 -0.023803251818827392 0.014158007312862646 0 -0.024346931083000192 0.014449767040283857 0 -0.024664328437069526 0.014121117437651163 0 -0.029302647931294067 0.015297627184447453 0 -0.02507820618193863 0.013992094306280024 0 -0.011710362275144702 -0.0020350268377643784 0 -0.01167633136531411 -0.0040670125305601454 0 -0.009733200556758765 -0.002472590158430479 0 -0.011710362275144702 -0.0020350268377643784 0 -0.013626149322897506 -0.0022622162992931363 0 -0.01167633136531411 -0.0040670125305601454 0 -0.023578866476471869 0.014020031978231753 0 -0.023803251818827392 0.014158007312862646 0 -0.024664328437069526 0.014121117437651163 0 -0.018698346191400234 0.0074492859421716479 0 -0.018271564100716575 0.0047323639251096138 0 -0.013626149322897506 -0.0022622162992931363 0 -0.014993265549169389 -0.0045285628346016724 0 -0.01167633136531411 -0.0040670125305601454 0 -0.013626149322897506 -0.0022622162992931363 0 -0.014993265549169389 -0.0045285628346016724 0 -0.014979849836135217 -0.0030503953013813916 0 -0.014990129745673016 -0.0016275381212743753 0 -0.013626149322897506 -0.0022622162992931363 0 -0.014979849836135217 -0.0030503953013813916 0 -0.024495003912949329 0.01430548616235881 0 -0.024054089898024246 0.0131117220726845 0 -0.025658575248761899 0.014113615221193435 0 -0.024495003912949329 0.01430548616235881 0 -0.024689693889407484 0.014387370118185571 0 -0.024391561861674897 0.014657840864776416 0 -0.024495003912949329 0.01430548616235881 0 -0.024391561861674897 0.014657840864776416 0 -0.024110433567519306 0.014983778533461787 0 -0.024495003912949329 0.01430548616235881 0 -0.024110433567519306 0.014983778533461787 0 -0.023183675657273924 0.01396835523883036 0 -0.024495003912949329 0.01430548616235881 0 -0.024054089898024246 0.0131117220726845 0 -0.023183675657273924 0.01396835523883036 0 -0.024346931083000192 0.014449767040283857 0 -0.025658575248761899 0.014113615221193435 0 -0.024795885376680996 0.014175618520497764 0 -0.024495003912949329 0.01430548616235881 0 -0.025658575248761899 0.014113615221193435 0 -0.024689693889407484 0.014387370118185571 0 -0.025658575248761899 0.014113615221193435 0 -0.024795885376680996 0.014175618520497764 0 -0.024689693889407484 0.014387370118185571 0 -0.024795885376680996 0.014175618520497764 0 -0.024689693889407484 0.014387370118185571 0 -0.023852661978488215 0.014579581666348877 0 -0.024664328437069526 0.014121117437651163 0 -0.024795885376680996 0.014175618520497764 0 -0.023852661978488215 0.014579581666348877 0 -0.024664328437069526 0.014121117437651163 0 -0.023852661978488215 0.014579581666348877 0 -0.023242081288960784 0.015142224476347209 0 -0.018271564100716575 0.0047323639251096138 0 -0.014908242234538739 0.0057950857995525649 0 -0.01167633136531411 -0.0040670125305601454 0 -0.009733200556758765 -0.002472590158430479 0 -0.0070167018887899559 -0.0036959227609838666 0 -0.0078749114919694132 -0.0019567562483335053 0 -0.009733200556758765 -0.002472590158430479 0 -0.0070167018887899559 -0.0036959227609838666 0 -0.014467444501427918 0.016987476172177853 0 -0.023242081288960784 0.015142224476347209 0 -0.019862848712843231 0.012297682683988776 0 -0.0080153258706570814 0.0073488731112402216 0 -0.014908242234538739 0.0057950857995525649 0 -0.023787559760795215 0.014370295236946355 0 -0.021389361493876765 0.013820643589051539 0 -0.023852661978488215 0.014579581666348877 0 -0.023242081288960784 0.015142224476347209 0 -0.019862848712843231 0.012297682683988776 0 -0.023852661978488215 0.014579581666348877 0 -0.024391561861674897 0.014657840864776416 0 -0.024916096074701265 0.014484888250935643 0 -0.024689693889407484 0.014387370118185571 0 -0.023852661978488215 0.014579581666348877 0 -0.024391561861674897 0.014657840864776416 0 -0.023917689786085765 0.014047558279778315 0 -0.021389361493876765 0.013820643589051539 0 -0.014467444501427918 0.016987476172177853 0 -0.019862848712843231 0.012297682683988776 0 -0.012357813130888826 0.012833056544285548 0 -0.018812375664929631 0.013300250265627553 0 -0.015374576598267834 0.012210936056437234 0 -0.01581483156686464 0.013526268962049495 0 -0.021389361493876765 0.013820643589051539 0 -0.013695398906756707 0.013144297038010327 0 -0.023183675657273924 0.01396835523883036 0 -0.022144239100552049 0.013084698598313568 0 -0.020822505543448701 0.01452132862625201 0 -0.024110433567519306 0.014983778533461787 0 -0.023183675657273924 0.01396835523883036 0 -0.020822505543448701 0.01452132862625201 0 -0.021389361493876765 0.013820643589051539 0 -0.018087868790662237 0.013373994662097285 0 -0.024054089898024246 0.0131117220726845 0 -0.023183675657273924 0.01396835523883036 0 -0.022144239100552049 0.013084698598313568 0 -0.020496393157764036 0.012952642443790676 0 -0.020822505543448701 0.01452132862625201 0 -0.016116693271180146 0.013068473014883985 0 -0.022144239100552049 0.013084698598313568 0 -0.020496393157764036 0.012952642443790676 0 -0.020822505543448701 0.01452132862625201 0 -0.013695398906756707 0.013144297038010327 0 -0.0097213084062333331 0.01349019857279821 0 -0.012357813130888826 0.012833056544285548 0 -0.0098924765132836837 0.015355293232603335 0 -0.0059923675435539208 0.013453702291441445 0 -0.015374576598267834 0.012210936056437234 0 -0.01581483156686464 0.013526268962049495 0 -0.013012588771549767 0.013651413473416503 0 -0.014467444501427918 0.016987476172177853 0 -0.012357813130888826 0.012833056544285548 0 -0.0098924765132836837 0.015355293232603335 0 -0.0069521713376863355 0.018229238502291491 0 -0.0098924765132836837 0.015355293232603335 0 -0.0059923675435539208 0.013453702291441445 0 -0.0032762964285124653 0.016321579358976702 0 -0.0069521713376863355 0.018229238502291491 0 -0.0059923675435539208 0.013453702291441445 0 -0.013012588771549767 0.013651413473416503 0 -0.010428165238904927 0.013781275937123708 0 -0.010432821384340438 0.012673342391555497 0 -0.0032762964285124653 0.016321579358976702 0 -0.0059923675435539208 0.013453702291441445 0 -7.720547784383071e-05 0.013939460964118626 0 -0.0097213084062333331 0.01349019857279821 0 -0.0046746507616329518 0.014630538302406052 0 -0.0046746507616329518 0.014630538302406052 0 -0.0076465949885156873 0.013059991434487724 0 -0.010432821384340438 0.012673342391555497 0 -0.012219715505025807 0.011246486552640296 0 -0.0093876677076346737 0.010425101510484085 0 -0.013012588771549767 0.013651413473416503 0 -0.010432821384340438 0.012673342391555497 0 -0.012219715505025807 0.011246486552640296 0 -0.015374576598267834 0.012210936056437234 0 -0.013012588771549767 0.013651413473416503 0 -0.012219715505025807 0.011246486552640296 0 -0.018087868790662237 0.013373994662097285 0 -0.014194557416403389 0.012155158312079521 0 -0.016890497047627941 0.010104426857625918 0 -0.019750608687968196 0.0087629278765665123 0 -0.019171532857604714 0.011818660992407774 0 -0.020496393157764036 0.012952642443790676 0 -0.016116693271180146 0.013068473014883985 0 -0.019171532857604714 0.011818660992407774 0 -0.016116693271180146 0.013068473014883985 0 -0.016890497047627941 0.010104426857625918 0 -0.019171532857604714 0.011818660992407774 0 -0.016116693271180146 0.013068473014883985 0 -0.014306787008315504 0.0099152383396158318 0 -0.011767609776519007 0.011402672162656202 0 -0.016116693271180146 0.013068473014883985 0 -0.016890497047627941 0.010104426857625918 0 -0.014306787008315504 0.0099152383396158318 0 -0.014194557416403389 0.012155158312079521 0 -0.01056947952083508 0.010875308374931383 0 -0.014306787008315504 0.0099152383396158318 0 -0.015668314525531322 0.0074671405424026486 0 -0.01119785962832822 0.0076732959980423919 0 -0.016890497047627941 0.010104426857625918 0 -0.014306787008315504 0.0099152383396158318 0 -0.015668314525531322 0.0074671405424026486 0 -0.016890497047627941 0.010104426857625918 0 -0.015668314525531322 0.0074671405424026486 0 -0.019750608687968196 0.0087629278765665123 0 -0.015668314525531322 0.0074671405424026486 0 -0.019750608687968196 0.0087629278765665123 0 -0.018111500653435701 0.0061107616722832899 0 -0.020301531036236307 0.0095316745951194437 0 -0.018617150657995674 0.0068097830140753327 0 -0.02078789009400903 0.01008712466355392 0 -0.023150943952697775 0.0088551762229479667 0 -0.02136351087585444 0.0077200805199624262 0 -0.024588937677315192 0.0096843481455926028 0 -0.023150943952697775 0.0088551762229479667 0 -0.023495177654790853 0.011193926691151698 0 -0.02078789009400903 0.01008712466355392 0 -0.023150943952697775 0.0088551762229479667 0 -0.023495177654790853 0.011193926691151698 0 -0.022144239100552049 0.013084698598313568 0 -0.02078789009400903 0.01008712466355392 0 -0.023495177654790853 0.011193926691151698 0 -0.024054089898024246 0.0131117220726845 0 -0.022144239100552049 0.013084698598313568 0 -0.023495177654790853 0.011193926691151698 0 -0.022044029602479105 0.0128644303294365 0 -0.020301531036236307 0.0095316745951194437 0 -0.022144239100552049 0.013084698598313568 0 -0.020496393157764036 0.012952642443790676 0 -0.019171532857604714 0.011818660992407774 0 -0.022144239100552049 0.013084698598313568 0 -0.019750608687968196 0.0087629278765665123 0 -0.019171532857604714 0.011818660992407774 0 -0.0052013181930752137 0.011174427732939269 0 -0.0038654375188534088 0.011474405557930235 0 -0.0042196721098670328 0.013078458838373637 0 -0.0034428941474265603 0.013029947003930268 0 -0.0038654375188534088 0.011474405557930235 0 -0.0042196721098670328 0.013078458838373637 0 -0.0040640397786088833 0.014009596560400371 0 -0.0028202292506458353 0.012424869082911507 0 -0.0041763987368672725 0.01344779895030622 0 -0.0042196721098670328 0.013078458838373637 0 -0.0042190853146474609 0.014046445548441372 0 -0.0041763987368672725 0.01344779895030622 0 -0.0034428941474265603 0.013029947003930268 0 -0.0042196721098670328 0.013078458838373637 0 -0.0042196721098670328 0.013078458838373637 0 -0.0042190853146474609 0.014046445548441372 0 -0.0062126334958361616 0.0121537420190868 0 -0.0052013181930752137 0.011174427732939269 0 -0.0042196721098670328 0.013078458838373637 0 -0.0062126334958361616 0.0121537420190868 0 -0.0062126334958361616 0.0121537420190868 0 -0.0079664332481076353 0.013954154076917444 0 -0.0086712934597816312 0.01201091977756704 0 -0.0062126334958361616 0.0121537420190868 0 -0.0086712934597816312 0.01201091977756704 0 -0.0074606581296205498 0.0095177631967122527 0 -0.0042099459582070646 0.014138695228234797 0 -0.0041120046736369958 0.01429009259730723 0 -0.0042190853146474609 0.014046445548441372 0 -0.0062126334958361616 0.0121537420190868 0 -0.0079664332481076353 0.013954154076917444 0 -0.002261366120998897 0.013137845909108664 0 -0.0042190853146474609 0.014046445548441372 0 -0.00033799229759872844 0.014792347285119321 0 -0.0046746507616329518 0.014630538302406052 0 -0.0041120046736369958 0.01429009259730723 0 0.00040058766429863606 0.013453742151301875 0 0.0016433765686016716 0.014753392815601719 0 -0.00033799229759872844 0.014792347285119321 0 -0.010458106645154879 0.013720565031335643 0 -0.0079664332481076353 0.013954154076917444 0 -0.0086712934597816312 0.01201091977756704 0 -0.010432821384340438 0.012673342391555497 0 -0.0086712934597816312 0.01201091977756704 0 -0.0093876677076346737 0.010425101510484085 0 -0.010458106645154879 0.013720565031335643 0 -0.010432821384340438 0.012673342391555497 0 -0.0086712934597816312 0.01201091977756704 0 -0.014306787008315504 0.0099152383396158318 0 -0.011767609776519007 0.011402672162656202 0 -0.01119785962832822 0.0076732959980423919 0 -0.011767609776519007 0.011402672162656202 0 -0.01119785962832822 0.0076732959980423919 0 -0.0074606581296205498 0.0095177631967122527 0 -0.01119785962832822 0.0076732959980423919 0 -0.0085059708528679237 0.0073288713978282285 0 -0.0074606581296205498 0.0095177631967122527 0 -0.0086712934597816312 0.01201091977756704 0 -0.0093876677076346737 0.010425101510484085 0 -0.0074606581296205498 0.0095177631967122527 0 -0.01056947952083508 0.010875308374931383 0 -0.0076320699972368903 0.0096487818108952524 0 -0.0052013181930752137 0.011174427732939269 0 -0.0062126334958361616 0.0121537420190868 0 -0.0074606581296205498 0.0095177631967122527 0 -0.0052013181930752137 0.011174427732939269 0 -0.0074606581296205498 0.0095177631967122527 0 -0.0044195145625314227 0.0092182703672285468 0 -0.0085059708528679237 0.0073288713978282285 0 -0.0074606581296205498 0.0095177631967122527 0 -0.0066634118546061117 0.0069802797276808208 0 -0.0074606581296205498 0.0095177631967122527 0 -0.0044195145625314227 0.0092182703672285468 0 -0.0066634118546061117 0.0069802797276808208 0 -0.0040363955584491341 0.0064563749618283262 0 -0.0044195145625314227 0.0092182703672285468 0 -0.0066634118546061117 0.0069802797276808208 0 -0.0052013181930752137 0.011174427732939269 0 -0.0038654375188534088 0.011474405557930235 0 -0.0044195145625314227 0.0092182703672285468 0 -0.0040363955584491341 0.0064563749618283262 0 -0.0064553732203772767 0.0042732164147026791 0 -0.0066634118546061117 0.0069802797276808208 0 -0.0085059708528679237 0.0073288713978282285 0 -0.0066634118546061117 0.0069802797276808208 0 -0.0089814432489217985 0.0052214902496886643 0 -0.0064553732203772767 0.0042732164147026791 0 -0.0066634118546061117 0.0069802797276808208 0 -0.0089814432489217985 0.0052214902496886643 0 -0.0064553732203772767 0.0042732164147026791 0 -0.0090265526473178245 0.0034447297869985294 0 -0.0080674291622081264 0.0025718133798315235 0 -0.0064553732203772767 0.0042732164147026791 0 -0.0090265526473178245 0.0034447297869985294 0 -0.0089814432489217985 0.0052214902496886643 0 -0.0090265526473178245 0.0034447297869985294 0 -0.0089814432489217985 0.0052214902496886643 0 -0.01235589172130596 0.0043465640844180253 0 -0.0090265526473178245 0.0034447297869985294 0 -0.01235589172130596 0.0043465640844180253 0 -0.009986481299135961 0.0020815626294312882 0 -0.01119785962832822 0.0076732959980423919 0 -0.0085059708528679237 0.0073288713978282285 0 -0.0089814432489217985 0.0052214902496886643 0 -0.01119785962832822 0.0076732959980423919 0 -0.0089814432489217985 0.0052214902496886643 0 -0.01235589172130596 0.0043465640844180253 0 -0.013236264974185648 0.0041507689347024031 0 -0.011989714385483187 0.0015297602501185472 0 -0.014050664097907332 0.0023372872770534327 0 -0.012804542651075014 0.0042574575575192678 0 -0.010573948700374404 0.0018148602574339875 0 -0.015487823925505363 0.0022943616258948229 0 -0.016154018201028488 0.0014048322914930295 0 -0.01714430079461967 0.0020551601761079384 0 -0.011989714385483187 0.0015297602501185472 0 -0.011608344121522791 0.00088172551932974054 0 -0.014069243249760595 0.00048456108525217164 0 -0.012711749149713965 0.0018364619359487249 0 -0.018009410285817956 0.001923826159429634 0 -0.013236264974185648 0.0041507689347024031 0 -0.011989714385483187 0.0015297602501185472 0 -0.010693071279825508 0.0010210077878325884 0 -0.011989714385483187 0.0015297602501185472 0 -0.014050664097907332 0.0023372872770534327 0 -0.014069243249760595 0.00048456108525217164 0 -0.011989714385483187 0.0015297602501185472 0 -0.011609351490593205 0.00088527859213114216 0 -0.010693071279825508 0.0010210077878325884 0 -0.012340509994826575 0.0014164989755718234 0 -0.012711749149713965 0.0018364619359487249 0 -0.016154018201028488 0.0014048322914930295 0 -0.01714430079461967 0.0020551601761079384 0 -0.016828269305772386 -4.4335474852329354e-05 0 -0.016154018201028488 0.0014048322914930295 0 -0.015636642604656179 0.00066437130152459639 0 -0.016828269305772386 -4.4335474852329354e-05 0 -0.015487823925505363 0.0022943616258948229 0 -0.016154018201028488 0.0014048322914930295 0 -0.015397960938984099 0.0011687175940259802 0 -0.016154018201028488 0.0014048322914930295 0 -0.015636642604656179 0.00066437130152459639 0 -0.015397960938984099 0.0011687175940259802 0 -0.010573948700374404 0.0018148602574339875 0 -0.0095324693081329168 0.00046803968387042324 0 -0.015487823925505363 0.0022943616258948229 0 -0.015397960938984099 0.0011687175940259802 0 -0.014314173567570691 0.00031145048160280306 0 -0.010884089280221085 0.0022393456755481541 0 -0.0092383037879661886 0.0015210919331072011 0 -0.0093384986590805269 0.00022040606328381358 0 -0.01016460176311826 -0.00023982933045314247 0 -0.010769594299015273 0.001943985168043336 0 -0.0093384986590805269 0.00022040606328381358 0 -0.012711749149713965 0.0018364619359487249 0 -0.012364084729016697 0.00012029435824684726 0 -0.011424180304229273 0.0018445697547857947 0 -0.01016460176311826 -0.00023982933045314247 0 -0.010769594299015273 0.001943985168043336 0 -0.015636642604656179 0.00066437130152459639 0 -0.014314173567570691 0.00031145048160280306 0 -0.015458944364827566 -7.2572693013856434e-05 0 -0.015636642604656179 0.00066437130152459639 0 -0.015397960938984099 0.0011687175940259802 0 -0.014314173567570691 0.00031145048160280306 0 -0.010884089280221085 0.0022393456755481541 0 -0.0080674291622081264 0.0025718133798315235 0 -0.0092383037879661886 0.0015210919331072011 0 -0.0090265526473178245 0.0034447297869985294 0 -0.009986481299135961 0.0020815626294312882 0 -0.0080674291622081264 0.0025718133798315235 0 -0.010573948700374404 0.0018148602574339875 0 -0.0082207258787917441 0.0025687561319774686 0 -0.012711749149713965 0.0018364619359487249 0 -0.010573948700374404 0.0018148602574339875 0 -0.0080674291622081264 0.0025718133798315235 0 -0.0086049263808624082 0.001274559226668163 0 -0.007762182826874171 0.00082027744333654543 0 -0.0080674291622081264 0.0025718133798315235 0 -0.0092383037879661886 0.0015210919331072011 0 -0.0086049263808624082 0.001274559226668163 0 -0.0092383037879661886 0.0015210919331072011 0 -0.0086049263808624082 0.001274559226668163 0 -0.0093384986590805269 0.00022040606328381358 0 -0.01016460176311826 -0.00023982933045314247 0 -0.0093384986590805269 0.00022040606328381358 0 -0.0088893127761443865 -0.00065201607442670628 0 -0.0093384986590805269 0.00022040606328381358 0 -0.007762182826874171 0.00082027744333654543 0 -0.0088893127761443865 -0.00065201607442670628 0 -0.0086049263808624082 0.001274559226668163 0 -0.0093384986590805269 0.00022040606328381358 0 -0.007762182826874171 0.00082027744333654543 0 -0.007762182826874171 0.00082027744333654543 0 -0.0061552884087916039 0.0012450171234218033 0 -0.0066979698186487163 0.00235624285666564 0 -0.007762182826874171 0.00082027744333654543 0 -0.0066002173610726182 4.0259195073369298e-05 0 -0.0077813599870979275 -0.00051310519658226102 0 -0.007762182826874171 0.00082027744333654543 0 -0.0077813599870979275 -0.00051310519658226102 0 -0.0088893127761443865 -0.00065201607442670628 0 -0.007762182826874171 0.00082027744333654543 0 -0.0066002173610726182 4.0259195073369298e-05 0 -0.0061552884087916039 0.0012450171234218033 0 -0.0050424840665110292 0.0028605920357865728 0 -0.0064553732203772767 0.0042732164147026791 0 -0.0066979698186487163 0.00235624285666564 0 -0.0050424840665110292 0.0028605920357865728 0 -0.0061552884087916039 0.0012450171234218033 0 -0.0066979698186487163 0.00235624285666564 0 -0.0064553732203772767 0.0042732164147026791 0 -0.0080674291622081264 0.0025718133798315235 0 -0.0066979698186487163 0.00235624285666564 0 -0.0080674291622081264 0.0025718133798315235 0 -0.007762182826874171 0.00082027744333654543 0 -0.0066979698186487163 0.00235624285666564 0 -0.020792138157809177 0.0063493755450604291 0 -0.019571722978476511 0.0077855097539244796 0 -0.019863211229971787 0.0046210515457448869 0 -0.020792138157809177 0.0063493755450604291 0 -0.022135622949680647 0.0050915260178175607 0 -0.02136351087585444 0.0077200805199624262 0 -0.020792138157809177 0.0063493755450604291 0 -0.022135622949680647 0.0050915260178175607 0 -0.019863211229971787 0.0046210515457448869 0 -0.025309335059305497 0.0044484119712514727 0 -0.022537361529491279 0.0051109182492387328 0 -0.024192947241506699 0.0027690842443005479 0 -0.025309335059305497 0.0044484119712514727 0 -0.025835527634202979 0.0068537525039335991 0 -0.022537361529491279 0.0051109182492387328 0 -0.023150943952697775 0.0088551762229479667 0 -0.022135622949680647 0.0050915260178175607 0 -0.02136351087585444 0.0077200805199624262 0 -0.025835527634202979 0.0068537525039335991 0 -0.023150943952697775 0.0088551762229479667 0 -0.022537361529491279 0.0051109182492387328 0 -0.023244335806984581 0.0087017301736850485 0 -0.02193174026787674 0.0050947413083333214 0 -0.025835527634202979 0.0068537525039335991 0 -0.024588937677315192 0.0096843481455926028 0 -0.023150943952697775 0.0088551762229479667 0 -0.02078789009400903 0.01008712466355392 0 -0.02136351087585444 0.0077200805199624262 0 -0.019571722978476511 0.0077855097539244796 0 -0.020792138157809177 0.0063493755450604291 0 -0.02136351087585444 0.0077200805199624262 0 -0.019571722978476511 0.0077855097539244796 0 -0.015668314525531322 0.0074671405424026486 0 -0.018111500653435701 0.0061107616722832899 0 -0.017416504617213422 0.0049754468773363101 0 -0.015668314525531322 0.0074671405424026486 0 -0.017416504617213422 0.0049754468773363101 0 -0.015370501763676259 0.0038922489546799892 0 -0.018617150657995674 0.0068097830140753327 0 -0.017499859720513634 0.0050484914423544174 0 -0.015549367876139322 0.0073657219791421645 0 -0.012804542651075014 0.0042574575575192678 0 -0.015668314525531322 0.0074671405424026486 0 -0.013236264974185648 0.0041507689347024031 0 -0.015370501763676259 0.0038922489546799892 0 -0.015668314525531322 0.0074671405424026486 0 -0.01119785962832822 0.0076732959980423919 0 -0.01235589172130596 0.0043465640844180253 0 -0.015370501763676259 0.0038922489546799892 0 -0.014050664097907332 0.0023372872770534327 0 -0.015611182047684679 0.0016193645743092539 0 -0.013236264974185648 0.0041507689347024031 0 -0.015370501763676259 0.0038922489546799892 0 -0.014050664097907332 0.0023372872770534327 0 -0.017499859720513634 0.0050484914423544174 0 -0.015708961945095294 0.0018277998274495591 0 -0.017416504617213422 0.0049754468773363101 0 -0.015370501763676259 0.0038922489546799892 0 -0.015611182047684679 0.0016193645743092539 0 -0.017526583381087885 0.0052571066351345085 0 -0.018429010467240423 0.0030342738704375273 0 -0.015611182047684679 0.0016193645743092539 0 -0.018138770333435021 0.0064120273541406628 0 -0.017526583381087885 0.0052571066351345085 0 -0.018429010467240423 0.0030342738704375273 0 -0.018617150657995674 0.0068097830140753327 0 -0.019004573418259015 0.0038594576095258067 0 -0.018429010467240423 0.0030342738704375273 0 -0.015611182047684679 0.0016193645743092539 0 -0.018626664018715492 -0.00026240965675060785 0 -0.018009410285817956 0.001923826159429634 0 -0.021899957800137083 0.00083390038671718469 0 -0.015611182047684679 0.0016193645743092539 0 -0.014069243249760595 0.00048456108525217164 0 -0.018626664018715492 -0.00026240965675060785 0 -0.014050664097907332 0.0023372872770534327 0 -0.015611182047684679 0.0016193645743092539 0 -0.014069243249760595 0.00048456108525217164 0 -0.018009410285817956 0.001923826159429634 0 -0.01966474998403734 0.00017497309661190398 0 -0.02245609453229875 0.0020619400337468603 0 -0.023292693873511575 0.00050978300340259568 0 -0.022182274426413316 0.00016058147929295247 0 -0.02245609453229875 0.0020619400337468603 0 -0.02346914754199541 0.0015189716937151663 0 -0.023292693873511575 0.00050978300340259568 0 -0.02346914754199541 0.0015189716937151663 0 -0.025311534236229206 -8.6563826276551159e-05 0 -0.024373916150408317 -1.3069682964885981e-05 0 -0.02346914754199541 0.0015189716937151663 0 -0.023292693873511575 0.00050978300340259568 0 -0.024373916150408317 -1.3069682964885981e-05 0 -0.02287723496542805 0.0016701194648914253 0 -0.027225142695785756 -0.00022569565191055236 0 -0.02245609453229875 0.0020619400337468603 0 -0.02346914754199541 0.0015189716937151663 0 -0.02502253648615339 0.0016469607123777476 0 -0.02346914754199541 0.0015189716937151663 0 -0.02502253648615339 0.0016469607123777476 0 -0.025188346144500273 -6.6175190708806192e-05 0 -0.029077333572635738 0.0006435276482113241 0 -0.030123147929868001 -0.00052625282642306524 0 -0.028657945535132602 -0.00088933807327985944 0 -0.024320717551327392 0.00096085792225939187 0 -0.027225142695785756 -0.00022569565191055236 0 -0.021899957800137083 0.00083390038671718469 0 -0.027225142695785756 -0.00022569565191055236 0 -0.024827023034867415 0.00056203548205060907 0 -0.024636652872235525 0.00059077288856828421 0 -0.024713561927057984 5.9490513752970777e-05 0 -0.024320717551327392 0.00096085792225939187 0 -0.021899957800137083 0.00083390038671718469 0 -0.019004573418259015 0.0038594576095258067 0 -0.021899957800137083 0.00083390038671718469 0 -0.022135622949680647 0.0050915260178175607 0 -0.019863211229971787 0.0046210515457448869 0 -0.021119580759734927 0.0013423224894817012 0 -0.019863211229971787 0.0046210515457448869 0 -0.021119580759734927 0.0013423224894817012 0 -0.02008602349923929 0.001499549407071057 0 -0.02193174026787674 0.0050947413083333214 0 -0.024320717551327392 0.00096085792225939187 0 -0.022537361529491279 0.0051109182492387328 0 -0.021322170366123529 0.00090051293349520921 0 -0.024192947241506699 0.0027690842443005479 0 -0.031303969664443973 0.00019787484724206522 0 -0.029077333572635738 0.0006435276482113241 0 -0.030123147929868001 -0.00052625282642306524 0 -0.02589876916210428 7.2014483498442338e-05 0 -0.021322170366123529 0.00090051293349520921 0 -0.024192947241506699 0.0027690842443005479 0 -0.028847275982406977 0.00014221762900965337 0 -0.024320717551327392 0.00096085792225939187 0 -0.030123147929868001 -0.00052625282642306524 0 -0.029868505147456863 -0.0020023623562068038 0 -0.030988333728385293 -0.0016288346258397206 0 -0.031974732166031236 -0.0014263462035129088 0 -0.030523036983475738 -0.0034638936454393946 0 -0.033614653154514874 -0.0029243319283370583 0 -0.029868505147456863 -0.0020023623562068038 0 -0.030988333728385293 -0.0016288346258397206 0 -0.03111076029572047 -0.0033107511930558363 0 -0.031009613174540193 -0.0018045967536445924 0 -0.034146051164961042 -0.0029003486199991537 0 -0.029825355120450491 -0.0018328344288232705 0 -0.029731913696668753 -0.00084191486598841924 0 -0.029472694925452979 -0.0018953558676454237 0 -0.027746387629945069 -0.00040792849788752467 0 -0.027131874020665903 -0.0019551767251753801 0 -0.031974732166031236 -0.0014263462035129088 0 -0.030401096185482937 -0.0017789077283150653 0 -0.030523036983475738 -0.0034638936454393946 0 -0.030128611109452322 -0.0018156986433231488 0 -0.032927719521314819 -0.0030914473770559318 0 -0.029825355120450491 -0.0018328344288232705 0 -0.029472694925452979 -0.0018953558676454237 0 -0.029906233577924553 -0.0028085538652153929 0 -0.031974732166031236 -0.0014263462035129088 0 -0.030401096185482937 -0.0017789077283150653 0 -0.030272188651256911 -8.7457682951848096e-05 0 -0.030123147929868001 -0.00052625282642306524 0 -0.029868505147456863 -0.0020023623562068038 0 -0.028657945535132602 -0.00088933807327985944 0 -0.030128611109452322 -0.0018156986433231488 0 -0.027746387629945069 -0.00040792849788752467 0 -0.031974732166031236 -0.0014263462035129088 0 -0.030272188651256911 -8.7457682951848096e-05 0 -0.030317061902871381 7.8809471046550368e-05 0 -0.031009613174540193 -0.0018045967536445924 0 -0.027225142695785756 -0.00022569565191055236 0 -0.027746387629945069 -0.00040792849788752467 0 -0.027225142695785756 -0.00022569565191055236 0 -0.025271679516103731 -0.00022648025042418525 0 -0.024461660320927531 -0.00078239353651991664 0 -0.024859912372024076 -0.0017095986187256882 0 -0.025271679516103731 -0.00022648025042418525 0 -0.025311534236229206 -8.6563826276551159e-05 0 -0.024373916150408317 -1.3069682964885981e-05 0 -0.023292693873511575 0.00050978300340259568 0 -0.024373916150408317 -1.3069682964885981e-05 0 -0.023621124451819252 -0.00053159138069086662 0 -0.024373916150408317 -1.3069682964885981e-05 0 -0.024461660320927531 -0.00078239353651991664 0 -0.023621124451819252 -0.00053159138069086662 0 -0.024461660320927531 -0.00078239353651991664 0 -0.023621124451819252 -0.00053159138069086662 0 -0.024009984175233621 -0.0013242903255260131 0 -0.025271679516103731 -0.00022648025042418525 0 -0.024373916150408317 -1.3069682964885981e-05 0 -0.024461660320927531 -0.00078239353651991664 0 -0.023621124451819252 -0.00053159138069086662 0 -0.023065731020396912 -0.0014638319847806247 0 -0.022182274426413316 0.00016058147929295247 0 -0.023292693873511575 0.00050978300340259568 0 -0.023621124451819252 -0.00053159138069086662 0 -0.022182274426413316 0.00016058147929295247 0 -0.023065731020396912 -0.0014638319847806247 0 -0.022182274426413316 0.00016058147929295247 0 -0.021911328557787352 -0.0017587996032754083 0 -0.023621124451819252 -0.00053159138069086662 0 -0.023065731020396912 -0.0014638319847806247 0 -0.024009984175233621 -0.0013242903255260131 0 -0.023065731020396912 -0.0014638319847806247 0 -0.024031891062018269 -0.0021285629826275571 0 -0.022918732134228285 -0.0024678505987076062 0 -0.023065731020396912 -0.0014638319847806247 0 -0.022918732134228285 -0.0024678505987076062 0 -0.021911328557787352 -0.0017587996032754083 0 -0.024031891062018269 -0.0021285629826275571 0 -0.024859912372024076 -0.0017095986187256882 0 -0.024483176498596642 -0.003150809246885317 0 -0.024461660320927531 -0.00078239353651991664 0 -0.024009984175233621 -0.0013242903255260131 0 -0.024859912372024076 -0.0017095986187256882 0 -0.023065731020396912 -0.0014638319847806247 0 -0.024009984175233621 -0.0013242903255260131 0 -0.024031891062018269 -0.0021285629826275571 0 -0.024009984175233621 -0.0013242903255260131 0 -0.024031891062018269 -0.0021285629826275571 0 -0.024859912372024076 -0.0017095986187256882 0 -0.027131874020665903 -0.0019551767251753801 0 -0.030317137821573189 -0.0032133442009067859 0 -0.029472694925452979 -0.0018953558676454237 0 -0.029203140567278765 -0.0029313091302319871 0 -0.029906233577924553 -0.0028085538652153929 0 -0.024834558224481006 -0.0024933413289647596 0 -0.027686937387965876 -0.0028439847667916232 0 -0.024031891062018269 -0.0021285629826275571 0 -0.024026143084058923 -0.0032292224745057202 0 -0.024483176498596642 -0.003150809246885317 0 -0.027686937387965876 -0.0028439847667916232 0 -0.030317137821573189 -0.0032133442009067859 0 -0.031840577436722202 -0.0038144987825073388 0 -0.031312267662765451 -0.0039073312008507648 0 -0.03151891500409984 -0.0032000789832589997 0 -0.030317137821573189 -0.0032133442009067859 0 -0.034017962294192343 -0.0034387313982800582 0 -0.030317137821573189 -0.0032133442009067859 0 -0.032927719521314819 -0.0030914473770559318 0 -0.035291570207352664 -0.0032963550024717059 0 -0.03525456860121657 -0.0032320601295155252 0 -0.035176351134371044 -0.0034405365941720528 0 -0.035341534396826642 -0.003385208081332915 0 -0.035291570207352664 -0.0032963550024717059 0 -0.035232389634857517 -0.0034211379706417834 0 -0.035425063932492167 -0.0032980201166434345 0 -0.03525456860121657 -0.0032320601295155252 0 -0.035540102072014031 -0.0031820734469422806 0 -0.03455430412675136 -0.0031266977554690071 0 -0.034017962294192343 -0.0034387313982800582 0 -0.035341534396826642 -0.003385208081332915 0 -0.035425063932492167 -0.0032980201166434345 0 -0.035291570207352664 -0.0032963550024717059 0 -0.035341534396826642 -0.003385208081332915 0 -0.035425063932492167 -0.0032980201166434345 0 -0.035432487245716883 -0.0034302529133439438 0 -0.035425063932492167 -0.0032980201166434345 0 -0.035291570207352664 -0.0032963550024717059 0 -0.03525456860121657 -0.0032320601295155252 0 -0.023991938026380281 -0.0032726047148719053 0 -0.022918732134228285 -0.0024678505987076062 0 -0.021627317126634415 -0.003679023767156198 0 -0.027686937387965876 -0.0028439847667916232 0 -0.022307563162877311 -0.0030352888607632334 0 -0.024031891062018269 -0.0021285629826275571 0 -0.023991938026380281 -0.0032726047148719053 0 -0.022918732134228285 -0.0024678505987076062 0 -0.028197723771806751 -0.0028269936775584923 0 -0.028897469337982002 -0.0026458927220729465 0 -0.028323421126346757 -0.0034922882071449354 0 -0.040771250264647597 -0.0033612175441682011 0 -0.040810073878741776 -0.0033525432991528283 0 -0.040858157099070952 -0.003365173068144967 0 -0.028909433434241693 -0.0020535713179992872 0 -0.028197723771806751 -0.0028269936775584923 0 -0.027573378568176769 -0.0022879875638895544 0 -0.034469368743736524 -0.0031970982627125867 0 -0.034546348057959066 -0.003473636684236035 0 -0.028909433434241693 -0.0020535713179992872 0 -0.028197723771806751 -0.0028269936775584923 0 -0.028897469337982002 -0.0026458927220729465 0 -0.035350096130138745 -0.0034969014015709603 0 -0.035232389634857517 -0.0034211379706417834 0 -0.035293389052180199 -0.0036380575963603115 0 -0.035350096130138745 -0.0034969014015709603 0 -0.035293389052180199 -0.0036380575963603115 0 -0.035453277695459084 -0.0036086681868985073 0 -0.035432487245716883 -0.0034302529133439438 0 -0.035350096130138745 -0.0034969014015709603 0 -0.035453277695459084 -0.0036086681868985073 0 -0.035341534396826642 -0.003385208081332915 0 -0.035432487245716883 -0.0034302529133439438 0 -0.035350096130138745 -0.0034969014015709603 0 -0.035341534396826642 -0.003385208081332915 0 -0.035350096130138745 -0.0034969014015709603 0 -0.035232389634857517 -0.0034211379706417834 0 -0.035559191448792597 -0.0038805677275154746 0 -0.03583234101621096 -0.0034973302022870373 0 -0.035879085361475362 -0.0028624119211801613 0 -0.031840577436722202 -0.0038144987825073388 0 -0.03151891500409984 -0.0032000789832589997 0 -0.031910260794602907 -0.0026337285372784332 0 -0.034017962294192343 -0.0034387313982800582 0 -0.034469368743736524 -0.0031970982627125867 0 -0.027686937387965876 -0.0028439847667916232 0 -0.034469368743736524 -0.0031970982627125867 0 -0.035232389634857517 -0.0034211379706417834 0 -0.035293389052180199 -0.0036380575963603115 0 -0.035181450518003775 -0.003804050448635952 0 -0.035293389052180199 -0.0036380575963603115 0 -0.035366139282430174 -0.0037975966262224718 0 -0.035181450518003775 -0.003804050448635952 0 -0.034469368743736524 -0.0031970982627125867 0 -0.037979412434187662 -0.0032737747015100741 0 -0.034017962294192343 -0.0034387313982800582 0 -0.037979412434187662 -0.0032737747015100741 0 -0.035293389052180199 -0.0036380575963603115 0 -0.035453277695459084 -0.0036086681868985073 0 -0.035366139282430174 -0.0037975966262224718 0 -0.035453277695459084 -0.0036086681868985073 0 -0.035541905977879922 -0.0037853183884280746 0 -0.035366139282430174 -0.0037975966262224718 0 -0.035453277695459084 -0.0036086681868985073 0 -0.035541905977879922 -0.0037853183884280746 0 -0.035661898571019444 -0.0036642559071357697 0 -0.035541905977879922 -0.0037853183884280746 0 -0.035661898571019444 -0.0036642559071357697 0 -0.035710921338625239 -0.0038705340789452307 0 -0.035432487245716883 -0.0034302529133439438 0 -0.035453277695459084 -0.0036086681868985073 0 -0.035590465507563507 -0.0034541663017874243 0 -0.035453277695459084 -0.0036086681868985073 0 -0.035590465507563507 -0.0034541663017874243 0 -0.035661898571019444 -0.0036642559071357697 0 -0.035432487245716883 -0.0034302529133439438 0 -0.035590465507563507 -0.0034541663017874243 0 -0.035498891188485031 -0.0033667450831319466 0 -0.035590465507563507 -0.0034541663017874243 0 -0.035778404162984175 -0.0035270920796039184 0 -0.035661898571019444 -0.0036642559071357697 0 -0.035590465507563507 -0.0034541663017874243 0 -0.035778404162984175 -0.0035270920796039184 0 -0.035796659669845958 -0.0033102820204588103 0 -0.035661898571019444 -0.0036642559071357697 0 -0.035869535344384272 -0.0037321320325900704 0 -0.035710921338625239 -0.0038705340789452307 0 -0.035778404162984175 -0.0035270920796039184 0 -0.035661898571019444 -0.0036642559071357697 0 -0.035869535344384272 -0.0037321320325900704 0 -0.036040569027291795 -0.0034602760398778271 0 -0.036119855503706631 -0.0039303561980312028 0 -0.036397062286470529 -0.0036301573389835367 0 -0.035869535344384272 -0.0037321320325900704 0 -0.036040569027291795 -0.0034602760398778271 0 -0.036119855503706631 -0.0039303561980312028 0 -0.035778404162984175 -0.0035270920796039184 0 -0.036040569027291795 -0.0034602760398778271 0 -0.035796659669845958 -0.0033102820204588103 0 -0.035778404162984175 -0.0035270920796039184 0 -0.035869535344384272 -0.0037321320325900704 0 -0.036040569027291795 -0.0034602760398778271 0 -0.032927719521314819 -0.0030914473770559318 0 -0.034146051164961042 -0.0029003486199991537 0 -0.036040569027291795 -0.0034602760398778271 0 -0.036301480412934732 -0.002959689422728872 0 -0.036397910454450906 -0.0033414921608703142 0 -0.035533288766493351 -0.0031612412478160302 0 -0.035796659669845958 -0.0033102820204588103 0 -0.036301480412934732 -0.002959689422728872 0 -0.036040569027291795 -0.0034602760398778271 0 -0.035796659669845958 -0.0033102820204588103 0 -0.036301480412934732 -0.002959689422728872 0 -0.035533288766493351 -0.0031612412478160302 0 -0.03554956560738555 -0.0032858098349441769 0 -0.035796659669845958 -0.0033102820204588103 0 -0.032927719521314819 -0.0030914473770559318 0 -0.033398846475864483 -0.0032285421097781866 0 -0.035425063932492167 -0.0032980201166434345 0 -0.035540102072014031 -0.0031820734469422806 0 -0.03554956560738555 -0.0032858098349441769 0 -0.035425063932492167 -0.0032980201166434345 0 -0.035432487245716883 -0.0034302529133439438 0 -0.035498891188485031 -0.0033667450831319466 0 -0.035425063932492167 -0.0032980201166434345 0 -0.035498891188485031 -0.0033667450831319466 0 -0.03554956560738555 -0.0032858098349441769 0 -0.035590465507563507 -0.0034541663017874243 0 -0.035498891188485031 -0.0033667450831319466 0 -0.03554956560738555 -0.0032858098349441769 0 -0.035590465507563507 -0.0034541663017874243 0 -0.03554956560738555 -0.0032858098349441769 0 -0.035796659669845958 -0.0033102820204588103 0 -0.0084809809559048596 -0.0019594055524233696 0 -0.0096425180656857651 -0.0021138129003253721 0 -0.011070048212082758 -0.0039926505767048596 0 -0.0081494920181572894 -0.0032920359051925897 0 -0.0084809809559048596 -0.0019594055524233696 0 -0.011070048212082758 -0.0039926505767048596 0 -0.0069457370518304432 -0.0022298727474553935 0 -0.0081494920181572894 -0.0032920359051925897 0 -0.0084809809559048596 -0.0019594055524233696 0 -0.0069457370518304432 -0.0022298727474553935 0 -0.0067676517723012173 -0.00098619054103464359 0 -0.0084809809559048596 -0.0019594055524233696 0 -0.0067676517723012173 -0.00098619054103464359 0 -0.0084809809559048596 -0.0019594055524233696 0 -0.0077813599870979275 -0.00051310519658226102 0 -0.0067676517723012173 -0.00098619054103464359 0 -0.0066002173610726182 4.0259195073369298e-05 0 -0.0077813599870979275 -0.00051310519658226102 0 -0.0084809809559048596 -0.0019594055524233696 0 -0.0077813599870979275 -0.00051310519658226102 0 -0.0088893127761443865 -0.00065201607442670628 0 -0.0084809809559048596 -0.0019594055524233696 0 -0.0088893127761443865 -0.00065201607442670628 0 -0.0096425180656857651 -0.0021138129003253721 0 -0.01016460176311826 -0.00023982933045314247 0 -0.0088893127761443865 -0.00065201607442670628 0 -0.0096425180656857651 -0.0021138129003253721 0 -0.012364084729016697 0.00012029435824684726 0 -0.011369867254121155 -0.0020011898725156834 0 -0.013112608276081725 -0.0015595582075530749 0 -0.014671034341577427 -0.002696148081667371 0 -0.013374673088513089 -0.0033527264846321789 0 -0.011369867254121155 -0.0020011898725156834 0 -0.010898344721497533 -0.0039088989465936655 0 -0.013112608276081725 -0.0015595582075530749 0 -0.014671034341577427 -0.002696148081667371 0 -0.015059341198381621 -0.0012225705258462854 0 -0.014314173567570691 0.00031145048160280306 0 -0.015059341198381621 -0.0012225705258462854 0 -0.015458944364827566 -7.2572693013856434e-05 0 -0.014314173567570691 0.00031145048160280306 0 -0.013112608276081725 -0.0015595582075530749 0 -0.015059341198381621 -0.0012225705258462854 0 -0.015059341198381621 -0.0012225705258462854 0 -0.016828269305772386 -4.4335474852329354e-05 0 -0.016496630517616562 -0.0022064395377827529 0 -0.01966474998403734 0.00017497309661190398 0 -0.018901271033766841 -0.0022488465756460916 0 -0.015059341198381621 -0.0012225705258462854 0 -0.015458944364827566 -7.2572693013856434e-05 0 -0.016828269305772386 -4.4335474852329354e-05 0 -0.015636642604656179 0.00066437130152459639 0 -0.015458944364827566 -7.2572693013856434e-05 0 -0.016828269305772386 -4.4335474852329354e-05 0 -0.014671034341577427 -0.002696148081667371 0 -0.015059341198381621 -0.0012225705258462854 0 -0.016496630517616562 -0.0022064395377827529 0 -0.014671034341577427 -0.002696148081667371 0 -0.016496630517616562 -0.0022064395377827529 0 -0.015423759171976949 -0.0037334160469757144 0 -0.016496630517616562 -0.0022064395377827529 0 -0.015423759171976949 -0.0037334160469757144 0 -0.015917149074983789 -0.0043352850683137387 0 -0.022918732134228285 -0.0024678505987076062 0 -0.021911328557787352 -0.0017587996032754083 0 -0.021627317126634415 -0.003679023767156198 0 -0.018901271033766841 -0.0022488465756460916 0 -0.022307563162877311 -0.0030352888607632334 0 -0.015423759171976949 -0.0037334160469757144 0 -0.015327457959831058 -0.0043113567489608462 0 -0.015917149074983789 -0.0043352850683137387 0 -0.015917149074983789 -0.0043352850683137387 0 -0.015261400576237767 -0.004803726067811551 0 -0.015224066513156723 -0.0055611588059060971 0 -0.022307563162877311 -0.0030352888607632334 0 -0.020303987260770845 -0.0049246315381026211 0 -0.028197723771806751 -0.0028269936775584923 0 -0.027573378568176769 -0.0022879875638895544 0 -0.027391055333658196 -0.0037384343682318557 0 -0.015327457959831058 -0.0043113567489608462 0 -0.015917149074983789 -0.0043352850683137387 0 -0.015261400576237767 -0.004803726067811551 0 -0.015261400576237767 -0.004803726067811551 0 -0.014920217641279819 -0.004464728555482138 0 -0.014554628758012878 -0.0049479456260253032 0 -0.015327457959831058 -0.0043113567489608462 0 -0.015261400576237767 -0.004803726067811551 0 -0.014920217641279819 -0.004464728555482138 0 -0.015261400576237767 -0.004803726067811551 0 -0.014554628758012878 -0.0049479456260253032 0 -0.014833144503043148 -0.0053248946942322344 0 -0.014554628758012878 -0.0049479456260253032 0 -0.014302748102033108 -0.0052674463256260889 0 -0.014833144503043148 -0.0053248946942322344 0 -0.014920217641279819 -0.004464728555482138 0 -0.014554628758012878 -0.0049479456260253032 0 -0.014158786778928028 -0.0045255044255385788 0 -0.014554628758012878 -0.0049479456260253032 0 -0.014158786778928028 -0.0045255044255385788 0 -0.013779132175849071 -0.0050991851273929616 0 -0.014158786778928028 -0.0045255044255385788 0 -0.014620320412703039 -0.0038741977790980953 0 -0.013374673088513089 -0.0033527264846321789 0 -0.014920217641279819 -0.004464728555482138 0 -0.014158786778928028 -0.0045255044255385788 0 -0.014620320412703039 -0.0038741977790980953 0 -0.015423759171976949 -0.0037334160469757144 0 -0.014620320412703039 -0.0038741977790980953 0 -0.015065440217731306 -0.0041057887381290466 0 -0.014920217641279819 -0.004464728555482138 0 -0.014620320412703039 -0.0038741977790980953 0 -0.015065440217731306 -0.0041057887381290466 0 -0.015423759171976949 -0.0037334160469757144 0 -0.015327457959831058 -0.0043113567489608462 0 -0.015065440217731306 -0.0041057887381290466 0 -0.015327457959831058 -0.0043113567489608462 0 -0.014920217641279819 -0.004464728555482138 0 -0.015065440217731306 -0.0041057887381290466 0 -0.014671034341577427 -0.002696148081667371 0 -0.015423759171976949 -0.0037334160469757144 0 -0.014620320412703039 -0.0038741977790980953 0 -0.014671034341577427 -0.002696148081667371 0 -0.014620320412703039 -0.0038741977790980953 0 -0.013374673088513089 -0.0033527264846321789 0 -0.013112608276081725 -0.0015595582075530749 0 -0.013374673088513089 -0.0033527264846321789 0 -0.011070048212082758 -0.0039926505767048596 0 -0.013374673088513089 -0.0033527264846321789 0 -0.013116067533900225 -0.0044563930304969621 0 -0.011070048212082758 -0.0039926505767048596 0 -0.014158786778928028 -0.0045255044255385788 0 -0.013374673088513089 -0.0033527264846321789 0 -0.013116067533900225 -0.0044563930304969621 0 -0.013116067533900225 -0.0044563930304969621 0 -0.012862864405537112 -0.005518115909773697 0 -0.011070048212082758 -0.0039926505767048596 0 -0.014158786778928028 -0.0045255044255385788 0 -0.013116067533900225 -0.0044563930304969621 0 -0.013779132175849071 -0.0050991851273929616 0 -0.014554628758012878 -0.0049479456260253032 0 -0.013779132175849071 -0.0050991851273929616 0 -0.014302748102033108 -0.0052674463256260889 0 -0.013779132175849071 -0.0050991851273929616 0 -0.013901621358058532 -0.0053713579240502697 0 -0.014302748102033108 -0.0052674463256260889 0 -0.013779132175849071 -0.0050991851273929616 0 -0.012862864405537112 -0.005518115909773697 0 -0.013901621358058532 -0.0053713579240502697 0 -0.013116067533900225 -0.0044563930304969621 0 -0.013779132175849071 -0.0050991851273929616 0 -0.012862864405537112 -0.005518115909773697 0 -0.014157131910644462 -0.0050368954614052729 0 -0.014448614147265483 -0.0048717673271437226 0 -0.012862864405537112 -0.005518115909773697 0 -0.01055943784466359 -0.0048012596062543232 0 -0.012437989080313586 -0.0054362128548213302 0 -0.0065851930236609764 -0.0049560089451435004 0 -0.0081494920181572894 -0.0032920359051925897 0 -0.011070048212082758 -0.0039926505767048596 0 -0.0065851930236609764 -0.0049560089451435004 0 -0.012862864405537112 -0.005518115909773697 0 -0.011070048212082758 -0.0039926505767048596 0 -0.014536900575627043 -0.0051648984036960699 0 -0.015090645096337958 -0.0053382377105862791 0 -0.014347350926291306 -0.005187733021541535 0 -0.015090645096337958 -0.0053382377105862791 0 -0.014347350926291306 -0.005187733021541535 0 -0.015598041830881841 -0.0053587595857672414 0 -0.012862864405537112 -0.005518115909773697 0 -0.014347350926291306 -0.005187733021541535 0 -0.013901621358058532 -0.0053713579240502697 0 -0.014536900575627043 -0.0051648984036960699 0 -0.014157131910644462 -0.0050368954614052729 0 -0.014347350926291306 -0.005187733021541535 0 -0.014157131910644462 -0.0050368954614052729 0 -0.012862864405537112 -0.005518115909773697 0 -0.014347350926291306 -0.005187733021541535 0 -0.014347350926291306 -0.005187733021541535 0 -0.013901621358058532 -0.0053713579240502697 0 -0.014922276168504337 -0.005395149303514043 0 -0.013901621358058532 -0.0053713579240502697 0 -0.014302748102033108 -0.0052674463256260889 0 -0.014922276168504337 -0.005395149303514043 0 -0.014347350926291306 -0.005187733021541535 0 -0.014922276168504337 -0.005395149303514043 0 -0.015598041830881841 -0.0053587595857672414 0 -0.014922276168504337 -0.005395149303514043 0 -0.015598041830881841 -0.0053587595857672414 0 -0.01637579726851153 -0.0053575515703065766 0 -0.015120332109247169 -0.0056640785825817896 0 -0.015224066513156723 -0.0055611588059060971 0 -0.015261036258939941 -0.0057359521193714371 0 -0.015235400337594525 -0.0055289845353286371 0 -0.015653369474256291 -0.0053281795928942144 0 -0.014922276168504337 -0.005395149303514043 0 -0.015120332109247169 -0.0056640785825817896 0 -0.015224066513156723 -0.0055611588059060971 0 -0.014922276168504337 -0.005395149303514043 0 -0.014833144503043148 -0.0053248946942322344 0 -0.015224066513156723 -0.0055611588059060971 0 -0.015261400576237767 -0.004803726067811551 0 -0.014833144503043148 -0.0053248946942322344 0 -0.015224066513156723 -0.0055611588059060971 0 -0.014302748102033108 -0.0052674463256260889 0 -0.014922276168504337 -0.005395149303514043 0 -0.014833144503043148 -0.0053248946942322344 0 -0.027391055333658196 -0.0037384343682318557 0 -0.027753728586317486 -0.0043111523608876899 0 -0.028323421126346757 -0.0034922882071449354 0 -0.020303987260770845 -0.0049246315381026211 0 -0.027737337411011448 -0.0047121062072668102 0 -0.027391055333658196 -0.0037384343682318557 0 -0.027753728586317486 -0.0043111523608876899 0 -0.027213736281265395 -0.0051141119338282085 0 -0.04078898907501638 -0.0034231466258195248 0 -0.040857310084687952 -0.0035721068627570752 0 -0.040455554528912412 -0.0037353358563828004 0 -0.040857310084687952 -0.0035721068627570752 0 -0.040455554528912412 -0.0037353358563828004 0 -0.040921026850067099 -0.0037554176121986716 0 -0.034887540971776605 -0.0034453647413232313 0 -0.027737337411011448 -0.0047121062072668102 0 -0.040740487665362549 -0.0039467079325046532 0 -0.040455554528912412 -0.0037353358563828004 0 -0.040921026850067099 -0.0037554176121986716 0 -0.040740487665362549 -0.0039467079325046532 0 -0.040921026850067099 -0.0037554176121986716 0 -0.041059184888254448 -0.0040288999561071967 0 -0.040740487665362549 -0.0039467079325046532 0 -0.040901282843899892 -0.0042633981213961985 0 -0.040398085904472782 -0.0039787639115895987 0 -0.040740487665362549 -0.0039467079325046532 0 -0.040901282843899892 -0.0042633981213961985 0 -0.041059184888254448 -0.0040288999561071967 0 -0.040740487665362549 -0.0039467079325046532 0 -0.040398085904472782 -0.0039787639115895987 0 -0.040455554528912412 -0.0037353358563828004 0 -0.033082523033464657 -0.0049004697035294345 0 -0.027737337411011448 -0.0047121062072668102 0 -0.02311310501917041 -0.0050054364685034767 0 -0.033082523033464657 -0.0049004697035294345 0 -0.029897929980147096 -0.0050993058426669563 0 -0.029678762952981178 -0.0045012204580998109 0 -0.029472710531200447 -0.0057197121687611492 0 -0.017695701461963753 -0.0058416713446374441 0 -0.01762755195909485 -0.0059259879848843483 0 -0.017724687734747748 -0.0060020827374600502 0 -0.02311310501917041 -0.0050054364685034767 0 -0.021915587613773491 -0.0059410473635921777 0 -0.01762755195909485 -0.0059259879848843483 0 -0.017755132082169708 -0.0059983120007836947 0 -0.017724687734747748 -0.0060020827374600502 0 -0.017755132082169708 -0.0059983120007836947 0 -0.017724687734747748 -0.0060020827374600502 0 -0.01804131728447287 -0.0060781335484908078 0 -0.017844701940582085 -0.0060650869761552841 0 -0.01755185120220425 -0.0059727115145042347 0 -0.017400776118407374 -0.0060419328309227376 0 -0.018359564977490927 -0.0061584901245251471 0 -0.017844701940582085 -0.0060650869761552841 0 -0.017400776118407374 -0.0060419328309227376 0 -0.018359564977490927 -0.0061584901245251471 0 -0.01804131728447287 -0.0060781335484908078 0 -0.017844701940582085 -0.0060650869761552841 0 -0.01804131728447287 -0.0060781335484908078 0 -0.017844701940582085 -0.0060650869761552841 0 -0.01755185120220425 -0.0059727115145042347 0 -0.017755132082169708 -0.0059983120007836947 0 -0.01804131728447287 -0.0060781335484908078 0 -0.01755185120220425 -0.0059727115145042347 0 -0.01762755195909485 -0.0059259879848843483 0 -0.01755185120220425 -0.0059727115145042347 0 -0.016767339627393664 -0.0056545065391853588 0 -0.01755185120220425 -0.0059727115145042347 0 -0.016767339627393664 -0.0056545065391853588 0 -0.017400776118407374 -0.0060419328309227376 0 -0.01762755195909485 -0.0059259879848843483 0 -0.017755132082169708 -0.0059983120007836947 0 -0.01755185120220425 -0.0059727115145042347 0 -0.01758945657663603 -0.0058072827902661888 0 -0.01762755195909485 -0.0059259879848843483 0 -0.016767339627393664 -0.0056545065391853588 0 -0.015653369474256291 -0.0053281795928942144 0 -0.02311310501917041 -0.0050054364685034767 0 -0.01637579726851153 -0.0053575515703065766 0 -0.01758945657663603 -0.0058072827902661888 0 -0.016767339627393664 -0.0056545065391853588 0 -0.015120332109247169 -0.0056640785825817896 0 -0.015256878415875877 -0.0057681779509955984 0 -0.015261036258939941 -0.0057359521193714371 0 -0.02311310501917041 -0.0050054364685034767 0 -0.027737337411011448 -0.0047121062072668102 0 -0.015598041830881841 -0.0053587595857672414 0 -0.016767339627393664 -0.0056545065391853588 0 -0.016047720308959842 -0.005656981136217272 0 -0.015598041830881841 -0.0053587595857672414 0 -0.01637579726851153 -0.0053575515703065766 0 -0.016767339627393664 -0.0056545065391853588 0 -0.016155904787383778 -0.0066297560424652072 0 -0.016047720308959842 -0.005656981136217272 0 -0.017400776118407374 -0.0060419328309227376 0 -0.016767339627393664 -0.0056545065391853588 0 -0.016047720308959842 -0.005656981136217272 0 -0.017400776118407374 -0.0060419328309227376 0 -0.016155904787383778 -0.0066297560424652072 0 -0.016047720308959842 -0.005656981136217272 0 -0.015307833520291751 -0.0057137342245722252 0 -0.015090645096337958 -0.0053382377105862791 0 -0.016047720308959842 -0.005656981136217272 0 -0.015307833520291751 -0.0057137342245722252 0 -0.015090645096337958 -0.0053382377105862791 0 -0.015598041830881841 -0.0053587595857672414 0 -0.016047720308959842 -0.005656981136217272 0 -0.014690755197723641 -0.0053616948962355322 0 -0.015090645096337958 -0.0053382377105862791 0 -0.015307833520291751 -0.0057137342245722252 0 -0.035684911435182827 -0.0042043970844149476 0 -0.035708130014423273 -0.0043986056389870298 0 -0.035883033021926025 -0.004179136555948865 0 -0.035684911435182827 -0.0042043970844149476 0 -0.035569958419322145 -0.0042614960799819248 0 -0.035708130014423273 -0.0043986056389870298 0 -0.035684911435182827 -0.0042043970844149476 0 -0.035569958419322145 -0.0042614960799819248 0 -0.035550591860139438 -0.0041083983958445083 0 -0.035569958419322145 -0.0042614960799819248 0 -0.035708130014423273 -0.0043986056389870298 0 -0.035437276277179006 -0.0043340565316343956 0 -0.035569958419322145 -0.0042614960799819248 0 -0.035550591860139438 -0.0041083983958445083 0 -0.035427835207992302 -0.0041808610192767192 0 -0.043042895121249973 -0.002483748281332754 0 -0.042864747877988461 -0.002857822367769834 0 -0.043262950225671282 -0.0026411785716117814 0 -0.035708130014423273 -0.0043986056389870298 0 -0.036267439181353146 -0.0043358321673942673 0 -0.035883033021926025 -0.004179136555948865 0 -0.043042895121249973 -0.002483748281332754 0 -0.043039566172368607 -0.0030428263759130097 0 -0.043262950225671282 -0.0026411785716117814 0 -0.043039566172368607 -0.0030428263759130097 0 -0.043262950225671282 -0.0026411785716117814 0 -0.042929840244185474 -0.0024585985654179041 0 -0.039161854998852982 -0.0035437070649465014 0 -0.039665589470710208 -0.0036791078075715726 0 -0.035883033021926025 -0.004179136555948865 0 -0.036119855503706631 -0.0039303561980312028 0 -0.03585842745568496 -0.0039550604695854086 0 -0.036267439181353146 -0.0043358321673942673 0 -0.035883033021926025 -0.004179136555948865 0 -0.036119855503706631 -0.0039303561980312028 0 -0.035869535344384272 -0.0037321320325900704 0 -0.036119855503706631 -0.0039303561980312028 0 -0.03585842745568496 -0.0039550604695854086 0 -0.035869535344384272 -0.0037321320325900704 0 -0.035710921338625239 -0.0038705340789452307 0 -0.03585842745568496 -0.0039550604695854086 0 -0.035710921338625239 -0.0038705340789452307 0 -0.03585842745568496 -0.0039550604695854086 0 -0.035714821075663317 -0.0040524761920343825 0 -0.035684911435182827 -0.0042043970844149476 0 -0.035883033021926025 -0.004179136555948865 0 -0.035714821075663317 -0.0040524761920343825 0 -0.035883033021926025 -0.004179136555948865 0 -0.03585842745568496 -0.0039550604695854086 0 -0.035714821075663317 -0.0040524761920343825 0 -0.035684911435182827 -0.0042043970844149476 0 -0.035714821075663317 -0.0040524761920343825 0 -0.035550591860139438 -0.0041083983958445083 0 -0.035714821075663317 -0.0040524761920343825 0 -0.035550591860139438 -0.0041083983958445083 0 -0.03559691050819401 -0.0039502230386460769 0 -0.035550591860139438 -0.0041083983958445083 0 -0.03559691050819401 -0.0039502230386460769 0 -0.035469869673594105 -0.0039276243895973312 0 -0.035710921338625239 -0.0038705340789452307 0 -0.035714821075663317 -0.0040524761920343825 0 -0.03559691050819401 -0.0039502230386460769 0 -0.035541905977879922 -0.0037853183884280746 0 -0.035710921338625239 -0.0038705340789452307 0 -0.03559691050819401 -0.0039502230386460769 0 -0.035541905977879922 -0.0037853183884280746 0 -0.03559691050819401 -0.0039502230386460769 0 -0.035469869673594105 -0.0039276243895973312 0 -0.035469869673594105 -0.0039276243895973312 0 -0.035366139282430174 -0.0037975966262224718 0 -0.035363919803401443 -0.0040093776215322082 0 -0.035181450518003775 -0.003804050448635952 0 -0.035363919803401443 -0.0040093776215322082 0 -0.03522287438934555 -0.004183641544852265 0 -0.035541905977879922 -0.0037853183884280746 0 -0.035469869673594105 -0.0039276243895973312 0 -0.035366139282430174 -0.0037975966262224718 0 -0.037979412434187662 -0.0032737747015100741 0 -0.038147380091697311 -0.0039195229236300803 0 -0.035366139282430174 -0.0037975966262224718 0 -0.035181450518003775 -0.003804050448635952 0 -0.035363919803401443 -0.0040093776215322082 0 -0.035363919803401443 -0.0040093776215322082 0 -0.035427835207992302 -0.0041808610192767192 0 -0.03522287438934555 -0.004183641544852265 0 -0.035550591860139438 -0.0041083983958445083 0 -0.035469869673594105 -0.0039276243895973312 0 -0.035363919803401443 -0.0040093776215322082 0 -0.035550591860139438 -0.0041083983958445083 0 -0.035363919803401443 -0.0040093776215322082 0 -0.035427835207992302 -0.0041808610192767192 0 -0.037979412434187662 -0.0032737747015100741 0 -0.041810939686857333 -0.0033126176970680759 0 -0.040810073878741776 -0.0033525432991528283 0 -0.040858157099070952 -0.003365173068144967 0 -0.041003421361406993 -0.0034557406064901321 0 -0.040987387815541954 -0.0031388635804240669 0 -0.041003421361406993 -0.0034557406064901321 0 -0.041037244094165329 -0.0033191692389789047 0 -0.028197723771806751 -0.0028269936775584923 0 -0.027391055333658196 -0.0037384343682318557 0 -0.028323421126346757 -0.0034922882071449354 0 -0.04078898907501638 -0.0034231466258195248 0 -0.040858157099070952 -0.003365173068144967 0 -0.041003421361406993 -0.0034557406064901321 0 -0.034887540971776605 -0.0034453647413232313 0 -0.034546348057959066 -0.003473636684236035 0 -0.041003421361406993 -0.0034557406064901321 0 -0.041037244094165329 -0.0033191692389789047 0 -0.041143453179857049 -0.0035161038097412415 0 -0.04078898907501638 -0.0034231466258195248 0 -0.040857310084687952 -0.0035721068627570752 0 -0.041003421361406993 -0.0034557406064901321 0 -0.043042895121249973 -0.002483748281332754 0 -0.042211170206614412 -0.002880051288351595 0 -0.041489819874553489 -0.002710868962647463 0 -0.038147380091697311 -0.0039195229236300803 0 -0.039175159310326273 -0.0031836330681055784 0 -0.035708130014423273 -0.0043986056389870298 0 -0.035437276277179006 -0.0043340565316343956 0 -0.035244747659892557 -0.0045069735081079152 0 -0.039161854998852982 -0.0035437070649465014 0 -0.039175159310326273 -0.0031836330681055784 0 -0.035437276277179006 -0.0043340565316343956 0 -0.03522287438934555 -0.004183641544852265 0 -0.035244747659892557 -0.0045069735081079152 0 -0.035437276277179006 -0.0043340565316343956 0 -0.035427835207992302 -0.0041808610192767192 0 -0.03522287438934555 -0.004183641544852265 0 -0.035569958419322145 -0.0042614960799819248 0 -0.035437276277179006 -0.0043340565316343956 0 -0.035427835207992302 -0.0041808610192767192 0 -0.041489819874553489 -0.002710868962647463 0 -0.041879592894045595 -0.0033051658689013026 0 -0.041428974654967483 -0.0039025705817227361 0 -0.039175159310326273 -0.0031836330681055784 0 -0.041587999235603815 -0.003808729947272934 0 -0.042211170206614412 -0.002880051288351595 0 -0.041879592894045595 -0.0033051658689013026 0 -0.042434256947728802 -0.0030479066276980216 0 -0.042211170206614412 -0.002880051288351595 0 -0.041489819874553489 -0.002710868962647463 0 -0.041879592894045595 -0.0033051658689013026 0 -0.041879592894045595 -0.0033051658689013026 0 -0.04262078966495593 -0.0037530420635471335 0 -0.042434256947728802 -0.0030479066276980216 0 -0.041143453179857049 -0.0035161038097412415 0 -0.041057434097653223 -0.0036243245800924757 0 -0.041428974654967483 -0.0039025705817227361 0 -0.040857310084687952 -0.0035721068627570752 0 -0.041003421361406993 -0.0034557406064901321 0 -0.041057434097653223 -0.0036243245800924757 0 -0.040857310084687952 -0.0035721068627570752 0 -0.041057434097653223 -0.0036243245800924757 0 -0.040921026850067099 -0.0037554176121986716 0 -0.041003421361406993 -0.0034557406064901321 0 -0.041143453179857049 -0.0035161038097412415 0 -0.041057434097653223 -0.0036243245800924757 0 -0.041057434097653223 -0.0036243245800924757 0 -0.040921026850067099 -0.0037554176121986716 0 -0.041428974654967483 -0.0039025705817227361 0 -0.040921026850067099 -0.0037554176121986716 0 -0.041059184888254448 -0.0040288999561071967 0 -0.041428974654967483 -0.0039025705817227361 0 -0.04127734837845505 -0.0043606039520783218 0 -0.041059184888254448 -0.0040288999561071967 0 -0.041428974654967483 -0.0039025705817227361 0 -0.04127734837845505 -0.0043606039520783218 0 -0.040901282843899892 -0.0042633981213961985 0 -0.041059184888254448 -0.0040288999561071967 0 -0.042916512966459208 -0.0031546442332576127 0 -0.043244337486751154 -0.0028050910433555869 0 -0.041859515655836288 -0.0045858969376669535 0 -0.04127734837845505 -0.0043606039520783218 0 -0.041428974654967483 -0.0039025705817227361 0 -0.041879592894045595 -0.0033051658689013026 0 -0.041428974654967483 -0.0039025705817227361 0 -0.04262078966495593 -0.0037530420635471335 0 -0.041859515655836288 -0.0045858969376669535 0 -0.041428974654967483 -0.0039025705817227361 0 -0.04262078966495593 -0.0037530420635471335 0 -0.04373819255952785 -0.0015234666422291588 0 -0.043858483574738406 -0.0019758082776910623 0 -0.043250074736743895 -0.0019377430051576853 0 -0.04373819255952785 -0.0015234666422291588 0 -0.044171602228524412 -0.0014398841821600006 0 -0.043858483574738406 -0.0019758082776910623 0 -0.04262078966495593 -0.0037530420635471335 0 -0.042864747877988461 -0.002857822367769834 0 -0.043262950225671282 -0.0026411785716117814 0 -0.043244337486751154 -0.0028050910433555869 0 -0.043274202212932454 -0.0026721707889749142 0 -0.04262078966495593 -0.0037530420635471335 0 -0.042864747877988461 -0.002857822367769834 0 -0.042434256947728802 -0.0030479066276980216 0 -0.043858483574738406 -0.0019758082776910623 0 -0.043262950225671282 -0.0026411785716117814 0 -0.043250074736743895 -0.0019377430051576853 0 -0.043042895121249973 -0.002483748281332754 0 -0.042211170206614412 -0.002880051288351595 0 -0.042434256947728802 -0.0030479066276980216 0 -0.043042895121249973 -0.002483748281332754 0 -0.042864747877988461 -0.002857822367769834 0 -0.042434256947728802 -0.0030479066276980216 0 -0.043262950225671282 -0.0026411785716117814 0 -0.043250074736743895 -0.0019377430051576853 0 -0.042929840244185474 -0.0024585985654179041 0 -0.042875723389488953 -0.0015150162086342018 0 -0.043250074736743895 -0.0019377430051576853 0 -0.042641033600849004 -0.0020800419249830892 0 -0.042875723389488953 -0.0015150162086342018 0 -0.042394232519641216 -0.0013754754591315083 0 -0.042129625606810432 -0.0018460570521216071 0 -0.042875723389488953 -0.0015150162086342018 0 -0.042129625606810432 -0.0018460570521216071 0 -0.042641033600849004 -0.0020800419249830892 0 -0.042129625606810432 -0.0018460570521216071 0 -0.042093017577539499 -0.0025469881523048203 0 -0.041129479062099641 -0.0022479171558001817 0 -0.042129625606810432 -0.0018460570521216071 0 -0.042641033600849004 -0.0020800419249830892 0 -0.042093017577539499 -0.0025469881523048203 0 -0.042641033600849004 -0.0020800419249830892 0 -0.042929840244185474 -0.0024585985654179041 0 -0.042093017577539499 -0.0025469881523048203 0 -0.043250074736743895 -0.0019377430051576853 0 -0.042641033600849004 -0.0020800419249830892 0 -0.042929840244185474 -0.0024585985654179041 0 -0.043039566172368607 -0.0030428263759130097 0 -0.042929840244185474 -0.0024585985654179041 0 -0.042093017577539499 -0.0025469881523048203 0 -0.043039566172368607 -0.0030428263759130097 0 -0.042093017577539499 -0.0025469881523048203 0 -0.041831453512586117 -0.0036678953464286926 0 -0.042093017577539499 -0.0025469881523048203 0 -0.041831453512586117 -0.0036678953464286926 0 -0.040729526611466497 -0.0028904824371729495 0 -0.036958915131684894 -0.0043721702637580561 0 -0.03803887608635996 -0.0039461855953429829 0 -0.036895349409870673 -0.0033208710180973231 0 -0.036958915131684894 -0.0043721702637580561 0 -0.036514717512635991 -0.0040685834538556004 0 -0.036895349409870673 -0.0033208710180973231 0 -0.036267439181353146 -0.0043358321673942673 0 -0.036958915131684894 -0.0043721702637580561 0 -0.036514717512635991 -0.0040685834538556004 0 -0.039665589470710208 -0.0036791078075715726 0 -0.039379291948368776 -0.0039672148117128889 0 -0.036119855503706631 -0.0039303561980312028 0 -0.036514717512635991 -0.0040685834538556004 0 -0.036397062286470529 -0.0036301573389835367 0 -0.036267439181353146 -0.0043358321673942673 0 -0.036119855503706631 -0.0039303561980312028 0 -0.036514717512635991 -0.0040685834538556004 0 -0.039158763978017 -0.0034571649965484804 0 -0.038813769283548613 -0.0039483855151104747 0 -0.039676727287575722 -0.0032576489046521979 0 -0.039158763978017 -0.0034571649965484804 0 -0.038702130986811405 -0.0034511881734714798 0 -0.038307308557312951 -0.0035681361853736153 0 -0.039158763978017 -0.0034571649965484804 0 -0.038813769283548613 -0.0039483855151104747 0 -0.038307308557312951 -0.0035681361853736153 0 -0.041831453512586117 -0.0036678953464286926 0 -0.038813769283548613 -0.0039483855151104747 0 -0.040174931639967021 -0.0033984478264207285 0 -0.038813769283548613 -0.0039483855151104747 0 -0.03803887608635996 -0.0039461855953429829 0 -0.03777653890980693 -0.0035510741786908507 0 -0.039379291948368776 -0.0039672148117128889 0 -0.038915429281752685 -0.0039802242497171889 0 -0.036958915131684894 -0.0043721702637580561 0 -0.038813769283548613 -0.0039483855151104747 0 -0.03803887608635996 -0.0039461855953429829 0 -0.038813769283548613 -0.0039483855151104747 0 -0.040174931639967021 -0.0033984478264207285 0 -0.039676727287575722 -0.0032576489046521979 0 -0.040729526611466497 -0.0028904824371729495 0 -0.040366291778534007 -0.002650694147162349 0 -0.041129479062099641 -0.0022479171558001817 0 -0.040729526611466497 -0.0028904824371729495 0 -0.040366291778534007 -0.002650694147162349 0 -0.039676727287575722 -0.0032576489046521979 0 -0.040174931639967021 -0.0033984478264207285 0 -0.040729526611466497 -0.0028904824371729495 0 -0.039676727287575722 -0.0032576489046521979 0 -0.042093017577539499 -0.0025469881523048203 0 -0.040729526611466497 -0.0028904824371729495 0 -0.041129479062099641 -0.0022479171558001817 0 -0.041831453512586117 -0.0036678953464286926 0 -0.040174931639967021 -0.0033984478264207285 0 -0.040729526611466497 -0.0028904824371729495 0 -0.040366291778534007 -0.002650694147162349 0 -0.039676727287575722 -0.0032576489046521979 0 -0.03990390392374854 -0.0027643191600297446 0 -0.039158763978017 -0.0034571649965484804 0 -0.039676727287575722 -0.0032576489046521979 0 -0.03990390392374854 -0.0027643191600297446 0 -0.040366291778534007 -0.002650694147162349 0 -0.03990390392374854 -0.0027643191600297446 0 -0.04072599975750725 -0.0021009694307367547 0 -0.040366291778534007 -0.002650694147162349 0 -0.04072599975750725 -0.0021009694307367547 0 -0.041129479062099641 -0.0022479171558001817 0 -0.04072599975750725 -0.0021009694307367547 0 -0.041129479062099641 -0.0022479171558001817 0 -0.041611022348717677 -0.0016621237420433679 0 -0.042394232519641216 -0.0013754754591315083 0 -0.042129625606810432 -0.0018460570521216071 0 -0.041611022348717677 -0.0016621237420433679 0 -0.042129625606810432 -0.0018460570521216071 0 -0.041129479062099641 -0.0022479171558001817 0 -0.041611022348717677 -0.0016621237420433679 0 -0.041357146475487522 -0.0013661003267772282 0 -0.04072599975750725 -0.0021009694307367547 0 -0.041611022348717677 -0.0016621237420433679 0 -0.040658235345487889 -0.00090478877288406633 0 -0.041357146475487522 -0.0013661003267772282 0 -0.040220273476761666 -0.0020200104642434202 0 -0.041357146475487522 -0.0013661003267772282 0 -0.04072599975750725 -0.0021009694307367547 0 -0.040220273476761666 -0.0020200104642434202 0 -0.040658235345487889 -0.00090478877288406633 0 -0.040220273476761666 -0.0020200104642434202 0 -0.039769081684880976 -0.0017623693993047763 0 -0.040220273476761666 -0.0020200104642434202 0 -0.039769081684880976 -0.0017623693993047763 0 -0.039326021905133901 -0.0024857034095259055 0 -0.03990390392374854 -0.0027643191600297446 0 -0.04072599975750725 -0.0021009694307367547 0 -0.040220273476761666 -0.0020200104642434202 0 -0.038362156213235986 -0.00083436387567232216 0 -0.039309231961344157 -0.0010885212118576886 0 -0.038946154878457179 -0.0016512807628542368 0 -0.039309231961344157 -0.0010885212118576886 0 -0.039769081684880976 -0.0017623693993047763 0 -0.038946154878457179 -0.0016512807628542368 0 -0.040658235345487889 -0.00090478877288406633 0 -0.039309231961344157 -0.0010885212118576886 0 -0.039769081684880976 -0.0017623693993047763 0 -0.039769081684880976 -0.0017623693993047763 0 -0.038946154878457179 -0.0016512807628542368 0 -0.039326021905133901 -0.0024857034095259055 0 -0.037997453819737882 -0.0018605562418125116 0 -0.038946154878457179 -0.0016512807628542368 0 -0.038742227094517932 -0.0021736175336991475 0 -0.038946154878457179 -0.0016512807628542368 0 -0.038742227094517932 -0.0021736175336991475 0 -0.039326021905133901 -0.0024857034095259055 0 -0.038742227094517932 -0.0021736175336991475 0 -0.039326021905133901 -0.0024857034095259055 0 -0.038568970955915237 -0.0026627567121838792 0 -0.039326021905133901 -0.0024857034095259055 0 -0.039036367608683287 -0.0029284047053462028 0 -0.039361103842779542 -0.0030694756499216836 0 -0.039326021905133901 -0.0024857034095259055 0 -0.039036367608683287 -0.0029284047053462028 0 -0.038568970955915237 -0.0026627567121838792 0 -0.039036367608683287 -0.0029284047053462028 0 -0.038568970955915237 -0.0026627567121838792 0 -0.038565028513291945 -0.0030804905496370025 0 -0.039158763978017 -0.0034571649965484804 0 -0.03990390392374854 -0.0027643191600297446 0 -0.039361103842779542 -0.0030694756499216836 0 -0.03990390392374854 -0.0027643191600297446 0 -0.040220273476761666 -0.0020200104642434202 0 -0.039361103842779542 -0.0030694756499216836 0 -0.040220273476761666 -0.0020200104642434202 0 -0.039326021905133901 -0.0024857034095259055 0 -0.039361103842779542 -0.0030694756499216836 0 -0.039036367608683287 -0.0029284047053462028 0 -0.039361103842779542 -0.0030694756499216836 0 -0.03902256599447386 -0.0031084006440472312 0 -0.039158763978017 -0.0034571649965484804 0 -0.039361103842779542 -0.0030694756499216836 0 -0.038702130986811405 -0.0034511881734714798 0 -0.038702130986811405 -0.0034511881734714798 0 -0.038590991575028911 -0.0033881492722026819 0 -0.037706626349055625 -0.0031585455419835587 0 -0.039239782557464568 -0.0030958397502512821 0 -0.038669108570915343 -0.003218485703545351 0 -0.039361103842779542 -0.0030694756499216836 0 -0.038702130986811405 -0.0034511881734714798 0 -0.038590991575028911 -0.0033881492722026819 0 -0.039361103842779542 -0.0030694756499216836 0 -0.038675149721948299 -0.0031169472945151845 0 -0.03902256599447386 -0.0031084006440472312 0 -0.038675149721948299 -0.0031169472945151845 0 -0.03902256599447386 -0.0031084006440472312 0 -0.038988639580520019 -0.0030914904135346702 0 -0.038675149721948299 -0.0031169472945151845 0 -0.038988639580520019 -0.0030914904135346702 0 -0.039066297878607534 -0.0026852622642158761 0 -0.038675149721948299 -0.0031169472945151845 0 -0.039066297878607534 -0.0026852622642158761 0 -0.038068641482124931 -0.0020998924298700609 0 -0.038669108570915343 -0.003218485703545351 0 -0.038194993415800474 -0.0019861672166695326 0 -0.038590991575028911 -0.0033881492722026819 0 -0.037636448907459534 -0.0026159367542735036 0 -0.037706626349055625 -0.0031585455419835587 0 -0.038590991575028911 -0.0033881492722026819 0 -0.038309145859197785 -0.0019598402097460313 0 -0.037636448907459534 -0.0026159367542735036 0 -0.039036367608683287 -0.0029284047053462028 0 -0.038565028513291945 -0.0030804905496370025 0 -0.038874570149566676 -0.0031660302620381306 0 -0.038473134607678823 -0.0034183344158958111 0 -0.038565028513291945 -0.0030804905496370025 0 -0.038874570149566676 -0.0031660302620381306 0 -0.038874570149566676 -0.0031660302620381306 0 -0.03902256599447386 -0.0031084006440472312 0 -0.038988639580520019 -0.0030914904135346702 0 -0.039036367608683287 -0.0029284047053462028 0 -0.038874570149566676 -0.0031660302620381306 0 -0.03902256599447386 -0.0031084006440472312 0 -0.038988639580520019 -0.0030914904135346702 0 -0.038854981376054684 -0.0032376756694216576 0 -0.039066297878607534 -0.0026852622642158761 0 -0.038874570149566676 -0.0031660302620381306 0 -0.038988639580520019 -0.0030914904135346702 0 -0.038854981376054684 -0.0032376756694216576 0 -0.038492799097394344 -0.0037655797101057912 0 -0.038854981376054684 -0.0032376756694216576 0 -0.039066297878607534 -0.0026852622642158761 0 -0.038473134607678823 -0.0034183344158958111 0 -0.038874570149566676 -0.0031660302620381306 0 -0.038854981376054684 -0.0032376756694216576 0 -0.038492799097394344 -0.0037655797101057912 0 -0.038473134607678823 -0.0034183344158958111 0 -0.038854981376054684 -0.0032376756694216576 0 -0.03990098567607353 -0.0021000604528687819 0 -0.039066297878607534 -0.0026852622642158761 0 -0.039671361746071589 -0.0018172381769805514 0 -0.040063906555738542 -0.0024675587830732502 0 -0.03990098567607353 -0.0021000604528687819 0 -0.039066297878607534 -0.0026852622642158761 0 -0.03931055013844019 -0.0030036720349306831 0 -0.03895294775853686 -0.0027687834177028627 0 -0.039066297878607534 -0.0026852622642158761 0 -0.039061137826132394 -0.0016476384594985411 0 -0.039671361746071589 -0.0018172381769805514 0 -0.038806375191498203 -0.00063271212194892775 0 -0.039831524347124558 -0.00017208281078590876 0 -0.039061137826132394 -0.0016476384594985411 0 -0.039831524347124558 -0.00017208281078590876 0 -0.039061137826132394 -0.0016476384594985411 0 -0.039671361746071589 -0.0018172381769805514 0 -0.039274199439527951 -0.00089382461694659807 0 -0.039733314945884175 -0.0013591210413539639 0 -0.039671361746071589 -0.0018172381769805514 0 -0.039581275063507781 -0.00072561860015790127 0 -0.039660211742549467 -0.0016076302533454348 0 -0.03990098567607353 -0.0021000604528687819 0 -0.039733314945884175 -0.0013591210413539639 0 -0.039671361746071589 -0.0018172381769805514 0 -0.038309145859197785 -0.0019598402097460313 0 -0.037636448907459534 -0.0026159367542735036 0 -0.036237142431704956 -0.0014669657341543605 0 -0.039066297878607534 -0.0026852622642158761 0 -0.039061137826132394 -0.0016476384594985411 0 -0.038068641482124931 -0.0020998924298700609 0 -0.037999638054870291 2.5164113455717564e-05 0 -0.038194993415800474 -0.0019861672166695326 0 -0.038806375191498203 -0.00063271212194892775 0 -0.039061137826132394 -0.0016476384594985411 0 -0.038068641482124931 -0.0020998924298700609 0 -0.037962592104687026 0.00015432337903030944 0 -0.038806375191498203 -0.00063271212194892775 0 -0.038068641482124931 -0.0020998924298700609 0 -0.03698904050650869 -0.000453300635669232 0 -0.038309145859197785 -0.0019598402097460313 0 -0.036237142431704956 -0.0014669657341543605 0 -0.03698904050650869 -0.000453300635669232 0 -0.037962592104687026 0.00015432337903030944 0 -0.038309145859197785 -0.0019598402097460313 0 -0.03698904050650869 -0.000453300635669232 0 -0.03550011034471573 5.6190700974247285e-05 0 -0.036237142431704956 -0.0014669657341543605 0 -0.034074754913191257 -0.00037865331829094407 0 -0.03550011034471573 5.6190700974247285e-05 0 -0.036237142431704956 -0.0014669657341543605 0 -0.037636448907459534 -0.0026159367542735036 0 -0.036237142431704956 -0.0014669657341543605 0 -0.036728482145136604 -0.002574155679746002 0 -0.036237142431704956 -0.0014669657341543605 0 -0.036728482145136604 -0.002574155679746002 0 -0.035570900542033913 -0.0021431163891406247 0 -0.035188828295729474 -0.0027878048123598184 0 -0.035570900542033913 -0.0021431163891406247 0 -0.036313117259108067 -0.0028867909115582431 0 -0.036728482145136604 -0.002574155679746002 0 -0.035570900542033913 -0.0021431163891406247 0 -0.036313117259108067 -0.0028867909115582431 0 -0.035188828295729474 -0.0027878048123598184 0 -0.035570900542033913 -0.0021431163891406247 0 -0.033882873871829616 -0.0018036656743196985 0 -0.035570900542033913 -0.0021431163891406247 0 -0.034594203367165705 -0.0012961862238653876 0 -0.033882873871829616 -0.0018036656743196985 0 -0.034594203367165705 -0.0012961862238653876 0 -0.033056906291722692 -0.00083415875195721133 0 -0.033882873871829616 -0.0018036656743196985 0 -0.036237142431704956 -0.0014669657341543605 0 -0.035570900542033913 -0.0021431163891406247 0 -0.034594203367165705 -0.0012961862238653876 0 -0.034074754913191257 -0.00037865331829094407 0 -0.036237142431704956 -0.0014669657341543605 0 -0.034594203367165705 -0.0012961862238653876 0 -0.032352155228314895 -6.6500944406369233e-05 0 -0.034074754913191257 -0.00037865331829094407 0 -0.033056906291722692 -0.00083415875195721133 0 -0.034074754913191257 -0.00037865331829094407 0 -0.034594203367165705 -0.0012961862238653876 0 -0.033056906291722692 -0.00083415875195721133 0 -0.032352155228314895 -6.6500944406369233e-05 0 -0.033056906291722692 -0.00083415875195721133 0 -0.031872637478528927 -0.00064670901491938396 0 -0.033056906291722692 -0.00083415875195721133 0 -0.032875159027265961 -0.0012613843628849933 0 -0.031872637478528927 -0.00064670901491938396 0 -0.032875159027265961 -0.0012613843628849933 0 -0.031872637478528927 -0.00064670901491938396 0 -0.032205019865516583 -0.0020262805709629649 0 -0.033056906291722692 -0.00083415875195721133 0 -0.032875159027265961 -0.0012613843628849933 0 -0.033882873871829616 -0.0018036656743196985 0 -0.030123147929868001 -0.00052625282642306524 0 -0.031872637478528927 -0.00064670901491938396 0 -0.030988333728385293 -0.0016288346258397206 0 -0.031872637478528927 -0.00064670901491938396 0 -0.030988333728385293 -0.0016288346258397206 0 -0.032205019865516583 -0.0020262805709629649 0 -0.030988333728385293 -0.0016288346258397206 0 -0.032205019865516583 -0.0020262805709629649 0 -0.03111076029572047 -0.0033107511930558363 0 -0.032205019865516583 -0.0020262805709629649 0 -0.032619236116818405 -0.0031980455585956477 0 -0.03111076029572047 -0.0033107511930558363 0 -0.032205019865516583 -0.0020262805709629649 0 -0.033882873871829616 -0.0018036656743196985 0 -0.032619236116818405 -0.0031980455585956477 0 -0.032875159027265961 -0.0012613843628849933 0 -0.032205019865516583 -0.0020262805709629649 0 -0.033882873871829616 -0.0018036656743196985 0 -0.035188828295729474 -0.0027878048123598184 0 -0.033882873871829616 -0.0018036656743196985 0 -0.032619236116818405 -0.0031980455585956477 0 -0.035076332607854262 -0.0028001004424127625 0 -0.0339432608680625 -0.0029780001653291637 0 -0.035188828295729474 -0.0027878048123598184 0 -0.035520064913781298 -0.0027356089448985952 0 -0.036017843392640948 -0.0029440157063977744 0 -0.035520064913781298 -0.0027356089448985952 0 -0.036017843392640948 -0.0029440157063977744 0 -0.03568807548061223 -0.0033533010679405056 0 -0.034146051164961042 -0.0029003486199991537 0 -0.036626133148448425 -0.0033937774658011539 0 -0.035520064913781298 -0.0027356089448985952 0 -0.035014563192769146 -0.0028221509605045668 0 -0.03568807548061223 -0.0033533010679405056 0 -0.036301480412934732 -0.002959689422728872 0 -0.036397910454450906 -0.0033414921608703142 0 -0.036895349409870673 -0.0033208710180973231 0 -0.0339432608680625 -0.0029780001653291637 0 -0.034146051164961042 -0.0029003486199991537 0 -0.036514717512635991 -0.0040685834538556004 0 -0.036397062286470529 -0.0036301573389835367 0 -0.036895349409870673 -0.0033208710180973231 0 -0.036040569027291795 -0.0034602760398778271 0 -0.036397910454450906 -0.0033414921608703142 0 -0.036397062286470529 -0.0036301573389835367 0 -0.036397910454450906 -0.0033414921608703142 0 -0.036397062286470529 -0.0036301573389835367 0 -0.036895349409870673 -0.0033208710180973231 0 -0.03803887608635996 -0.0039461855953429829 0 -0.03568807548061223 -0.0033533010679405056 0 -0.036917569359247518 -0.0033902915739869046 0 -0.037709843336666861 -0.0038935037066177213 0 -0.036626133148448425 -0.0033937774658011539 0 -0.036017843392640948 -0.0029440157063977744 0 -0.03568807548061223 -0.0033533010679405056 0 -0.036917569359247518 -0.0033902915739869046 0 -0.03803887608635996 -0.0039461855953429829 0 -0.036917569359247518 -0.0033902915739869046 0 -0.03777653890980693 -0.0035510741786908507 0 -0.037176400353875323 -0.0032513691006823007 0 -0.03777653890980693 -0.0035510741786908507 0 -0.038307308557312951 -0.0035681361853736153 0 -0.036917569359247518 -0.0033902915739869046 0 -0.037176400353875323 -0.0032513691006823007 0 -0.03777653890980693 -0.0035510741786908507 0 -0.038813769283548613 -0.0039483855151104747 0 -0.03777653890980693 -0.0035510741786908507 0 -0.038307308557312951 -0.0035681361853736153 0 -0.038702130986811405 -0.0034511881734714798 0 -0.038307308557312951 -0.0035681361853736153 0 -0.037706626349055625 -0.0031585455419835587 0 -0.037176400353875323 -0.0032513691006823007 0 -0.038307308557312951 -0.0035681361853736153 0 -0.037706626349055625 -0.0031585455419835587 0 -0.037636448907459534 -0.0026159367542735036 0 -0.036728482145136604 -0.002574155679746002 0 -0.037706626349055625 -0.0031585455419835587 0 -0.036728482145136604 -0.002574155679746002 0 -0.037706626349055625 -0.0031585455419835587 0 -0.036313117259108067 -0.0028867909115582431 0 -0.035188828295729474 -0.0027878048123598184 0 -0.036017843392640948 -0.0029440157063977744 0 -0.036313117259108067 -0.0028867909115582431 0 -0.036017843392640948 -0.0029440157063977744 0 -0.036917569359247518 -0.0033902915739869046 0 -0.037176400353875323 -0.0032513691006823007 0 -0.036017843392640948 -0.0029440157063977744 0 -0.037176400353875323 -0.0032513691006823007 0 -0.036313117259108067 -0.0028867909115582431 0 -0.037176400353875323 -0.0032513691006823007 0 -0.037706626349055625 -0.0031585455419835587 0 -0.036313117259108067 -0.0028867909115582431 0 
</DataArray>
</PointData>
<CellData Scalars="region_id,cross_section_updated," Vectors="" Tensors="stress,">
<DataArray type="Float64" Name="region_id" format="ascii">
5 5 5 5 5 6 5 5 5 5 5 5 6 5 5 5 6 5 5 5 5 6 5 5 5 5 5 6 5 6 5 5 5 5 6 5 5 5 5 5 5 5 5 6 5 5 5 6 5 6 5 5 5 6 6 5 5 5 5 5 6 5 5 5 5 5 5 5 5 5 6 6 5 5 5 5 5 6 5 6 5 6 5 5 5 5 5 6 5 5 5 6 5 5 6 5 5 6 5 5 6 5 5 5 5 5 5 5 5 5 5 6 6 5 5 5 5 5 5 5 5 5 5 6 5 6 5 5 6 5 6 5 5 6 5 5 5 5 5 5 5 5 5 5 5 5 5 5 5 6 5 5 5 6 5 5 5 6 5 5 5 5 6 5 5 6 6 5 5 5 6 5 5 5 5 5 5 6 5 5 5 5 5 5 5 5 5 5 5 5 6 5 5 5 5 5 5 5 5 5 5 5 5 5 5 5 5 5 6 6 5 5 5 6 5 5 5 5 5 5 6 5 5 5 5 6 5 6 6 5 5 6 5 5 5 5 5 5 5 5 5 5 5 5 5 5 5 5 5 5 5 6 5 5 5 5 5 6 5 5 5 5 5 5 5 5 6 5 5 5 5 6 5 6 5 6 5 5 5 5 5 5 5 6 5 5 5 6 5 5 5 5 5 5 5 5 5 5 5 5 5 5 5 5 5 6 5 5 6 6 5 5 5 5 5 5 5 5 5 5 5 5 5 5 5 5 6 5 5 5 5 6 6 5 5 5 5 5 6 5 6 5 5 5 5 5 5 6 6 5 5 5 5 5 5 5 5 5 5 6 5 5 5 5 5 5 5 5 5 5 5 5 5 5 5 5 5 5 5 5 5 6 5 5 5 6 5 5 5 5 6 5 5 5 5 5 5 5 5 5 5 5 5 5 5 5 5 5 5 5 5 5 5 5 5 6 5 5 6 5 5 5 5 6 5 5 5 5 5 5 5 5 5 5 5 5 5 5 5 5 5 5 5 5 5 5 5 5 5 5 5 6 5 5 6 5 5 6 5 5 5 5 5 5 5 5 5 5 6 5 5 5 5 6 5 6 5 5 5 6 5 5 5 5 6 5 5 5 5 6 5 6 5 6 5 5 5 6 5 5 5 5 5 5 5 5 5 5 6 5 5 6 5 6 5 5 6 5 6 5 5 5 5 5 5 6 5 5 5 5 6 5 6 6 5 5 5 6 5 5 5 5 5 5 5 5 5 5 5 5 5 5 5 5 5 5 5 5 5 5 5 5 5 5 5 5 5 5 5 5 5 5 5 6 5 5 6 5 5 5 5 5 6 5 5 5 5 5 5 5 5 5 5 5 5 5 5 5 5 6 5 5 5 5 5 5 6 5 5 5 5 5 5 5 5 5 5 5 5 5 5 6 5 5 5 5 5 5 5 5 5 5 5 5 6 5 5 5 5 5 5 5 5 5 5 6 5 5 5 5 5 5 5 5 5 5 5 6 5 5 5 5 6 5 5 5 5 6 5 5 5 5 5 5 5 6 5 6 5 5 6 5 6 5 5 5 6 5 5 5 5 5 5 5 5 5 5 5 5 5 5 5 5 5 5 5 5 6 5 5 5 5 5 6 5 5 5 5 5 6 5 5 5 5 5 5 5 5 5 5 5 5 5 5 5 5 5 5 5 5 5 5 5 5 5 5 5 5 5 5 5 5 5 5 5 5 5 5 5 5 5 5 5 6 5 5 5 5 5 5 5 5 5 5 5 5 5 5 5 5 5 5 5 5 5 5 5 5 5 5 5 5 5 5 5 5 5 5 5 5 5 5 5 5 5 5 5 5 5 5 5 5 6 5 5 5 6 5 6 5 6 5 5 5 5 5 5 5 5 5 5 6 5 5 5 5 6 5 5 5 5 5 5 5 5 5 5 6 5 5 5 5 6 5 5 5 5 5 5 5 6 5 5 5 5 5 5 5 5 5 5 5 6 5 5 5 5 5 5 6 5 5 5 5 5 5 5 5 5 5 5 5 5 5 5 5 6 5 5 5 6 5 5 5 5 5 5 5 5 5 5 5 5 5 5 5 6 5 5 5 6 5 5 6 6 5 6 5 5 5 5 5 5 6 5 5 5 5 5 5 5 6 5 5 5 5 5 5 5 5 5 5 5 5 5 5 5 5 5 5 5 5 5 5 5 5 5 5 5 5 5 5 5 5 5 5 5 6 5 5 5 5 5 5 5 6 5 6 5 5 5 6 5 5 5 5 5 5 5 5 6 5 5 6 5 5 6 5 6 5 5 6 5 5 5 5 5 5 5 5 6 5 6 6 5 5 5 6 5 5 5 6 5 6 5 5 6 6 5 5 6 5 5 5 5 5 5 5 6 5 5 6 5 6 5 5 6 5 5 5 5 5 6 5 5 5 5 6 5 6 5 5 6 6 5 5 5 5 5 6 5 5 5 5 5 5 5 5 5 6 5 5 5 5 5 5 5 5 5 5 5 5 5 5 5 5 5 5 5 5 5 5 5 5 5 5 5 6 5 5 5 5 5 5 5 5 5 5 5 6 5 6 5 5 5 5 5 5 5 5 5 5 5 5 5 5 5 5 5 5 5 6 5 6 5 6 5 5 5 5 5 6 5 5 6 5 5 5 5 5 5 5 5 5 5 5 5 5 5 6 5 5 5 5 5 5 5 5 5 5 5 6 5 5 5 5 6 5 5 5 5 5 5 6 5 5 5 5 5 5 6 5 5 5 5 5 5 5 5 5 5 5 5 5 5 5 5 5 5 5 6 5 5 5 6 5 5 5 5 5 5 5 5 5 5 6 5 5 5 5 5 5 6 6 5 5 5 5 5 5 5 5 5 5 5 5 5 5 5 5 6 5 5 6 5 5 5 5 6 6 5 5 5 5 5 5 5 5 5 5 5 5 5 5 5 5 5 5 5 5 5 5 5 5 5 5 5 5 5 5 5 5 5 5 5 5 5 5 5 5 5 5 6 5 5 5 5 5 5 5 5 5 5 5 5 5 6 5 5 5 5 5 5 5 6 5 5 5 5 5 5 5 5 5 5 6 5 5 6 5 5 6 5 5 5 5 5 5 5 5 5 5 5 6 5 6 5 6 5 5 5 6 5 5 5 5 5 5 5 5 5 5 5 5 5 5 5 6 5 6 5 5 6 5 5 6 5 5 5 5 6 5 5 5 5 5 5 5 5 5 5 6 5 5 5 5 5 5 5 5 5 5 5 5 6 5 5 5 5 5 5 5 5 5 5 5 5 5 5 5 6 5 5 5 5 5 5 5 6 5 5 5 5 5 5 6 5 5 5 6 6 6 6 5 5 5 5 5 5 5 5 5 5 5 5 5 5 5 5 6 5 5 5 5 5 5 6 5 6 5 5 6 5 5 5 6 6 5 5 5 6 5 5 5 5 6 5 5 5 5 5 5 5 5 5 5 5 5 5 5 5 5 5 5 5 5 5 5 5 5 5 5 5 5 5 5 5 5 5 5 5 5 5 5 5 5 5 5 5 5 6 5 6 5 5 5 5 5 5 5 5 5 5 5 5 5 5 5 5 5 5 5 5 5 5 6 5 5 5 5 5 5 5 5 5 5 5 5 5 5 5 6 5 5 5 5 5 6 5 5 5 5 5 5 5 5 5 5 5 5 5 5 5 5 5 5 5 5 5 5 5 5 6 6 5 5 5 5 5 5 5 5 5 5 5 5 5 5 5 5 5 6 5 5 5 5 5 5 5 6 6 5 5 5 5 5 5 5 5 5 5 5 5 5 5 5 5 5 5 6 6 5 5 5 5 5 5 5 5 5 5 5 5 5 5 5 5 5 5 5 5 5 5 5 5 5 5 5 5 5 5 6 5 5 6 5 5 5 6 5 5 5 5 5 5 5 5 5 5 5 5 5 5 5 5 5 5 5 5 5 5 5 5 6 5 5 5 5 5 5 5 5 5 6 5 6 6 6 5 5 5 6 5 6 5 5 5 5 6 5 5 5 5 5 5 5 5 5 5 5 5 5 5 5 5 5 5 5 5 5 5 5 5 6 5 5 5 5 6 5 6 5 5 5 5 5 5 5 5 5 5 5 5 5 5 5 5 5 5 5 5 5 5 6 5 6 5 5 5 5 5 6 6 5 5 5 6 5 6 5 5 5 5 5 5 5 5 5 5 5 5 6 5 5 5 5 5 5 5 6 5 5 5 5 5 6 5 5 5 5 6 5 5 6 5 5 6 5 5 5 5 5 5 5 5 5 6 5 5 5 5 5 5 5 5 5 5 5 5 5 6 5 5 5 6 5 5 5 5 5 5 5 5 6 5 5 6 5 5 5 5 5 6 5 5 6 5 6 5 6 5 5 6 5 5 6 5 5 5 6 5 5 5 6 6 5 6 5 5 6 5 5 5 6 5 5 5 5 5 5 6 5 5 5 5 5 5 5 5 5 6 5 5 6 5 5 6 5 6 5 5 5 5 5 5 6 6 5 5 5 5 5 5 5 5 5 5 5 5 6 5 5 5 5 5 6 5 5 5 6 6 6 5 5 5 5 5 5 5 5 6 5 5 5 5 5 5 5 5 5 5 5 5 5 5 5 6 5 5 6 5 5 5 5 5 6 5 5 5 5 6 5 5 5 5 5 6 6 5 5 5 5 5 5 5 5 5 6 5 5 6 5 5 5 6 6 6 5 5 5 6 6 5 5 5 5 5 5 6 5 5 5 5 5 6 5 5 5 6 5 5 5 5 6 5 5 6 5 5 5 6 5 6 6 5 5 5 5 6 5 6 5 5 5 5 5 5 5 5 5 5 5 5 5 5 5 5 5 5 5 5 6 5 5 5 6 5 5 5 5 5 6 5 5 5 5 5 5 5 5 5 5 5 5 5 5 5 5 5 5 5 5 5 5 5 5 5 5 5 5 5 5 5 5 5 5 5 5 5 6 5 6 5 5 5 5 5 5 5 5 5 5 5 5 5 5 6 5 6 5 5 5 5 6 5 5 6 6 5 5 5 5 5 6 5 5 5 5 5 5 5 5 5 5 5 5 5 5 5 5 5 5 5 5 5 5 5 5 5 5 5 5 5 5 5 5 6 5 5 5 5 5 5 5 5 5 5 5 5 5 5 5 5 5 5 5 5 5 5 5 6 5 6 5 5 5 5 5 5 5 5 5 5 5 5 5 5 5 5 5 5 5 6 6 5 5 5 5 5 5 5 5 5 5 5 6 5 5 5 5 5 5 5 5 5 5 5 6 5 6 5 5 5 6 5 5 5 5 5 5 5 5 5 5 5 5 5 5 5 5 5 5 5 5 5 5 5 5 5 5 5 5 5 5 5 5 5 5 5 5 6 5 6 5 5 5 5 5 5 5 5 5 5 6 5 5 5 5 5 5 6 5 5 5 5 5 5 5 5 5 5 5 5 5 5 5 5 5 6 6 5 5 5 5 5 5 5 5 5 5 5 5 5 5 5 5 5 5 6 5 5 5 5 5 5 5 5 6 5 5 5 5 5 5 5 5 5 5 5 5 5 5 5 5 5 5 5 5 5 6 5 5 5 5 5 5 5 5 5 5 5 5 5 5 5 5 5 5 5 5 5 6 5 6 5 5 5 5 6 5 5 5 5 5 5 5 5 5 5 5 5 5 5 5 5 5 5 5 5 5 5 5 5 5 5 5 5 5 5 6 6 5 5 6 5 5 5 5 5 5 5 5 5 5 5 5 5 5 6 5 6 5 5 5 5 6 5 5 5 5 5 5 5 5 5 5 5 5 5 5 5 5 5 5 5 5 5 5 5 5 5 5 5 5 5 5 5 5 5 5 6 5 5 6 6 5 5 5 5 5 5 5 5 5 5 5 5 5 5 6 6 5 5 5 5 6 5 6 6 5 5 5 5 5 5 5 5 5 6 5 5 5 5 5 5 5 5 5 5 5 6 5 5 5 5 5 6 5 5 6 5 6 5 5 5 5 6 5 6 5 5 6 5 5 5 5 5 6 5 6 5 5 5 5 6 5 5 5 5 6 5 6 5 5 5 5 5 5 5 6 5 6 5 5 5 6 6 5 5 5 6 6 5 5 5 5 5 5 5 5 5 5 5 6 5 5 5 5 5 5 5 5 6 5 5 6 5 5 5 6 5 5 5 6 5 5 5 5 5 5 5 5 5 5 5 6 5 5 5 5 5 5 5 5 5 6 5 5 5 5 5 5 6 5 5 5 5 6 5 5 5 5 5 5 5 5 5 5 5 5 5 5 5 6 5 5 5 5 5 5 5 5 5 5 5 5 5 5 5 5 5 5 5 5 6 6 5 5 5 5 5 5 6 5 6 5 5 5 5 6 5 5 5 5 5 6 5 5 5 6 5 6 6 5 5 5 5 5 6 5 5 5 5 5 5 5 5 5 5 6 5 6 5 5 5 6 5 5 5 5 5 6 5 6 5 5 5 5 5 6 5 5 5 5 5 5 5 5 6 5 5 5 5 5 6 5 5 5 5 5 5 5 5 5 5 5 5 5 6 5 5 5 5 5 5 5 5 5 5 5 5 5 5 5 5 6 5 5 5 6 5 6 5 5 6 5 5 5 5 5 5 5 6 5 6 5 5 5 5 6 5 5 5 6 5 5 5 5 6 5 5 6 5 5 5 5 6 5 5 5 5 5 5 5 5 5 6 5 5 6 5 5 5 5 5 6 6 5 5 6 5 5 6 5 5 5 5 5 5 5 5 5 5 5 5 5 5 5 5 5 5 5 5 6 5 5 5 5 5 6 5 6 5 5 6 5 6 5 5 5 5 6 5 5 5 5 6 5 5 5 5 5 5 5 5 6 5 5 6 5 5 5 6 6 5 5 6 5 5 5 6 5 6 5 5 5 5 5 5 5 5 5 5 5 5 5 5 6 5 5 5 6 5 5 5 5 6 5 5 5 5 5 5 5 5 5 5 5 5 6 5 5 6 5 5 6 5 5 5 6 5 5 5 6 6 5 5 5 5 5 5 5 5 5 5 5 5 6 5 6 5 5 6 5 5 6 5 5 5 5 5 5 5 6 6 6 6 5 5 6 5 5 5 5 6 5 6 5 5 6 5 5 5 5 5 5 5 6 5 6 5 5 5 5 5 5 5 5 6 5 5 5 5 6 5 5 6 6 5 6 5 5 5 5 6 5 5 5 6 5 5 6 5 5 6 5 6 5 6 5 5 6 5 6 5 5 5 5 5 6 5 5 5 6 5 6 5 5 5 6 5 5 5 5 5 5 5 5 5 5 5 5 5 6 5 5 6 5 5 6 5 5 5 5 6 5 5 5 6 5 5 5 5 5 5 6 5 6 5 5 5 5 5 6 5 5 5 5 6 5 5 5 5 5 5 5 5 5 5 6 5 6 5 5 5 6 5 5 6 5 5 6 5 5 5 5 6 5 5 6 5 5 5 6 5 5 5 5 6 5 5 5 5 5 5 5 6 5 6 5 5 6 5 5 5 5 5 5 5 6 5 5 5 5 6 5 5 5 5 5 5 5 6 6 5 6 5 5 5 6 5 5 5 5 5 6 5 5 5 5 5 5 5 5 5 5 6 5 5 5 5 5 5 5 6 5 5 5 5 5 5 5 6 5 5 5 5 5 5 6 5 5 5 5 5 5 5 5 5 5 5 5 5 5 5 5 5 5 5 5 5 5 5 5 5 5 5 5 5 5 5 5 5 5 5 5 5 5 5 5 5 5 5 5 5 5 5 5 5 5 5 5 5 5 5 5 5 5 5 5 5 5 6 5 6 5 6 5 5 5 5 5 5 5 5 5 5 6 5 6 6 5 6 5 5 5 5 6 5 5 5 5 6 5 5 5 5 5 5 5 5 5 5 5 6 5 5 5 5 5 5 5 5 5 5 5 5 5 5 5 5 5 6 5 5 5 5 5 5 6 5 5 5 5 5 6 5 5 5 5 5 5 6 5 5 5 5 5 5 5 5 5 5 5 5 5 5 6 5 6 5 5 5 5 6 5 5 5 6 5 5 5 5 6 6 5 6 5 5 6 5 5 5 5 5 5 5 5 5 5 5 5 5 5 5 6 5 5 6 5 5 5 6 5 5 5 5 6 5 5 5 5 5 5 5 5 6 5 5 5 5 5 5 5 5 5 5 6 5 5 5 6 5 5 5 5 5 5 5 5 5 5 5 5 5 5 5 6 5 5 5 6 5 5 6 5 6 5 5 6 6 6 5 5 5 5 6 5 5 5 5 5 6 5 5 6 5 5 5 5 5 5 5 5 5 5 5 5 6 5 5 5 5 5 6 5 5 5 5 6 6 5 5 5 5 6 5 5 5 5 5 5 5 5 5 5 5 6 5 5 5 5 5 5 5 6 5 5 6 5 5 6 5 5 5 6 5 6 5 5 5 6 6 5 6 5 5 5 5 5 5 5 5 5 5 5 5 5 5 5 5 5 5 5 5 5 5 5 6 5 5 6 5 5 5 5 5 5 5 5 5 5 5 5 5 5 5 5 5 5 5 5 5 5 5 5 5 5 5 5 5 5 5 6 5 5 5 5 6 5 5 5 5 5 5 5 6 5 5 5 5 5 6 5 6 6 5 5 5 5 5 5 5 5 5 5 5 6 5 5 5 6 5 5 5 5 5 5 5 5 5 5 5 5 5 5 5 5 5 5 5 5 5 5 5 5 5 5 5 5 5 5 5 5 6 5 5 5 5 5 6 5 6 5 5 5 5 6 5 5 5 5 5 5 5 5 5 5 5 5 5 5 5 5 5 5 6 5 5 5 5 5 5 6 6 5 5 5 5 5 5 5 5 5 5 6 6 5 5 5 5 6 5 5 6 5 5 5 5 5 5 5 5 5 5 6 5 6 5 6 5 5 5 5 5 6 5 5 5 5 5 6 5 5 5 5 5 5 5 5 5 5 5 5 5 5 5 6 5 6 5 5 5 5 5 5 5 5 5 5 5 5 5 5 5 6 5 5 5 5 5 5 5 5 5 5 5 6 5 5 5 5 5 5 5 5 5 5 5 5 5 5 5 5 5 5 5 5 5 6 5 5 5 5 5 5 5 5 5 5 5 5 5 5 6 5 5 5 5 5 5 5 5 5 5 5 5 5 5 5 5 5 5 5 5 5 5 5 5 5 5 5 5 5 5 5 5 5 5 5 5 5 5 5 5 5 6 5 5 5 5 5 5 5 5 6 5 5 5 5 5 5 5 5 5 5 5 5 5 5 6 5 5 6 5 5 5 5 5 5 5 5 5 6 5 5 5 5 5 5 5 6 6 5 5 5 5 5 5 5 5 5 5 5 5 6 5 5 5 6 5 5 5 5 5 5 5 6 5 5 6 5 5 5 5 5 5 5 5 5 5 5 5 5 6 5 5 5 6 5 5 5 5 5 6 5 5 6 6 5 5 5 6 5 5 5 6 5 5 5 6 5 5 5 5 5 5 5 5 5 5 5 5 5 6 5 5 5 5 6 5 5 5 5 5 6 5 5 5 5 5 5 6 5 5 5 5 5 5 5 5 5 5 5 5 5 5 5 5 5 5 5 5 5 5 5 5 5 5 5 5 5 5 5 5 5 5 5 5 5 5 5 5 5 5 5 5 5 6 5 5 5 5 5 5 5 5 5 5 5 5 5 6 5 5 5 5 5 6 5 5 5 5 6 5 5 5 5 6 5 5 5 6 6 5 5 6 5 6 6 5 5 5 6 5 5 5 5 5 5 5 6 5 5 5 5 6 5 5 5 5 5 5 5 5 6 5 6 5 5 6 5 5 5 5 5 5 5 5 5 5 5 6 5 6 5 5 5 5 5 5 5 6 5 5 5 5 5 6 5 5 5 5 5 5 5 5 5 6 5 5 5 5 5 5 5 5 5 5 5 5 5 5 5 5 5 5 5 5 5 5 5 5 5 5 5 5 5 5 5 5 5 5 5 5 5 5 5 5 5 6 5 5 5 5 5 5 5 5 5 5 5 5 5 5 5 5 6 5 5 5 5 5 5 5 5 5 5 5 5 5 5 5 5 5 5 5 5 5 5 5 5 5 5 5 5 5 5 5 5 5 5 5 5 5 5 5 5 5 5 5 5 5 5 5 5 5 5 5 5 5 5 5 5 5 5 5 5 5 5 5 5 5 5 5 5 5 5 5 5 5 5 5 5 5 5 5 5 5 5 5 5 5 5 5 5 5 5 5 5 5 5 5 5 5 5 5 5 5 5 5 6 5 5 5 5 5 5 5 5 5 5 5 5 5 6 5 5 5 5 5 5 5 5 5 5 6 5 5 5 5 5 5 5 5 5 5 5 5 5 5 5 5 5 5 5 5 5 5 5 5 5 5 5 6 5 5 5 5 5 5 5 5 6 5 5 5 5 5 5 5 5 5 5 5 5 5 5 5 6 5 5 5 5 5 5 5 5 5 5 5 5 6 5 5 5 5 5 5 5 5 5 5 5 5 5 5 5 5 5 5 5 5 5 5 5 5 5 5 6 6 5 5 5 5 5 5 5 6 5 5 5 5 6 5 6 5 5 5 5 6 5 5 6 5 5 6 5 5 5 5 5 5 5 5 5 5 5 5 5 5 5 5 5 5 5 5 5 5 5 5 5 5 5 5 5 5 5 5 5 5 5 5 5 5 5 5 6 5 5 5 6 5 5 5 5 5 5 5 5 5 6 5 5 5 5 5 5 6 5 5 5 6 5 5 5 6 5 5 5 5 5 5 5 6 6 6 5 6 6 5 5 6 6 5 5 5 5 5 5 5 5 5 5 5 5 5 5 5 5 5 5 5 5 5 5 5 5 5 5 6 6 5 5 5 6 6 5 6 5 6 5 6 6 5 5 5 5 5 6 5 5 5 5 6 5 5 5 5 5 5 5 6 5 6 5 5 6 5 5 5 5 6 5 5 5 5 5 5 5 5 5 5 5 5 5 5 5 5 5 6 5 5 6 5 5 6 5 5 5 5 6 5 5 5 5 5 6 5 5 5 6 5 6 5 5 5 5 5 6 6 5 6 5 5 6 5 5 5 5 5 6 5 5 5 5 5 5 5 5 6 5 5 5 5 5 5 5 5 5 6 5 5 5 5 5 5 5 5 5 5 5 5 5 5 5 5 5 5 5 5 5 5 5 5 5 5 5 5 5 5 5 5 5 5 5 5 5 5 5 5 5 5 5 5 5 5 5 5 5 5 5 5 5 5 5 5 5 5 5 5 5 5 5 5 5 5 5 5 5 5 5 5 5 5 5 5 5 6 6 5 5 6 5 5 5 5 5 5 5 6 5 5 5 5 5 5 5 5 6 5 5 5 5 5 5 5 5 6 5 5 5 5 5 5 5 5 5 5 5 5 5 5 5 5 5 5 5 5 5 5 5 5 5 5 5 6 5 5 5 6 5 5 5 6 6 5 5 6 6 5 5 6 6 5 5 5 5 5 5 5 5 5 5 5 5 5 5 5 5 5 5 5 6 5 5 5 5 6 5 5 5 5 5 5 5 5 5 5 5 5 5 6 5 5 5 5 5 5 5 5 5 5 5 6 5 5 5 6 5 5 6 6 5 5 5 5 5 5 5 5 6 5 5 5 5 5 6 5 5 5 5 5 5 5 5 5 5 5 5 5 5 6 5 6 6 5 5 5 5 5 6 5 5 5 6 5 6 5 5 6 5 5 5 5 6 5 5 5 6 5 5 5 5 6 5 5 6 5 5 6 5 5 5 5 5 5 5 5 5 5 5 5 5 5 5 5 5 5 5 5 5 5 5 5 5 5 5 5 5 5 5 5 5 5 5 5 5 5 5 5 5 5 5 5 5 5 5 5 5 5 5 5 5 5 5 5 5 5 5 5 5 5 5 5 5 5 5 5 5 5 5 5 5 5 5 5 5 5 5 5 5 5 5 5 5 5 5 5 5 5 5 5 5 5 5 5 5 5 5 5 5 5 5 5 5 5 5 5 5 5 5 5 5 5 5 5 5 5 5 5 5 5 5 5 5 5 5 5 5 5 5 5 5 5 5 5 5 5 5 5 5 5 5 5 5 5 5 5 5 5 5 5 5 5 5 5 5 5 5 5 6 5 5 5 5 5 5 5 5 5 6 6 5 5 6 5 6 5 6 5 5 5 5 5 5 5 5 5 5 5 5 5 5 5 5 5 5 5 5 5 5 5 5 5 5 5 5 5 5 5 5 5 5 5 5 5 5 5 5 5 5 5 5 5 5 5 5 5 5 5 5 5 5 5 5 5 5 5 5 5 5 5 5 5 5 5 5 5 6 5 5 5 5 5 5 5 5 5 5 5 5 5 5 5 5 5 5 5 5 5 5 5 5 5 5 5 5 5 5 5 5 5 5 5 5 5 5 5 5 5 5 5 5 6 5 5 5 5 5 5 5 5 5 5 6 5 5 5 5 5 5 5 5 5 5 6 5 5 5 5 5 5 5 5 5 5 5 5 5 5 5 5 5 6 5 5 6 5 5 5 5 5 5 5 5 5 6 5 6 5 6 5 5 5 5 5 5 5 5 6 5 5 6 5 5 5 5 5 5 5 5 6 5 5 5 5 5 5 5 5 5 5 5 5 5 5 5 5 5 5 5 5 5 5 5 5 5 5 5 5 5 6 6 5 6 5 5 5 5 6 5 5 5 5 6 6 5 5 5 5 5 5 5 5 5 5 5 5 5 5 6 5 6 6 5 5 5 6 5 5 5 5 5 5 5 5 5 5 5 5 5 5 5 5 5 5 5 6 5 5 5 5 5 5 5 5 5 5 5 5 5 5 5 5 5 5 5 5 6 5 5 5 5 5 5 5 5 5 6 5 5 6 5 5 5 5 5 5 5 6 5 5 5 5 5 5 5 5 5 5 5 5 5 5 5 5 5 5 5 5 6 5 6 6 5 6 5 5 5 5 5 5 5 5 5 5 5 5 5 5 5 5 5 5 5 5 6 5 6 5 5 5 5 5 5 5 5 5 5 5 5 6 5 5 5 5 5 5 5 5 5 5 5 6 5 5 5 5 5 5 5 5 5 5 5 5 5 5 5 5 5 5 5 5 5 5 5 6 5 5 5 5 5 5 5 5 5 5 5 5 5 5 5 5 5 5 5 6 5 5 5 5 5 6 5 5 6 5 5 6 5 5 5 5 5 5 5 5 5 5 5 5 6 5 5 6 5 5 5 5 5 5 5 5 5 5 5 5 5 5 5 5 5 5 5 5 5 5 6 5 5 5 5 6 5 6 5 5 5 5 5 5 5 5 5 5 5 5 5 6 5 6 6 5 6 5 6 5 5 5 5 5 5 6 5 5 5 5 5 5 5 5 5 5 5 5 5 5 6 5 5 5 6 5 5 5 5 5 5 6 5 5 6 5 5 5 5 5 5 5 6 5 5 5 5 5 5 5 5 5 5 5 5 5 5 5 5 5 5 5 5 5 5 6 5 6 5 5 5 5 5 5 5 6 5 5 5 5 5 5 5 5 5 6 5 5 5 5 5 5 5 5 5 5 5 5 5 5 5 5 5 5 6 5 6 5 5 5 6 5 6 5 5 5 5 5 5 6 5 5 5 5 5 5 5 5 5 5 5 6 5 5 6 5 5 5 5 5 6 6 5 6 5 5 6 6 5 6 5 5 5 5 5 5 5 5 5 5 5 5 5 5 5 5 5 5 5 5 5 5 5 5 5 5 5 6 5 5 5 6 5 5 5 5 5 5 5 5 5 5 5 5 5 5 5 6 5 5 5 5 5 5 6 5 5 5 5 5 5 6 5 5 5 5 5 5 5 5 5 5 6 6 5 5 5 5 5 5 5 5 5 5 5 5 5 5 5 6 5 5 5 6 6 5 5 5 5 5 5 5 5 5 5 5 6 5 5 5 5 5 5 5 5 5 5 5 5 5 5 5 5 5 5 5 5 5 5 5 5 5 5 5 5 5 5 5 5 5 5 5 5 5 5 5 5 5 6 5 6 5 5 5 5 5 5 5 6 5 5 5 5 5 6 5 5 5 6 5 5 5 5 5 5 5 5 5 5 5 6 6 5 6 6 5 5 6 5 5 5 6 5 5 5 5 6 5 5 5 5 5 5 5 6 5 5 5 5 5 5 5 5 5 5 5 5 5 5 5 6 5 5 5 5 5 5 5 5 6 5 5 5 6 6 6 5 5 5 6 5 5 5 6 5 5 5 5 6 6 5 6 5 5 5 6 5 5 5 5 5 6 5 5 5 5 6 5 5 5 5 6 5 5 5 5 5 5 5 5 5 5 5 5 5 5 5 5 6 5 5 5 5 6 5 6 5 5 5 5 5 5 5 5 5 5 5 5 6 5 5 5 5 5 5 5 5 5 5 5 6 5 5 5 5 5 5 5 5 6 5 5 5 6 5 6 5 5 5 5 5 5 5 5 5 5 5 5 5 5 5 5 5 5 5 5 5 5 5 5 5 5 5 5 5 5 5 5 6 5 5 5 5 5 5 5 5 5 5 5 5 5 5 5 5 5 5 5 5 5 5 5 5 5 5 5 5 5 5 5 5 5 6 5 6 5 6 5 5 5 5 5 5 5 5 5 5 5 5 5 5 6 5 5 5 6 5 5 5 5 5 5 5 5 5 5 5 6 5 5 5 5 5 5 5 5 5 5 5 5 6 5 5 5 6 5 5 5 5 5 5 5 5 5 5 5 5 5 5 5 6 5 6 5 5 5 5 5 6 5 5 5 5 5 5 5 5 5 5 5 5 5 5 5 5 5 5 5 5 5 5 5 5 5 5 5 5 5 5 5 5 5 5 5 5 5 5 5 5 5 5 5 5 5 5 5 5 5 5 5 5 5 5 5 6 6 5 5 5 5 5 5 5 5 5 6 5 5 5 5 5 5 5 5 5 6 5 5 5 6 5 5 5 5 5 5 5 5 6 5 5 5 6 5 5 5 6 5 5 5 5 5 5 5 5 5 5 5 5 5 5 5 5 5 5 5 5 5 5 5 5 5 6 5 5 5 6 5 5 5 5 5 5 5 5 5 5 5 5 5 5 5 6 5 6 5 5 5 5 5 5 6 5 5 5 5 5 5 5 6 5 5 5 6 5 5 5 5 6 5 5 6 5 5 5 5 6 5 5 5 5 5 5 6 5 5 5 5 5 5 5 5 5 5 5 5 5 5 5 5 5 5 5 5 5 5 5 5 5 5 5 6 5 5 5 6 5 5 5 5 5 5 5 5 6 6 5 5 5 5 5 5 5 6 5 5 6 5 5 5 6 5 5 6 5 5 5 6 5 6 6 5 6 6 5 5 5 6 6 5 5 5 6 5 5 5 6 5 5 5 5 5 5 5 5 5 5 5 5 5 5 5 5 5 5 5 5 6 5 5 5 5 6 5 5 5 5 5 5 5 6 5 5 6 5 5 5 5 5 6 6 5 5 6 6 5 5 5 5 5 5 5 5 6 6 5 6 5 5 5 5 6 5 5 6 5 5 5 5 5 5 5 5 5 5 5 5 6 5 5 6 5 5 5 5 5 5 5 5 5 5 5 6 5 5 5 5 5 5 5 5 5 5 5 5 5 5 5 5 5 5 5 5 5 5 5 5 5 6 5 6 5 5 5 5 5 5 6 5 5 5 5 5 5 5 5 5 5 5 5 5 5 5 5 5 5 5 5 5 5 5 5 5 5 6 5 5 5 6 5 5 5 5 5 5 6 5 5 5 6 5 5 5 5 6 5 5 5 5 5 5 5 5 5 6 5 5 5 5 5 5 5 5 5 5 5 5 5 5 5 5 5 5 5 5 5 5 6 5 5 5 5 6 5 5 5 5 5 5 5 5 5 5 5 5 5 5 5 6 5 5 5 5 5 6 5 5 5 5 5 5 6 5 5 6 5 5 5 5 5 6 5 5 5 5 5 6 5 5 5 5 5 5 5 6 5 6 5 5 5 5 6 5 5 5 6 5 5 6 5 5 5 6 5 5 5 5 6 6 5 5 5 5 5 5 6 5 5 5 6 6 5 5 5 5 5 5 5 5 5 5 5 5 5 5 5 5 5 5 5 5 5 5 5 5 5 5 5 5 6 5 5 5 5 5 5 5 5 6 5 5 5 5 6 5 5 5 5 5 5 5 5 5 5 5 5 5 6 5 6 5 5 5 5 6 5 5 5 5 5 5 5 5 5 5 5 5 5 5 5 5 5 5 5 6 5 5 5 5 5 5 5 5 5 5 5 5 6 5 6 5 5 5 6 5 5 5 5 5 5 5 5 5 5 5 5 5 5 5 5 5 5 6 5 5 5 5 5 5 6 5 5 5 5 5 5 5 6 5 5 6 5 5 5 5 5 5 5 5 5 5 5 5 5 5 5 5 5 5 6 5 5 5 5 6 5 5 5 5 5 5 5 6 6 5 5 5 6 5 5 5 5 6 5 5 5 5 5 5 5 5 6 5 5 5 5 5 5 5 5 5 6 5 5 5 5 6 5 5 5 5 5 5 6 5 5 5 5 5 5 5 5 5 6 5 5 5 5 5 5 5 5 5 5 5 5 5 6 5 5 5 6 5 6 5 5 5 6 5 5 5 5 6 5 5 5 6 5 5 5 5 6 5 5 5 5 5 5 5 5 5 6 5 5 5 5 5 5 5 5 5 5 6 5 5 5 5 6 5 5 5 5 5 5 5 5 5 5 5 5 5 5 5 5 5 5 5 5 5 5 5 6 5 6 6 5 5 5 5 5 5 6 5 5 5 6 6 5 6 6 5 6 5 5 5 5 5 6 5 5 5 5 5 5 5 6 5 5 6 5 5 5 5 5 6 6 5 5 6 6 5 5 5 5 5 5 6 5 5 6 5 6 5 5 5 5 5 5 6 5 6 5 5 5 5 5 5 5 5 5 5 5 5 6 5 5 5 5 5 5 6 5 6 5 6 5 5 5 5 5 5 5 5 5 5 5 5 5 5 5 6 5 5 5 5 6 5 5 5 6 5 5 5 5 5 5 5 6 5 5 5 5 5 6 6 5 5 5 5 6 5 5 5 5 5 5 5 6 6 5 5 5 5 5 5 6 5 6 5 5 5 5 5 5 5 5 6 5 5 5 5 5 6 5 5 6 5 5 6 5 6 5 5 5 6 6 5 5 5 5 5 5 6 5 6 5 5 5 6 5 5 6 5 5 5 5 5 5 5 5 5 5 5 5 5 5 5 5 5 6 5 5 5 6 5 6 5 5 5 5 5 6 6 5 5 5 6 5 5 5 5 5 6 5 5 5 5 5 5 5 6 5 5 5 5 5 5 5 5 5 5 6 5 6 5 5 5 5 5 5 5 5 6 5 5 6 6 5 6 5 5 6 5 5 5 5 6 5 6 5 5 5 5 6 5 5 5 5 6 5 5 5 5 6 6 5 5 5 5 5 5 5 5 6 5 5 5 5 5 6 5 5 5 5 5 5 5 5 5 5 5 5 5 5 6 5 5 6 5 5 5 5 5 6 5 5 6 5 5 5 5 6 5 5 6 6 6 5 5 5 5 6 5 6 5 5 5 6 5 5 6 5 5 5 5 5 5 5 5 5 5 5 5 5 5 5 5 5 5 5 5 5 5 5 5 5 6 5 5 5 5 5 5 5 5 6 5 5 5 5 5 5 5 5 5 5 5 5 5 5 5 5 5 6 5 5 5 5 5 5 6 6 5 6 5 5 5 6 6 5 5 5 5 5 5 5 5 5 5 5 5 5 5 6 5 6 5 5 5 5 5 5 5 5 5 5 5 5 5 5 5 5 5 5 5 5 5 5 5 5 5 5 5 5 5 5 5 5 5 5 5 5 5 5 5 5 5 5 5 5 5 5 5 5 5 6 5 5 6 5 5 5 5 5 5 5 6 5 6 5 5 5 5 5 5 5 5 5 6 5 5 5 5 6 5 5 5 5 5 6 5 5 5 5 5 5 5 5 5 5 5 5 5 5 5 5 5 5 5 5 5 5 5 5 5 5 5 6 5 5 5 5 5 5 5 6 5 5 5 5 6 5 6 5 5 5 5 6 5 5 5 6 5 5 5 5 5 5 5 5 6 5 5 5 5 5 5 5 5 5 5 5 5 5 5 5 5 5 5 5 5 5 6 5 5 5 5 5 6 5 5 5 5 6 5 5 5 5 5 6 5 5 5 5 5 6 5 5 5 5 5 5 5 5 5 5 6 5 5 5 5 5 5 5 5 5 5 5 6 5 5 5 5 5 6 5 5 5 5 5 5 5 5 5 5 5 6 5 5 5 5 5 5 5 5 5 5 5 5 5 5 5 5 5 5 5 5 5 5 5 5 5 5 5 5 5 5 5 5 5 5 5 5 5 5 5 6 5 5 6 5 5 5 5 5 5 5 5 5 5 5 5 5 5 5 5 5 5 5 5 5 5 5 5 5 5 5 5 5 5 5 5 5 6 5 5 5 5 6 5 5 5 5 5 6 5 5 5 5 6 5 5 6 5 5 5 5 5 5 5 6 6 5 5 5 5 5 6 5 6 5 5 6 5 5 6 5 5 5 5 5 5 5 5 5 5 5 5 5 5 5 5 5 5 5 5 5 5 5 5 5 5 5 5 5 5 5 5 5 5 5 5 5 5 5 5 5 5 5 5 5 5 5 5 5 5 6 5 5 5 5 5 5 5 5 5 5 5 5 5 5 5 5 6 5 6 5 5 5 5 6 5 5 6 5 6 5 6 5 5 5 5 6 5 5 5 5 5 5 5 5 5 5 5 5 5 5 5 6 5 5 5 5 5 5 5 6 5 5 5 6 5 5 5 5 5 5 5 5 6 5 6 5 5 5 6 5 5 5 5 5 6 5 5 5 5 5 5 5 5 5 5 5 5 5 5 5 5 6 5 5 6 5 5 5 5 5 5 5 5 5 5 6 5 5 5 5 5 5 5 5 6 5 6 5 5 5 5 5 5 5 5 5 5 5 6 6 5 5 5 5 5 6 5 6 5 5 5 6 5 6 5 5 5 5 5 5 5 5 6 5 5 5 6 5 5 5 5 5 5 5 5 5 5 5 5 5 5 5 5 5 5 5 5 5 5 5 5 5 5 5 5 5 5 5 5 5 5 5 6 5 5 5 5 5 5 5 5 5 5 5 5 5 5 5 5 5 5 5 5 5 5 5 6 5 5 5 5 5 5 6 5 6 5 5 6 5 5 5 5 6 5 6 5 5 5 5 5 5 5 6 5 5 5 5 5 5 5 5 5 5 5 5 5 5 5 5 5 5 5 5 5 5 6 5 5 6 5 5 5 6 5 5 5 5 5 5 5 5 5 5 5 5 5 5 5 6 5 5 5 5 5 5 5 5 6 5 5 5 5 6 5 5 5 5 5 5 5 5 6 5 5 6 6 5 5 5 5 5 5 5 5 5 5 5 5 6 5 5 6 5 5 6 5 5 5 6 5 5 5 5 5 5 5 5 5 5 6 5 5 5 5 5 5 5 5 5 5 5 5 5 5 6 6 5 5 5 5 5 5 5 5 5 5 5 5 5 5 5 5 5 5 5 5 5 5 5 5 5 5 5 5 5 5 5 5 6 5 5 6 5 5 5 5 5 5 5 5 5 5 5 5 5 6 5 5 5 5 5 5 5 5 6 5 5 5 5 5 5 5 5 6 5 5 5 5 5 5 5 5 5 5 5 5 5 5 5 5 5 5 5 5 5 5 5 5 5 5 5 5 5 5 5 5 5 5 5 5 5 5 5 6 5 5 5 5 6 5 5 5 5 5 5 5 5 5 5 5 5 5 6 5 5 5 6 5 5 5 5 5 5 6 5 5 5 5 5 6 5 5 5 6 5 5 5 5 5 6 5 5 6 5 5 5 5 5 5 5 5 5 5 5 5 5 5 5 5 5 5 5 5 5 6 5 5 5 5 5 6 5 5 5 5 5 5 5 5 5 6 5 5 5 5 5 5 5 5 5 5 5 5 5 5 5 5 5 5 5 5 5 5 5 5 5 5 6 5 5 5 5 5 6 5 5 5 5 5 5 6 5 5 5 5 5 5 6 5 5 6 5 5 5 5 5 5 5 6 6 5 6 5 6 5 5 5 6 6 5 6 6 5 5 5 5 5 5 5 5 5 5 5 5 5 5 5 5 5 5 5 5 5 5 5 5 5 5 5 5 5 5 5 6 5 5 5 5 6 5 5 6 5 6 5 5 5 6 5 5 6 5 5 6 6 5 5 5 5 5 5 5 5 5 5 5 5 5 5 6 5 6 5 5 5 5 6 5 5 5 6 5 5 5 6 6 5 5 5 5 5 5 5 5 5 5 5 5 5 6 5 5 5 5 5 5 6 6 5 5 5 6 5 5 6 5 5 5 5 6 5 5 6 5 5 6 5 5 6 6 5 6 5 6 5 6 5 6 5 5 5 6 5 6 5 6 5 5 6 5 5 5 5 6 5 5 5 5 5 5 5 5 5 5 5 5 5 5 6 5 5 5 5 5 6 5 5 5 5 5 5 6 5 5 6 5 5 5 6 5 5 6 5 6 5 5 5 5 5 5 5 5 5 5 5 5 5 5 5 5 5 6 5 5 6 5 5 5 5 6 6 5 5 5 5 5 5 5 5 5 5 5 5 5 5 5 6 5 5 5 5 5 5 5 5 5 6 5 5 5 5 5 6 5 5 5 5 5 5 5 5 5 5 6 6 5 5 5 5 5 5 5 5 5 6 5 5 5 5 5 5 5 5 5 5 5 5 5 5 6 5 5 5 6 6 5 5 6 5 5 5 6 5 5 5 6 5 5 5 5 5 6 5 5 5 5 5 5 6 5 5 5 5 6 5 5 5 5 5 5 5 5 5 6 5 5 5 5 5 6 5 5 6 5 5 5 5 5 5 5 5 5 5 5 5 5 5 5 5 5 5 5 5 6 5 5 5 5 5 5 6 5 5 5 5 5 5 5 5 5 5 5 5 5 5 5 5 5 5 5 6 5 5 5 6 5 6 5 5 5 5 5 5 6 5 6 5 5 5 5 6 5 5 5 5 5 5 5 5 5 6 5 5 5 5 5 5 5 5 5 5 5 6 5 6 6 5 5 6 5 6 5 5 5 6 5 5 5 5 5 5 5 6 5 5 5 6 5 5 5 5 5 5 5 5 5 5 5 5 5 5 5 5 5 5 5 6 5 5 6 5 5 6 5 5 5 5 6 5 5 5 6 6 5 5 5 6 5 5 5 5 6 5 6 6 5 5 6 5 5 5 5 6 5 6 5 5 5 5 5 5 6 5 5 6 5 5 5 5 5 5 6 5 5 5 6 5 5 5 6 5 5 5 5 5 5 5 5 5 5 5 5 5 5 6 5 5 5 5 6 5 5 5 6 5 5 5 6 5 5 5 5 5 5 5 6 5 5 6 5 5 5 5 6 5 5 5 6 5 5 5 5 5 5 5 5 5 5 5 5 5 5 5 5 5 5 5 5 5 5 5 5 5 5 5 5 5 5 5 5 5 5 5 5 5 5 5 5 5 6 5 5 5 5 5 5 6 5 6 5 5 6 5 5 5 5 5 5 5 5 5 5 5 5 6 6 5 5 6 5 5 5 6 5 5 5 5 6 5 5 5 5 6 5 6 5 5 5 5 5 5 6 6 5 6 6 5 5 5 6 6 5 6 6 5 5 5 6 5 5 5 5 5 6 6 6 5 5 5 5 6 5 5 5 6 5 5 5 6 5 5 6 5 5 5 6 5 5 6 5 6 6 5 6 5 5 5 6 6 5 5 5 5 6 5 6 6 5 6 5 5 5 5 5 5 5 5 6 5 5 5 5 5 5 5 5 5 5 5 6 5 5 5 6 6 5 6 5 6 5 5 6 6 5 6 6 5 5 6 5 5 5 5 6 6 5 5 6 5 5 6 5 5 6 5 6 5 6 5 6 5 5 6 5 5 5 6 5 6 6 5 5 6 5 5 5 5 5 5 5 6 5 5 5 5 5 5 6 5 5 5 6 5 5 5 5 5 6 5 5 5 6 5 5 5 6 6 5 5 5 6 5 5 5 5 6 5 5 5 5 5 5 6 5 5 5 5 5 6 5 5 5 5 5 5 5 5 5 5 6 5 5 5 5 5 5 5 5 5 5 5 5 5 5 6 5 5 5 5 5 6 5 5 5 5 5 5 5 5 5 5 5 5 5 5 5 5 5 5 5 5 5 5 5 5 5 5 5 5 5 5 5 5 5 5 5 5 5 5 5 5 5 5 5 5 5 5 5 5 5 5 6 5 5 5 6 5 5 5 5 6 5 5 5 6 5 5 5 5 5 5 5 5 5 5 5 5 5 5 6 5 5 5 6 6 5 5 5 6 5 5 6 5 5 6 5 5 5 6 5 5 5 5 5 5 5 6 6 5 5 5 6 5 5 5 5 5 6 5 5 5 5 6 5 5 5 5 5 6 5 5 5 5 6 5 5 5 5 5 5 6 5 5 6 5 5 5 5 5 5 5 5 6 5 5 5 5 5 5 5 5 5 5 5 5 5 5 5 5 6 5 5 6 5 5 5 6 5 5 5 5 6 5 5 5 6 5 5 5 5 5 6 6 5 5 5 5 5 5 5 5 5 5 5 5 5 5 5 5 5 5 5 5 5 6 5 5 5 5 5 6 6 5 5 5 5 6 5 5 5 6 5 6 5 5 6 5 5 5 5 6 5 5 5 6 6 5 6 6 5 5 6 5 5 5 6 5 5 5 6 5 6 5 6 5 5 5 6 5 6 6 5 5 5 5 5 5 5 5 5 5 5 5 5 5 5 5 6 5 6 5 6 5 6 6 5 5 5 6 5 5 5 5 6 5 5 5 5 6 5 5 5 5 5 5 5 5 6 6 5 5 6 6 5 5 5 5 5 5 5 5 5 5 5 5 5 5 5 6 5 5 5 5 6 5 5 5 5 5 5 5 5 5 5 5 5 5 5 6 5 6 5 5 5 5 6 5 5 5 5 5 5 6 5 5 6 5 5 5 5 5 5 5 5 5 5 5 5 5 5 5 5 5 5 5 5 5 5 5 5 5 5 6 5 5 5 5 5 5 5 5 5 5 5 5 6 5 5 5 5 5 6 5 5 5 6 5 5 5 5 5 6 6 5 5 6 5 5 5 5 5 5 5 5 5 5 5 6 5 5 6 5 5 5 5 5 5 5 5 5 5 5 5 5 5 5 5 5 6 5 5 5 5 5 5 5 5 5 5 5 5 5 5 5 5 6 5 5 5 5 6 5 5 5 5 6 5 5 5 6 5 6 5 5 5 5 6 5 5 5 5 5 5 5 5 5 5 5 6 5 5 5 5 5 5 6 5 5 5 5 5 5 5 5 5 5 5 5 5 5 5 5 5 5 6 5 5 5 5 5 5 5 6 5 5 5 5 5 5 5 5 5 5 5 5 5 5 5 5 5 5 5 5 5 5 5 5 5 5 5 5 5 5 5 5 5 5 5 5 6 5 5 5 5 5 6 5 5 5 5 5 5 5 5 5 5 5 5 5 6 5 5 5 5 6 5 5 5 6 5 5 5 5 5 5 5 5 5 5 5 5 5 5 5 5 5 5 5 5 5 5 5 5 5 5 5 5 6 5 5 6 5 5 6 5 5 5 5 6 5 5 5 5 5 5 5 5 5 5 5 5 5 
</DataArray>
<DataArray type="Float64" Name="stress" NumberOfComponents="9" format="ascii">
-5206.8858181372198 -309.97387973752745 0 -309.97387973752745 1.1919461058401291 0 0 0 0 -5493.9904620422603 160.4267297108382 0 160.4267297108382 -685.83913358597943 0 0 0 0 -3485.1195361081773 -2.3002374305357307 0 -2.3002374305357307 906.51986376835089 0 0 0 0 -6410.9888191702557 -140.93056278376491 0 -140.93056278376491 1175.156006271385 0 0 0 0 -2546.4701645011955 916.20587908069263 0 916.20587908069263 29.20365982273961 0 0 0 0 -6.3075792782499605 -4.0120060567558653 0 -4.0120060567558653 0.37500404955619526 0 0 0 0 -205.63175331853563 -1667.9389952285276 0 -1667.9389952285276 -351.6068445788282 0 0 0 0 -591.90689756569918 -226.21254111403005 0 -226.21254111403005 82.56187423863139 0 0 0 0 -1988.3032953085276 -2492.1527050526311 0 -2492.1527050526311 -1815.7468881845384 0 0 0 0 -610.17135721055092 -252.46871455132634 0 -252.46871455132634 52.020718558733165 0 0 0 0 -682.78602457724628 -249.58940914627624 0 -249.58940914627624 129.11303415959685 0 0 0 0 -1562.7870830574539 -155.0763725943516 0 -155.0763725943516 178.1400109109004 0 0 0 0 -69.860503634880729 -3.5389197267530133 0 -3.5389197267530133 0.37388076126768627 0 0 0 0 -649.9183945558907 -212.49888887330428 0 -212.49888887330428 162.14688786884699 0 0 0 0 -892.60942423518281 306.67760370953511 0 306.67760370953511 614.65323817968954 0 0 0 0 -30.655066167397308 697.72118640715519 0 697.72118640715519 -654.05639809393358 0 0 0 0 -28.107936732766802 -2.7773211809311142 0 -2.7773211809311142 -1.3491951799541269 0 0 0 0 -109.2280028534442 -224.04763201512938 0 -224.04763201512938 -1.0525022742622152 0 0 0 0 -204.55801547653391 -377.43336052074056 0 -377.43336052074056 214.9539541665273 0 0 0 0 -129.25604726374149 102.1318871204121 0 102.1318871204121 166.70327250642811 0 0 0 0 -68.513118095695972 -86.7218726501643 0 -86.7218726501643 361.28532987970692 0 0 0 0 -86.68417721235852 1.0247158866178658 0 1.0247158866178658 3.4578905786222474 0 0 0 0 1491.5714548766264 -69.944977859827077 0 -69.944977859827077 -438.63848001415545 0 0 0 0 -502.48526076345797 -92.091387792109359 0 -92.091387792109359 63.772387401076429 0 0 0 0 -513.03167831143946 -506.21985364010351 0 -506.21985364010351 24.876630030256138 0 0 0 0 -425.11994716274785 -432.86478458448511 0 -432.86478458448511 -346.32300418668922 0 0 0 0 -524.53177662804956 371.08893380116206 0 371.08893380116206 -199.61445125502397 0 0 0 0 -7.3108477883670275 10.369032313025091 0 10.369032313025091 -1.5402572979648426 0 0 0 0 -136.0698666266544 -14.859256603962876 0 -14.859256603962876 179.20679210738751 0 0 0 0 -19.573436890763617 -0.82166394683972044 0 -0.82166394683972044 5.5949631741328378 0 0 0 0 -1192.8729176431079 -110.99182694802238 0 -110.99182694802238 65.873387045244584 0 0 0 0 -284.54880507497001 -620.81970125214355 0 -620.81970125214355 -457.47794956796793 0 0 0 0 -190.49124907885562 -43.394476419756074 0 -43.394476419756074 -422.31504600703977 0 0 0 0 -683.32164640694828 -309.53069134067869 0 -309.53069134067869 1523.0986917898608 0 0 0 0 2.7413089447625225 -27.889706850665306 0 -27.889706850665306 -7.1461339090812057 0 0 0 0 -701.14598660990305 -455.9335102104605 0 -455.9335102104605 321.09146372029863 0 0 0 0 -1295.8488425062897 183.53312715738579 0 183.53312715738579 66.146415966177301 0 0 0 0 -1366.4276040307595 -296.45471388308579 0 -296.45471388308579 363.05171902138045 0 0 0 0 -532.43876881335746 -301.1495556075879 0 -301.1495556075879 128.78023068484492 0 0 0 0 -851.59938660077751 -285.69740614927468 0 -285.69740614927468 128.5812867532959 0 0 0 0 -193.00346382998396 289.56034520575918 0 289.56034520575918 -228.53818095777751 0 0 0 0 -407.87533348769648 -117.27270787331236 0 -117.27270787331236 147.9023249918705 0 0 0 0 -47.202551467678859 53.575961819399708 0 53.575961819399708 -4.7909283198987396 0 0 0 0 -47.162511799691288 28.526193630189681 0 28.526193630189681 -1.9628723864550732 0 0 0 0 -41.156201360558043 31.290137252863815 0 31.290137252863815 0.97594100753121893 0 0 0 0 -47.194448695649044 -31.248906964178531 0 -31.248906964178531 -94.564149724977312 0 0 0 0 -54.208283546293387 -6.2468607357433825 0 -6.2468607357433825 -24.627749297470302 0 0 0 0 -52.238076807970856 -17.174159943238607 0 -17.174159943238607 -17.847996992313895 0 0 0 0 -28.901438846674864 24.058362090181618 0 24.058362090181618 -57.481584198937981 0 0 0 0 -61.774831587704654 31.427098109853034 0 31.427098109853034 -13.185167088062762 0 0 0 0 591.15483054361539 -770.30192751377308 0 -770.30192751377308 -423.07357873404362 0 0 0 0 116.85801372195419 4.5997140937142831 0 4.5997140937142831 -292.18578634071855 0 0 0 0 -615.6967912663531 -518.93989919998398 0 -518.93989919998398 -429.36420798672316 0 0 0 0 -105.40386085796496 -42.312934035685686 0 -42.312934035685686 -11.605508587604801 0 0 0 0 -2.4763503025067166 3.1290684664218986 0 3.1290684664218986 -1.0318510468551407 0 0 0 0 -10.193325180473039 -294.28578462782264 0 -294.28578462782264 -197.45376701080102 0 0 0 0 -511.05571418091131 355.0630741011467 0 355.0630741011467 -220.62469114999362 0 0 0 0 -23.856641307778773 51.052483054743618 0 51.052483054743618 -115.92358791491745 0 0 0 0 -65.375706395920133 25.355330942320961 0 25.355330942320961 78.383118172480181 0 0 0 0 -72.664024407160468 95.430955539488423 0 95.430955539488423 -4.6525064645007888 0 0 0 0 -12.739857698355593 -0.94068131413206402 0 -0.94068131413206402 -7.4609847296778593 0 0 0 0 139.63560623766352 173.67567343286996 0 173.67567343286996 -132.26489239613011 0 0 0 0 154.21637673070654 121.06591116635718 0 121.06591116635718 -340.71699826297754 0 0 0 0 -1226.6465544557723 -589.48844192862703 0 -589.48844192862703 128.53093645252562 0 0 0 0 -1038.7660900300543 62.250840590762323 0 62.250840590762323 56.590651241682281 0 0 0 0 -45.94655717718706 83.435480348658984 0 83.435480348658984 77.034578694980155 0 0 0 0 -202.11958364766906 -250.51476597584747 0 -250.51476597584747 -387.20384475415733 0 0 0 0 160.71461039740825 -100.58971526732785 0 -100.58971526732785 42.578648478509876 0 0 0 0 681.98863539540616 -118.10478315906425 0 -118.10478315906425 9.6242405040547965 0 0 0 0 157.76432136856602 85.16735079799173 0 85.16735079799173 -7.1475659411089509 0 0 0 0 -11.952930581408651 -0.1702055363392958 0 -0.1702055363392958 1.9965732340025788 0 0 0 0 -77.548457786814936 -44.489347242823683 0 -44.489347242823683 -8.6212102788021276 0 0 0 0 -197.41780560009647 -387.66873174584532 0 -387.66873174584532 146.36958828150671 0 0 0 0 -121.31277357060026 -11.955012820538059 0 -11.955012820538059 29.137095996897187 0 0 0 0 -13.483639573314576 -193.78378454969925 0 -193.78378454969925 -213.67078567379508 0 0 0 0 -698.29579440626549 424.42854172085072 0 424.42854172085072 27.667285350548809 0 0 0 0 -137.34437621210236 -1.6236487848009347 0 -1.6236487848009347 56.679056283699538 0 0 0 0 -31.503225843022477 7.0444742680544721 0 7.0444742680544721 -10.044526370935465 0 0 0 0 -140.2648290378711 -50.240079984254862 0 -50.240079984254862 -19.106730051247268 0 0 0 0 -18.693801936043826 -5.0866839600467415 0 -5.0866839600467415 -5.4411694803424941 0 0 0 0 -58.544527969745104 -17.709278210253387 0 -17.709278210253387 -8.5668260236097922 0 0 0 0 -59.799448738942885 -20.052059292262896 0 -20.052059292262896 -17.428593854566309 0 0 0 0 -61.029829711304046 -11.2280342688357 0 -11.2280342688357 -14.432103510504021 0 0 0 0 375.20522310431988 -159.71123678727417 0 -159.71123678727417 13.997146112920291 0 0 0 0 27.227609626148478 -188.27368028387298 0 -188.27368028387298 181.99698328729482 0 0 0 0 -65.322759117159876 10.159427094126386 0 10.159427094126386 -50.99077544997408 0 0 0 0 -53.894958367163781 -19.847621617024743 0 -19.847621617024743 -12.440089916380202 0 0 0 0 -26.135328482859208 18.117292658147221 0 18.117292658147221 -8.4714165635410801 0 0 0 0 -48.148186674836325 -27.226913299787839 0 -27.226913299787839 -6.6345748868870942 0 0 0 0 -149.76015106363047 -218.06254050183793 0 -218.06254050183793 -118.14934764349891 0 0 0 0 -31.923718661368184 -6.1030094910411208 0 -6.1030094910411208 -57.320869708059035 0 0 0 0 -0.76182777471336749 0.60633685701859008 0 0.60633685701859008 -1.93725823907692 0 0 0 0 -80.075586617189401 9.4123383418456115 0 9.4123383418456115 0.25239274362820652 0 0 0 0 -128.76270758612372 69.821899635887121 0 69.821899635887121 -71.032852089345624 0 0 0 0 -22.462219437985752 18.594036862865948 0 18.594036862865948 -4.4314455946095208 0 0 0 0 -69.427646060510597 22.96658776345339 0 22.96658776345339 -20.587980703401627 0 0 0 0 -106.57048618973931 -2.9099907280847219 0 -2.9099907280847219 14.532635263038856 0 0 0 0 -39.328324542691377 -32.232706848856793 0 -32.232706848856793 -10.189590969954633 0 0 0 0 -98.125774394902692 -33.489024156589494 0 -33.489024156589494 -16.627182036074373 0 0 0 0 -80.24232724578178 -161.46437286459974 0 -161.46437286459974 195.86047710642561 0 0 0 0 -79.279484266842644 -43.451026297367065 0 -43.451026297367065 -6.5746325671041177 0 0 0 0 -160.79294544638833 27.573434044535361 0 27.573434044535361 12.370609156553769 0 0 0 0 -63.069528072104731 33.878920212072558 0 33.878920212072558 -3.0643284441848664 0 0 0 0 -67.925304012809647 63.391165967928828 0 63.391165967928828 -31.683003118939268 0 0 0 0 -104.50931179187319 135.94095146384075 0 135.94095146384075 -148.13607399106513 0 0 0 0 -568.10009815855301 53.217316417512393 0 53.217316417512393 203.92289383071005 0 0 0 0 158.87145970787697 -22.731372248942208 0 -22.731372248942208 -396.7647578319702 0 0 0 0 -745.27048899587135 494.00605585211662 0 494.00605585211662 -231.63840037897512 0 0 0 0 -659.89556890985114 -64.210858257256859 0 -64.210858257256859 57.464221160181978 0 0 0 0 -1070.2545152687817 338.40179179615984 0 338.40179179615984 -158.16445669379172 0 0 0 0 -1366.2775513112865 627.34269425514742 0 627.34269425514742 -224.69454024565238 0 0 0 0 -70.53872532582119 -37.278313598604171 0 -37.278313598604171 -5.1142257665339939 0 0 0 0 -10.829266842924994 -3.473087468781614 0 -3.473087468781614 3.8224429628664742 0 0 0 0 -3758.2481785112905 1203.0495120099449 0 1203.0495120099449 -157.6884464379909 0 0 0 0 -1052.1634560027269 259.84516570562971 0 259.84516570562971 -112.44000229073492 0 0 0 0 -4820.0648269863013 1238.1589950268401 0 1238.1589950268401 -28.932022633477857 0 0 0 0 -1356.7285008671461 293.32963023796083 0 293.32963023796083 -1.2611041780385222 0 0 0 0 -5502.4872171270526 490.53309547283578 0 490.53309547283578 1084.0746800998074 0 0 0 0 -2754.3880722422109 715.00835288349435 0 715.00835288349435 803.80725482831554 0 0 0 0 -781.00772428409982 357.8316030100367 0 357.8316030100367 -519.04238395392349 0 0 0 0 -1216.9163025939779 59.054213032855159 0 59.054213032855159 -55.994973220408156 0 0 0 0 -2683.1017435731774 -17.811240550371508 0 -17.811240550371508 484.62620291830058 0 0 0 0 -1498.8736987846933 735.63320024546783 0 735.63320024546783 -87.014893181968972 0 0 0 0 -15.704233179633434 -8.5799054539607766 0 -8.5799054539607766 4.9599353287216852 0 0 0 0 -119.75149414638872 197.35034379202696 0 197.35034379202696 119.54705411368991 0 0 0 0 -19.985350504175386 6.2995016429442785 0 6.2995016429442785 12.435067569959394 0 0 0 0 -15.627501417966414 8.3854933564487055 0 8.3854933564487055 45.241295433155301 0 0 0 0 52.400788248080062 -302.02206236202153 0 -302.02206236202153 190.22036295252497 0 0 0 0 -67.017365157232859 5.8733379713395664 0 5.8733379713395664 1.8606676912828017 0 0 0 0 -137.38112398324301 37.321824086418474 0 37.321824086418474 143.05128176144353 0 0 0 0 -10.023746457425204 -0.3760369879857457 0 -0.3760369879857457 3.0613857986117026 0 0 0 0 -62.941447585530113 -101.71581802461156 0 -101.71581802461156 -136.4356375034389 0 0 0 0 -79.620200718462002 114.61608437003582 0 114.61608437003582 -250.75614444441049 0 0 0 0 -8.2605647798548603 -2.2169973490337327 0 -2.2169973490337327 4.5245711148110095 0 0 0 0 -220.74844549395493 274.369428986804 0 274.369428986804 -96.568836807530133 0 0 0 0 -825.19920796807855 -116.0644797115084 0 -116.0644797115084 749.21601898767858 0 0 0 0 -243.39793308283333 -16.049192463943676 0 -16.049192463943676 75.980972992512676 0 0 0 0 -112.39460407089064 63.167274744821754 0 63.167274744821754 99.401999921301297 0 0 0 0 -199.93401706573059 -143.51855886474016 0 -143.51855886474016 -45.708802539793908 0 0 0 0 -115.60504695953568 -66.783605072869648 0 -66.783605072869648 11.358529753386335 0 0 0 0 -160.87545988742204 -62.950491734518984 0 -62.950491734518984 15.447372587401929 0 0 0 0 -60.28954325558152 1.3290665171079279 0 1.3290665171079279 0.066751699303098572 0 0 0 0 -91.857455983641557 -13.786658775273619 0 -13.786658775273619 49.23444421419763 0 0 0 0 -88.537592949493046 -53.23959003880536 0 -53.23959003880536 -3.8900181363526514 0 0 0 0 -2.2192845836107153 -27.139871791075073 0 -27.139871791075073 -65.177995956903573 0 0 0 0 -65.707797811628552 -51.96286871356692 0 -51.96286871356692 -3.8186432691750554 0 0 0 0 -112.89940941868554 -98.830726208299254 0 -98.830726208299254 -50.262922897506201 0 0 0 0 -20.199062630126718 -50.118088672236652 0 -50.118088672236652 -90.359966935139894 0 0 0 0 -11.212938612239668 -7.2392374080650317 0 -7.2392374080650317 -17.632472438561944 0 0 0 0 8.9707029356853809 -12.881891755115731 0 -12.881891755115731 9.9991185536845855 0 0 0 0 -22.86515550747572 -44.761913025053573 0 -44.761913025053573 -9.901879234761239 0 0 0 0 -46.584985988549306 -24.8504363889903 0 -24.8504363889903 0.012061743266369818 0 0 0 0 -7.3847563511153567 -20.496158813980788 0 -20.496158813980788 -0.046476706732927447 0 0 0 0 6.063994304427581 -3.3749850023323518 0 -3.3749850023323518 1.6815487739147614 0 0 0 0 -115.23817234794842 -121.94840135290497 0 -121.94840135290497 -40.611193929511501 0 0 0 0 6.4882405373064103 -10.037793291708908 0 -10.037793291708908 56.633633230872874 0 0 0 0 -15.399125340156388 -96.10431407460959 0 -96.10431407460959 60.656558347581267 0 0 0 0 -45.04053351323364 10.041441024139896 0 10.041441024139896 2.9215481684051037 0 0 0 0 -27.515648938773666 29.441413842355082 0 29.441413842355082 6.7698014721867992 0 0 0 0 -31.908185577427503 2.6993906113074502 0 2.6993906113074502 -38.95423578910632 0 0 0 0 -44.880258899567707 52.341420520740826 0 52.341420520740826 48.137313791103679 0 0 0 0 -29.442023248702753 57.137507290894064 0 57.137507290894064 -19.699018686629415 0 0 0 0 -57.907213402128832 14.585768575460275 0 14.585768575460275 3.5072569031720713 0 0 0 0 -55.462944647893892 26.372007649681109 0 26.372007649681109 23.217253147299289 0 0 0 0 -322.74699445537408 85.852408389119773 0 85.852408389119773 35.468232411484109 0 0 0 0 -41.902780828467542 -2.8317454067631616 0 -2.8317454067631616 13.939512208937327 0 0 0 0 -61.622647117497877 14.265426263026789 0 14.265426263026789 5.8962926176013326 0 0 0 0 -185.9318538227235 77.747922216258303 0 77.747922216258303 218.368820888453 0 0 0 0 -290.95655515364342 213.98785612178972 0 213.98785612178972 441.38511661523808 0 0 0 0 -589.33738011933747 95.354834556097558 0 95.354834556097558 414.56287202575186 0 0 0 0 -100.90856383187412 5.758102826281509 0 5.758102826281509 6.1039689419234593 0 0 0 0 -577.36631190954358 29.176983819923407 0 29.176983819923407 357.45161633480075 0 0 0 0 -546.38926448056009 110.82466288160504 0 110.82466288160504 145.71260103014356 0 0 0 0 -334.81976553739514 141.36163703689272 0 141.36163703689272 297.81450775568374 0 0 0 0 -615.85058683191892 68.861483376622346 0 68.861483376622346 282.02148647685635 0 0 0 0 -68.181051946077787 9.7974209331117663 0 9.7974209331117663 37.285271596833525 0 0 0 0 -429.84026119892951 -77.638600979922558 0 -77.638600979922558 164.46719384857261 0 0 0 0 -50.431668395043857 17.359620981835995 0 17.359620981835995 2.1329887026739627 0 0 0 0 -263.70347017038148 -62.956401510676187 0 -62.956401510676187 357.25741821830104 0 0 0 0 -260.82775210350519 -163.75395846202991 0 -163.75395846202991 154.61829461467823 0 0 0 0 -192.32848086673766 -16.606705269196027 0 -16.606705269196027 173.29653833471093 0 0 0 0 -98.540196869929787 -49.361568380764083 0 -49.361568380764083 16.770183773660847 0 0 0 0 -365.7693425269681 -138.05555593624013 0 -138.05555593624013 192.06985644326778 0 0 0 0 -513.32066876313183 -94.445148085661003 0 -94.445148085661003 137.77269369772876 0 0 0 0 -329.40385543266893 -121.00012991127278 0 -121.00012991127278 77.038734774179829 0 0 0 0 -261.30271863966482 -169.03373221227412 0 -169.03373221227412 -59.657641330819843 0 0 0 0 250.72782171043218 -165.28960871119841 0 -165.28960871119841 -409.05136297563433 0 0 0 0 5.3997642408648971 36.255514467773686 0 36.255514467773686 -78.70569801583359 0 0 0 0 -464.28596287471009 -162.38832053629903 0 -162.38832053629903 -52.62557266441928 0 0 0 0 -528.94360968421097 -1157.3639141681033 0 -1157.3639141681033 -3.883684356038775 0 0 0 0 -9.5950399997718137 -5.6117795443275895 0 -5.6117795443275895 -2.0228905110851492 0 0 0 0 -1478.8079675807385 708.58373992274267 0 708.58373992274267 -85.551950449431388 0 0 0 0 -1806.5047414203 -291.46098298078903 0 -291.46098298078903 230.85742014774405 0 0 0 0 -456.13625904792571 -135.48794879775858 0 -135.48794879775858 -62.988474524640878 0 0 0 0 -836.94129634191449 522.68760029300392 0 522.68760029300392 -301.92817623186374 0 0 0 0 -412.39654856799461 208.71278794888894 0 208.71278794888894 -248.53869130366274 0 0 0 0 -790.71312790131196 -112.59699123397058 0 -112.59699123397058 50.006640157424044 0 0 0 0 -498.00978642713744 -61.171145088705089 0 -61.171145088705089 22.871234050442581 0 0 0 0 -733.28757998540277 -28.331928602373807 0 -28.331928602373807 169.41496315318363 0 0 0 0 -399.00261001824401 31.251401394760251 0 31.251401394760251 161.13654053324535 0 0 0 0 -743.26543964870234 214.624565880566 0 214.624565880566 151.42281783814906 0 0 0 0 -342.09796984956483 9.8613017672091701 0 9.8613017672091701 13.772271128653301 0 0 0 0 -143.56451560743153 -168.46997226413777 0 -168.46997226413777 0.45450741489685131 0 0 0 0 338.31649393976841 -73.199043189105524 0 -73.199043189105524 3.4465174355289321 0 0 0 0 -181.73735382844461 -354.73379318137017 0 -354.73379318137017 222.90620201706793 0 0 0 0 147.29555739992065 -639.69522819883673 0 -639.69522819883673 47.259221075114056 0 0 0 0 248.71415586528019 -107.22632710385051 0 -107.22632710385051 35.51475038065746 0 0 0 0 -2428.5521570490382 -878.1017983351876 0 -878.1017983351876 1236.902958822986 0 0 0 0 -99.158692130344264 -10.50903843268155 0 -10.50903843268155 -2.9240467990858043 0 0 0 0 -33.140403483575994 -13.108178854330163 0 -13.108178854330163 -6.0478815851708418 0 0 0 0 -359.01079122253577 81.647096922930814 0 81.647096922930814 12.62248723617995 0 0 0 0 -1536.7005274867406 -703.27902017458291 0 -703.27902017458291 -374.09371954041649 0 0 0 0 385.71002934189164 684.90530213574129 0 684.90530213574129 -908.83467885433583 0 0 0 0 -22.796947504793252 1.8292830206747439 0 1.8292830206747439 -1.7134434562809573 0 0 0 0 -1640.0597460572317 -657.57616596535172 0 -657.57616596535172 -273.39570585467845 0 0 0 0 -639.97105431981618 580.07307339957879 0 580.07307339957879 -870.57367404507886 0 0 0 0 414.9262322288705 -220.95580624499235 0 -220.95580624499235 -1142.1964010716165 0 0 0 0 84.642101974059187 -68.240697643182557 0 -68.240697643182557 -418.24836328860874 0 0 0 0 -351.83379460728611 178.97719796907677 0 178.97719796907677 101.85123146280239 0 0 0 0 -2203.8170317676268 11.590170387286435 0 11.590170387286435 18.946316633082461 0 0 0 0 -2.1523073434701985 -2.3160865560342359 0 -2.3160865560342359 -4.9336026670851503 0 0 0 0 118.97562308103079 -485.8439681915138 0 -485.8439681915138 -272.71857522691761 0 0 0 0 -649.40490209790732 -50.216468251984224 0 -50.216468251984224 -19.355146470596992 0 0 0 0 -747.55911295770784 20.77023454977234 0 20.77023454977234 18.546183093270884 0 0 0 0 -133.28424455030563 223.94385301319156 0 223.94385301319156 -144.97539648263228 0 0 0 0 -20.787789232682002 7.0627442118599788 0 7.0627442118599788 -7.476845358765889 0 0 0 0 -65.33040345464542 33.671476919372253 0 33.671476919372253 156.60956950855802 0 0 0 0 -21.444785214960405 -4.0994109520743791 0 -4.0994109520743791 -9.1308300410575178 0 0 0 0 -46.968042823229581 -32.171583038113027 0 -32.171583038113027 -12.391531755497599 0 0 0 0 -120.97362308825041 -224.79727506303615 0 -224.79727506303615 76.830781319194102 0 0 0 0 -132.24657430632215 -16.320074837341281 0 -16.320074837341281 -21.536289012934503 0 0 0 0 -45.100852915858184 30.20442988122926 0 30.20442988122926 -2.7284732639408027 0 0 0 0 -102.68815311171056 -0.69811713014269117 0 -0.69811713014269117 -27.479042603725929 0 0 0 0 -956.45170209313801 -307.98726794665481 0 -307.98726794665481 15.244334298037074 0 0 0 0 -654.769050736606 -125.93701868779658 0 -125.93701868779658 -21.963221692840307 0 0 0 0 -576.23472179289092 -32.071226626452244 0 -32.071226626452244 -26.866056193721306 0 0 0 0 -586.43862208680366 -182.63343187433975 0 -182.63343187433975 -2.1260121996085672 0 0 0 0 -212.78973544515611 -7.861026722218412 0 -7.861026722218412 -41.5360701663285 0 0 0 0 -568.10775875445688 -168.56449483864253 0 -168.56449483864253 91.082796261534895 0 0 0 0 -162.03775384096662 -156.34169297275821 0 -156.34169297275821 -196.8868455074612 0 0 0 0 -549.8585747115103 -114.57085469436151 0 -114.57085469436151 -51.753302218823592 0 0 0 0 -371.52721701623796 -219.24178188866648 0 -219.24178188866648 -182.50735956404424 0 0 0 0 -394.88171261986645 -382.00969070509785 0 -382.00969070509785 -307.29174492991842 0 0 0 0 -896.83849938077037 -233.15807008760294 0 -233.15807008760294 -9.4529936209044081 0 0 0 0 -375.82072963524843 -280.06626796234559 0 -280.06626796234559 -298.83282484348933 0 0 0 0 -258.77093708452594 -307.04616101215379 0 -307.04616101215379 -425.63829434355102 0 0 0 0 -1149.8027348589821 -901.89392747558895 0 -901.89392747558895 -531.76250361999701 0 0 0 0 9.7590058767236769 -453.83642513000723 0 -453.83642513000723 -815.73731540859808 0 0 0 0 77.988668581921957 185.71834341366679 0 185.71834341366679 -296.18351834424539 0 0 0 0 -62.919108912385127 -52.374536822109803 0 -52.374536822109803 -237.82399119158345 0 0 0 0 -70.391986156304483 -77.367221257693927 0 -77.367221257693927 -172.95337962712256 0 0 0 0 -55.053951689242126 12.372933571377303 0 12.372933571377303 13.35524022947075 0 0 0 0 -82.432377968769288 41.445802199753416 0 41.445802199753416 0.44038066514713137 0 0 0 0 -61.913537611952052 12.001549050983613 0 12.001549050983613 46.216135627634628 0 0 0 0 -50.94588557658426 12.081938253513954 0 12.081938253513954 0.5123346680384202 0 0 0 0 -80.379217104491545 2.479048660717126 0 2.479048660717126 -2.3293442210406283 0 0 0 0 -89.618662528471759 -18.079670846064801 0 -18.079670846064801 -46.757267340857652 0 0 0 0 -50.553151713198133 24.098606300534072 0 24.098606300534072 4.9202200310280269 0 0 0 0 -165.48904317953566 -152.11572624984183 0 -152.11572624984183 -149.71318816172879 0 0 0 0 -1.4542035160902742 -331.61316113233647 0 -331.61316113233647 -350.56724927920732 0 0 0 0 -158.71347050130134 -147.02347465556318 0 -147.02347465556318 -185.29118538341208 0 0 0 0 12.152229040118982 -107.91925850373354 0 -107.91925850373354 -204.05907422112432 0 0 0 0 -219.38503840472004 -108.29187341136458 0 -108.29187341136458 -99.307421273448199 0 0 0 0 34.226745227686479 124.31431101023418 0 124.31431101023418 455.39096996387343 0 0 0 0 77.117993586492958 119.14335273394136 0 119.14335273394136 66.761193594347787 0 0 0 0 -157.90908039739588 -784.70329775058417 0 -784.70329775058417 -80.332803628002239 0 0 0 0 -6.6227950860238707 -5.8112295012822699 0 -5.8112295012822699 -2.6790379602335612 0 0 0 0 572.198294679838 -77.102216743571262 0 -77.102216743571262 -365.50580848664902 0 0 0 0 -155.92846766058938 -410.48153388358151 0 -410.48153388358151 -311.5323252484568 0 0 0 0 -313.67188109247945 -137.1032550335126 0 -137.1032550335126 -79.69614836601977 0 0 0 0 -601.46753905928927 -248.96797610803242 0 -248.96797610803242 -85.334088099905784 0 0 0 0 -19.557920160907202 0.52420281140896918 0 0.52420281140896918 -2.0466585770891328 0 0 0 0 126.77728002598451 -465.97173822400782 0 -465.97173822400782 27.741817860929586 0 0 0 0 -64.232120903331634 9.4072621547996675 0 9.4072621547996675 23.452193959175844 0 0 0 0 -175.18838149045769 373.89778834840126 0 373.89778834840126 140.08608225191728 0 0 0 0 -134.17131035716938 -1.511340640701583 0 -1.511340640701583 23.876275023182977 0 0 0 0 -43.056345217912167 737.19954205540375 0 737.19954205540375 34.375732479946237 0 0 0 0 -1232.1737015340113 -1029.7221316867476 0 -1029.7221316867476 84.54656678597712 0 0 0 0 -362.88858092241935 -69.337461451598983 0 -69.337461451598983 -4.7176362594886996 0 0 0 0 -328.43594044423662 -5.874633703145264 0 -5.874633703145264 8.034819909649741 0 0 0 0 -141.93244620828227 16.934886491145662 0 16.934886491145662 25.055570135083826 0 0 0 0 -156.60896916274214 26.39068397550858 0 26.39068397550858 13.959740967777861 0 0 0 0 -89.402359439976863 29.51177777807402 0 29.51177777807402 3.017667860198344 0 0 0 0 -27.826736912521397 -8.3259458947932217 0 -8.3259458947932217 20.384568713616289 0 0 0 0 -124.65307814971311 6.3604928123143054 0 6.3604928123143054 22.622924183278712 0 0 0 0 -86.717484478227561 10.033202318362555 0 10.033202318362555 20.270656275144574 0 0 0 0 -76.270370326994453 29.395038600282987 0 29.395038600282987 38.886504642657655 0 0 0 0 -35.506309174108424 -4.3709481460547863 0 -4.3709481460547863 13.258272784943474 0 0 0 0 -176.34220974647906 3.7955886739350602 0 3.7955886739350602 -4.7128369300659898 0 0 0 0 -195.55179441777 14.935559941599251 0 14.935559941599251 11.716347765934302 0 0 0 0 -441.97855057664128 -3.4993056459686187 0 -3.4993056459686187 7.1487964524761765 0 0 0 0 -402.92352839485829 -207.89442111746439 0 -207.89442111746439 -87.898930917652649 0 0 0 0 -556.62854094921204 -48.333138933634174 0 -48.333138933634174 40.032331410146753 0 0 0 0 -320.54593496231246 -0.10902658942029575 0 -0.10902658942029575 45.040327446180981 0 0 0 0 -362.75506044054055 -37.293116115189605 0 -37.293116115189605 15.113898962542748 0 0 0 0 -397.45041798933016 34.364912616120733 0 34.364912616120733 63.592776812516377 0 0 0 0 -318.3530631186477 42.144595273100492 0 42.144595273100492 64.048926674395034 0 0 0 0 -355.37152314473497 -5.343162200131701 0 -5.343162200131701 79.910223969830895 0 0 0 0 -301.25717557768075 -34.215226749715384 0 -34.215226749715384 -4.3477353680377746 0 0 0 0 -320.97812014945703 -11.087714179845364 0 -11.087714179845364 78.924840946019913 0 0 0 0 -283.59087723374978 -25.15229600676571 0 -25.15229600676571 16.194242299986854 0 0 0 0 -70.739515509121702 -47.66715694626464 0 -47.66715694626464 51.25175718365449 0 0 0 0 -263.28290562338952 -40.863487449341847 0 -40.863487449341847 52.51302745753128 0 0 0 0 -290.5436571251721 -54.864816790810778 0 -54.864816790810778 162.39068858337623 0 0 0 0 -372.40193525899667 -140.33185882158432 0 -140.33185882158432 -467.93028420885094 0 0 0 0 -122.68502561914238 -11.765133666480338 0 -11.765133666480338 22.276422562886591 0 0 0 0 35.334021830349229 -444.11811466682775 0 -444.11811466682775 460.34863790890358 0 0 0 0 -127.02521916202386 285.4005753954275 0 285.4005753954275 -113.2527351977933 0 0 0 0 -105.38911697374812 -20.339099701448923 0 -20.339099701448923 28.169662459537637 0 0 0 0 -34.199874068694498 -4.4075043708713366 0 -4.4075043708713366 -5.9785317823733255 0 0 0 0 -58.9018060072558 -127.08877619764826 0 -127.08877619764826 598.75511393846318 0 0 0 0 26.295586562220706 -232.28549029453461 0 -232.28549029453461 195.43483249021983 0 0 0 0 -124.90517139171425 -118.06086007669796 0 -118.06086007669796 -139.14133245296807 0 0 0 0 -209.8510530338026 -189.51719746064589 0 -189.51719746064589 148.78115736465679 0 0 0 0 -174.14276004674321 -58.664106163974793 0 -58.664106163974793 99.885985185698246 0 0 0 0 -298.27154507792147 -213.92139634845284 0 -213.92139634845284 -136.97062001669923 0 0 0 0 -255.57804389061494 -256.31478706687597 0 -256.31478706687597 -115.62406567647372 0 0 0 0 -242.65491710158676 -134.99086681249975 0 -134.99086681249975 -51.003211923783851 0 0 0 0 -339.03141406018676 -116.7008384826182 0 -116.7008384826182 -21.509065333454146 0 0 0 0 -397.71290686549764 -197.59721141701692 0 -197.59721141701692 -68.931615521934873 0 0 0 0 -305.68476233612455 -229.85851269491667 0 -229.85851269491667 -115.19252027430278 0 0 0 0 -318.50256388988055 -262.16425891599079 0 -262.16425891599079 -115.98939617685537 0 0 0 0 -339.54513134880108 -221.17070744811866 0 -221.17070744811866 -40.214743148167891 0 0 0 0 -359.17297925837192 -259.79676946540195 0 -259.79676946540195 -47.666189423683122 0 0 0 0 -141.23012118269435 -13.112072080200846 0 -13.112072080200846 72.485834959268686 0 0 0 0 -430.64824764590594 -149.25361435527807 0 -149.25361435527807 55.551612330041728 0 0 0 0 -20.477593886825908 -0.93764631375013607 0 -0.93764631375013607 27.031215506248063 0 0 0 0 -333.05891468848131 -95.14396966187627 0 -95.14396966187627 -27.958166762744213 0 0 0 0 -629.6300220985795 -327.28837114447509 0 -327.28837114447509 -399.63034197518482 0 0 0 0 -703.17001502933272 61.22924348075162 0 61.22924348075162 131.38301644286094 0 0 0 0 -105.98543237466947 8.6361029901590882 0 8.6361029901590882 -11.045245205417814 0 0 0 0 -102.96608540532671 7.7507001843700323 0 7.7507001843700323 9.5421662660240418 0 0 0 0 -24.444629330093957 3.0035436843021728 0 3.0035436843021728 0.60064537918171368 0 0 0 0 -110.02463086453281 -18.608894396885375 0 -18.608894396885375 1.2894938939643907 0 0 0 0 -619.87809336684586 -266.59092196948302 0 -266.59092196948302 -31.965580646111391 0 0 0 0 -415.9587199798334 -456.62772185767358 0 -456.62772185767358 -254.90725273100338 0 0 0 0 -40.634010872978251 -199.27436441011764 0 -199.27436441011764 -416.49771444024589 0 0 0 0 448.47873333387543 -328.23125484597404 0 -328.23125484597404 -579.09922849763825 0 0 0 0 3.6184239751805762 -20.367777397442964 0 -20.367777397442964 -2.4532544286855948 0 0 0 0 -774.679188872542 -36.291629261189883 0 -36.291629261189883 447.99009782732446 0 0 0 0 -128.01314463128131 -14.780245978967869 0 -14.780245978967869 24.454091013740808 0 0 0 0 249.97176574099285 -173.70480194244215 0 -173.70480194244215 30.496984830342626 0 0 0 0 -264.22587821003981 31.153774932945453 0 31.153774932945453 130.57694213100876 0 0 0 0 -683.67476485115913 -42.313973260011608 0 -42.313973260011608 11.2688089743815 0 0 0 0 -1181.0524853788083 -498.98817627432436 0 -498.98817627432436 -372.72854090488545 0 0 0 0 -121.79007073500543 -9.331551198433317 0 -9.331551198433317 -7.027287159646221 0 0 0 0 -1112.4542929301824 -665.96199805348078 0 -665.96199805348078 -79.25965836353862 0 0 0 0 -47.50196105613793 30.671315784114569 0 30.671315784114569 -7.8295560523192194 0 0 0 0 -111.47071192820317 -38.774746245748339 0 -38.774746245748339 26.93332399707247 0 0 0 0 -3537.6822193872649 -2563.3935595349903 0 -2563.3935595349903 1151.6880636676069 0 0 0 0 -111.27146353415446 -19.76657587336922 0 -19.76657587336922 0.31596372946478368 0 0 0 0 -121.10784831926867 -11.471562253502725 0 -11.471562253502725 -6.6384574126768712 0 0 0 0 -113.80288614642632 -15.633239855728789 0 -15.633239855728789 2.8763474361785484 0 0 0 0 -105.85083623335231 -16.625207163272535 0 -16.625207163272535 7.6028072465596779 0 0 0 0 -107.34191009425558 -10.356809263998912 0 -10.356809263998912 -10.902136620393094 0 0 0 0 -105.76295848040172 -1.8033395290381122 0 -1.8033395290381122 -27.490091778037822 0 0 0 0 -109.92023203798453 -11.630057929275608 0 -11.630057929275608 -10.802667800908182 0 0 0 0 -112.75888514443068 -4.0971266714902868 0 -4.0971266714902868 -29.293937128275502 0 0 0 0 -122.75732531468839 -7.1646025789248284 0 -7.1646025789248284 -26.90927817256852 0 0 0 0 -33.810700092267467 33.137857553730186 0 33.137857553730186 -4.3313502491395255 0 0 0 0 -122.22633363977366 -20.264145768653179 0 -20.264145768653179 -35.711229319440463 0 0 0 0 -119.81681324923557 -3.1303500227081713 0 -3.1303500227081713 -22.677650564437499 0 0 0 0 -107.4054637341178 -6.3203045634927548 0 -6.3203045634927548 -32.016907200723836 0 0 0 0 -108.22771049270523 4.4414173431687232 0 4.4414173431687232 -31.388877950214919 0 0 0 0 -119.33803051724681 3.4928475104279642 0 3.4928475104279642 -27.399676617258592 0 0 0 0 -135.47469113708939 3.9168920243891989 0 3.9168920243891989 -25.893342246281463 0 0 0 0 -89.694853370572673 -0.57767673134912911 0 -0.57767673134912911 -33.609094514818025 0 0 0 0 -113.61265566985821 13.013105050957165 0 13.013105050957165 -34.872278577659017 0 0 0 0 -112.52525392239113 4.2100006467977664 0 4.2100006467977664 -29.544728913049767 0 0 0 0 -120.6947122636775 20.46610418434193 0 20.46610418434193 -39.83544925206661 0 0 0 0 -111.69638355943607 8.1138835589772498 0 8.1138835589772498 -32.182247928642028 0 0 0 0 -127.54832915485531 14.686252661169988 0 14.686252661169988 -29.769434192545305 0 0 0 0 -103.08249548214371 -5.9388005181688186 0 -5.9388005181688186 -13.548346865853091 0 0 0 0 -101.17280904576182 -11.121970789719853 0 -11.121970789719853 -14.750981921290077 0 0 0 0 -94.220861825713655 -10.914113002805607 0 -10.914113002805607 -14.887019997911011 0 0 0 0 -96.716183551790891 -5.8043354278988772 0 -5.8043354278988772 -13.698365714573356 0 0 0 0 -117.9076087110443 6.4037557963456493 0 6.4037557963456493 -14.241582353224658 0 0 0 0 -58.718482893738837 20.1457412165596 0 20.1457412165596 -11.166191150436134 0 0 0 0 -105.03987019171473 15.686163155338363 0 15.686163155338363 -26.14098439013469 0 0 0 0 -104.38315395986137 -8.6894062841770392 0 -8.6894062841770392 24.890698467056609 0 0 0 0 -81.23882152789156 106.43590393123122 0 106.43590393123122 30.092290290183882 0 0 0 0 -83.798871495027214 10.174874932487754 0 10.174874932487754 3.5519183995576311 0 0 0 0 -76.558586084465787 -23.532015912280713 0 -23.532015912280713 1.6132988148674485 0 0 0 0 -101.59445248811971 -3.2851758997476281 0 -3.2851758997476281 5.2258696102616113 0 0 0 0 -99.996393230656395 -11.124060848566842 0 -11.124060848566842 -0.11244559388364905 0 0 0 0 -74.079828269753364 -29.50886027173128 0 -29.50886027173128 0.97096874535819033 0 0 0 0 -113.67829523506225 15.738218259566565 0 15.738218259566565 32.658975237130107 0 0 0 0 -103.64306117343949 -15.901736756174159 0 -15.901736756174159 -3.2385463138725754 0 0 0 0 -69.770626804733183 -67.312069413602785 0 -67.312069413602785 116.22256775015921 0 0 0 0 -42.19705552177038 -43.386768434568239 0 -43.386768434568239 51.753880691914674 0 0 0 0 -14.236966323045721 9.3237155750116685 0 9.3237155750116685 3.0719345253137238 0 0 0 0 -42.197055521595757 -43.386768434525038 0 -43.386768434525038 51.753880691912855 0 0 0 0 -42.197055521803122 -43.386768434452051 0 -43.386768434452051 51.753880691907398 0 0 0 0 -92.871183203038527 -0.47678440066601979 0 -0.47678440066601979 -9.7275979612131778 0 0 0 0 -91.97824993422546 8.3468417916847102 0 8.3468417916847102 77.002525367932776 0 0 0 0 -90.889798081319896 6.443203086372705 0 6.443203086372705 125.08730452938045 0 0 0 0 -81.321092862111982 54.586975958290168 0 54.586975958290168 16.84973983252803 0 0 0 0 -136.67258416830009 -81.333227720546802 0 -81.333227720546802 -4.7982761360326549 0 0 0 0 -169.28486206199159 76.86514370732084 0 76.86514370732084 62.001064628931999 0 0 0 0 -158.59754435113064 -12.344675324465925 0 -12.344675324465925 54.498074631153031 0 0 0 0 -145.70495522489364 -24.582333667338844 0 -24.582333667338844 26.31240119062133 0 0 0 0 -67.940367960072763 0.34109865413097396 0 0.34109865413097396 24.867336983505993 0 0 0 0 -91.856985729617008 33.432906023703595 0 33.432906023703595 22.915085372451358 0 0 0 0 -78.816909371627844 11.004206473599197 0 11.004206473599197 26.365905036976983 0 0 0 0 -100.11426354873402 15.058778739449508 0 15.058778739449508 20.866140970961169 0 0 0 0 -103.65710280614439 15.810337983657973 0 15.810337983657973 28.19311984216165 0 0 0 0 -129.23194416771003 0.64485532203298135 0 0.64485532203298135 19.407268933611817 0 0 0 0 -118.02450778884668 27.12600221948253 0 27.12600221948253 27.874680847555283 0 0 0 0 -137.91071371264115 10.649139462887433 0 10.649139462887433 8.8265072558124302 0 0 0 0 -245.59451653823635 -6.567038045252275 0 -6.567038045252275 18.503044551267521 0 0 0 0 -233.04355975298677 7.231005013372453 0 7.231005013372453 -263.56702044608301 0 0 0 0 -233.74692535764189 -48.077048052569467 0 -48.077048052569467 -25.353054771223015 0 0 0 0 -118.84217730508681 11.885819790679079 0 11.885819790679079 -80.986766178386347 0 0 0 0 -124.03876228538684 11.778997325759974 0 11.778997325759974 38.317410135472983 0 0 0 0 14.053501726804825 -96.057498057462055 0 -96.057498057462055 -63.411208317356937 0 0 0 0 -0.18523139789181187 -0.2279972224161213 0 -0.2279972224161213 8.2455001401384429 0 0 0 0 -6.3316790747849154 30.251260761429648 0 30.251260761429648 -16.926975490837322 0 0 0 0 56.375915313437872 -11.322063928687726 0 -11.322063928687726 -95.404995808063632 0 0 0 0 0.062262558391037004 0.14114968792290483 0 0.14114968792290483 2.2300161575639708 0 0 0 0 71.05465600570551 -31.703014966522481 0 -31.703014966522481 -75.567105947216078 0 0 0 0 -195.06150754995178 23.244905821293514 0 23.244905821293514 19.40871122324927 0 0 0 0 -271.5104548355921 -176.99233269638137 0 -176.99233269638137 -24.828847145554391 0 0 0 0 -184.1930861450528 -34.514355600716442 0 -34.514355600716442 -23.342478119152531 0 0 0 0 1.7130478369304782 -1.3458489764010722 0 -1.3458489764010722 16.784467073573708 0 0 0 0 -84.098138414141431 26.979248040275479 0 26.979248040275479 23.839692431436106 0 0 0 0 -120.0037273534208 -90.295913468537464 0 -90.295913468537464 -31.640779159343793 0 0 0 0 -314.17644163414661 -216.13249918191079 0 -216.13249918191079 -165.1617230502888 0 0 0 0 -296.86387376408675 -151.47433697663269 0 -151.47433697663269 -49.964631615699098 0 0 0 0 -415.16995623947878 -248.86091099720676 0 -248.86091099720676 -98.500548100597427 0 0 0 0 -468.2366386408612 -157.79851472828045 0 -157.79851472828045 -108.47227093406418 0 0 0 0 -411.85405942639773 -167.58886200303743 0 -167.58886200303743 -271.95546113448336 0 0 0 0 -410.2006391564355 -137.54080630658575 0 -137.54080630658575 -116.32733429775067 0 0 0 0 -405.85417417661665 -52.559926133744398 0 -52.559926133744398 -67.562182052921912 0 0 0 0 -275.34866874866202 -160.21954737202265 0 -160.21954737202265 -143.34791867689648 0 0 0 0 -187.33062339533353 -26.546603480808585 0 -26.546603480808585 -142.67885269125202 0 0 0 0 -413.67060153396233 -99.474414896644191 0 -99.474414896644191 -193.8090830441156 0 0 0 0 -672.77330205483304 -80.858063962713913 0 -80.858063962713913 -167.41969616511051 0 0 0 0 -580.86793372420652 -212.05290037805946 0 -212.05290037805946 -319.80615063612436 0 0 0 0 -564.85028261167463 -72.624434109048593 0 -72.624434109048593 -131.97671761153265 0 0 0 0 -898.44013785347488 -389.64196677850248 0 -389.64196677850248 -197.09388245991909 0 0 0 0 -637.50594281477242 -333.48570089760608 0 -333.48570089760608 -509.43637548608558 0 0 0 0 -828.47243398213323 -252.32431963172598 0 -252.32431963172598 13.83152426562674 0 0 0 0 -930.08227060195713 -95.424371903194924 0 -95.424371903194924 29.666090256386042 0 0 0 0 -594.94495508266846 -43.221860323558076 0 -43.221860323558076 -348.85974660005127 0 0 0 0 -710.97437492325116 31.933145356130581 0 31.933145356130581 -257.54192408573681 0 0 0 0 -563.53866091414238 -285.81781955080623 0 -285.81781955080623 -276.32119357292601 0 0 0 0 -995.73640415514092 -56.833303254084882 0 -56.833303254084882 31.559729998573147 0 0 0 0 -5494.4112213214285 2882.9211734140131 0 2882.9211734140131 -955.85983097135818 0 0 0 0 -107.48588146883412 104.75179522686972 0 104.75179522686972 -98.303877550808181 0 0 0 0 -52.689673313674575 -12.536022879306664 0 -12.536022879306664 -39.170230125313651 0 0 0 0 28.385969168448355 55.762603867400642 0 55.762603867400642 -107.06512246001347 0 0 0 0 -72.468117986190123 -32.415458099872247 0 -32.415458099872247 -13.141876640469393 0 0 0 0 6.2497063938717474 154.64422623290497 0 154.64422623290497 -548.599016430098 0 0 0 0 -5488.1083654718677 -724.18373789395537 0 -724.18373789395537 344.55070192147451 0 0 0 0 -23.597615316523218 -8.0325768456490749 0 -8.0325768456490749 -2.6622553292065763 0 0 0 0 -172.68068259180291 -1050.1897371077018 0 -1050.1897371077018 -407.63694195594519 0 0 0 0 -463.4771123860919 304.00730000980673 0 304.00730000980673 -27.152659609687817 0 0 0 0 -53.557181820207632 -25.648877689845335 0 -25.648877689845335 -4.25224061905271 0 0 0 0 -4114.8524301371217 1061.6369599042569 0 1061.6369599042569 -171.33897479362133 0 0 0 0 -4031.6697753419003 1697.9122256912465 0 1697.9122256912465 -721.33378801804031 0 0 0 0 -103.32666049092404 143.88362588462883 0 143.88362588462883 1.0442452158085871 0 0 0 0 -54.611205024295487 -137.49857341687357 0 -137.49857341687357 371.83918212121557 0 0 0 0 -120.9936771083303 120.85168895414233 0 120.85168895414233 -29.7571265515503 0 0 0 0 -163.28499009268126 59.269141332008275 0 59.269141332008275 -42.757530504588431 0 0 0 0 139.53987634935766 -354.75081193300616 0 -354.75081193300616 135.37348326861547 0 0 0 0 -162.51918741148256 72.4576703384746 0 72.4576703384746 160.17100350082137 0 0 0 0 -482.24921757228731 198.8779695553194 0 198.8779695553194 33.028088015502817 0 0 0 0 -489.46055448502011 -155.51602189914774 0 -155.51602189914774 -57.53899273084744 0 0 0 0 -4.7558085906522933 1.8254837310684593 0 1.8254837310684593 -3.7066610287620119 0 0 0 0 -311.89103064220399 -225.72098125054845 0 -225.72098125054845 -183.89205161890277 0 0 0 0 -20.247012393421755 -26.691889096525586 0 -26.691889096525586 -30.536732827941705 0 0 0 0 -30.628560279117664 23.817166594135415 0 23.817166594135415 -125.32326833123147 0 0 0 0 -37.279701072373427 22.79857983149941 0 22.79857983149941 -87.817003443876274 0 0 0 0 0.96312355006023154 0.32735826115153088 0 0.32735826115153088 -3.8532754580009332 0 0 0 0 -214.3398883913469 -150.18612728311905 0 -150.18612728311905 -103.85961426271069 0 0 0 0 -27.091441830393194 -1.2306795391736784 0 -1.2306795391736784 0.14215960290096863 0 0 0 0 -44.409673624570132 -10.152721628920972 0 -10.152721628920972 23.658713803062255 0 0 0 0 -27.248895282187732 -11.047138397894742 0 -11.047138397894742 -6.5858300471372786 0 0 0 0 -83.541200336283509 -52.193578061792664 0 -52.193578061792664 -39.545989189977718 0 0 0 0 -7.0973214485053404 -8.3975370980350306 0 -8.3975370980350306 -6.7826670788255985 0 0 0 0 -177.5421469376015 -44.250155157526933 0 -44.250155157526933 -18.209286324517279 0 0 0 0 -82.556712680017881 -59.940346673179619 0 -59.940346673179619 -46.823175156264369 0 0 0 0 -162.34927496462478 -21.995342475790494 0 -21.995342475790494 -11.133955442912224 0 0 0 0 -221.69219218591661 -27.915515851644599 0 -27.915515851644599 -0.19612561384383298 0 0 0 0 -10.880895253691762 -2.7114857105538022 0 -2.7114857105538022 -6.1166121633924035 0 0 0 0 -160.76276547976886 -10.843582375331607 0 -10.843582375331607 -12.325444170917763 0 0 0 0 -119.41176671581343 3.2545699797174166 0 3.2545699797174166 -25.917022299540577 0 0 0 0 -134.92977117994451 -21.248001595376309 0 -21.248001595376309 -17.547127819225352 0 0 0 0 -35.403692964406218 -1.3759144042091975 0 -1.3759144042091975 -8.0596903065597871 0 0 0 0 -24.242488787394251 -8.6551436821860079 0 -8.6551436821860079 -0.89434767831288298 0 0 0 0 -39.796020768248127 -9.3450999614174179 0 -9.3450999614174179 -13.264830669813591 0 0 0 0 -34.930960479471537 -3.1554385200679604 0 -3.1554385200679604 -3.5829594596548837 0 0 0 0 -44.323151860793587 -8.6787511968432227 0 -8.6787511968432227 6.0131791230260205 0 0 0 0 -36.987240569180244 -7.5914272948394341 0 -7.5914272948394341 -3.731227852780755 0 0 0 0 -44.756355750316288 -8.2217100264410874 0 -8.2217100264410874 7.6149316953797097 0 0 0 0 -49.886852114112116 -1.2404955611737023 0 -1.2404955611737023 0.7894900814662833 0 0 0 0 -52.517776020227757 2.9994999824327806 0 2.9994999824327806 1.8722588229975372 0 0 0 0 -15.231440323960612 7.5839773805872497 0 7.5839773805872497 2.3824148323071075 0 0 0 0 -148.68281673733145 36.762991909083212 0 36.762991909083212 27.953819322761774 0 0 0 0 -116.07766927871853 1.4786581299795216 0 1.4786581299795216 -27.439704759457527 0 0 0 0 -115.50163591712044 11.674713781971263 0 11.674713781971263 -44.698303795434185 0 0 0 0 -155.43545902290498 24.045493190182697 0 24.045493190182697 -21.31571491358045 0 0 0 0 -132.47877953201532 18.903908801994476 0 18.903908801994476 -29.45171380283864 0 0 0 0 -138.89398070488824 36.713474344699534 0 36.713474344699534 -45.555789515543438 0 0 0 0 -153.18252974195639 14.762413677537552 0 14.762413677537552 -21.599637866431294 0 0 0 0 -128.07632612012821 19.248218383987478 0 19.248218383987478 -30.848293853079667 0 0 0 0 -109.1833170727059 -72.578257096657069 0 -72.578257096657069 -29.718646020423876 0 0 0 0 -132.69956238787563 1.1269367620902813 0 1.1269367620902813 51.466212308326703 0 0 0 0 -80.095219915804932 7.2953579979258336 0 7.2953579979258336 2.0369736136130916 0 0 0 0 -119.84994110520347 54.052178711787747 0 54.052178711787747 31.401566297779937 0 0 0 0 -109.08527973930541 -71.782475621695767 0 -71.782475621695767 -17.962433752290963 0 0 0 0 -15.504538723100609 -5.2109922408684213 0 -5.2109922408684213 -1.353388305023028 0 0 0 0 -49.855103496534866 -20.48514548329149 0 -20.48514548329149 37.066562341969984 0 0 0 0 -55.353017875478542 -9.5770541983693676 0 -9.5770541983693676 -5.0342941770439325 0 0 0 0 -44.914798636455089 -9.2949866144917905 0 -9.2949866144917905 7.4693828051829314 0 0 0 0 -28.689044304934214 -12.198715461484426 0 -12.198715461484426 4.9619492804959009 0 0 0 0 -34.213409385054746 -16.082599983479014 0 -16.082599983479014 -3.1322853002813424 0 0 0 0 -45.198966851632576 -10.261969705870797 0 -10.261969705870797 5.4366158957427615 0 0 0 0 -51.689938968279932 -25.334853462322457 0 -25.334853462322457 -6.0885021881398931 0 0 0 0 -51.589748215050349 -4.6386225070112914 0 -4.6386225070112914 4.3229211400484928 0 0 0 0 -36.376359044181299 -26.79429871027105 0 -26.79429871027105 28.508031665302042 0 0 0 0 -54.865895809751237 -30.17316174721509 0 -30.17316174721509 58.857417268888639 0 0 0 0 -59.90054922598938 -19.312298763259605 0 -19.312298763259605 37.324049712252418 0 0 0 0 -367.83168634879985 -146.41186284004107 0 -146.41186284004107 -9.0559322067608718 0 0 0 0 -23.075397059805255 59.448042760534008 0 59.448042760534008 73.708890949467786 0 0 0 0 -1.4849347775981698 0.34706621480989952 0 0.34706621480989952 0.083471616507651447 0 0 0 0 -85.263786580937449 8.2822079722313617 0 8.2822079722313617 -37.584313687215968 0 0 0 0 -128.60674977891904 -45.632486941939987 0 -45.632486941939987 -7.7758783621431462 0 0 0 0 -213.76341302572109 20.864899254855629 0 20.864899254855629 -17.679791183824136 0 0 0 0 -95.789731479540933 -31.825808372763845 0 -31.825808372763845 -21.443577423199713 0 0 0 0 -70.807865511926479 -35.665245209059201 0 -35.665245209059201 -15.564572529580518 0 0 0 0 -45.237863616930554 -72.238252782791051 0 -72.238252782791051 -37.048956157191185 0 0 0 0 -47.781704509407632 -20.516446477269668 0 -20.516446477269668 -11.007868982248201 0 0 0 0 -11.725802263518318 1.7041251124386179 0 1.7041251124386179 3.8611609521720389 0 0 0 0 -26.509604163458789 -63.407849382341851 0 -63.407849382341851 56.90391148694016 0 0 0 0 -223.4811965298868 43.041397106082513 0 43.041397106082513 144.93613788096172 0 0 0 0 -236.77102579322673 262.08204077965502 0 262.08204077965502 114.05175378330205 0 0 0 0 1.9824018405306845 0.38897607214624941 0 0.38897607214624941 -0.50885231251688801 0 0 0 0 13.549400503528886 -25.278792770445762 0 -25.278792770445762 -202.58303168125167 0 0 0 0 -6.2548451687325723 -0.86292877856067207 0 -0.86292877856067207 32.613713786769949 0 0 0 0 -59.904995940130902 -34.4592578588381 0 -34.4592578588381 83.801606655613341 0 0 0 0 -30.121928172411572 -39.674237743195363 0 -39.674237743195363 -16.393947730105538 0 0 0 0 85.04058090102626 -105.77433216464783 0 -105.77433216464783 -47.262016309016872 0 0 0 0 -181.88101537704642 40.744072749987481 0 40.744072749987481 71.643569510263831 0 0 0 0 -94.133741811820073 -18.711112148764187 0 -18.711112148764187 42.899355820195524 0 0 0 0 -221.01926812401507 -22.622410474137268 0 -22.622410474137268 61.179293880775731 0 0 0 0 -135.30871295565157 -2.2018283257252733 0 -2.2018283257252733 37.728841339054725 0 0 0 0 -95.375959235752816 -15.122560148558023 0 -15.122560148558023 56.818928441464209 0 0 0 0 -60.068743763586099 -39.884444427821791 0 -39.884444427821791 42.308034404108184 0 0 0 0 -92.517027230423992 -23.836230829593205 0 -23.836230829593205 47.199864112403247 0 0 0 0 -92.828572491169325 -64.368418013767268 0 -64.368418013767268 -26.039843577680358 0 0 0 0 -135.5279248693696 -17.581674976557679 0 -17.581674976557679 5.4964182663043175 0 0 0 0 -93.444136365724262 -32.121593167299579 0 -32.121593167299579 8.5949180177503877 0 0 0 0 -172.53797684218443 -31.447382031504276 0 -31.447382031504276 14.791793355758273 0 0 0 0 -131.16240023873979 -17.977184264154175 0 -17.977184264154175 -24.287269136753366 0 0 0 0 -187.87131068606686 6.5915241685847832 0 6.5915241685847832 43.517247935928708 0 0 0 0 -182.60603653974249 -70.904883699610082 0 -70.904883699610082 -71.196628299272561 0 0 0 0 -193.34702651557018 -74.388834467066999 0 -74.388834467066999 -40.283854526868708 0 0 0 0 -194.82493181223981 -60.247122153691862 0 -60.247122153691862 -60.076209349460669 0 0 0 0 -134.53220877304921 -164.76411044772044 0 -164.76411044772044 -229.72467926561967 0 0 0 0 -126.56181302847108 -238.24934415474661 0 -238.24934415474661 -257.37233718876456 0 0 0 0 12.194419472230948 -194.36369718251149 0 -194.36369718251149 -243.99709891425175 0 0 0 0 -343.00502233603038 -155.33041146700452 0 -155.33041146700452 -118.99325906935246 0 0 0 0 -181.63170799883665 -58.229614313076127 0 -58.229614313076127 -85.44837745909922 0 0 0 0 14.94003201785381 38.950162408315578 0 38.950162408315578 -4.3161454158521337 0 0 0 0 20.6403825057223 -55.007408357442046 0 -55.007408357442046 -318.86040238298551 0 0 0 0 -12.257930022547953 -26.317422138913571 0 -26.317422138913571 -84.550512711025476 0 0 0 0 27.821031654219041 -175.91708187544066 0 -175.91708187544066 -361.61266235183894 0 0 0 0 119.8221295855983 -249.19256085742967 0 -249.19256085742967 -303.36220999588676 0 0 0 0 112.01541329358588 -308.93741115137698 0 -308.93741115137698 -759.84547332062721 0 0 0 0 -305.54220079413972 -326.03543747648666 0 -326.03543747648666 -1162.3949032325961 0 0 0 0 -466.88253115905536 96.133412369224288 0 96.133412369224288 -140.39155336473596 0 0 0 0 64.613019048963906 95.525245588112739 0 95.525245588112739 -609.32474394413703 0 0 0 0 0.55712262757862163 0.79140916239661863 0 0.79140916239661863 -1.5527480626660202 0 0 0 0 -190.4411180314637 54.737614424150252 0 54.737614424150252 -137.34631434743847 0 0 0 0 -306.85733947266272 -403.89847149090292 0 -403.89847149090292 615.73860898052135 0 0 0 0 -62.807411021563013 -29.337378952177183 0 -29.337378952177183 -12.474608384180483 0 0 0 0 -187.20162924204487 -104.36581693808421 0 -104.36581693808421 411.85458860383733 0 0 0 0 -107.77554034592686 211.87547398398146 0 211.87547398398146 86.362487616403087 0 0 0 0 -1115.1514289328043 429.63051885286382 0 429.63051885286382 71.19362400515918 0 0 0 0 -1026.6715728411073 -336.81132562902326 0 -336.81132562902326 68.446177303239054 0 0 0 0 -494.14684765148559 325.60204633472745 0 325.60204633472745 -98.356430759399188 0 0 0 0 -27.952455498814118 -12.395258288252364 0 -12.395258288252364 -8.355739326280851 0 0 0 0 -5492.4886293689051 1596.2750926878266 0 1596.2750926878266 -112.76844408780688 0 0 0 0 -862.02223549176415 -2452.9044211900841 0 -2452.9044211900841 -2537.9794025921433 0 0 0 0 -5486.740561322149 -2916.0785364817571 0 -2916.0785364817571 -307.50559188623384 0 0 0 0 -3037.0310501055574 -788.66728055767226 0 -788.66728055767226 -332.51551775745963 0 0 0 0 -3366.4080167919674 -1930.872582844529 0 -1930.872582844529 11.681387813173444 0 0 0 0 -5502.9556162690278 -1536.9560766214163 0 -1536.9560766214163 281.1282843533719 0 0 0 0 -5217.8320391507696 -903.93026513715017 0 -903.93026513715017 480.48135405934124 0 0 0 0 -4852.0994691328833 -1910.9250236644384 0 -1910.9250236644384 -1134.8656124719712 0 0 0 0 -5357.0165361907857 -787.70997647583511 0 -787.70997647583511 -1384.8573119665975 0 0 0 0 230.22793768656311 -575.51786286335755 0 -575.51786286335755 -299.73207479967016 0 0 0 0 -570.52143322648772 -255.26730869163049 0 -255.26730869163049 -274.64486143458225 0 0 0 0 -1399.8123109946464 -181.17845269182692 0 -181.17845269182692 -146.39521942991516 0 0 0 0 207.15245973184938 84.805789716472106 0 84.805789716472106 -489.44708936173544 0 0 0 0 -817.92027432545365 394.144356825155 0 394.144356825155 -435.08782579698538 0 0 0 0 -1818.1736980633723 906.62513870943667 0 906.62513870943667 957.58254425132714 0 0 0 0 -2429.9262517877505 -2291.9959194811668 0 -2291.9959194811668 -2134.3530861437639 0 0 0 0 -33.859912771789396 -4.638078275986631 0 -4.638078275986631 0.31396544222993028 0 0 0 0 317.84544306716452 408.46714846387522 0 408.46714846387522 -476.83632366917982 0 0 0 0 -708.69812419793743 -730.29177890715005 0 -730.29177890715005 -711.74285090203091 0 0 0 0 -66.172019263227412 -1438.1556311547622 0 -1438.1556311547622 -1903.4469029713546 0 0 0 0 -2707.1262573460408 -1368.8095123982382 0 -1368.8095123982382 -519.82974194729422 0 0 0 0 -2531.2076962493338 -1766.4463236228773 0 -1766.4463236228773 -515.86671900729755 0 0 0 0 -1418.0717888118161 -834.46329833332777 0 -834.46329833332777 -160.13935678140194 0 0 0 0 -3.3859950386617044 0.84044555806464416 0 0.84044555806464416 0.33719440109687371 0 0 0 0 -1399.8147123825911 -636.98822447771624 0 -636.98822447771624 -327.13560343770564 0 0 0 0 -1196.6605433460718 -413.40134249874484 0 -413.40134249874484 -117.98715390833615 0 0 0 0 -5498.4521682750856 -1080.3154546829965 0 -1080.3154546829965 -332.52437136652651 0 0 0 0 -4619.6952884240018 -2552.5257530759682 0 -2552.5257530759682 -976.03495357749375 0 0 0 0 -6043.5764544128979 -1005.5273984526843 0 -1005.5273984526843 -100.62950774269652 0 0 0 0 -4115.0735228207341 -835.03274243193664 0 -835.03274243193664 338.31757189392795 0 0 0 0 -4650.5678209873804 -1517.209195336244 0 -1517.209195336244 73.807842618268495 0 0 0 0 -5222.2584587022939 -562.30887460067811 0 -562.30887460067811 376.15885056414692 0 0 0 0 -5499.7934521656534 -857.72349537986315 0 -857.72349537986315 939.08275241905756 0 0 0 0 -4409.8334407858056 -346.77288405492703 0 -346.77288405492703 1113.7245594284216 0 0 0 0 -5499.4688171840135 -58.99313864460612 0 -58.99313864460612 1298.955391721182 0 0 0 0 -4404.2823605176654 -336.59949350210582 0 -336.59949350210582 771.03131091356374 0 0 0 0 -2920.5522343398188 -887.92633601945147 0 -887.92633601945147 282.89638181120085 0 0 0 0 -2924.2829902267549 -708.42791916190026 0 -708.42791916190026 201.84452576308468 0 0 0 0 -3.790213536168352 0.878883405857664 0 0.878883405857664 -0.099286203637407588 0 0 0 0 -1864.8409101152829 -256.39694496843777 0 -256.39694496843777 14.812871212129949 0 0 0 0 -2857.1822579322325 332.49777212316349 0 332.49777212316349 414.45672918620198 0 0 0 0 -2103.5280705818586 -390.98374599771216 0 -390.98374599771216 168.55124609638142 0 0 0 0 -873.62189704933553 229.06764994324749 0 229.06764994324749 -4.8975719324694182 0 0 0 0 -1918.3590197655139 373.35504571938526 0 373.35504571938526 247.60200593452373 0 0 0 0 -3387.1639937689251 903.94337625185676 0 903.94337625185676 313.00241165809462 0 0 0 0 -1944.8604474323147 135.50660835544716 0 135.50660835544716 404.73810184597988 0 0 0 0 -3946.3772325613172 387.61871977908521 0 387.61871977908521 1146.922942623384 0 0 0 0 -5498.3862423761529 1211.2223915759769 0 1211.2223915759769 1170.1882285531701 0 0 0 0 -4467.0161783667536 331.67786086838146 0 331.67786086838146 1165.602218155318 0 0 0 0 -3403.8216703328653 -258.27437431707995 0 -258.27437431707995 756.77193171450426 0 0 0 0 -129.22320465950907 -340.89553124991767 0 -340.89553124991767 146.41187898557951 0 0 0 0 -5.9755231034014713 -9.1163154783698417 0 -9.1163154783698417 -10.826215207281074 0 0 0 0 382.23169831520499 -473.96634759640324 0 -473.96634759640324 -56.991499725585982 0 0 0 0 47.88661748965751 -166.37785352655393 0 -166.37785352655393 58.624408271887773 0 0 0 0 -160.38277851112434 60.845773172270128 0 60.845773172270128 63.226269531750972 0 0 0 0 -295.00439310518414 -134.22690679564403 0 -134.22690679564403 139.81654802045466 0 0 0 0 -124.54590023697892 -1.5984900376791416 0 -1.5984900376791416 39.850345032214136 0 0 0 0 311.4525298925555 -10.980411201657191 0 -10.980411201657191 -153.46921610775962 0 0 0 0 -425.59359278195188 26.646167176832137 0 26.646167176832137 348.52638299672026 0 0 0 0 -383.5300641586 163.66209250692521 0 163.66209250692521 -153.25949069778881 0 0 0 0 -1334.0628182630207 -157.55095111822885 0 -157.55095111822885 142.71570666784783 0 0 0 0 -475.31798814974172 -33.702085907986429 0 -33.702085907986429 -213.23826238551146 0 0 0 0 -2.1313169835132584 0.55009417488032852 0 0.55009417488032852 -0.020357950442853934 0 0 0 0 -376.28086713214725 139.93446520413704 0 139.93446520413704 3.7482530553885454 0 0 0 0 -474.79390543751288 -25.922806138605779 0 -25.922806138605779 -269.03893579942928 0 0 0 0 -200.47998443618053 20.565264494453913 0 20.565264494453913 -261.16560124417674 0 0 0 0 -462.55696873849956 -236.26393598227685 0 -236.26393598227685 -249.55253290200289 0 0 0 0 -1010.900235287023 -370.80181795575345 0 -370.80181795575345 -145.71463686773109 0 0 0 0 -583.13248605123954 -24.546710135027979 0 -24.546710135027979 -195.68796114516772 0 0 0 0 -464.39096982109913 -154.92565315247907 0 -154.92565315247907 -286.68990403453381 0 0 0 0 -130.20350266092282 58.064380356330417 0 58.064380356330417 113.96933785964507 0 0 0 0 -117.30683997521555 -61.935027900847246 0 -61.935027900847246 -237.6452456317061 0 0 0 0 -187.6642856595281 136.18374685379763 0 136.18374685379763 -97.915871331073049 0 0 0 0 -88.304977146923193 -95.812762932446134 0 -95.812762932446134 -218.05254801274339 0 0 0 0 -5.0038856624730386 1.807226069588836 0 1.807226069588836 -5.1118753535403956 0 0 0 0 -42.989363687353034 10.268050779497003 0 10.268050779497003 -57.839283924256051 0 0 0 0 -22.040930299597676 161.65148502814037 0 161.65148502814037 -244.27520092041937 0 0 0 0 388.91382165100367 148.91722561998549 0 148.91722561998549 -311.48992144085969 0 0 0 0 336.58390892183252 -162.98285537445474 0 -162.98285537445474 -271.67084385087378 0 0 0 0 -1.9426808321267259 -3.4725185641690359 0 -3.4725185641690359 -5.6286076294501743 0 0 0 0 209.33667120605969 -154.69207208367419 0 -154.69207208367419 -213.69076122993204 0 0 0 0 304.27418100408977 -41.596670746152995 0 -41.596670746152995 -176.53620360453385 0 0 0 0 -19.864713413146092 -28.931822515527074 0 -28.931822515527074 -167.47677270941892 0 0 0 0 -66.08981178763861 -136.74643052882112 0 -136.74643052882112 382.94479405799939 0 0 0 0 -69.576960319425268 8.0491522909526818 0 8.0491522909526818 3.6781162190417143 0 0 0 0 -85.60073671983082 -55.321519068202704 0 -55.321519068202704 18.967620774511602 0 0 0 0 -151.51686191826593 -27.370182116746946 0 -27.370182116746946 7.2788101190835732 0 0 0 0 -152.5359984097031 -69.05738580908546 0 -69.05738580908546 -32.876642657243337 0 0 0 0 -115.31362149059714 11.763404167158455 0 11.763404167158455 -4.2395138434232535 0 0 0 0 -162.52663485647645 30.957892178866587 0 30.957892178866587 -9.0493496311358967 0 0 0 0 -119.45984013774432 69.8657349475248 0 69.8657349475248 71.295773497416917 0 0 0 0 -61.409089340959326 55.379697909594142 0 55.379697909594142 20.974680073572017 0 0 0 0 -63.455972742707104 8.7874618127088659 0 8.7874618127088659 1.9439600797197045 0 0 0 0 -116.58000320846622 42.648554422215 0 42.648554422215 -17.193764238344784 0 0 0 0 3.2930944523017729 3.3753708012842214 0 3.3753708012842214 -4.1403305322267645 0 0 0 0 22.759089831677557 36.897609552509635 0 36.897609552509635 -112.54401139272611 0 0 0 0 -138.80616432463285 44.842200285726904 0 44.842200285726904 53.695676223079204 0 0 0 0 6.1263879091921964 32.657581488313184 0 32.657581488313184 1.8631943880083752 0 0 0 0 -21.329565105763322 58.139944073679715 0 58.139944073679715 40.843110662173785 0 0 0 0 -74.104122167363812 -2.5348809095156533 0 -2.5348809095156533 3.4577902869980224 0 0 0 0 -47.335823848279688 140.30980207016489 0 140.30980207016489 190.11994579827956 0 0 0 0 -271.16985628660768 138.05202479495938 0 138.05202479495938 89.526645405830948 0 0 0 0 -164.15785951531143 122.03737194210453 0 122.03737194210453 -27.608172138100599 0 0 0 0 1.6097054990585207 8.0377809639453091 0 8.0377809639453091 -2.4308445574441833 0 0 0 0 -238.29559821994917 56.629411272300729 0 56.629411272300729 -26.221525388704777 0 0 0 0 -290.38651183812181 81.284358275536761 0 81.284358275536761 -9.5736389947178395 0 0 0 0 -408.98439098280505 83.325807817324517 0 83.325807817324517 19.973147131496944 0 0 0 0 -545.69965808991401 -164.17246236160247 0 -164.17246236160247 -43.067993372972524 0 0 0 0 -375.62349302547227 -145.04562607430807 0 -145.04562607430807 -48.034074710125424 0 0 0 0 -338.34454743523384 -55.934586316422838 0 -55.934586316422838 -33.744639614560583 0 0 0 0 -319.43151875626063 -76.766102860529372 0 -76.766102860529372 -12.86378040527859 0 0 0 0 -203.67312184399634 -19.446237495958599 0 -19.446237495958599 -24.637391630709772 0 0 0 0 -197.67375299765263 -57.779702719170473 0 -57.779702719170473 -29.53330163637338 0 0 0 0 -271.03910772441304 -94.963978871047459 0 -94.963978871047459 -44.787583685837944 0 0 0 0 -282.83488395542372 -101.98101602619272 0 -101.98101602619272 -30.786749639663299 0 0 0 0 -179.00947813448147 4.9032111969420384 0 4.9032111969420384 -21.724177573669067 0 0 0 0 -116.54901845614523 61.306166628945874 0 61.306166628945874 -59.487019995711307 0 0 0 0 -186.62679863005906 24.829893337812763 0 24.829893337812763 -25.994312254426404 0 0 0 0 -254.23964710213477 30.231777953958499 0 30.231777953958499 -19.805791954844608 0 0 0 0 -451.56040910471165 -218.92347621071397 0 -218.92347621071397 32.523167717806018 0 0 0 0 -147.05596456261992 -56.697339752174912 0 -56.697339752174912 -305.3574524854929 0 0 0 0 -239.53439720931055 -10.475386625229021 0 -10.475386625229021 -71.080199582008845 0 0 0 0 -19.846477715116634 26.764737401645903 0 26.764737401645903 -54.588010937248555 0 0 0 0 57.270524947947706 35.878358486830962 0 35.878358486830962 -298.72303777466641 0 0 0 0 -0.45262510865305217 -2.2134477977233242 0 -2.2134477977233242 0.53358080110311301 0 0 0 0 107.81735432316054 197.02087183814274 0 197.02087183814274 -27.974922080022736 0 0 0 0 -448.08691033093055 161.58562585794061 0 161.58562585794061 641.9951760139038 0 0 0 0 106.57182852998085 -75.068620940764049 0 -75.068620940764049 -61.70100709927533 0 0 0 0 -85.075530135560257 -351.53918497131752 0 -351.53918497131752 707.38283897032909 0 0 0 0 68.315317704469635 -196.38953604029797 0 -196.38953604029797 -207.90443767406367 0 0 0 0 -71.410390177810967 -6.7416750916112544 0 -6.7416750916112544 2.64496079191413 0 0 0 0 50.302307648034912 -234.01095466356176 0 -234.01095466356176 -117.74531311570479 0 0 0 0 46.941036917734891 -237.70783111194248 0 -237.70783111194248 -312.75818492660289 0 0 0 0 56.671342983507202 -122.80073676930647 0 -122.80073676930647 -229.153219522977 0 0 0 0 65.506469859203207 -178.72086036283912 0 -178.72086036283912 -216.95888883976056 0 0 0 0 -894.16578122190549 -82.276185681530478 0 -82.276185681530478 -41.891520807915072 0 0 0 0 -11.708970102436133 0.36601805139315502 0 0.36601805139315502 -4.7048711668851997 0 0 0 0 -691.33694685890805 -461.90005054612783 0 -461.90005054612783 -442.3255701676369 0 0 0 0 -368.63701954581484 -199.86190552600351 0 -199.86190552600351 -244.17976116012198 0 0 0 0 -334.27879384384141 -178.33274961719007 0 -178.33274961719007 -125.33176468822148 0 0 0 0 -605.07189316581071 -308.96778053827603 0 -308.96778053827603 -187.01449359692788 0 0 0 0 -436.6954560395825 138.16060875492667 0 138.16060875492667 -72.535062952065658 0 0 0 0 -623.78973001430859 12.09523654114264 0 12.09523654114264 -2.3597314713758806 0 0 0 0 33.27039517895173 28.901554094899069 0 28.901554094899069 -242.98657096711196 0 0 0 0 -113.61442755845201 -89.699055839263082 0 -89.699055839263082 174.65265023614785 0 0 0 0 -53.407964876543701 -308.0110768171412 0 -308.0110768171412 -429.82586949425308 0 0 0 0 -280.94144918243546 -386.62137775048245 0 -386.62137775048245 -294.52285667535375 0 0 0 0 -507.36573367653909 -33.832554251946988 0 -33.832554251946988 -206.16294347108828 0 0 0 0 -294.600325418578 -96.908698330433708 0 -96.908698330433708 -546.86883956816837 0 0 0 0 -193.40217314344773 -154.26230862100147 0 -154.26230862100147 -364.14445899035161 0 0 0 0 -305.20247397180356 -83.404906597156582 0 -83.404906597156582 -204.49390543446708 0 0 0 0 -358.61727331201837 -285.20007507901948 0 -285.20007507901948 -254.51014764557982 0 0 0 0 -292.93576215667417 -273.23886774761957 0 -273.23886774761957 -189.17687435300064 0 0 0 0 -246.50079909805208 -206.90633194100036 0 -206.90633194100036 -203.39604419644138 0 0 0 0 -121.85955239782925 -148.78821712007414 0 -148.78821712007414 -168.89323240247518 0 0 0 0 -206.75150752814079 -237.59226696527713 0 -237.59226696527713 -218.0438432082351 0 0 0 0 -113.95658437762336 -32.8493734480735 0 -32.8493734480735 14.096433166086172 0 0 0 0 -111.8037044556113 -82.518764905209423 0 -82.518764905209423 -239.83587480732126 0 0 0 0 -183.75833120170864 -98.674644658244091 0 -98.674644658244091 -165.26493249404552 0 0 0 0 -207.3392138352574 13.838715702442983 0 13.838715702442983 -81.323189922164147 0 0 0 0 -164.84963824390434 79.639938312824938 0 79.639938312824938 14.554262288812652 0 0 0 0 -143.28887945901806 -34.156031885336688 0 -34.156031885336688 -170.33349300961027 0 0 0 0 -197.68591279891371 92.943852612406118 0 92.943852612406118 -106.04730514084349 0 0 0 0 -45.189504498033784 -179.06814614100642 0 -179.06814614100642 -169.5625725968614 0 0 0 0 54.294556800276041 31.30438563559909 0 31.30438563559909 -155.805444760162 0 0 0 0 -148.1745943846181 -136.01461458359447 0 -136.01461458359447 -159.64487980409626 0 0 0 0 -190.02197009790507 -39.265621627070033 0 -39.265621627070033 -155.93915838056569 0 0 0 0 -288.73951948289323 -126.9440832742811 0 -126.9440832742811 -160.18003956385542 0 0 0 0 -267.22649041241675 -51.089902815487392 0 -51.089902815487392 -152.50243186313929 0 0 0 0 -245.75149388553837 -19.322653535913474 0 -19.322653535913474 -128.0709671958889 0 0 0 0 -344.07984386133467 -54.444198908777963 0 -54.444198908777963 -78.43818253853874 0 0 0 0 -308.24433014828537 -52.136111947532811 0 -52.136111947532811 -136.38055386145584 0 0 0 0 -242.39611922795302 -68.918842665575966 0 -68.918842665575966 -154.39051363388978 0 0 0 0 -300.67386282335792 -96.519157266432103 0 -96.519157266432103 -161.76433460198649 0 0 0 0 -330.31104157625668 -240.27849660625893 0 -240.27849660625893 -160.84621109792346 0 0 0 0 -402.3202726385789 -132.91211337222347 0 -132.91211337222347 -131.02882214893793 0 0 0 0 -261.76234411979385 -164.56989908752121 0 -164.56989908752121 -123.91390034438632 0 0 0 0 -90.903326462313998 -7.6310043266304888 0 -7.6310043266304888 67.097292910777895 0 0 0 0 -208.10385874309577 -183.98991139183659 0 -183.98991139183659 -82.688665923754328 0 0 0 0 -29.51820561508066 -22.574413761988666 0 -22.574413761988666 -99.37252567112084 0 0 0 0 -15.079357979350306 -1.7040543873060727 0 -1.7040543873060727 5.1123559656422426 0 0 0 0 -211.31885914693703 -174.08375053499265 0 -174.08375053499265 -93.332980938000958 0 0 0 0 -107.56262166494707 -108.52895385123725 0 -108.52895385123725 -72.08280363752533 0 0 0 0 -213.74047609703848 -168.35717555547359 0 -168.35717555547359 -124.17296209046845 0 0 0 0 -262.67775726545369 -216.72070281336357 0 -216.72070281336357 -98.082713865913377 0 0 0 0 -249.77280393602996 -229.83648153428319 0 -229.83648153428319 -136.68523582292528 0 0 0 0 -276.12515128018276 -171.85227204450007 0 -171.85227204450007 -67.451818037053499 0 0 0 0 -261.13685190947581 -173.58852160042881 0 -173.58852160042881 -97.457899642293796 0 0 0 0 -361.42187157405715 -193.44017119211389 0 -193.44017119211389 -108.49871118460715 0 0 0 0 -292.11523803102318 -195.19389065816222 0 -195.19389065816222 -109.59523508421944 0 0 0 0 -235.92532794910949 -221.22834499062293 0 -221.22834499062293 -147.04537332327584 0 0 0 0 -229.04789018491283 -197.67090990799647 0 -197.67090990799647 -139.41568663847511 0 0 0 0 -212.70535921689589 -188.53120697656163 0 -188.53120697656163 -177.93448173992346 0 0 0 0 -282.38799217571795 -184.98398728903555 0 -184.98398728903555 -136.52231615785877 0 0 0 0 -418.50501242188875 -138.28160253950509 0 -138.28160253950509 -153.64131931459724 0 0 0 0 -522.05061665513131 68.183131343327091 0 68.183131343327091 -437.89357397756248 0 0 0 0 -433.96651730545273 96.326462379274062 0 96.326462379274062 -140.42623515853825 0 0 0 0 -402.62780096710776 100.13046817892268 0 100.13046817892268 -154.26159792843021 0 0 0 0 -499.80855138727566 -16.005307434831934 0 -16.005307434831934 -210.17956305628491 0 0 0 0 -364.45692630279518 62.523768390139026 0 62.523768390139026 -149.50242694867609 0 0 0 0 -368.55319313755899 -27.867629392403387 0 -27.867629392403387 -265.46893653996028 0 0 0 0 -240.7493929520715 76.738905861250032 0 76.738905861250032 -141.46094711609828 0 0 0 0 -368.12239722091181 10.474356639883354 0 10.474356639883354 -49.007673923109678 0 0 0 0 -354.80886950184504 94.563625688944626 0 94.563625688944626 -76.894338639010925 0 0 0 0 -267.04029695696954 49.867386623238531 0 49.867386623238531 -114.44744289864457 0 0 0 0 -370.93226171999413 44.839933739362209 0 44.839933739362209 -74.997363180729735 0 0 0 0 -315.01815768545202 51.100500641641389 0 51.100500641641389 -114.4707436396618 0 0 0 0 -417.19148866509204 22.561756021383303 0 22.561756021383303 -62.452909850092055 0 0 0 0 -414.33364497654475 33.337341296639494 0 33.337341296639494 -44.518146345245214 0 0 0 0 -430.00947692613408 53.431240790846232 0 53.431240790846232 -22.461085491770035 0 0 0 0 -416.33698742529668 85.808847617842957 0 85.808847617842957 -37.651846876326545 0 0 0 0 -377.29618758262222 90.296247932257856 0 90.296247932257856 -59.89173327769231 0 0 0 0 -395.83028313666 115.35462424595221 0 115.35462424595221 -81.155050670418518 0 0 0 0 -410.87379196189431 77.670177524626808 0 77.670177524626808 -93.157141015330581 0 0 0 0 -368.55939510224198 93.043706646699917 0 93.043706646699917 -40.448029416865666 0 0 0 0 -353.1220633181656 122.87913757060267 0 122.87913757060267 -61.188528135357274 0 0 0 0 -419.10503383122341 106.60982116272335 0 106.60982116272335 -16.06172723498139 0 0 0 0 -523.93259232872515 75.465288586705014 0 75.465288586705014 69.727446798264793 0 0 0 0 -347.25376917315589 162.90922425091594 0 162.90922425091594 25.954321978389999 0 0 0 0 -291.38444977201652 79.376989318387132 0 79.376989318387132 -38.048974412287635 0 0 0 0 -93.265850328098168 179.16048021498329 0 179.16048021498329 -37.964531269263261 0 0 0 0 -82.188202541423379 -120.09061430351329 0 -120.09061430351329 -8.5688279258827151 0 0 0 0 -158.29938210218097 -86.264951779775288 0 -86.264951779775288 99.851849056597757 0 0 0 0 -92.929403376474511 -78.840502726432419 0 -78.840502726432419 -81.238620869516581 0 0 0 0 -320.77035847590014 -78.888324593412193 0 -78.888324593412193 -80.414459535764763 0 0 0 0 -498.13002001182031 36.03240873382947 0 36.03240873382947 -97.34800126254413 0 0 0 0 -256.01365356148744 18.995247393572868 0 18.995247393572868 -99.787292527169029 0 0 0 0 -12.910179759048333 -65.062640351548566 0 -65.062640351548566 155.44436643520385 0 0 0 0 -33.541750275664526 -47.067880827256204 0 -47.067880827256204 158.95781398288136 0 0 0 0 -27.566491900456299 -0.66453480055181302 0 -0.66453480055181302 3.2670535035347403 0 0 0 0 28.802578783717763 44.144850365551292 0 44.144850365551292 51.19608896125078 0 0 0 0 -116.01063185677049 -13.717445826279029 0 -13.717445826279029 28.2316163670367 0 0 0 0 -62.798317421402317 -39.341542529917547 0 -39.341542529917547 135.8402366048681 0 0 0 0 -6.8855782432977435 -0.10709095102195931 0 -0.10709095102195931 2.9499706185823764 0 0 0 0 -517.31302236903866 36.504331348663754 0 36.504331348663754 21.340814839717041 0 0 0 0 -3.7296886244609482 -4.0458966661305524 0 -4.0458966661305524 -0.54836218816171267 0 0 0 0 -226.38711469931877 202.34670947411701 0 202.34670947411701 -66.591339642011462 0 0 0 0 -12.841234890766842 -11.996288277796864 0 -11.996288277796864 -6.3731681673053959 0 0 0 0 -308.44227941953432 17.681675976133505 0 17.681675976133505 -44.619531686087043 0 0 0 0 -464.7766060312897 155.78513759502189 0 155.78513759502189 -37.426348297372641 0 0 0 0 -653.91591573701589 34.631707901921857 0 34.631707901921857 6.6956384993643834 0 0 0 0 -457.14701065197005 76.087473270273478 0 76.087473270273478 -60.237545739448137 0 0 0 0 -453.39130725446012 50.100423041123491 0 50.100423041123491 7.5471851805459664 0 0 0 0 -440.95015874001547 30.888239556078219 0 30.888239556078219 -58.505908108673907 0 0 0 0 -467.56411755128261 -81.793106162208773 0 -81.793106162208773 -84.437739072870272 0 0 0 0 -472.51246542662557 18.23835618840036 0 18.23835618840036 -35.240724187912662 0 0 0 0 -555.95887907545693 -42.89382332385199 0 -42.89382332385199 15.156884902244087 0 0 0 0 -1003.3729208485529 -47.325972751684468 0 -47.325972751684468 28.349414686708769 0 0 0 0 -4.0179145084945134 -4.0584198643765887 0 -4.0584198643765887 -2.9551892753536739 0 0 0 0 647.32337583120534 -678.97008646435916 0 -678.97008646435916 -149.80389538837696 0 0 0 0 -2331.8514945063216 -158.93423940415144 0 -158.93423940415144 -179.92226387370556 0 0 0 0 -680.29973561356746 115.17886475498912 0 115.17886475498912 -43.524167151076824 0 0 0 0 -716.87686445612781 168.5786339219282 0 168.5786339219282 -115.96786260172902 0 0 0 0 -8.9912480520181219 -10.028288490474438 0 -10.028288490474438 -5.7535668240380371 0 0 0 0 143.40715233723313 -288.23930770770812 0 -288.23930770770812 267.53263128951562 0 0 0 0 -73.267481013528595 -129.49654995238552 0 -129.49654995238552 286.56465630895093 0 0 0 0 225.87124919910275 -91.044704750237486 0 -91.044704750237486 98.217059731547806 0 0 0 0 -205.90351466788707 -72.010295942155409 0 -72.010295942155409 204.21023668171904 0 0 0 0 -77.25670850116876 -181.57400023442753 0 -181.57400023442753 112.22083479811604 0 0 0 0 -47.069765495987667 -113.71402217547006 0 -113.71402217547006 160.66268383145473 0 0 0 0 -75.598529164355568 -126.76452032705626 0 -126.76452032705626 220.74628058692338 0 0 0 0 -225.94315138313141 -219.66631657565426 0 -219.66631657565426 -130.70436219415637 0 0 0 0 -357.08222115130047 -17.396200704414468 0 -17.396200704414468 32.472927910893645 0 0 0 0 -346.47226153899828 -120.27851405818552 0 -120.27851405818552 10.700416113519957 0 0 0 0 -45.707278312898211 25.954894023925632 0 25.954894023925632 0.78944919596441121 0 0 0 0 28.386195603641681 -10.085287598103832 0 -10.085287598103832 -620.97900734566724 0 0 0 0 -187.26542898907792 -202.45840359026437 0 -202.45840359026437 -303.77167297931049 0 0 0 0 -546.17249479203019 -840.58371378726633 0 -840.58371378726633 -84.891083850267876 0 0 0 0 -166.45488097550697 85.132487454523101 0 85.132487454523101 -24.722156720172848 0 0 0 0 0.4304712969550053 6.5911811485739698 0 6.5911811485739698 -2.0923719862053431 0 0 0 0 -312.34315578324822 -78.305779088381257 0 -78.305779088381257 -185.19033326230749 0 0 0 0 -278.12217551704089 -164.13764375080899 0 -164.13764375080899 -189.52023069336036 0 0 0 0 -667.54101170014474 -196.32417219290892 0 -196.32417219290892 -21.283146366178613 0 0 0 0 -371.44081098543393 -138.35142555074685 0 -138.35142555074685 -51.439528056524608 0 0 0 0 -371.94091175332801 -155.30149942874095 0 -155.30149942874095 -89.905006299450292 0 0 0 0 -331.0501527715096 -200.13973499843615 0 -200.13973499843615 -40.812027116912404 0 0 0 0 -124.7960057728269 -56.446915138763984 0 -56.446915138763984 -72.996194077512456 0 0 0 0 -39.423375547508826 28.104265819630157 0 28.104265819630157 2.9256632994880523 0 0 0 0 -258.62723375426867 -244.02842961463932 0 -244.02842961463932 -144.14374588159166 0 0 0 0 -73.467418691310741 -10.35181671756061 0 -10.35181671756061 -195.03308905927966 0 0 0 0 -618.07009212822231 -358.11201739842181 0 -358.11201739842181 -145.13607400322587 0 0 0 0 -123.22293081993121 14.661475623447814 0 14.661475623447814 8.6926344814099821 0 0 0 0 -200.70228817700263 -21.617674424855636 0 -21.617674424855636 -6.6222300830323206 0 0 0 0 -179.1797430712395 -49.956304755271731 0 -49.956304755271731 10.213448005717055 0 0 0 0 -250.1781068284472 -55.293182321878504 0 -55.293182321878504 54.650109508155765 0 0 0 0 -210.488551392933 -80.159985748888857 0 -80.159985748888857 2.6057044383283312 0 0 0 0 -193.02617469368852 5.6249673682439152 0 5.6249673682439152 87.767977840563731 0 0 0 0 -249.07132114700653 -14.902700006058353 0 -14.902700006058353 -67.315657786065913 0 0 0 0 -411.6194458101163 -69.236784419922685 0 -69.236784419922685 27.753417858388275 0 0 0 0 -0.61356345780276911 0.1112154883673071 0 0.1112154883673071 0.41980449110479467 0 0 0 0 -355.0106223479379 76.255121221186585 0 76.255121221186585 -32.133357422367681 0 0 0 0 -115.26364277526591 24.450828134289281 0 24.450828134289281 2.2093825083593401 0 0 0 0 -111.47289487242233 -17.535611979380406 0 -17.535611979380406 9.0125423414202857 0 0 0 0 -138.38261588055775 19.843955434450216 0 19.843955434450216 7.1520045994465136 0 0 0 0 -136.37596579523779 0.0036124671653681162 0 0.0036124671653681162 4.8094096247398284 0 0 0 0 -107.61759695279034 -0.73089477256201008 0 -0.73089477256201008 4.0356943447479807 0 0 0 0 -39.576000512004086 25.476188744566002 0 25.476188744566002 6.4209335435918682 0 0 0 0 -77.798594980689813 5.7202964842638835 0 5.7202964842638835 -1.2563573559206134 0 0 0 0 -120.56757240668958 -2.8436970500775942 0 -2.8436970500775942 6.35555586862165 0 0 0 0 -120.85555736479455 5.5783769887483317 0 5.5783769887483317 10.258376350661592 0 0 0 0 -163.31787992966565 17.494032307372095 0 17.494032307372095 18.480381888227043 0 0 0 0 -114.45351921230758 15.424324942818444 0 15.424324942818444 10.568131320461816 0 0 0 0 -88.238937512185657 19.488978934101681 0 19.488978934101681 9.7091236444791775 0 0 0 0 -96.091573394282022 7.45088902393843 0 7.45088902393843 1.637002527569166 0 0 0 0 -96.060309079766739 5.9589675776032891 0 5.9589675776032891 15.115390299053843 0 0 0 0 -101.10133908659554 14.108152100168013 0 14.108152100168013 7.5223963087171342 0 0 0 0 -105.02248129530199 -0.91772713448960985 0 -0.91772713448960985 10.734362807132868 0 0 0 0 -75.141903424642805 10.793933099481592 0 10.793933099481592 10.33925792295463 0 0 0 0 -120.35572653967392 8.0226430485901119 0 8.0226430485901119 13.523526872067919 0 0 0 0 -122.82973803954974 22.409837078733609 0 22.409837078733609 -5.7709135838993006 0 0 0 0 -118.95399062542856 -0.34334691431718056 0 -0.34334691431718056 -0.56322015495157984 0 0 0 0 -100.62485570457648 28.765452611315482 0 28.765452611315482 -4.1704904709037862 0 0 0 0 -104.89110331024131 -4.9431665914269161 0 -4.9431665914269161 4.5898576634560584 0 0 0 0 1.8339305042784382 0.44051081049059349 0 0.44051081049059349 1.5762631184990807 0 0 0 0 -153.41037613414665 13.025014158303563 0 13.025014158303563 19.540884723221097 0 0 0 0 -374.96984403489569 7.9026210267776946 0 7.9026210267776946 14.558187899153609 0 0 0 0 -60.818344172794241 -3.2845203567846397 0 -3.2845203567846397 -14.955096125402179 0 0 0 0 1.350910975302213 -0.07262789330899011 0 -0.07262789330899011 0.16474369733177818 0 0 0 0 -202.63937668659491 -183.65934282224066 0 -183.65934282224066 -172.71142254068411 0 0 0 0 -156.61501547119406 -85.592816136455752 0 -85.592816136455752 39.160902816617821 0 0 0 0 -261.99618160775572 -204.35381103478599 0 -204.35381103478599 -38.594384281463952 0 0 0 0 -87.438357186287249 -258.7364456044603 0 -258.7364456044603 16.209570401313613 0 0 0 0 -84.590372599035618 -190.4388740716183 0 -190.4388740716183 -76.545316458656487 0 0 0 0 -245.8622357207496 -371.28630446464967 0 -371.28630446464967 -181.73144099070862 0 0 0 0 -296.95643965838826 -335.28789078701345 0 -335.28789078701345 -149.27118434869942 0 0 0 0 -533.34884393344691 -368.07511957419001 0 -368.07511957419001 -166.95493480004859 0 0 0 0 -863.56066974925488 -370.62452393518845 0 -370.62452393518845 -23.506447768866337 0 0 0 0 -509.92628224057262 -501.89921418383005 0 -501.89921418383005 -173.85429979127952 0 0 0 0 -494.25429964766954 -581.87812088162354 0 -581.87812088162354 55.777127817266432 0 0 0 0 60.97527848277241 -465.7456167555365 0 -465.7456167555365 -239.68862585130702 0 0 0 0 -419.80213200195431 -887.0206584323264 0 -887.0206584323264 -176.56415006482149 0 0 0 0 -1305.0292456146417 -807.61067273448225 0 -807.61067273448225 27.615075937660883 0 0 0 0 -120.58965563598031 -2.0311681324448045 0 -2.0311681324448045 -7.5573764141718129 0 0 0 0 -0.4389341975785257 -1.2247193373389678 0 -1.2247193373389678 -2.9034440223735043 0 0 0 0 -1885.6499463808505 -571.56931182528331 0 -571.56931182528331 -481.88868877623531 0 0 0 0 -1785.6695681914498 -163.81387821094629 0 -163.81387821094629 224.9046620586945 0 0 0 0 -777.42378145681869 -217.54148069700693 0 -217.54148069700693 126.50075472166014 0 0 0 0 -7.8447510636560764 -4.2209046310152587 0 -4.2209046310152587 -6.5317417329943268 0 0 0 0 -73.485142736295529 24.867132016123911 0 24.867132016123911 7.1489589295762244 0 0 0 0 -88.003323050470499 -6.3910932945318564 0 -6.3910932945318564 -7.1146415937254233 0 0 0 0 -33.882006636694143 23.711789323107183 0 23.711789323107183 11.766031275666631 0 0 0 0 -15.660447358027989 15.817592032678235 0 15.817592032678235 14.533670676178188 0 0 0 0 -76.290145571852918 6.9872118925625273 0 6.9872118925625273 13.496357558396909 0 0 0 0 -20.942490657283106 21.329663298307722 0 21.329663298307722 14.520637517984348 0 0 0 0 -51.127992127752805 18.893152036395577 0 18.893152036395577 9.3517022414032454 0 0 0 0 -49.744603024380012 15.434257800691455 0 15.434257800691455 14.968522063696582 0 0 0 0 -74.63468580548215 7.6746217346807271 0 7.6746217346807271 18.764131067554501 0 0 0 0 -37.697557404040708 43.069340057418913 0 43.069340057418913 -18.219471685791632 0 0 0 0 -9.3160691339307959 29.798296479278349 0 29.798296479278349 34.969126139088985 0 0 0 0 20.886899001561687 -1.6926291199656589 0 -1.6926291199656589 11.601853445708457 0 0 0 0 -2.5875315429508703 1.7275699993856506 0 1.7275699993856506 -1.2062758405960157 0 0 0 0 30.074511875529424 29.117572911337305 0 29.117572911337305 -111.92757948650069 0 0 0 0 -854.65110371103219 -319.04889015982235 0 -319.04889015982235 -213.75332178783765 0 0 0 0 -613.35523780732183 -356.20305687055998 0 -356.20305687055998 -217.55420150212922 0 0 0 0 -470.74075284911669 -308.42892845595088 0 -308.42892845595088 -209.25720097126305 0 0 0 0 -502.32917773912777 -294.45032567740964 0 -294.45032567740964 -137.78649681243019 0 0 0 0 -551.6443043705367 -303.82942140754051 0 -303.82942140754051 -138.46004226645755 0 0 0 0 -546.75331620052748 -332.15045868469372 0 -332.15045868469372 -166.33022048569228 0 0 0 0 -3.3411432335696531 6.0645809679751039 0 6.0645809679751039 -3.6807195566890156 0 0 0 0 -459.08615445236501 -271.88999346331161 0 -271.88999346331161 -171.45018348616941 0 0 0 0 -402.18890523264417 -337.83116045160762 0 -337.83116045160762 -186.22864130296284 0 0 0 0 -363.53299033674557 -223.97114620549829 0 -223.97114620549829 -251.83760032495979 0 0 0 0 -383.156717709644 -242.47007888624364 0 -242.47007888624364 -255.81054890228984 0 0 0 0 -492.25520496208628 -271.32396429489972 0 -271.32396429489972 -199.1401693499713 0 0 0 0 -560.26507012527873 -284.69759760575266 0 -284.69759760575266 -197.39345608564417 0 0 0 0 -668.42832948185969 -185.07373687120617 0 -185.07373687120617 -240.50244503962767 0 0 0 0 -844.88891365050222 -31.639913698745659 0 -31.639913698745659 -311.78227005033386 0 0 0 0 -491.08836809980858 -156.12095685969689 0 -156.12095685969689 -284.56440742388804 0 0 0 0 -315.35965472711541 -121.27502185996445 0 -121.27502185996445 -444.67623223760711 0 0 0 0 -449.57277819147203 -178.31340384451738 0 -178.31340384451738 -308.75972721099151 0 0 0 0 -489.59532267741088 -157.95122752257004 0 -157.95122752257004 -312.09366987931026 0 0 0 0 -336.82260268465325 -222.67026415059331 0 -222.67026415059331 -381.5805897756714 0 0 0 0 -293.40569904747099 -287.96606393354136 0 -287.96606393354136 -476.86786417809481 0 0 0 0 -273.46651743370967 -228.05181523571764 0 -228.05181523571764 -382.2739204739969 0 0 0 0 -286.62055274074282 -328.41742431151164 0 -328.41742431151164 -361.6210600546774 0 0 0 0 -353.74672682535311 -253.42503453379788 0 -253.42503453379788 -187.81211043807593 0 0 0 0 -353.55216902738903 -236.31822033030841 0 -236.31822033030841 -267.57377104755278 0 0 0 0 -286.62453489222753 -191.68742719037948 0 -191.68742719037948 -255.15769158224361 0 0 0 0 514.49060543060477 744.04308786125421 0 744.04308786125421 342.34268704181432 0 0 0 0 130.07565650744073 232.57916117180048 0 232.57916117180048 -337.63451772839272 0 0 0 0 783.14537818634199 -55.524709432418007 0 -55.524709432418007 -731.75934335456532 0 0 0 0 -120.96572755742454 -585.95249172125875 0 -585.95249172125875 -732.07984240640599 0 0 0 0 -114.36591160589887 -269.13318901549019 0 -269.13318901549019 -544.13142073406038 0 0 0 0 181.61633594195155 -160.23537663673096 0 -160.23537663673096 -504.77364446547199 0 0 0 0 -30.543674359534634 40.730994162753859 0 40.730994162753859 -337.4526553151627 0 0 0 0 -112.83125808025943 -31.670957725608332 0 -31.670957725608332 -378.55615416617775 0 0 0 0 -371.80997914873296 -140.57865767030808 0 -140.57865767030808 -422.41112472622444 0 0 0 0 -165.23311803969409 -31.748563191950524 0 -31.748563191950524 -377.39592496952991 0 0 0 0 -845.39968804945238 9.1943889077833774 0 9.1943889077833774 -144.17327118324238 0 0 0 0 -340.21310544636799 57.522501623033349 0 57.522501623033349 -495.53786182671138 0 0 0 0 -315.53401709714672 179.93218306627659 0 179.93218306627659 -116.91491218931606 0 0 0 0 -358.45306152066769 207.0172390277628 0 207.0172390277628 1.5390538156789262 0 0 0 0 -329.50357486467692 200.67760361346313 0 200.67760361346313 2.6459184971972718 0 0 0 0 -202.80446368682169 430.38159158201029 0 430.38159158201029 419.09646658838028 0 0 0 0 -15.342448389116292 55.419615143825133 0 55.419615143825133 -8.6651032830757053 0 0 0 0 -287.5431484479268 187.60750106899604 0 187.60750106899604 -12.320940590358987 0 0 0 0 -370.312775081984 219.37284079608435 0 219.37284079608435 116.5543994660747 0 0 0 0 -355.37269468867089 252.47060976065575 0 252.47060976065575 -68.175622154104531 0 0 0 0 23.62258835544344 100.2092926483283 0 100.2092926483283 -166.67341295689312 0 0 0 0 -485.84944891970372 335.41288660670193 0 335.41288660670193 -31.94396744389087 0 0 0 0 8.9856102371813904 107.58732397098686 0 107.58732397098686 62.804637056977299 0 0 0 0 111.79164237178338 147.47709590680006 0 147.47709590680006 -55.446389179923244 0 0 0 0 -20.806562730905625 21.735482088847032 0 21.735482088847032 8.6885136821501447 0 0 0 0 -81.688382597538293 7.7884971107151841 0 7.7884971107151841 31.859002515055067 0 0 0 0 -82.706433338495358 5.0791047383893648 0 5.0791047383893648 14.679834575208172 0 0 0 0 -547.3199801647097 -125.83452528266753 0 -125.83452528266753 267.71164620336094 0 0 0 0 130.03941025381573 212.31131899787124 0 212.31131899787124 -31.700160743888318 0 0 0 0 -559.02981811095378 161.06638619508021 0 161.06638619508021 -19.155022330174688 0 0 0 0 -11.635171485180599 0.010871224597039486 0 0.010871224597039486 8.1187130432917876 0 0 0 0 -575.76328965008543 113.72058903491904 0 113.72058903491904 -2.0196120399341453 0 0 0 0 101.47030986666687 106.08481033331827 0 106.08481033331827 -170.43005338337207 0 0 0 0 -11.520825499683269 -47.0604635272216 0 -47.0604635272216 -103.45643771858522 0 0 0 0 -17.80246552592871 -32.16230306995601 0 -32.16230306995601 45.744351501266529 0 0 0 0 -113.18752726004323 235.51979605535715 0 235.51979605535715 -141.04102894029347 0 0 0 0 -123.16857101347705 91.456888726304442 0 91.456888726304442 39.259338063862742 0 0 0 0 -364.76145321019794 367.302842752169 0 367.302842752169 79.767368754968629 0 0 0 0 21.088423369888915 91.690448341265778 0 91.690448341265778 -82.423177391403101 0 0 0 0 1.8579101410196159 7.5281313690239475 0 7.5281313690239475 1.1996646311661556 0 0 0 0 -24.293792179905722 -18.48187801065319 0 -18.48187801065319 74.393294124927252 0 0 0 0 198.83878338717614 254.14526777531745 0 254.14526777531745 -6.2849923437320285 0 0 0 0 4.8987860834837811 -1.8657303482985128 0 -1.8657303482985128 -5.7074576693081349 0 0 0 0 72.335323195618003 -81.373756294218708 0 -81.373756294218708 73.323666046381732 0 0 0 0 -17.34883887207252 128.76807335465492 0 128.76807335465492 48.113141366691139 0 0 0 0 -15.755667539379971 -0.84065554298923928 0 -0.84065554298923928 -3.575985834782724 0 0 0 0 -146.85237470275752 -6.3329402439208025 0 -6.3329402439208025 37.325287039019258 0 0 0 0 -27.372936575040377 44.322452302394566 0 44.322452302394566 31.814492201962889 0 0 0 0 -386.66698383458424 -45.472729202192568 0 -45.472729202192568 -1.5923537990427121 0 0 0 0 -464.48227637554373 -38.527541236394882 0 -38.527541236394882 17.793471359550722 0 0 0 0 -9.4327199963055897 50.860177349762296 0 50.860177349762296 12.23282868259847 0 0 0 0 -541.01691897615638 4.4954579383755799 0 4.4954579383755799 121.66305213874693 0 0 0 0 -471.17318932555645 14.699337621527775 0 14.699337621527775 25.618867927622432 0 0 0 0 -519.22934854461346 -31.566228748996309 0 -31.566228748996309 172.55830621065468 0 0 0 0 -430.02590320043964 -37.015009627665904 0 -37.015009627665904 76.677648669746304 0 0 0 0 -259.60530388291227 120.4432806647942 0 120.4432806647942 270.2013669709529 0 0 0 0 -451.04103283706354 19.219667651077543 0 19.219667651077543 536.91747168206348 0 0 0 0 -81.327444693357393 29.488336892184179 0 29.488336892184179 -41.93256143639519 0 0 0 0 -317.19144112709182 -71.39305512938904 0 -71.39305512938904 -26.234293232839036 0 0 0 0 -71.207858994827234 -52.218284604861083 0 -52.218284604861083 -11.892200565780012 0 0 0 0 -416.46959329099627 -84.998506835930129 0 -84.998506835930129 -13.495392373589311 0 0 0 0 -12.733430341990157 -15.109144375089326 0 -15.109144375089326 3.5851072435785394 0 0 0 0 -121.57002509717674 -6.6503316739064875 0 -6.6503316739064875 19.252006918211045 0 0 0 0 -190.84192340012123 -25.085122355329531 0 -25.085122355329531 2.631477285456242 0 0 0 0 59.748735312117788 487.69066462189949 0 487.69066462189949 377.91732860168577 0 0 0 0 16.570211084646871 -222.99950175044546 0 -222.99950175044546 539.9906531371098 0 0 0 0 -19.161468757680382 5.205555124862002 0 5.205555124862002 11.593469228014445 0 0 0 0 760.44174031783768 336.09274241436015 0 336.09274241436015 171.51400544407466 0 0 0 0 -217.07731915195109 298.53759935897529 0 298.53759935897529 1013.9673691894768 0 0 0 0 -80.242257211019023 0.71841971411504346 0 0.71841971411504346 -3.8783311494353256 0 0 0 0 -48.748418048522524 -3.1112631324935336 0 -3.1112631324935336 7.3172707285615033 0 0 0 0 -60.562522725616873 -12.984142338291122 0 -12.984142338291122 22.244970794634469 0 0 0 0 -18.272794412232365 11.467924488651722 0 11.467924488651722 -10.703813511648153 0 0 0 0 -78.893839027699869 2.8899086692009632 0 2.8899086692009632 -1.1502320768045138 0 0 0 0 -76.541276453046521 2.4935868907818985 0 2.4935868907818985 -5.6345832726838125 0 0 0 0 -67.07578620460886 10.315335915065074 0 10.315335915065074 -0.61387583395047574 0 0 0 0 -19.017809191607277 2.6771833834596777 0 2.6771833834596777 2.4070663974049893 0 0 0 0 -124.86146639968865 11.27184913786391 0 11.27184913786391 9.5205715238298581 0 0 0 0 -97.256400031033991 19.564946119217211 0 19.564946119217211 -3.0740471757192154 0 0 0 0 -11.040298463918027 -0.063894361255933063 0 -0.063894361255933063 0.81493506860836096 0 0 0 0 -78.359900423403815 2.590346401449608 0 2.590346401449608 -8.1080109268336855 0 0 0 0 -124.37187057413666 0.045453265448841762 0 0.045453265448841762 8.7642897084176639 0 0 0 0 -117.25556106588192 -5.5212889508712806 0 -5.5212889508712806 12.354809846583256 0 0 0 0 -115.1248482716328 6.7775180148041159 0 6.7775180148041159 12.140853058555194 0 0 0 0 -109.09726897955261 7.1884533441605072 0 7.1884533441605072 14.262106076341183 0 0 0 0 -99.35990278301324 8.9548042655169411 0 8.9548042655169411 20.78246826645011 0 0 0 0 -84.535158553095243 -0.56228085711745734 0 -0.56228085711745734 11.383336906660247 0 0 0 0 -90.992427383608955 -3.360482389137843 0 -3.360482389137843 14.438819193175318 0 0 0 0 32.521517670581488 -153.09433518504636 0 -153.09433518504636 84.307456994697532 0 0 0 0 -5.7340736414007552 29.74201803630649 0 29.74201803630649 28.783613758261254 0 0 0 0 -29.603692734613887 -19.22550740726939 0 -19.22550740726939 9.155053608118644 0 0 0 0 385.30264870036626 682.70342603636163 0 682.70342603636163 130.24402935721628 0 0 0 0 -68.840054379103705 -3.9664161244593057 0 -3.9664161244593057 2.5851787803957085 0 0 0 0 -119.02699621079228 -1.3246612621895224 0 -1.3246612621895224 2.7923924892611467 0 0 0 0 -186.07886153588606 -87.615033526280968 0 -87.615033526280968 158.47241852448678 0 0 0 0 -60.745923440910509 -9.7839455769531476 0 -9.7839455769531476 4.466400449215528 0 0 0 0 -177.83287060161456 60.491525617612297 0 60.491525617612297 70.180595811965304 0 0 0 0 -127.26918409351947 -43.035356219317919 0 -43.035356219317919 137.61321788549685 0 0 0 0 -369.83684028479547 62.369946100495895 0 62.369946100495895 -4.3315831151812745 0 0 0 0 -421.22366047549076 -84.796220743319168 0 -84.796220743319168 -13.364362625545709 0 0 0 0 -258.98097808237071 105.2173040910734 0 105.2173040910734 2.6536282799288529 0 0 0 0 7.9488114774736971 12.625620738668125 0 12.625620738668125 17.427477435261356 0 0 0 0 -172.13856629537258 0.93803922069560031 0 0.93803922069560031 -290.15627853402566 0 0 0 0 -39.495338866161546 53.675580569627982 0 53.675580569627982 -17.546344403150215 0 0 0 0 -177.99227362671081 -97.386164211097821 0 -97.386164211097821 -54.407464212109517 0 0 0 0 -45.049368873499589 48.573876679137356 0 48.573876679137356 31.752332837556423 0 0 0 0 1.5062462890409698 7.5759073937697412 0 7.5759073937697412 7.4219351132410409 0 0 0 0 -667.9856197244444 583.97791807679732 0 583.97791807679732 -68.406334676006736 0 0 0 0 0.079075974937113713 -1.2747839666505061 0 -1.2747839666505061 1.6692635787056211 0 0 0 0 479.04157619495527 -454.93998772599809 0 -454.93998772599809 907.3089728397108 0 0 0 0 -794.52195809501063 1778.400537433783 0 1778.400537433783 -2858.9840070298842 0 0 0 0 -1.7156893164543465 0.35431264562339848 0 0.35431264562339848 -0.73368549279860318 0 0 0 0 -16.767824791524003 -0.67428502969346837 0 -0.67428502969346837 4.9626035809725551 0 0 0 0 -264.87909255084378 -49.625742270167393 0 -49.625742270167393 164.7960352288801 0 0 0 0 -929.00256282053033 447.26626029136742 0 447.26626029136742 -139.9159801778751 0 0 0 0 783.57462390205387 -538.0843001693197 0 -538.0843001693197 380.59624843849178 0 0 0 0 -215.57498075251419 17.023569970667495 0 17.023569970667495 438.04659630032802 0 0 0 0 76.927204368432285 57.177582279240596 0 57.177582279240596 24.309534008083574 0 0 0 0 -54.427132406116442 -11.366687470174949 0 -11.366687470174949 0.67091070906018047 0 0 0 0 -76.68155521385961 1.7282473618724907 0 1.7282473618724907 -7.4738794278446221 0 0 0 0 431.19304532461911 -426.15206108742973 0 -426.15206108742973 27.653075790525691 0 0 0 0 199.90972760845852 -209.33639929809692 0 -209.33639929809692 276.6677319109458 0 0 0 0 114.41865939262789 -359.10385367937806 0 -359.10385367937806 164.67115255479803 0 0 0 0 167.82333765239673 -531.09312299819521 0 -531.09312299819521 718.44922116191628 0 0 0 0 803.22989279184276 -615.31556806787739 0 -615.31556806787739 -200.18021549185505 0 0 0 0 194.01055594298577 -130.93699082599323 0 -130.93699082599323 -111.71078162679953 0 0 0 0 18.543827964618686 -318.16155183655974 0 -318.16155183655974 187.06271546854259 0 0 0 0 -274.54000842674577 -151.57996991645905 0 -151.57996991645905 -208.69788015480208 0 0 0 0 -6.9165486863966237 -11.36417579708057 0 -11.36417579708057 -17.197088724550628 0 0 0 0 -531.07781775939293 -249.38101693236695 0 -249.38101693236695 -222.05216402727757 0 0 0 0 -361.11024337684557 -151.46924167491886 0 -151.46924167491886 -205.15802778354509 0 0 0 0 -446.93215293285539 -154.88321942803168 0 -154.88321942803168 -134.79798947591053 0 0 0 0 -357.84443134837056 -185.7285318139526 0 -185.7285318139526 -50.218010806032453 0 0 0 0 -717.42344920161304 -413.33396992044027 0 -413.33396992044027 -241.7099479093813 0 0 0 0 -490.36547459607937 -281.09045340618218 0 -281.09045340618218 -361.76807200203848 0 0 0 0 -735.57714307271908 -580.98075937605745 0 -580.98075937605745 -711.85164869745472 0 0 0 0 -578.96619338209712 -296.88851109871052 0 -296.88851109871052 -209.25383088808786 0 0 0 0 -402.39983961634061 66.667290059600191 0 66.667290059600191 -306.52069570914773 0 0 0 0 -551.0716501554889 -54.419079441785641 0 -54.419079441785641 -184.48291126838762 0 0 0 0 -363.24230199097656 -69.38233737930841 0 -69.38233737930841 106.45025600781537 0 0 0 0 -339.75894575686834 124.00755823871941 0 124.00755823871941 144.87210675869665 0 0 0 0 -431.2594205407222 39.265134015758576 0 39.265134015758576 -69.365864093448181 0 0 0 0 -390.60808684285348 -160.07910785959541 0 -160.07910785959541 -167.56323859650365 0 0 0 0 -339.97154701149702 66.963938564108503 0 66.963938564108503 -110.94522521589852 0 0 0 0 -247.8755321795179 101.90118605578346 0 101.90118605578346 -153.08181346723086 0 0 0 0 -253.97280286630485 214.84820815542412 0 214.84820815542412 -7.9273182712108792 0 0 0 0 -160.49790037302046 146.50329117118258 0 146.50329117118258 -49.578012732590651 0 0 0 0 -321.89135552599328 218.18590686468247 0 218.18590686468247 171.05835333142966 0 0 0 0 -261.75667858019733 114.11440309335887 0 114.11440309335887 78.628542471823039 0 0 0 0 -317.62709153333344 214.60635451244366 0 214.60635451244366 -71.355300108388519 0 0 0 0 -407.95765381781894 31.103893169237153 0 31.103893169237153 -43.756531828012612 0 0 0 0 -511.50535980035966 160.43590028727579 0 160.43590028727579 -201.42493955606665 0 0 0 0 -104.52350199707507 151.7866511464772 0 151.7866511464772 -46.066185876560482 0 0 0 0 -229.1066779718534 72.900546204581445 0 72.900546204581445 16.300622988013401 0 0 0 0 -228.36508835964923 38.978152921360561 0 38.978152921360561 4.5839002862244342 0 0 0 0 -351.36342571405112 13.554666559672796 0 13.554666559672796 33.35089800211972 0 0 0 0 -98.817542824307395 12.385555170711648 0 12.385555170711648 0.56873597295223788 0 0 0 0 -417.10176989719912 51.702739172503613 0 51.702739172503613 43.459922927793286 0 0 0 0 -422.77747701039152 -49.032770849408678 0 -49.032770849408678 -408.76767024690048 0 0 0 0 25.401390302542495 -93.57379762862098 0 -93.57379762862098 -188.37831154445121 0 0 0 0 -404.54470977123856 -166.69566680445405 0 -166.69566680445405 -132.22043928109497 0 0 0 0 -208.76164838690966 -97.753677180420397 0 -97.753677180420397 -86.006099042923779 0 0 0 0 -223.81932361055715 -217.27525303485379 0 -217.27525303485379 -208.15952869734065 0 0 0 0 -294.15370628661185 -200.01182621486896 0 -200.01182621486896 -246.8434581240931 0 0 0 0 -312.35158168268754 -215.7673255603122 0 -215.7673255603122 -158.69317996768086 0 0 0 0 -285.65311208707135 -188.3798959893544 0 -188.3798959893544 -308.38887110156429 0 0 0 0 -329.76398508722195 -89.618222276543293 0 -89.618222276543293 -294.19834064367319 0 0 0 0 173.59140041277351 -763.00522438343728 0 -763.00522438343728 -86.655061536162975 0 0 0 0 -18.861432199442117 -0.66442668406028105 0 -0.66442668406028105 8.1595195671173002 0 0 0 0 -344.38880373112625 1.3312633907587497 0 1.3312633907587497 193.81373944878806 0 0 0 0 -97.229241953859457 5.3065224633721026 0 5.3065224633721026 0.16673597842379273 0 0 0 0 -174.91123281519685 33.155562500224278 0 33.155562500224278 40.024892087132457 0 0 0 0 -422.66988210541513 -195.79966746366557 0 -195.79966746366557 103.07289101144966 0 0 0 0 -330.54710697593509 -259.99361090439049 0 -259.99361090439049 -163.17385490113065 0 0 0 0 -392.47134734764768 -123.31999578718205 0 -123.31999578718205 23.998172101181808 0 0 0 0 -700.45876224853782 -303.51391089007484 0 -303.51391089007484 -44.724532331519924 0 0 0 0 -296.81639155608718 -246.83135586874459 0 -246.83135586874459 -203.04925024394663 0 0 0 0 -372.1871238060412 -313.21642745723949 0 -313.21642745723949 -218.64640425180841 0 0 0 0 -327.25110752729415 -280.2427692415157 0 -280.2427692415157 -194.097606917132 0 0 0 0 -258.92566720975628 -241.83238820581687 0 -241.83238820581687 -218.97176939651399 0 0 0 0 -311.0112752817513 -203.75999263091262 0 -203.75999263091262 -72.330129561248839 0 0 0 0 -278.72108468136867 -306.03494204329894 0 -306.03494204329894 -285.06873742364792 0 0 0 0 -353.12987881616436 -391.21395523214926 0 -391.21395523214926 -301.01616526964358 0 0 0 0 -225.03663665267231 -391.60468772896013 0 -391.60468772896013 -410.86897726600193 0 0 0 0 -1205.9294278591296 -504.56461059324226 0 -504.56461059324226 -278.9552212811231 0 0 0 0 -367.65746730360479 -315.89568886599091 0 -315.89568886599091 -236.61625527168917 0 0 0 0 -596.09953023208982 153.62917282097095 0 153.62917282097095 -710.38648252961093 0 0 0 0 -1259.3112874839217 -334.93519203102528 0 -334.93519203102528 -85.313075615204525 0 0 0 0 -812.12074768919956 -220.43884858243655 0 -220.43884858243655 -68.46110057001323 0 0 0 0 -51.681997859077455 -266.17397949977948 0 -266.17397949977948 -842.68264873018302 0 0 0 0 -5.0635921557256722 -3.6080458027698601 0 -3.6080458027698601 -3.1766944022745029 0 0 0 0 -71.158415640297449 -53.099605704303826 0 -53.099605704303826 -164.73162993441639 0 0 0 0 -14.340370379803947 0.43467241909431031 0 0.43467241909431031 1.2889687014960145 0 0 0 0 -17.376623228698008 8.1520050136434747 0 8.1520050136434747 -0.32929867659748879 0 0 0 0 -15.056896432294252 6.259846084764777 0 6.259846084764777 -3.8846762068842633 0 0 0 0 -32.994703695772841 -4.2878585350410958 0 -4.2878585350410958 2.1045412787930218 0 0 0 0 -10.382230670728859 -0.76586726358490864 0 -0.76586726358490864 -14.508168857642204 0 0 0 0 -255.55529151577821 -181.70711775790079 0 -181.70711775790079 16.183129772749112 0 0 0 0 460.08486140914874 222.16939194594266 0 222.16939194594266 -238.61748529775269 0 0 0 0 -142.43661732768487 -342.10528923250246 0 -342.10528923250246 -176.62500212857026 0 0 0 0 -36.714342146591058 12.798503537184564 0 12.798503537184564 -1.2394476321568277 0 0 0 0 -12.525690888618556 -189.92847619302523 0 -189.92847619302523 -425.62899283016577 0 0 0 0 -255.60438879197318 -249.42341492704742 0 -249.42341492704742 -190.83139416617411 0 0 0 0 -16.738372627174943 4.1365730763759974 0 4.1365730763759974 1.14859798119701 0 0 0 0 -118.70561433366311 -8.4301736236050715 0 -8.4301736236050715 -80.970378859679556 0 0 0 0 -3873.5410406766841 -269.48111568392881 0 -269.48111568392881 433.72702664741871 0 0 0 0 -2671.6839423612118 451.56502611783844 0 451.56502611783844 -53.991080447648862 0 0 0 0 -646.11822293741534 541.7729105116648 0 541.7729105116648 -257.75335120923592 0 0 0 0 -3863.809980586459 -161.63517086926578 0 -161.63517086926578 420.91087204215347 0 0 0 0 -2326.1429299547863 -564.51951648051704 0 -564.51951648051704 -271.77934507548525 0 0 0 0 -736.37167501800559 522.50497746293763 0 522.50497746293763 -444.2631233082268 0 0 0 0 -700.73932914025499 118.47194651063927 0 118.47194651063927 -212.68939185106115 0 0 0 0 -3039.2256323455131 -2108.3614165643398 0 -2108.3614165643398 -553.85415215047055 0 0 0 0 -927.40968928943039 473.36231450049195 0 473.36231450049195 318.18096157749176 0 0 0 0 -5500.6629110053836 -646.99555985428003 0 -646.99555985428003 1045.0894057088688 0 0 0 0 -3368.424211178954 -1315.1439484232474 0 -1315.1439484232474 -99.365653919589192 0 0 0 0 -1116.7373746120757 1016.6587358979525 0 1016.6587358979525 -41.996811406095539 0 0 0 0 -4320.003479446048 -2515.1813987764399 0 -2515.1813987764399 -675.88423181290841 0 0 0 0 -20.588770594003609 3.9062460826577876 0 3.9062460826577876 -0.081978447412367705 0 0 0 0 -5920.7142376056036 -1242.3196706003082 0 -1242.3196706003082 97.16875836285756 0 0 0 0 391.11802367295422 -430.66301791285321 0 -430.66301791285321 -786.4380837771547 0 0 0 0 -1395.4084635860272 -608.64781001565871 0 -608.64781001565871 -797.53968744091515 0 0 0 0 387.34300384269227 -260.96492748318485 0 -260.96492748318485 -1520.2914623528541 0 0 0 0 -5502.409556517031 -339.02518281761479 0 -339.02518281761479 -1946.8632433456469 0 0 0 0 -2745.8645928731967 1024.1133726610085 0 1024.1133726610085 -41.842806283906711 0 0 0 0 -6672.145476348036 1125.6173506083162 0 1125.6173506083162 -514.5720092746692 0 0 0 0 -5653.6077922026834 -90.184452959924215 0 -90.184452959924215 242.7639157101232 0 0 0 0 -232.98142362872477 -241.81336773347124 0 -241.81336773347124 -415.53992029693086 0 0 0 0 -230.96385639377331 -266.59029374561044 0 -266.59029374561044 -285.04351133798355 0 0 0 0 -115.69174211575773 -296.16929229731039 0 -296.16929229731039 -395.60255197505887 0 0 0 0 -5.8782359870649756 -2.259162407950118 0 -2.259162407950118 1.042664117107531 0 0 0 0 -268.38886409521365 -300.23664605507003 0 -300.23664605507003 -390.85656746113023 0 0 0 0 335.20720952962802 -248.21248692008675 0 -248.21248692008675 155.65814515474216 0 0 0 0 -209.4393363468389 -156.0099962586454 0 -156.0099962586454 -574.60799968829076 0 0 0 0 232.72446762681648 0.66235941124818964 0 0.66235941124818964 -567.46640548075447 0 0 0 0 -97.329546726025882 16.501970712223226 0 16.501970712223226 0.77093033908805353 0 0 0 0 -252.38154438450874 -151.73562016232177 0 -151.73562016232177 -365.23946237282553 0 0 0 0 -218.77375746332291 -191.94520828332179 0 -191.94520828332179 -354.54950625786933 0 0 0 0 -242.78315955811922 -175.5784325342687 0 -175.5784325342687 -336.57182361342529 0 0 0 0 -284.9283687778443 5.6640628795737484 0 5.6640628795737484 -118.81536998259935 0 0 0 0 -323.5700981970449 -248.95349619485256 0 -248.95349619485256 442.37511828615879 0 0 0 0 -409.59877048306225 72.347155077217394 0 72.347155077217394 866.64934510957937 0 0 0 0 -77.864839409003025 15.013915184202716 0 15.013915184202716 -3.2270980947060584 0 0 0 0 -167.06147984214476 329.41286189181187 0 329.41286189181187 -149.65606452414295 0 0 0 0 -820.24765346003915 315.99735815149597 0 315.99735815149597 951.3881735937839 0 0 0 0 -1157.5934351534088 390.29798364869066 0 390.29798364869066 -93.347715976553715 0 0 0 0 -875.30819309636354 48.662938953622756 0 48.662938953622756 -121.89581983861126 0 0 0 0 -3104.002565458597 -1151.5196402154288 0 -1151.5196402154288 -892.23126284279886 0 0 0 0 -5501.1698460414427 1860.1220721345621 0 1860.1220721345621 -5058.5597592045096 0 0 0 0 -32.47295882330711 8.7602520419886236 0 8.7602520419886236 -4.1926889921282164 0 0 0 0 -41.941690452131297 321.05593718976047 0 321.05593718976047 -627.3189942959043 0 0 0 0 -1846.7539001024707 3129.2698941268832 0 3129.2698941268832 -3100.2660848952664 0 0 0 0 -1120.8029804476973 1621.820425659887 0 1621.820425659887 -1358.6543693736132 0 0 0 0 -3548.78901255659 2429.8646196833347 0 2429.8646196833347 -177.91555579213835 0 0 0 0 -5969.5935138789282 2793.5197279902159 0 2793.5197279902159 -216.47840645301184 0 0 0 0 -5499.3687233310084 2053.0383921524185 0 2053.0383921524185 730.75530160900223 0 0 0 0 -3196.8388202255683 1524.5345569820333 0 1524.5345569820333 60.248294562343972 0 0 0 0 -3455.3091250012294 1681.8945407788497 0 1681.8945407788497 13.523670848373172 0 0 0 0 -3964.2098867632831 1160.2782007543929 0 1160.2782007543929 1091.7614806957533 0 0 0 0 -654.30945144493307 246.60548579198036 0 246.60548579198036 -361.82021798481082 0 0 0 0 -1789.8135636828883 724.01827216364052 0 724.01827216364052 -197.02064574026696 0 0 0 0 -2159.1212433523178 586.28154312168499 0 586.28154312168499 302.65299083007085 0 0 0 0 -1115.2786557699546 71.52080750107865 0 71.52080750107865 133.34336103295163 0 0 0 0 -906.65105185710854 245.82958808366243 0 245.82958808366243 -7.4417106726614293 0 0 0 0 -820.02674528744319 -110.69848124388272 0 -110.69848124388272 120.15584354377916 0 0 0 0 -748.64899644610705 -143.19406736901487 0 -143.19406736901487 0.09460361776677928 0 0 0 0 -690.0433830999682 268.05290063175147 0 268.05290063175147 88.694520175695288 0 0 0 0 512.88188928009185 -472.33371292957224 0 -472.33371292957224 240.75653275751694 0 0 0 0 93.920554234944575 -382.42618835370331 0 -382.42618835370331 29.958512296130721 0 0 0 0 -6.7271622177731132 -9.1102435266681994 0 -9.1102435266681994 -8.6096303723549532 0 0 0 0 -52.142440584204451 184.37493783809441 0 184.37493783809441 -77.642885802872797 0 0 0 0 502.31355494972377 -391.30822044621675 0 -391.30822044621675 212.1012062879642 0 0 0 0 497.73787650576924 -180.04233124865215 0 -180.04233124865215 104.69443584437136 0 0 0 0 -2.7352463912103246 -1.870445607855288 0 -1.870445607855288 0.53744883160470236 0 0 0 0 -577.95146007477888 -11.040377854796816 0 -11.040377854796816 50.096711092086252 0 0 0 0 -692.78459323156858 215.82774703377467 0 215.82774703377467 3.1351484320955478 0 0 0 0 -422.52017535497725 132.41046029619122 0 132.41046029619122 -64.256632550353743 0 0 0 0 -431.81698419735039 18.452031857935594 0 18.452031857935594 39.632579202671536 0 0 0 0 -300.98833821061635 68.022888144980016 0 68.022888144980016 -30.207737049499201 0 0 0 0 -299.79482257983182 65.013932288024535 0 65.013932288024535 -22.625558055976626 0 0 0 0 -392.30293816835183 24.803395635934294 0 24.803395635934294 4.6213251259118806 0 0 0 0 -337.60202588215907 38.75366726219454 0 38.75366726219454 -10.866866821495364 0 0 0 0 -332.37472125183194 25.216289507092085 0 25.216289507092085 23.529222212299373 0 0 0 0 -225.22187017551551 84.220894100901148 0 84.220894100901148 -20.563520010495267 0 0 0 0 -23.107923797417811 0.15918289516057627 0 0.15918289516057627 5.4660071946256936 0 0 0 0 -121.97149224715395 6.093802700935953 0 6.093802700935953 6.3412881237245529 0 0 0 0 -130.88550072546786 40.951745251071316 0 40.951745251071316 -16.143515582816235 0 0 0 0 -330.17967036796836 -749.66857752923602 0 -749.66857752923602 198.67747895731918 0 0 0 0 6.9629955158184202 -625.94179610218328 0 -625.94179610218328 230.3660186332213 0 0 0 0 47.121978580355062 -111.25486139151121 0 -111.25486139151121 432.40742603148919 0 0 0 0 -755.27104525676987 -258.50153733928846 0 -258.50153733928846 405.38768216232654 0 0 0 0 -4.030371696157232 -4.0956517410086661 0 -4.0956517410086661 -2.1300257092252215 0 0 0 0 -4.0758287930523807 -5.3805169898142253 0 -5.3805169898142253 1.5292252482275988 0 0 0 0 470.60645846070838 -126.86130712202748 0 -126.86130712202748 118.78574214093169 0 0 0 0 -984.84306793892756 -578.24036544379317 0 -578.24036544379317 572.39628869302305 0 0 0 0 -1493.7732823960105 -269.10121397603314 0 -269.10121397603314 -204.74663923345997 0 0 0 0 -831.02123440603464 -729.11095951325819 0 -729.11095951325819 -824.81684453578339 0 0 0 0 -803.31418181983463 94.979998544028945 0 94.979998544028945 924.2859457791443 0 0 0 0 -848.36857774126111 -211.28618630199128 0 -211.28618630199128 -460.70997461146703 0 0 0 0 -575.1721522804437 -417.87751349591781 0 -417.87751349591781 -453.4906497262657 0 0 0 0 -463.702327722669 -477.60767438734138 0 -477.60767438734138 -335.39697536133656 0 0 0 0 -866.57226886371791 -485.73515921850594 0 -485.73515921850594 -323.26880521839144 0 0 0 0 -935.21172914405179 -843.88511671631363 0 -843.88511671631363 -41.980186154959483 0 0 0 0 -260.10332407187161 -679.6837311923 0 -679.6837311923 -20.139353476784891 0 0 0 0 -149.71532779534755 -74.350120356127263 0 -74.350120356127263 125.63020738781881 0 0 0 0 -727.46765044912172 -459.24411924987021 0 -459.24411924987021 139.20262363360689 0 0 0 0 -3600.8217749635696 72.906581002549501 0 72.906581002549501 2114.0487770678119 0 0 0 0 -1511.887797064679 -1354.0889281796524 0 -1354.0889281796524 2248.1123771777079 0 0 0 0 -61.650033641661139 696.02681367582227 0 696.02681367582227 -1952.495674561269 0 0 0 0 -118.13325642117289 33.669103300051276 0 33.669103300051276 20.497767551846174 0 0 0 0 -786.74182692210161 1152.803073582387 0 1152.803073582387 113.80446950755936 0 0 0 0 -536.5145999407614 -1702.8206355845393 0 -1702.8206355845393 -1.7493465632142033 0 0 0 0 -127.61449291802889 54.930912237605156 0 54.930912237605156 20.81998055906115 0 0 0 0 -1475.6468572032172 -21.073147571512891 0 -21.073147571512891 -459.42918643789477 0 0 0 0 -2864.5708360695389 677.53916190775499 0 677.53916190775499 1835.813003143126 0 0 0 0 -72.531761483978698 -173.54612303122204 0 -173.54612303122204 626.28288939851336 0 0 0 0 -3390.7303102195801 2621.3765029324159 0 2621.3765029324159 -500.9574362951688 0 0 0 0 -31.418781083879651 -12.217239831183008 0 -12.217239831183008 -10.2637703966197 0 0 0 0 -23.772948896914151 2.9284553244963121 0 2.9284553244963121 6.4544992206535436 0 0 0 0 -4890.6435823211432 437.16204975259279 0 437.16204975259279 351.19860449471548 0 0 0 0 -1988.5296632079262 -1163.4580581438208 0 -1163.4580581438208 -1819.7731915181082 0 0 0 0 -1777.1511657837182 761.39527274555257 0 761.39527274555257 -1848.3988732799876 0 0 0 0 -3432.8218919766996 407.21500188079239 0 407.21500188079239 165.87617221525466 0 0 0 0 -591.99699005652656 -871.90942024852882 0 -871.90942024852882 -411.1095440039187 0 0 0 0 -429.08940482630442 -62.400226662080556 0 -62.400226662080556 69.717715452189509 0 0 0 0 -2917.648209208448 -1923.2122436326449 0 -1923.2122436326449 46.639565411664876 0 0 0 0 -1337.8470795126204 -451.79294766522401 0 -451.79294766522401 -113.09759219648112 0 0 0 0 -1345.6538513285896 -489.15759769387171 0 -489.15759769387171 -64.507637867549533 0 0 0 0 -1885.9564895438707 -110.75148859741577 0 -110.75148859741577 -66.881756729109497 0 0 0 0 -2296.3938707939596 -791.35012907893542 0 -791.35012907893542 53.179056549521022 0 0 0 0 -1918.267663501465 -66.446081153171519 0 -66.446081153171519 -92.449180651540757 0 0 0 0 -1520.8859975404921 -252.07439648357592 0 -252.07439648357592 -14.058083158742534 0 0 0 0 -1413.7857389176061 -76.109314990987059 0 -76.109314990987059 -235.57799589839141 0 0 0 0 -1334.0662824582832 -101.07184950567614 0 -101.07184950567614 -231.2299516136809 0 0 0 0 -1531.1969951811334 137.84786136112439 0 137.84786136112439 -406.37630496068562 0 0 0 0 -1282.9903718261194 12.029798131440998 0 12.029798131440998 -464.63625373042714 0 0 0 0 -970.73359421388159 -165.86458090031238 0 -165.86458090031238 -460.40763729943023 0 0 0 0 -1205.8001174995661 93.273206299959611 0 93.273206299959611 -640.02866090391649 0 0 0 0 -761.76282007213013 -167.29437147805169 0 -167.29437147805169 -620.85267055500663 0 0 0 0 -1083.2536771857995 267.25057108083149 0 267.25057108083149 -1001.6708931797185 0 0 0 0 -1635.6633105868186 169.4263268225811 0 169.4263268225811 -501.45077769118097 0 0 0 0 -1035.4504399058642 -397.11023954790744 0 -397.11023954790744 -377.14619106035587 0 0 0 0 -891.87994356272247 -453.14716336535457 0 -453.14716336535457 -363.8882218995559 0 0 0 0 -666.63947259212728 -358.70024573788055 0 -358.70024573788055 -488.53079962999936 0 0 0 0 -969.90642899755039 -193.12171168560451 0 -193.12171168560451 -555.93266414937318 0 0 0 0 -904.17914195766934 -313.74975227952598 0 -313.74975227952598 -401.95032090598124 0 0 0 0 -1015.8864248906611 -237.90120956591716 0 -237.90120956591716 -443.53245279779389 0 0 0 0 -1076.5550972908168 -189.45593872931636 0 -189.45593872931636 -325.36438146998239 0 0 0 0 -1156.8273668252514 -54.57733589834595 0 -54.57733589834595 -480.50850654572019 0 0 0 0 -1101.3811297274515 -139.00575075913639 0 -139.00575075913639 -346.39486744506121 0 0 0 0 -1046.9074811776227 -226.89252689687629 0 -226.89252689687629 -216.19259739532276 0 0 0 0 -1007.2477212987433 -206.93760619135537 0 -206.93760619135537 -230.53559169637856 0 0 0 0 -988.76189169173449 -183.08922617411844 0 -183.08922617411844 -358.9419342054166 0 0 0 0 -966.85464645619504 -195.94709545612773 0 -195.94709545612773 -359.37783039757056 0 0 0 0 -977.97385801603377 -265.24721368605174 0 -265.24721368605174 -332.145844464682 0 0 0 0 -1349.1554136307823 -618.39313623238172 0 -618.39313623238172 -469.15404809997017 0 0 0 0 -950.53534256292187 -202.48361508985442 0 -202.48361508985442 -558.8189699760901 0 0 0 0 -1106.5412962773044 -185.41752080470144 0 -185.41752080470144 -159.89738270508656 0 0 0 0 -989.78852124102559 -189.55888948300003 0 -189.55888948300003 -300.78814755663961 0 0 0 0 -956.82126983204216 281.25713009320862 0 281.25713009320862 -47.7017325798505 0 0 0 0 -1592.3005180970904 117.7510142258304 0 117.7510142258304 -88.691390677850677 0 0 0 0 -4.0222003197589657 -6.3063428846906717 0 -6.3063428846906717 -9.4397349499470096 0 0 0 0 -313.00097748257394 -369.07488409311964 0 -369.07488409311964 -40.883793994849043 0 0 0 0 -12.134876439253276 -109.21903808101428 0 -109.21903808101428 -185.42390354979244 0 0 0 0 -1900.5152974082594 671.28938387846051 0 671.28938387846051 1387.8315664827328 0 0 0 0 -2622.610119674282 -361.17162526162986 0 -361.17162526162986 312.87867433069277 0 0 0 0 -2180.8242785383482 -115.23137500627217 0 -115.23137500627217 -15.805999805829288 0 0 0 0 -1029.3116124379339 -426.4864179493261 0 -426.4864179493261 -272.29585468478308 0 0 0 0 -1365.3316418347968 -455.90531963649164 0 -455.90531963649164 -85.98092121715581 0 0 0 0 -1366.534476857385 -473.53662877408397 0 -473.53662877408397 -245.79829188611143 0 0 0 0 -1015.2826921138349 -217.42820837432529 0 -217.42820837432529 -264.84700599683811 0 0 0 0 -1283.703757799507 -309.64033264879981 0 -309.64033264879981 -295.91874266264995 0 0 0 0 -1204.5819789046109 127.12201081364503 0 127.12201081364503 13.479046351994839 0 0 0 0 -462.35649285331601 108.25399514196306 0 108.25399514196306 -407.59967689922212 0 0 0 0 -431.70634847795009 -518.79329867913236 0 -518.79329867913236 -874.86413998372086 0 0 0 0 -62.059934873447418 40.669969557134166 0 40.669969557134166 27.003565929663662 0 0 0 0 83.670058633157169 139.0261389441672 0 139.0261389441672 -25.717751841450763 0 0 0 0 -69.167405783548929 -23.441485577795703 0 -23.441485577795703 5.0829179907991602 0 0 0 0 -104.2188670337564 -36.392159275947051 0 -36.392159275947051 19.013687313017272 0 0 0 0 -192.40343417885742 16.88548487068033 0 16.88548487068033 40.584351487498907 0 0 0 0 -182.76746269836985 63.807178286125691 0 63.807178286125691 2.1866534823893744 0 0 0 0 -142.46126995763916 39.768898353974464 0 39.768898353974464 2.062776943767858 0 0 0 0 -181.69896674948905 -58.654515831617402 0 -58.654515831617402 314.3490343685296 0 0 0 0 -4.6592226763813471 10.105946551184861 0 10.105946551184861 -5.0743654271372804 0 0 0 0 -192.38784665613457 77.494735478851453 0 77.494735478851453 -16.031046043519382 0 0 0 0 -129.26014850379579 152.47357315916452 0 152.47357315916452 -85.093371237173642 0 0 0 0 -2275.0269810625396 -1148.8929763942665 0 -1148.8929763942665 318.59067476158498 0 0 0 0 -2722.5821535026171 -1060.2875428002635 0 -1060.2875428002635 488.02197274842661 0 0 0 0 -1408.6670196113591 -1136.7280937609014 0 -1136.7280937609014 249.03646485865875 0 0 0 0 -1396.8346596280899 -632.36311393019309 0 -632.36311393019309 -85.129406373180245 0 0 0 0 -1402.9720846300056 -956.89340749088251 0 -956.89340749088251 163.18277436477319 0 0 0 0 -980.1196036471556 -661.05327727405074 0 -661.05327727405074 -175.34681873816771 0 0 0 0 -2226.2973350773973 -714.6140627523655 0 -714.6140627523655 113.73436760930099 0 0 0 0 2.5764714676042786 -73.200797853048698 0 -73.200797853048698 286.1478141922347 0 0 0 0 -25.104596615947521 1.9914785074482069 0 1.9914785074482069 17.967647315940248 0 0 0 0 210.7527893468141 669.64307111197388 0 669.64307111197388 449.6700396003439 0 0 0 0 -2297.3591077945707 -684.02416566540614 0 -684.02416566540614 -256.97768415647806 0 0 0 0 -73.193401244770058 74.519549931399368 0 74.519549931399368 -30.101381757491069 0 0 0 0 -1994.5886870031391 -439.35228950161581 0 -439.35228950161581 -746.49327335263479 0 0 0 0 -51.733798290695177 -1477.5606599890784 0 -1477.5606599890784 -1802.7058630457122 0 0 0 0 -115.27125106128447 25.647818183777293 0 25.647818183777293 12.938458819136269 0 0 0 0 -2111.827726875214 -667.63747657799649 0 -667.63747657799649 212.62540946268928 0 0 0 0 -1887.1773385101014 -826.99053876778635 0 -826.99053876778635 -366.89530296208613 0 0 0 0 -2006.5090534936749 -861.30709212756619 0 -861.30709212756619 -190.4019546463569 0 0 0 0 -1967.5965614820173 -670.75173620761416 0 -670.75173620761416 102.2863951158015 0 0 0 0 -2512.6982229682485 -537.27285672146172 0 -537.27285672146172 92.041471073625871 0 0 0 0 -2063.9975745547931 -950.05597747171123 0 -950.05597747171123 -166.92109848038672 0 0 0 0 -1251.5507957188365 -230.37519953901847 0 -230.37519953901847 228.22991926821123 0 0 0 0 -177.11861213618067 84.174936228383558 0 84.174936228383558 -67.941947108552995 0 0 0 0 -194.85222642235203 60.525483368804316 0 60.525483368804316 -28.71781385092072 0 0 0 0 -1660.4497573581648 143.82704267713962 0 143.82704267713962 -87.361353673913982 0 0 0 0 -214.63229620015045 83.498626792548748 0 83.498626792548748 -43.197343354157056 0 0 0 0 -79.195471730026924 79.825546312140659 0 79.825546312140659 -28.781573792792024 0 0 0 0 -266.16989545499291 11.430995108890784 0 11.430995108890784 52.339787916263958 0 0 0 0 -126.44345199231905 0.32105112392675039 0 0.32105112392675039 39.144358424659309 0 0 0 0 -196.54128437681902 105.91815971980759 0 105.91815971980759 -75.743149634274232 0 0 0 0 -32.664325989704523 1.7713635439080235 0 1.7713635439080235 21.172738407153474 0 0 0 0 140.23612469214913 1037.90819426085 0 1037.90819426085 253.39704079186777 0 0 0 0 -356.89379081399238 59.782368894160754 0 59.782368894160754 33.237972274209824 0 0 0 0 -826.09161124607817 -1180.2228892046442 0 -1180.2228892046442 -1.4699417685405933 0 0 0 0 -23.438175349286357 12.904172942656729 0 12.904172942656729 -1.2654761990781225 0 0 0 0 -2932.5921065151115 293.96582433775257 0 293.96582433775257 -38.825237766051941 0 0 0 0 -3960.080172602522 -1776.8806320549193 0 -1776.8806320549193 429.36413850889949 0 0 0 0 -3299.8421469004988 383.59629717293137 0 383.59629717293137 1175.5538341925148 0 0 0 0 -3310.1414788823286 -1024.108715913392 0 -1024.108715913392 1135.1408765623491 0 0 0 0 -124.44771828070952 -424.14097718550147 0 -424.14097718550147 -750.60138573522636 0 0 0 0 -888.11618194203584 -882.80005176570194 0 -882.80005176570194 -681.08347329551543 0 0 0 0 -2578.7344220988025 -852.8168411649167 0 -852.8168411649167 -128.65179694626204 0 0 0 0 -2789.9568686511116 -755.56710763506771 0 -755.56710763506771 -77.939596211450407 0 0 0 0 -2543.7642311841896 -591.16000476185582 0 -591.16000476185582 -592.85601653133926 0 0 0 0 -3282.4374661300772 -1229.9609579888081 0 -1229.9609579888081 -985.73253703146474 0 0 0 0 -2137.2597513060919 -462.12971335696238 0 -462.12971335696238 -174.17217920591065 0 0 0 0 -2521.0909811604706 -1864.2814653591413 0 -1864.2814653591413 -542.39612941718224 0 0 0 0 -900.4788524792632 -1142.9990328300264 0 -1142.9990328300264 -395.41462040068473 0 0 0 0 -267.181674141965 234.56916161575646 0 234.56916161575646 -91.988239901185807 0 0 0 0 -796.50293674528257 303.01542187003542 0 303.01542187003542 -148.96084391847762 0 0 0 0 -10.291267650040226 -6.4900364618631556 0 -6.4900364618631556 5.1611245882628367 0 0 0 0 228.86970145967052 165.67620636764696 0 165.67620636764696 -238.61751028047365 0 0 0 0 -32.748726571049176 16.663181599582053 0 16.663181599582053 -29.227643954557266 0 0 0 0 -79.304640704753609 65.689585950800392 0 65.689585950800392 -138.23809996624186 0 0 0 0 23.623768591649423 16.639440612270846 0 16.639440612270846 -366.7823602006174 0 0 0 0 -84.369218357657445 89.086832601994288 0 89.086832601994288 53.417558309316995 0 0 0 0 -45.478181171833057 -438.55810436451884 0 -438.55810436451884 555.05969488192818 0 0 0 0 437.73366201378849 -251.16362618828998 0 -251.16362618828998 215.62382854215775 0 0 0 0 -12.31126584900791 -3.1886504466522965 0 -3.1886504466522965 90.495894822620812 0 0 0 0 -258.45190903726052 -527.11395367061596 0 -527.11395367061596 193.26078332307225 0 0 0 0 -790.05788162277577 -474.5775776292744 0 -474.5775776292744 -983.05470118752783 0 0 0 0 28.834823772054733 373.14166178114829 0 373.14166178114829 -122.17826727940292 0 0 0 0 1519.4872547099692 -382.01031801105285 0 -382.01031801105285 -1010.8536135880568 0 0 0 0 1.9299175702064679 -8.1519529522307721 0 -8.1519529522307721 25.528732455232316 0 0 0 0 -1240.7422721197822 439.9979688849653 0 439.9979688849653 -986.33923621055874 0 0 0 0 -2374.4187817986358 356.9544221740357 0 356.9544221740357 -390.49684467749739 0 0 0 0 -1400.6789694246379 485.26258266237755 0 485.26258266237755 -487.04057933397416 0 0 0 0 -586.47406691830383 294.91765598161112 0 294.91765598161112 14.653992963508244 0 0 0 0 -1266.3286315954424 -127.59036446426126 0 -127.59036446426126 -208.46144308591761 0 0 0 0 -1263.5325392067675 683.52716146982834 0 683.52716146982834 -365.39278975920934 0 0 0 0 -1085.7533315702622 343.61744963082305 0 343.61744963082305 534.1176392825364 0 0 0 0 -844.80753809090857 514.92791556471252 0 514.92791556471252 -26.994753153267084 0 0 0 0 -1916.2248005820147 177.22015082789221 0 177.22015082789221 -37.900095301050897 0 0 0 0 -494.91323322922926 -252.90672650603847 0 -252.90672650603847 257.92950644857291 0 0 0 0 -118.76982266868893 91.022736999844824 0 91.022736999844824 48.71141828205797 0 0 0 0 78.905391802007671 131.29551682852974 0 131.29551682852974 511.52906462784586 0 0 0 0 261.4410692885649 191.05611365267396 0 191.05611365267396 -996.21582938372376 0 0 0 0 -641.13173885322203 -302.31022629901418 0 -302.31022629901418 1264.8613951340599 0 0 0 0 -1818.5444478814879 367.85350930668028 0 367.85350930668028 470.14234758338443 0 0 0 0 -137.72797203848131 -297.42760072652436 0 -297.42760072652436 342.01250325461274 0 0 0 0 -621.59270136384384 645.79912132252321 0 645.79912132252321 258.55759348537049 0 0 0 0 -1694.6712151574939 485.42694748668146 0 485.42694748668146 473.61223007621993 0 0 0 0 -2122.3273559663066 -208.02587854940793 0 -208.02587854940793 -118.84767721898652 0 0 0 0 -1824.3202382438176 480.50292697166083 0 480.50292697166083 343.60410590853002 0 0 0 0 -2022.5409167632315 207.05288280540117 0 207.05288280540117 242.36330531317162 0 0 0 0 -1783.6448176498209 810.74216574398406 0 810.74216574398406 54.549925913513562 0 0 0 0 -2621.3994800426044 904.56847865890268 0 904.56847865890268 425.17955099382652 0 0 0 0 -2.6597638407076154 -6.3133428924530364 0 -6.3133428924530364 5.7931228808414943 0 0 0 0 -195.48218792356965 227.02294384557172 0 227.02294384557172 39.231424330733716 0 0 0 0 -813.42129289216791 -48.616833651640661 0 -48.616833651640661 -78.156630166109608 0 0 0 0 -946.94751722331512 487.86088683535115 0 487.86088683535115 291.3478565603798 0 0 0 0 -1589.1613460427034 -43.862367490672113 0 -43.862367490672113 25.50614588908411 0 0 0 0 -1406.0005945699049 198.30126910842819 0 198.30126910842819 -81.93462128505962 0 0 0 0 -1259.3258073640609 3.8753863590236506 0 3.8753863590236506 -79.828287377579272 0 0 0 0 -1118.4182793295695 180.50584288808841 0 180.50584288808841 -536.82491724722058 0 0 0 0 -961.93843186466256 -105.46037733028879 0 -105.46037733028879 -419.47548451529292 0 0 0 0 -1164.1570920673621 -186.55834197750471 0 -186.55834197750471 -76.18942123089937 0 0 0 0 -631.97858352527692 -487.61372136824275 0 -487.61372136824275 -373.28825777757629 0 0 0 0 -711.97818700999778 -389.26748875363137 0 -389.26748875363137 40.350738390820425 0 0 0 0 -612.3821646443248 -249.37531072064121 0 -249.37531072064121 -86.414020490168355 0 0 0 0 -338.55315437168611 -483.97511649709543 0 -483.97511649709543 -375.60989661894229 0 0 0 0 -388.14476908179495 -272.84922001813351 0 -272.84922001813351 -226.1531882641375 0 0 0 0 -157.42713628424099 -190.14053409537206 0 -190.14053409537206 100.251370776665 0 0 0 0 -143.75233200465908 -44.448996077426415 0 -44.448996077426415 58.130429184069627 0 0 0 0 -584.25999549097105 -171.81442400727065 0 -171.81442400727065 -24.442494551247364 0 0 0 0 -301.4584342599137 -566.05866594197687 0 -566.05866594197687 113.29352147022701 0 0 0 0 -218.66050978863223 -285.41342756286008 0 -285.41342756286008 35.828030412198132 0 0 0 0 -476.7847236651105 -265.35250702616941 0 -265.35250702616941 175.95421655100745 0 0 0 0 -365.17022047264618 -34.545029806924504 0 -34.545029806924504 139.69203496653336 0 0 0 0 -914.09683087830126 -67.686283771469334 0 -67.686283771469334 141.58800350339425 0 0 0 0 -327.38914570955239 -391.24710687029619 0 -391.24710687029619 177.42546411204967 0 0 0 0 -172.49085185753029 -34.811422927857663 0 -34.811422927857663 73.487290621667526 0 0 0 0 -584.82658578460541 29.79968585876486 0 29.79968585876486 224.22191823437504 0 0 0 0 -615.5941883612395 11.529760432889816 0 11.529760432889816 -79.063935941077943 0 0 0 0 -300.45747819795361 -141.67936842277322 0 -141.67936842277322 -160.68290647992399 0 0 0 0 -720.09792468378146 -188.89014268612482 0 -188.89014268612482 -67.668983656894852 0 0 0 0 -829.6630386475008 -131.50404503853827 0 -131.50404503853827 69.209604250381091 0 0 0 0 -363.42693683544348 42.912335614597225 0 42.912335614597225 -226.80174957276779 0 0 0 0 -95.69131632055894 -20.142343775289611 0 -20.142343775289611 -6.0124178012311242 0 0 0 0 -439.94639895922774 -53.319283441057905 0 -53.319283441057905 -202.55096552333271 0 0 0 0 59.648157057552453 -282.85349754138861 0 -282.85349754138861 -60.517864237964659 0 0 0 0 -343.94604499390698 8.6950241999755349 0 8.6950241999755349 219.83236132593117 0 0 0 0 -55.938555890290019 -35.078314675690081 0 -35.078314675690081 5.3276055595196121 0 0 0 0 -181.98410824245039 -19.600719623223554 0 -19.600719623223554 65.268512156641151 0 0 0 0 -24.286243655744656 15.361471512495289 0 15.361471512495289 -4.5376958762227702 0 0 0 0 -109.82046324637241 10.791456853004583 0 10.791456853004583 28.228779233496127 0 0 0 0 -364.84236379997856 84.322584254452522 0 84.322584254452522 -26.563221623471236 0 0 0 0 -343.02466713477952 45.222993210693403 0 45.222993210693403 42.25982202648629 0 0 0 0 -464.16322837872031 111.40535756640452 0 111.40535756640452 14.747890814474886 0 0 0 0 284.71077108548343 754.19533868428948 0 754.19533868428948 91.372683848866473 0 0 0 0 -358.21530466640979 776.0054919835884 0 776.0054919835884 421.16459770200163 0 0 0 0 -660.23386097276671 -2.536628156367442 0 -2.536628156367442 690.34929074092543 0 0 0 0 -197.37018285100203 220.54238071630425 0 220.54238071630425 753.47125406222813 0 0 0 0 -754.42186351877172 36.158414885001093 0 36.158414885001093 261.75310292501854 0 0 0 0 -495.00525082026024 -128.18202543042997 0 -128.18202543042997 362.21168140133159 0 0 0 0 -1081.2788689728441 -890.56540272949701 0 -890.56540272949701 -117.35816213205453 0 0 0 0 -582.02299791774567 -699.07591003735524 0 -699.07591003735524 152.51432825786469 0 0 0 0 -796.08640825435577 -500.61601501578025 0 -500.61601501578025 136.66097480828103 0 0 0 0 -926.76855434237223 -566.68099272255495 0 -566.68099272255495 266.88977548850653 0 0 0 0 -475.17742445829208 -509.77259029753259 0 -509.77259029753259 111.34034639842866 0 0 0 0 -92.429792441762402 -504.66842109305617 0 -504.66842109305617 101.18429322269367 0 0 0 0 128.8073627213962 -581.92944524539053 0 -581.92944524539053 311.38042525797391 0 0 0 0 -22.37647063389467 -1.8993514972464283 0 -1.8993514972464283 5.4853574375642218 0 0 0 0 -1349.1832956042454 335.3032596550787 0 335.3032596550787 31.682582944078604 0 0 0 0 -560.32983441987017 -690.28750919063441 0 -690.28750919063441 308.01605951375132 0 0 0 0 -660.09138561749933 -144.54026539382812 0 -144.54026539382812 -106.09189737680026 0 0 0 0 17.325464773388376 -237.4997374901568 0 -237.4997374901568 -370.95605167679969 0 0 0 0 -1591.0222181391018 -784.77331642694503 0 -784.77331642694503 -82.559084529322718 0 0 0 0 -663.53528214062317 2.5022562253197975 0 2.5022562253197975 -219.06650247813013 0 0 0 0 -36.542502327918655 -130.80214077385205 0 -130.80214077385205 -64.15852704710403 0 0 0 0 -743.01860235308413 386.47478688469891 0 386.47478688469891 115.15325826651383 0 0 0 0 48.2347756949857 -8.6696917418576547 0 -8.6696917418576547 -41.335922140958502 0 0 0 0 -135.93995497896685 -34.203123355019898 0 -34.203123355019898 -178.90392084205996 0 0 0 0 -404.54126309700223 -308.43486824031288 0 -308.43486824031288 -209.50852988403858 0 0 0 0 -43.360523747306566 -27.923937973476409 0 -27.923937973476409 -97.122931638929828 0 0 0 0 -89.077253516254132 -108.24306744284331 0 -108.24306744284331 -91.940639095806546 0 0 0 0 -1288.2290493437613 -326.51633902646881 0 -326.51633902646881 198.68493447294532 0 0 0 0 -965.62653448316269 -50.860663284557631 0 -50.860663284557631 38.697748494527332 0 0 0 0 -45.085944006535556 -18.551162273856157 0 -18.551162273856157 -9.715550539762539 0 0 0 0 -30.016241972698058 -32.394488434736417 0 -32.394488434736417 -46.165394612428486 0 0 0 0 -96.914030918732351 -102.72977089505228 0 -102.72977089505228 -175.17384913474825 0 0 0 0 -293.26807911433571 37.714263000600113 0 37.714263000600113 -95.70747793139742 0 0 0 0 -114.12598423283634 73.877059934705983 0 73.877059934705983 -281.19181107065094 0 0 0 0 -28.277755002831757 -6.634586332899346 0 -6.634586332899346 -1.1856771605787193 0 0 0 0 -244.09387403133769 151.57118823866651 0 151.57118823866651 -290.9356016156778 0 0 0 0 -191.00175476580625 -125.60275545166871 0 -125.60275545166871 -105.79699905080224 0 0 0 0 -129.61601539782714 -378.45158685163472 0 -378.45158685163472 -760.36151267396951 0 0 0 0 -2518.6717510748713 -673.71974396240353 0 -673.71974396240353 4.1801989072046126 0 0 0 0 -16.796111600232933 -5.7158465328847754 0 -5.7158465328847754 -2.5455844675467829 0 0 0 0 -369.89493161853898 -849.57719039668984 0 -849.57719039668984 -1557.181495767368 0 0 0 0 -1353.0235554355677 595.96449685228345 0 595.96449685228345 -312.28545470403702 0 0 0 0 -484.92981051792594 -382.04027514545123 0 -382.04027514545123 -307.16254567623105 0 0 0 0 -491.23810449429584 -411.71998647523856 0 -411.71998647523856 -395.12722746639736 0 0 0 0 -1646.7148319712924 -1044.8829153283091 0 -1044.8829153283091 -596.71253313898319 0 0 0 0 -511.56423055696723 512.96778277828469 0 512.96778277828469 -1507.2952158565722 0 0 0 0 -291.40235707112151 -155.93411389646121 0 -155.93411389646121 488.53766274685739 0 0 0 0 -533.04793217227416 -162.08973235714092 0 -162.08973235714092 -172.55871094603958 0 0 0 0 -289.87982556025963 -110.3101543010045 0 -110.3101543010045 -167.81345878703857 0 0 0 0 -339.73499226111744 -232.21505055864782 0 -232.21505055864782 -312.97277241504275 0 0 0 0 -519.25253833936586 -366.19127214777183 0 -366.19127214777183 -313.58168445016781 0 0 0 0 -474.68292840169306 -284.11644662137485 0 -284.11644662137485 -329.35040192671204 0 0 0 0 -908.90494862735795 -123.22389544515275 0 -123.22389544515275 -151.80985463071761 0 0 0 0 -577.78990773208352 229.5223741738518 0 229.5223741738518 -253.87889891798784 0 0 0 0 -446.45676699272008 -53.440967020912453 0 -53.440967020912453 -121.91738137109436 0 0 0 0 -410.15239255155029 -59.28023931407148 0 -59.28023931407148 -144.55079678231363 0 0 0 0 -403.58252162214922 141.33053930024948 0 141.33053930024948 -196.90414771101484 0 0 0 0 -424.54340762408174 103.30312151194801 0 103.30312151194801 -78.607551612653737 0 0 0 0 -338.04823957452754 85.44180229141574 0 85.44180229141574 -224.47562528637866 0 0 0 0 -587.69985776085377 79.619246676170803 0 79.619246676170803 -114.49274612038039 0 0 0 0 -368.20646920988656 13.59842885472807 0 13.59842885472807 -292.53731706296139 0 0 0 0 -375.90829798300365 200.66215417660544 0 200.66215417660544 -65.933643572132723 0 0 0 0 -430.98000068489637 212.60949091471497 0 212.60949091471497 -50.351419389235289 0 0 0 0 -298.33503982519142 259.69785381858605 0 259.69785381858605 -34.328944465938946 0 0 0 0 -388.77825363021839 293.21477483968835 0 293.21477483968835 -37.52347421371519 0 0 0 0 -122.94352455910848 245.782754668661 0 245.782754668661 -79.337424906644983 0 0 0 0 -138.69640487431025 5.2190676675057546 0 5.2190676675057546 68.666511549874997 0 0 0 0 -260.75336668846285 139.64474650972443 0 139.64474650972443 -20.757069046104803 0 0 0 0 -246.99889508990691 117.74310395426191 0 117.74310395426191 -78.597204802192635 0 0 0 0 -423.22910614623834 -20.426966256342922 0 -20.426966256342922 -82.68319462925291 0 0 0 0 -235.67738875779469 -9.0658028954059944 0 -9.0658028954059944 -84.968741153087194 0 0 0 0 -260.41737394954879 -47.458480093216316 0 -47.458480093216316 28.055168780819997 0 0 0 0 -222.31783533075941 26.119184671800213 0 26.119184671800213 94.343381565450613 0 0 0 0 -313.17157250030141 -82.390048406546242 0 -82.390048406546242 44.388347976041615 0 0 0 0 -151.43922727370955 -104.92527735643074 0 -104.92527735643074 47.178013531247728 0 0 0 0 -374.35217411709164 -150.82459973008713 0 -150.82459973008713 -111.53145728462482 0 0 0 0 -219.0151199107604 -95.672971749402649 0 -95.672971749402649 -107.10316210413339 0 0 0 0 -452.87291634372014 84.061327693306666 0 84.061327693306666 180.61842175977313 0 0 0 0 -447.85265543686546 93.597997954556206 0 93.597997954556206 288.33874622063888 0 0 0 0 -97.16660912023508 -173.51653743562827 0 -173.51653743562827 275.42458879091487 0 0 0 0 -432.87051537209481 -355.29195565096154 0 -355.29195565096154 595.55363657449209 0 0 0 0 560.46986673255742 -600.26663691484305 0 -600.26663691484305 380.96277507193713 0 0 0 0 -277.73029772420705 -198.94640866939403 0 -198.94640866939403 418.73025672076108 0 0 0 0 -137.25176201248541 9.825780482420214 0 9.825780482420214 -12.02361483209711 0 0 0 0 -100.66752175548982 -24.809941583508937 0 -24.809941583508937 6.4328732096791068 0 0 0 0 -158.50580835569417 -252.83443178621275 0 -252.83443178621275 280.14943754476781 0 0 0 0 -65.346692322253006 25.0321219643943 0 25.0321219643943 -48.29083486174104 0 0 0 0 -95.240788915194571 -108.7474547198793 0 -108.7474547198793 151.65840477423933 0 0 0 0 -341.16120681218672 -28.94439155899056 0 -28.94439155899056 -12.246557618818656 0 0 0 0 -502.67799560407002 210.82120634051739 0 210.82120634051739 -47.685539323226038 0 0 0 0 -487.4090281092067 157.54068643678511 0 157.54068643678511 111.26538706262548 0 0 0 0 -448.29204998975911 103.3688837000693 0 103.3688837000693 213.56351477655329 0 0 0 0 -493.55933904130507 259.4441268237249 0 259.4441268237249 19.130918025567297 0 0 0 0 -387.65094887500163 302.66804842499329 0 302.66804842499329 4.9523984472118059 0 0 0 0 -451.09642826965865 276.64997068932155 0 276.64997068932155 22.924791371919071 0 0 0 0 -577.28539638657821 433.17216610188984 0 433.17216610188984 42.742796522041289 0 0 0 0 -626.15812016368 36.26448938203211 0 36.26448938203211 -138.34275697086611 0 0 0 0 -556.9244309727801 225.30777850897567 0 225.30777850897567 116.53081092811057 0 0 0 0 -546.96589424436343 -64.882337720763104 0 -64.882337720763104 93.922486784675016 0 0 0 0 -840.31255705410877 124.98077825001715 0 124.98077825001715 81.308856341076677 0 0 0 0 -704.65637186268577 63.771477672789786 0 63.771477672789786 17.26454091564753 0 0 0 0 -689.90693729479972 -464.96916739150311 0 -464.96916739150311 -373.60336935060201 0 0 0 0 -1051.498751991574 -256.7966781818414 0 -256.7966781818414 -255.91911693029647 0 0 0 0 -1286.8980635471253 -108.14213572333873 0 -108.14213572333873 -251.49605044562884 0 0 0 0 -1202.9054516502074 110.51413334575432 0 110.51413334575432 -491.53349221926482 0 0 0 0 -1132.5270009611268 -135.29949844350148 0 -135.29949844350148 -148.47732094252186 0 0 0 0 -988.43358843345777 -164.52705068018102 0 -164.52705068018102 -406.63027089880302 0 0 0 0 -1078.2768037366186 234.20600524937041 0 234.20600524937041 81.366057451946546 0 0 0 0 -249.06851250565614 604.80099317745726 0 604.80099317745726 27.575356482679638 0 0 0 0 -8.6774513395388908 0.79729299416210608 0 0.79729299416210608 0.11657528333334884 0 0 0 0 -1007.5027633184691 -516.9833382453769 0 -516.9833382453769 -491.34174294451145 0 0 0 0 -220.02510335510306 -143.35619345539914 0 -143.35619345539914 -439.94000514289087 0 0 0 0 -218.25016993838653 -373.95141034253265 0 -373.95141034253265 -366.57217500051718 0 0 0 0 -650.15359134192113 219.39270876010255 0 219.39270876010255 -191.08450012595904 0 0 0 0 -1272.3527495500748 115.48702494697812 0 115.48702494697812 -214.56036820261045 0 0 0 0 -640.96925684639427 201.54119344042999 0 201.54119344042999 -362.12378610556061 0 0 0 0 -1292.5843817179898 374.26063394637833 0 374.26063394637833 -452.12156144022288 0 0 0 0 -1142.754540811281 224.67264213443966 0 224.67264213443966 -348.15769980271796 0 0 0 0 -160.30343586078016 -78.282760350798696 0 -78.282760350798696 274.98947716350403 0 0 0 0 -135.35826025706046 -68.418126621195825 0 -68.418126621195825 176.97003726309015 0 0 0 0 -90.263623421218654 -49.17012028774991 0 -49.17012028774991 350.88390330501386 0 0 0 0 -88.14979831942037 11.421189833762924 0 11.421189833762924 226.64497529514597 0 0 0 0 24.052233502326999 47.851801526633039 0 47.851801526633039 219.44103291173923 0 0 0 0 -166.85248953892096 99.401227920111396 0 99.401227920111396 206.70162974191521 0 0 0 0 -40.400338326100609 40.404174772524357 0 40.404174772524357 130.23843580023026 0 0 0 0 -20.753582997059851 1.4705288770322262 0 1.4705288770322262 1.5360606556428853 0 0 0 0 -140.60115572133873 192.86807997914667 0 192.86807997914667 551.63926914375747 0 0 0 0 -181.86416058124814 -249.83035299020119 0 -249.83035299020119 -360.66029728134856 0 0 0 0 -198.4098752787977 -308.44260127063137 0 -308.44260127063137 -239.27181024776269 0 0 0 0 -118.65171961002488 -180.0567998096179 0 -180.0567998096179 -291.74262875053125 0 0 0 0 -126.79085080435061 -140.03621374307252 0 -140.03621374307252 -137.17613326563716 0 0 0 0 -25.626176242899135 0.68813034754449376 0 0.68813034754449376 2.9576507975722155 0 0 0 0 -105.67426125328348 73.194654838314932 0 73.194654838314932 448.60577528252463 0 0 0 0 -135.7307239098518 -176.99844215524598 0 -176.99844215524598 -169.32934810113733 0 0 0 0 -54.493203416051983 -41.500237648626353 0 -41.500237648626353 -29.030442307477529 0 0 0 0 -23.704319597301946 0.64907155794776372 0 0.64907155794776372 232.1312625858717 0 0 0 0 -417.82502185429621 -123.79883408093838 0 -123.79883408093838 -125.44624601992558 0 0 0 0 -310.20473228060291 -208.44735658889681 0 -208.44735658889681 -116.81857726564635 0 0 0 0 -308.50946816459327 -220.12424450978921 0 -220.12424450978921 -103.31755839597963 0 0 0 0 -239.77906519940007 -109.64657112147825 0 -109.64657112147825 -124.32197410861126 0 0 0 0 -204.20407568907649 -168.18752881033265 0 -168.18752881033265 -80.767332467665824 0 0 0 0 -235.01872688791627 -168.65422393624794 0 -168.65422393624794 -68.110167079239204 0 0 0 0 -169.20528963128891 -47.014009199888164 0 -47.014009199888164 14.959392222673387 0 0 0 0 -221.35627042781471 -265.76824606086905 0 -265.76824606086905 -144.45219576839008 0 0 0 0 -193.87532777561137 -232.03744291026442 0 -232.03744291026442 -106.9907860047889 0 0 0 0 -235.00378314965201 -260.08597096638641 0 -260.08597096638641 -146.769415623584 0 0 0 0 -274.94068896961471 -306.63716232791535 0 -306.63716232791535 -197.76469981531682 0 0 0 0 -212.95677379870176 -297.47152811822025 0 -297.47152811822025 -170.76757637718902 0 0 0 0 -189.51463969300676 -282.51237240722412 0 -282.51237240722412 -162.461396053101 0 0 0 0 -181.26954785910857 -267.81714384123296 0 -267.81714384123296 -169.60947690672015 0 0 0 0 -209.26990559928163 -242.24720538540765 0 -242.24720538540765 -145.76126626291625 0 0 0 0 -134.90638936541654 -216.52468171060116 0 -216.52468171060116 -149.21970749500861 0 0 0 0 -160.81230751563999 -227.15810527010899 0 -227.15810527010899 -136.8994281869559 0 0 0 0 -91.63169175117946 -147.68216319944599 0 -147.68216319944599 -125.16826276567804 0 0 0 0 61.948439696228888 -23.913562024685689 0 -23.913562024685689 -30.103086568462459 0 0 0 0 -173.56410217050143 -218.49359387891855 0 -218.49359387891855 -315.66310422828406 0 0 0 0 -4.2665161329415753 1.0027467911595664 0 1.0027467911595664 0.34287857208085271 0 0 0 0 -2.6074225835786251 2.0422027444548405 0 2.0422027444548405 -2.2309054494426128 0 0 0 0 -244.60205874121311 -276.36305780869452 0 -276.36305780869452 -196.3563720692016 0 0 0 0 -143.66047747249104 -270.29659605866368 0 -270.29659605866368 -206.74431313748437 0 0 0 0 -243.2517954319128 -261.2060971978097 0 -261.2060971978097 -262.21647213871597 0 0 0 0 -347.46639887559286 -328.55523157597713 0 -328.55523157597713 -204.35224847320512 0 0 0 0 -390.0500780711518 -324.80438490280312 0 -324.80438490280312 -285.38963772730858 0 0 0 0 17.836583645068458 -129.88729856560963 0 -129.88729856560963 -502.36144318797528 0 0 0 0 -524.05202771309996 -553.79271201207507 0 -553.79271201207507 -434.41267101316726 0 0 0 0 -849.82049645978987 -95.75561576244877 0 -95.75561576244877 -157.27234994472636 0 0 0 0 -443.74089314302546 -272.95934356972339 0 -272.95934356972339 -145.10069690937803 0 0 0 0 -1345.1717987569136 -505.80547025908572 0 -505.80547025908572 -455.70755314166672 0 0 0 0 -1721.1210769374411 16.23776014759801 0 16.23776014759801 -172.004139018449 0 0 0 0 -1333.5314680613592 374.15536670887298 0 374.15536670887298 -187.73433561817296 0 0 0 0 -780.38392855226994 -68.865676635954344 0 -68.865676635954344 -308.28389435671102 0 0 0 0 -766.87666407141296 29.063943099348592 0 29.063943099348592 88.179427188918453 0 0 0 0 -207.77358236462169 -227.26152277895426 0 -227.26152277895426 -115.73177027794654 0 0 0 0 -244.1236525547265 -281.4261637032846 0 -281.4261637032846 -121.30367135040774 0 0 0 0 -417.46219123010451 -168.68387926972423 0 -168.68387926972423 -41.922543293969511 0 0 0 0 0.69705851000246355 0.61313876347426799 0 0.61313876347426799 3.7822906938313046 0 0 0 0 404.632675455141 -334.42988699367959 0 -334.42988699367959 -296.76509585382075 0 0 0 0 -57.994895087511395 -41.233357779504786 0 -41.233357779504786 -44.888100601505357 0 0 0 0 -216.02411326581205 -88.451417093042352 0 -88.451417093042352 -10.662326647055579 0 0 0 0 -65.037843323948437 -3.4979991926578577 0 -3.4979991926578577 0.28080358551324025 0 0 0 0 -56.574479117844021 -31.559997806665933 0 -31.559997806665933 18.987935158549135 0 0 0 0 -90.406869479123998 -28.816380897395447 0 -28.816380897395447 15.701636493998649 0 0 0 0 -56.619405307981651 7.7219487111551643 0 7.7219487111551643 39.031167714045523 0 0 0 0 -5.7043122830425901 1.0664815842331734 0 1.0664815842331734 17.495698000417534 0 0 0 0 -4.5485002069264624 0.13825955978589377 0 0.13825955978589377 -0.4971486367135185 0 0 0 0 -1808.7375404411141 -500.78839111999196 0 -500.78839111999196 -135.59282469888376 0 0 0 0 -948.63037825079664 127.27884056037823 0 127.27884056037823 300.09560300085241 0 0 0 0 -13.921255850549642 -19.063995677427869 0 -19.063995677427869 86.034340467484753 0 0 0 0 -1919.2073875841961 -225.24050064941446 0 -225.24050064941446 167.68148908532663 0 0 0 0 -1880.7378388657162 -220.96933037683857 0 -220.96933037683857 164.02226194339823 0 0 0 0 -1933.1886850041701 -206.15295223006501 0 -206.15295223006501 173.42299930274112 0 0 0 0 -1929.0907878391663 -227.17044390516276 0 -227.17044390516276 280.66053083728912 0 0 0 0 -1877.6874624997581 -270.72929800349164 0 -270.72929800349164 168.74745738631265 0 0 0 0 -2050.0284367320019 118.49281123294458 0 118.49281123294458 206.36911927081019 0 0 0 0 -1274.7972165417159 50.078235451675482 0 50.078235451675482 172.20927822535486 0 0 0 0 -1913.1273203987585 -177.74781822689863 0 -177.74781822689863 70.745486425048625 0 0 0 0 -518.35214711591834 235.02573915078847 0 235.02573915078847 -189.05672294290753 0 0 0 0 -1052.3952938677176 418.65148606123665 0 418.65148606123665 61.551813982628673 0 0 0 0 -1017.8124431495116 290.02639718509931 0 290.02639718509931 -170.14991817271061 0 0 0 0 -178.14964507085824 274.95641813822306 0 274.95641813822306 -470.76303971380423 0 0 0 0 -378.42252289468161 -68.136497403813337 0 -68.136497403813337 -78.194918489170959 0 0 0 0 -721.98527071210719 1198.1881191163748 0 1198.1881191163748 -948.54756346789236 0 0 0 0 -2409.9224084194866 -1533.9953834476228 0 -1533.9953834476228 -463.3736563059839 0 0 0 0 -25.67736771595537 3.3437667533730639 0 3.3437667533730639 -1.2850921530588051 0 0 0 0 -65.245099368651495 7.6935993514201968 0 7.6935993514201968 -0.34648914300019307 0 0 0 0 -373.44037670378748 -267.97473494681162 0 -267.97473494681162 454.50944999055855 0 0 0 0 -290.71114510777988 210.26862531504821 0 210.26862531504821 354.95260679042576 0 0 0 0 -2773.7312192504396 -772.94539069419375 0 -772.94539069419375 -319.55578598231727 0 0 0 0 -2896.1181528454545 613.64228630558705 0 613.64228630558705 94.930354103016384 0 0 0 0 -1856.9176582147556 486.50586506062371 0 486.50586506062371 -1622.4515848548222 0 0 0 0 -1965.5623638142897 110.29951590275817 0 110.29951590275817 -45.202782834632785 0 0 0 0 -2065.8684166836356 -355.84808027906718 0 -355.84808027906718 125.84426452870252 0 0 0 0 -3250.9621829208627 251.99051649713977 0 251.99051649713977 179.22600290809623 0 0 0 0 -1828.6033718349136 -115.98338486053302 0 -115.98338486053302 231.56423684280253 0 0 0 0 -491.46782410526794 -489.18330360028318 0 -489.18330360028318 -300.74885723746752 0 0 0 0 -558.07478398966396 -21.384022810723224 0 -21.384022810723224 141.69554158303163 0 0 0 0 -580.21164599131589 -396.24163698542861 0 -396.24163698542861 -80.78946026218955 0 0 0 0 -672.31498007131449 -345.96575640589714 0 -345.96575640589714 -146.5567094158605 0 0 0 0 -890.9284333555479 -278.8124752597642 0 -278.8124752597642 -63.484640164671418 0 0 0 0 -1294.317344619456 -799.3142257705083 0 -799.3142257705083 -107.0920585853699 0 0 0 0 -1267.8996003475586 -303.68470333996788 0 -303.68470333996788 -18.079136426822402 0 0 0 0 -1223.2835192354323 -345.19507687049969 0 -345.19507687049969 -65.826551102454459 0 0 0 0 -857.65501031481108 -281.00004482344292 0 -281.00004482344292 -132.36664818564429 0 0 0 0 -1165.6367647208244 -246.07269363972097 0 -246.07269363972097 -100.12728503410972 0 0 0 0 -1181.4727065599945 -213.77009732690635 0 -213.77009732690635 -150.60307335725179 0 0 0 0 -1272.9290024408583 -228.3038485253673 0 -228.3038485253673 -138.77628756893341 0 0 0 0 -962.74688580040493 -199.11633814414273 0 -199.11633814414273 -245.7199752207523 0 0 0 0 -1421.0322617586498 -324.93381024024268 0 -324.93381024024268 -18.854973930101892 0 0 0 0 -1644.6066419029157 -379.13606734368261 0 -379.13606734368261 29.82416746706383 0 0 0 0 -1568.7322117187505 -253.50918797354956 0 -253.50918797354956 -3.0213747184754425 0 0 0 0 -1375.3991200612072 -455.0738362576551 0 -455.0738362576551 -67.012893867111487 0 0 0 0 -1383.221004449013 -419.7238172859802 0 -419.7238172859802 -95.004640634443774 0 0 0 0 -1482.1558125087467 -52.498111711788567 0 -52.498111711788567 -54.118901206635925 0 0 0 0 -1726.3787549944609 -289.87540405292094 0 -289.87540405292094 70.535021532195969 0 0 0 0 -1547.1203482355268 -432.68376989547971 0 -432.68376989547971 126.49760182179799 0 0 0 0 2.4893043163966979 0.90033463454592777 0 0.90033463454592777 -1.0889499520839037 0 0 0 0 18.981453449647233 22.69279480562318 0 22.69279480562318 -103.43304288619262 0 0 0 0 -166.12220655583951 203.64852812868105 0 203.64852812868105 -77.855140367215768 0 0 0 0 37.517713215791701 33.77487713237754 0 33.77487713237754 15.236102271525901 0 0 0 0 48.03714377291908 41.552822571055003 0 41.552822571055003 8.6294037537525128 0 0 0 0 -357.90948791909614 194.20527801783675 0 194.20527801783675 -105.54360416058785 0 0 0 0 -260.19488522285974 -1.1913621069690521 0 -1.1913621069690521 -40.485498106004684 0 0 0 0 -27.617441360834633 -16.203891917714934 0 -16.203891917714934 -12.807986072283281 0 0 0 0 -350.30003242053499 221.59093151301562 0 221.59093151301562 -192.52799136511362 0 0 0 0 -792.2863077504735 87.813337098766226 0 87.813337098766226 -74.355327012538282 0 0 0 0 -983.75414742022258 -147.771948181879 0 -147.771948181879 -107.2166095508951 0 0 0 0 -928.20111650018953 -173.07533416199794 0 -173.07533416199794 -244.12165401109149 0 0 0 0 -1005.5901100461342 -67.589162497622738 0 -67.589162497622738 -50.025750524968771 0 0 0 0 -720.11788828206772 4.8651814159950391 0 4.8651814159950391 -135.62850572798516 0 0 0 0 -868.87156901367416 -156.54867753916574 0 -156.54867753916574 -152.94955029627192 0 0 0 0 -855.26510178352123 -73.719341825437127 0 -73.719341825437127 -97.425063779068751 0 0 0 0 -635.03899606592313 -119.10804220326918 0 -119.10804220326918 -162.87288299625766 0 0 0 0 -306.44610757659393 157.04578128897356 0 157.04578128897356 -154.81237822712205 0 0 0 0 -441.63373603511718 136.95150941987117 0 136.95150941987117 -120.37068862919341 0 0 0 0 -437.73113533953438 132.14610638344334 0 132.14610638344334 -139.3210430227092 0 0 0 0 -651.54051890708752 57.657851860366847 0 57.657851860366847 -88.967930600874297 0 0 0 0 -194.84429686058138 156.8924214292922 0 156.8924214292922 -56.801298140845127 0 0 0 0 -414.00729178562688 55.009111839012178 0 55.009111839012178 -56.826847554855476 0 0 0 0 -486.31519556725107 110.10174646240853 0 110.10174646240853 -94.311364557637219 0 0 0 0 -291.58962304398301 -65.118903041416388 0 -65.118903041416388 -86.964026385285479 0 0 0 0 -788.79511115232162 -170.58968990176663 0 -170.58968990176663 -59.482606668593462 0 0 0 0 -477.19510746146261 -58.171716575579012 0 -58.171716575579012 -155.19234183552578 0 0 0 0 -409.07142253484926 -43.442445907749516 0 -43.442445907749516 90.227943023102853 0 0 0 0 -30.228263808188785 184.25338718822468 0 184.25338718822468 98.139595516218833 0 0 0 0 -86.249482487604837 70.740985910838617 0 70.740985910838617 86.877112324789266 0 0 0 0 -332.39006823313684 217.99428334730112 0 217.99428334730112 77.94737180985021 0 0 0 0 -240.56627849634242 93.108356558801688 0 93.108356558801688 185.66911224362775 0 0 0 0 -20.041462012151925 10.505742125008993 0 10.505742125008993 3.0568144845715515 0 0 0 0 -314.29320089528846 214.5623205047383 0 214.5623205047383 17.371288868805777 0 0 0 0 -303.10376314655878 111.16868118917142 0 111.16868118917142 35.071667696237455 0 0 0 0 5.2634693785730633 99.184289854556937 0 99.184289854556937 -28.361137012821246 0 0 0 0 -92.151638728209946 158.55884825086014 0 158.55884825086014 -5.6172436464062798 0 0 0 0 -88.534093374531949 -27.629773889074841 0 -27.629773889074841 201.07286924933959 0 0 0 0 -34.725806720780383 77.468602067002621 0 77.468602067002621 75.107473323473641 0 0 0 0 -96.613680073111027 22.453458233268293 0 22.453458233268293 50.992433895085014 0 0 0 0 -81.508088766629953 50.990624121479811 0 50.990624121479811 78.967268982787118 0 0 0 0 -342.44252777064685 -171.39408392742303 0 -171.39408392742303 -34.072333663223162 0 0 0 0 -66.588416570858925 11.771870226083529 0 11.771870226083529 28.779545804232281 0 0 0 0 -42.395920304697938 18.841006825620866 0 18.841006825620866 51.700145389655972 0 0 0 0 -87.52547081126292 29.041005458200139 0 29.041005458200139 18.071492950550727 0 0 0 0 -70.52576281188442 -8.5704368044122248 0 -8.5704368044122248 31.30146105214828 0 0 0 0 -17.150638474635571 2.2026191663176746 0 2.2026191663176746 2.2084773399982254 0 0 0 0 -505.36872673444304 392.61564602808164 0 392.61564602808164 198.22278481518993 0 0 0 0 -312.14745649472752 -213.95171175069027 0 -213.95171175069027 -34.866916662778607 0 0 0 0 -461.45169608758442 -82.234159418100489 0 -82.234159418100489 272.06662890060215 0 0 0 0 -98.971942332783982 10.25347508852364 0 10.25347508852364 2.0506678582168743 0 0 0 0 -777.93423235604132 -338.17919887992264 0 -338.17919887992264 -38.325475155327013 0 0 0 0 2.4777435824196914 -0.71555144300380391 0 -0.71555144300380391 -4.8702389504328716 0 0 0 0 -47.462421443786297 43.1904048638213 0 43.1904048638213 68.5472541452109 0 0 0 0 28.348300761026621 117.51059438019257 0 117.51059438019257 -13.825980829553373 0 0 0 0 -113.60074935399462 28.652643116575035 0 28.652643116575035 65.435353217721683 0 0 0 0 -323.42963973291262 156.38990776212495 0 156.38990776212495 648.37163183697521 0 0 0 0 -86.930061240491682 10.895955513288452 0 10.895955513288452 -0.50661177762679177 0 0 0 0 -268.53695474770211 49.546041698712088 0 49.546041698712088 450.84410461915706 0 0 0 0 -537.133158222161 50.326502022035129 0 50.326502022035129 -4.0723304341068456 0 0 0 0 -158.97747707810049 102.68045830249127 0 102.68045830249127 -72.894024382557291 0 0 0 0 64.357150052928773 -13.843379945739798 0 -13.843379945739798 -111.67732536730045 0 0 0 0 -254.28516148945346 55.51330253073013 0 55.51330253073013 -117.77112238982488 0 0 0 0 -245.40985411888687 -32.692741011651293 0 -32.692741011651293 -189.60069341020824 0 0 0 0 -194.11423149053735 72.992728257419344 0 72.992728257419344 -254.05182060786888 0 0 0 0 -384.53595446048712 145.13852214782582 0 145.13852214782582 -15.331261789033761 0 0 0 0 -257.03187209561293 217.70960257800971 0 217.70960257800971 -211.47231405595858 0 0 0 0 -415.45687848930538 79.859298850604318 0 79.859298850604318 -70.349894460683572 0 0 0 0 -92.788589992909692 53.131801499671269 0 53.131801499671269 -47.621100933188245 0 0 0 0 -318.96806454195757 116.71826105598069 0 116.71826105598069 -1.7124539934814038 0 0 0 0 -413.43729396362323 32.987460987740633 0 32.987460987740633 -39.45824562001971 0 0 0 0 -327.01306168320298 130.68662950794351 0 130.68662950794351 -71.303899043253409 0 0 0 0 -287.52604271139717 73.790872265101825 0 73.790872265101825 -18.290652279219103 0 0 0 0 -288.54351043609495 74.164556778921906 0 74.164556778921906 -12.276372002080279 0 0 0 0 -317.04339150677697 -10.868981209185563 0 -10.868981209185563 -6.3775282576298196 0 0 0 0 -395.44538151346205 116.67853595212 0 116.67853595212 10.904951893129464 0 0 0 0 -370.22367560485873 139.94883489450012 0 139.94883489450012 -19.888834880731338 0 0 0 0 -637.45542499326984 218.97482667090344 0 218.97482667090344 34.42145420548195 0 0 0 0 -567.32887057326298 -25.54114654941759 0 -25.54114654941759 102.31910565283215 0 0 0 0 -599.90194130947202 248.90667007789079 0 248.90667007789079 -35.126172280567516 0 0 0 0 -437.28230226608139 217.07914329547293 0 217.07914329547293 -209.55432046378701 0 0 0 0 -837.72153465769952 -28.672503377600151 0 -28.672503377600151 23.83147728851327 0 0 0 0 -11.236700967184333 2.8060627975144428 0 2.8060627975144428 1.7421794763222316 0 0 0 0 -606.35294298417648 453.54719358318334 0 453.54719358318334 -221.89834466957109 0 0 0 0 -19.600971662293887 -74.064742614996248 0 -74.064742614996248 -70.035596394694039 0 0 0 0 -309.66344062983444 -78.711296720057476 0 -78.711296720057476 -28.628412474196011 0 0 0 0 -208.31478611352213 -15.456246221709534 0 -15.456246221709534 -47.9378760152631 0 0 0 0 2.7527062102232662 0.19758247019440489 0 0.19758247019440489 -1.6108039897333093 0 0 0 0 -809.01709708922135 -28.237201179209933 0 -28.237201179209933 -18.77925826807342 0 0 0 0 -0.30862965579177626 0.71328283203814635 0 0.71328283203814635 -1.0638437134471737 0 0 0 0 99.347373185381002 615.93107869181119 0 615.93107869181119 192.72034309948322 0 0 0 0 -391.73563876050093 241.04813182343679 0 241.04813182343679 -92.393849761532692 0 0 0 0 111.5751126373284 118.31826240666689 0 118.31826240666689 -137.75259233171528 0 0 0 0 -1140.865937786737 -42.429096714992738 0 -42.429096714992738 118.38960632508861 0 0 0 0 -947.95349951140088 28.90218780819896 0 28.90218780819896 129.26750905832796 0 0 0 0 -1242.7700597353978 -39.252619659856464 0 -39.252619659856464 204.49108627316264 0 0 0 0 -1025.9515742783988 -256.24493554877608 0 -256.24493554877608 236.3034515069694 0 0 0 0 -435.29102183836949 -36.418460060805955 0 -36.418460060805955 239.65237605576203 0 0 0 0 -418.78955638013576 -78.018815918852852 0 -78.018815918852852 -1.6127418621308607 0 0 0 0 -1823.3728864553304 -224.84031783638147 0 -224.84031783638147 326.50569385973449 0 0 0 0 -1892.6610067842557 -122.69688059697728 0 -122.69688059697728 206.91271280426827 0 0 0 0 -1670.9270479029656 21.711205040393907 0 21.711205040393907 283.46852982960809 0 0 0 0 -1608.7833869793394 -346.56968300116523 0 -346.56968300116523 271.43283652232549 0 0 0 0 -1371.9898728526241 -223.41891455548193 0 -223.41891455548193 214.30694674219012 0 0 0 0 -2150.8463122351677 -35.770454083916775 0 -35.770454083916775 334.26496339575488 0 0 0 0 -2042.8821982299814 202.30960765785449 0 202.30960765785449 191.80947290960285 0 0 0 0 -3196.5017490222053 543.87678796691773 0 543.87678796691773 848.05254859057459 0 0 0 0 -2614.9773390360788 -888.07844210633903 0 -888.07844210633903 -99.157615960872135 0 0 0 0 -1721.7895386675154 -246.05842899778008 0 -246.05842899778008 265.80363541634506 0 0 0 0 -1071.3473800933498 -472.6034310969103 0 -472.6034310969103 -65.81226833416622 0 0 0 0 -1394.3238920702861 -45.51638586113495 0 -45.51638586113495 106.10340492751766 0 0 0 0 -1391.2850525971589 -249.36357907233651 0 -249.36357907233651 -455.79197254621522 0 0 0 0 -112.84387550718253 19.517459997836319 0 19.517459997836319 4.7320080570110257 0 0 0 0 -4681.3016697944986 -1284.6599937173414 0 -1284.6599937173414 195.42095949530631 0 0 0 0 -37.05214349890619 -13.031307596960353 0 -13.031307596960353 15.089665709981382 0 0 0 0 -419.24871525420167 -219.71857997629559 0 -219.71857997629559 171.44062104705881 0 0 0 0 106.1358451230044 407.94024509155497 0 407.94024509155497 262.2634147976853 0 0 0 0 -671.04624496432371 6.8611312907414685 0 6.8611312907414685 88.897976371255481 0 0 0 0 -669.03311693219439 -272.82167652984253 0 -272.82167652984253 91.340952387748985 0 0 0 0 -276.85439620257239 238.13066536615861 0 238.13066536615861 107.2141155881061 0 0 0 0 -22.892074018133997 -4.6114110450750587 0 -4.6114110450750587 19.444392143366297 0 0 0 0 -121.21874352189417 37.947621599409487 0 37.947621599409487 18.788391668178797 0 0 0 0 52.979453213898523 132.03526995853895 0 132.03526995853895 -686.80978926089301 0 0 0 0 -146.94003371836152 -105.23650088231807 0 -105.23650088231807 172.26971197691455 0 0 0 0 -283.72543557097379 -290.93755623154084 0 -290.93755623154084 -1101.9603124962196 0 0 0 0 -112.56685295839605 17.692982674721673 0 17.692982674721673 15.819367072254556 0 0 0 0 -1189.6387858443704 161.32529454911014 0 161.32529454911014 -154.29155846343747 0 0 0 0 -38.216435337853056 4.1575237116277037 0 4.1575237116277037 17.536688057899298 0 0 0 0 116.20344395229768 371.5646699499257 0 371.5646699499257 -1025.7363193067595 0 0 0 0 -1076.7192301831819 385.95509732749633 0 385.95509732749633 214.63752343262058 0 0 0 0 -110.2351600488546 260.95680703186872 0 260.95680703186872 5.7917886876221019 0 0 0 0 -2481.9899550906557 -330.58077147163408 0 -330.58077147163408 -56.781956855720182 0 0 0 0 -1588.6483183401579 -396.93909867245429 0 -396.93909867245429 -931.71826289534511 0 0 0 0 -1574.4529402751941 -608.72605449012053 0 -608.72605449012053 -236.41980476105255 0 0 0 0 -1257.8127159323485 -1312.2984790219089 0 -1312.2984790219089 -724.52152443029445 0 0 0 0 -49.002536619453167 -599.89462600538923 0 -599.89462600538923 -994.89307070924951 0 0 0 0 -1956.6758058088308 -957.91492329837183 0 -957.91492329837183 -420.3259416499377 0 0 0 0 -7025.9982564930688 -2840.772351884113 0 -2840.772351884113 224.09328997006742 0 0 0 0 -2569.2533365069394 -1579.696420905992 0 -1579.696420905992 522.74063238283088 0 0 0 0 -1798.4791156328283 2032.3345002767351 0 2032.3345002767351 -1106.1158113148072 0 0 0 0 -40.535202872965328 -8.0937190907057825 0 -8.0937190907057825 -1.6273202760791943 0 0 0 0 -8660.1703513376124 1295.378154691527 0 1295.378154691527 -584.45479425419353 0 0 0 0 -1752.8228741597122 -2546.1585785102125 0 -2546.1585785102125 -703.0119359245391 0 0 0 0 1353.9735582560243 -99.401519286954681 0 -99.401519286954681 -446.08220936582552 0 0 0 0 -895.65518481613253 425.33434002086005 0 425.33434002086005 1762.2850533640285 0 0 0 0 1488.7744211821191 334.06274710873879 0 334.06274710873879 -1169.422835676969 0 0 0 0 1200.8070962459169 -368.83903903528835 0 -368.83903903528835 67.59075368069216 0 0 0 0 -3110.7957563488744 300.70741169954636 0 300.70741169954636 1210.7451820969804 0 0 0 0 -23.447917000543953 6.6037858485625502 0 6.6037858485625502 0.55919609963170913 0 0 0 0 -1659.0961058656103 2228.7365912111031 0 2228.7365912111031 -2235.6489310552092 0 0 0 0 -7949.3061278984533 1622.5086848681267 0 1622.5086848681267 1191.3984226432872 0 0 0 0 103.32431643285963 326.79252236576758 0 326.79252236576758 17.320383168995249 0 0 0 0 -119.09806759396452 244.69237446348507 0 244.69237446348507 869.83658644560319 0 0 0 0 -73.476096134429099 -25.461685521349864 0 -25.461685521349864 582.87860876574268 0 0 0 0 -81.860173480432991 -16.344535551507271 0 -16.344535551507271 0.2177425674094593 0 0 0 0 156.59805044406676 41.63393472624557 0 41.63393472624557 204.35483363124652 0 0 0 0 -426.810328329404 46.986384725044445 0 46.986384725044445 817.2362341963526 0 0 0 0 -486.52277970925206 -658.06931612068729 0 -658.06931612068729 2123.3879337796707 0 0 0 0 542.2932408498018 -179.46585687563493 0 -179.46585687563493 730.8751033019887 0 0 0 0 -54.997878980001985 6.0118171003358913 0 6.0118171003358913 2.2465642997958537 0 0 0 0 -21.990254936594283 32.010801818713844 0 32.010801818713844 -46.878436993001287 0 0 0 0 -55.776791672775289 -55.89591646994279 0 -55.89591646994279 36.896264619433168 0 0 0 0 -65.999169038573029 2.0798634592781582 0 2.0798634592781582 2.4510320162961561 0 0 0 0 -178.13998601099593 -219.63604435018033 0 -219.63604435018033 1134.6599176496109 0 0 0 0 -69.637625213945284 -31.834728043106225 0 -31.834728043106225 29.362738627198496 0 0 0 0 -80.640861213730943 -13.276311714641089 0 -13.276311714641089 2.1336900132432914 0 0 0 0 -60.904640712386026 -2.3267064020207329 0 -2.3267064020207329 84.299987515909379 0 0 0 0 -85.647594266047236 82.909879106328276 0 82.909879106328276 463.62625201150513 0 0 0 0 157.98152332032623 -213.23771957173358 0 -213.23771957173358 455.62912951584622 0 0 0 0 -159.55238589120563 226.30924912541741 0 226.30924912541741 449.69809650526395 0 0 0 0 -31.32986016428913 65.164548231047775 0 65.164548231047775 -64.602588728618684 0 0 0 0 -173.34647989878431 195.52637006460282 0 195.52637006460282 -125.21927939699708 0 0 0 0 -243.71265438737464 189.72787569130924 0 189.72787569130924 229.83082713397016 0 0 0 0 -164.48611353966407 -57.009333062916539 0 -57.009333062916539 298.79125191255696 0 0 0 0 -267.51247281863471 -135.9116335938719 0 -135.9116335938719 635.25491641212295 0 0 0 0 -80.62432065219059 2.4471918934443053 0 2.4471918934443053 4.4767374811591401 0 0 0 0 -251.18814483944152 113.35754644771112 0 113.35754644771112 201.60137291211868 0 0 0 0 -144.57304209217546 -166.84291902059678 0 -166.84291902059678 311.8029666124886 0 0 0 0 -363.24656426965521 -204.07928768625072 0 -204.07928768625072 472.09913485962619 0 0 0 0 -279.24694815654948 83.423792456449021 0 83.423792456449021 165.30600669744382 0 0 0 0 -534.83891589951236 45.349280828012525 0 45.349280828012525 163.97320774926629 0 0 0 0 -108.7172028434361 168.54012454988657 0 168.54012454988657 -85.031871561098797 0 0 0 0 -506.33635915488412 90.904677015865673 0 90.904677015865673 -91.497967745229289 0 0 0 0 -578.02114178036572 228.18671683104253 0 228.18671683104253 -122.96162439013824 0 0 0 0 -489.44550612111925 75.621395203877 0 75.621395203877 -76.602212019149192 0 0 0 0 -337.20628428985947 19.504652631862882 0 19.504652631862882 125.7178517349912 0 0 0 0 -355.68167803896358 186.73334492945833 0 186.73334492945833 -6.2297293184828959 0 0 0 0 -368.10326957426878 39.250362037481295 0 39.250362037481295 -198.63664989261451 0 0 0 0 -467.96905273560697 241.27463694895027 0 241.27463694895027 -162.89370935986335 0 0 0 0 -124.50575199719191 45.484967545374701 0 45.484967545374701 21.416843392458375 0 0 0 0 -517.05635194759816 169.7987698758061 0 169.7987698758061 -258.70826185946771 0 0 0 0 -647.34663855236431 142.82482514278399 0 142.82482514278399 252.6922719868362 0 0 0 0 -254.729202954215 22.600759078196006 0 22.600759078196006 -42.669824104261352 0 0 0 0 -121.95346147691555 39.522099141817506 0 39.522099141817506 22.372584184801141 0 0 0 0 -409.19716274841267 -21.61998980145745 0 -21.61998980145745 384.97909243608228 0 0 0 0 -244.21029723572428 218.22341432858047 0 218.22341432858047 -81.93951316492803 0 0 0 0 63.773587728763232 88.453324303205591 0 88.453324303205591 -655.87075579136672 0 0 0 0 -112.6409222586808 291.13689905429237 0 291.13689905429237 -600.30373088374881 0 0 0 0 -446.27226901615359 353.43346186359605 0 353.43346186359605 -266.88312136608215 0 0 0 0 -36.236888779181754 47.449276206262539 0 47.449276206262539 -122.28545711267216 0 0 0 0 71.975763769791229 24.695623116381434 0 24.695623116381434 -68.745026918176933 0 0 0 0 -53.590756109915674 31.437755457948867 0 31.437755457948867 2.6882022324625723 0 0 0 0 -15.172458981768187 11.776102320413175 0 11.776102320413175 -0.61305644777046719 0 0 0 0 -27.406655239523388 41.988211945946432 0 41.988211945946432 -33.485035711970795 0 0 0 0 -82.867763799586101 49.186928486807687 0 49.186928486807687 52.786497050576145 0 0 0 0 -5.6985200005910883 -1.7765529177228263 0 -1.7765529177228263 -0.21430632733548535 0 0 0 0 -102.99853732893826 104.60458097602128 0 104.60458097602128 -74.468699843671175 0 0 0 0 -583.96907886433473 -375.55031741098884 0 -375.55031741098884 -76.618222303950901 0 0 0 0 -47.175554094443214 -1.8813115593525254 0 -1.8813115593525254 -159.13695245719612 0 0 0 0 -87.440221619741351 -353.4425721084433 0 -353.4425721084433 -643.88488282760068 0 0 0 0 -901.52368730549665 52.443618406613268 0 52.443618406613268 27.031614050774351 0 0 0 0 -3.5853027287070631 -3.6141212048032827 0 -3.6141212048032827 -3.3571747676285106 0 0 0 0 -166.47075607085935 3.310649793615994 0 3.310649793615994 6.9744546616620937 0 0 0 0 -46.066684682255982 10.497441632708444 0 10.497441632708444 -21.054829936145097 0 0 0 0 -16.201896754976048 -5.1117272950376247 0 -5.1117272950376247 -5.420860517085992 0 0 0 0 33.94063941098284 -31.269106872886368 0 -31.269106872886368 7.3305354728370276 0 0 0 0 -38.673153559880831 2.652859990935525 0 2.652859990935525 15.790893863915528 0 0 0 0 -68.948390426012338 15.017195843107743 0 15.017195843107743 13.350333735185359 0 0 0 0 -11.584627533732586 9.7214973189141745 0 9.7214973189141745 -1.9675213065410624 0 0 0 0 -34.044318289568764 19.089033706277405 0 19.089033706277405 -13.752698102713111 0 0 0 0 -59.527650935095153 -15.208069461593595 0 -15.208069461593595 1.9710151656920516 0 0 0 0 -26.845008425355104 -8.5558197900918032 0 -8.5558197900918032 6.198425135723646 0 0 0 0 -65.129708880231192 -32.414615427014724 0 -32.414615427014724 33.587552491800125 0 0 0 0 -22.521711208224588 -64.398271915503301 0 -64.398271915503301 13.667123270325874 0 0 0 0 -36.783752176399332 -24.732968954562253 0 -24.732968954562253 4.40733202940452 0 0 0 0 -58.767797313390474 -37.244465409964732 0 -37.244465409964732 36.582822631202816 0 0 0 0 -67.157027602173912 6.4639385013637281 0 6.4639385013637281 16.6029302451592 0 0 0 0 -227.57972016648273 -17.125006925593425 0 -17.125006925593425 15.668415320426845 0 0 0 0 -12.514300847329565 -3.8195075603058797 0 -3.8195075603058797 5.2483689807586575 0 0 0 0 -56.77033892823647 25.818088062781989 0 25.818088062781989 -18.776527494069342 0 0 0 0 -52.648469485531677 14.456357192879523 0 14.456357192879523 9.5940409227390546 0 0 0 0 -268.84993573813699 -67.461660014866084 0 -67.461660014866084 117.47416632499335 0 0 0 0 -65.839539928255249 11.329235258260759 0 11.329235258260759 3.5036193406617291 0 0 0 0 -52.743890216586067 8.6102878354810599 0 8.6102878354810599 12.150198816648638 0 0 0 0 6.9056746392452624 178.99144513741783 0 178.99144513741783 -77.045205041960799 0 0 0 0 -27.394041404659049 13.807646388430371 0 13.807646388430371 -4.7860255100857572 0 0 0 0 -48.812200429558288 22.705422234622631 0 22.705422234622631 -0.56541386081028122 0 0 0 0 -19.897679614718072 88.87499939865144 0 88.87499939865144 6.1584868576162535 0 0 0 0 -25.909469151208576 46.784513086713062 0 46.784513086713062 -1.0975736873539885 0 0 0 0 -180.38827628895524 84.982064832033643 0 84.982064832033643 166.3328221553846 0 0 0 0 -39.912756830337457 44.267713684103569 0 44.267713684103569 91.201646105142686 0 0 0 0 -127.49253213012707 93.68231789932679 0 93.68231789932679 -9.2553215652460494 0 0 0 0 -16.148422316560243 2.0601814684706738 0 2.0601814684706738 -3.7006679614594433 0 0 0 0 -132.14893404729082 -269.56612568355115 0 -269.56612568355115 192.79637939444035 0 0 0 0 19.006848088727565 401.58908512102255 0 401.58908512102255 -24.600778665972342 0 0 0 0 -1353.6989607503638 938.27288516743465 0 938.27288516743465 -307.492565813478 0 0 0 0 731.33682873200451 -2471.9016802366787 0 -2471.9016802366787 -5451.5691826272596 0 0 0 0 372.85855554474983 -2308.192677102561 0 -2308.192677102561 -938.31442825553313 0 0 0 0 -132.57239546260098 -62.367904725570952 0 -62.367904725570952 -178.07384933957553 0 0 0 0 -72.973780412956216 -27.045415772762453 0 -27.045415772762453 29.349776079826963 0 0 0 0 -739.68900025375478 729.21654691564709 0 729.21654691564709 1146.9915589060001 0 0 0 0 -405.32735220336326 937.88709823949421 0 937.88709823949421 902.42866518202572 0 0 0 0 -1096.4904437570658 353.99355325061151 0 353.99355325061151 895.85169690251496 0 0 0 0 -331.5737459428783 624.61822158825635 0 624.61822158825635 711.67252657408335 0 0 0 0 -2170.9168710333142 -423.45774420018597 0 -423.45774420018597 778.4918326523657 0 0 0 0 -677.89653848978924 -467.46898976159991 0 -467.46898976159991 773.38230647221462 0 0 0 0 -1153.9072557969776 139.36555345710258 0 139.36555345710258 602.13232874905225 0 0 0 0 356.4973901843332 646.70403784549762 0 646.70403784549762 265.44467121999332 0 0 0 0 -326.99114674527664 202.35689240167449 0 202.35689240167449 296.68542672447757 0 0 0 0 -40.037510199076934 -2.6747010010775796 0 -2.6747010010775796 17.29090976726733 0 0 0 0 -57.067454237776701 13.521727693492217 0 13.521727693492217 7.5934598778749205 0 0 0 0 485.25596333901922 74.281672532120865 0 74.281672532120865 57.76133835715882 0 0 0 0 -64.898525837900365 1.9572795921118527 0 1.9572795921118527 11.456790050785948 0 0 0 0 -60.614444149468909 -31.549744035561048 0 -31.549744035561048 31.399579509894465 0 0 0 0 11.399423730748822 -32.664160960822755 0 -32.664160960822755 34.24434943011147 0 0 0 0 -30.517734200588421 -9.1764533685850438 0 -9.1764533685850438 32.440540143583085 0 0 0 0 -64.186732249552733 -28.912071839152873 0 -28.912071839152873 32.268686693201744 0 0 0 0 -25.80106726960949 -7.460432473677443 0 -7.460432473677443 31.393203627601693 0 0 0 0 -69.607973685517209 -20.545346088592851 0 -20.545346088592851 12.827076836966626 0 0 0 0 7.6189682449453358 70.522446081563956 0 70.522446081563956 103.16853093451573 0 0 0 0 -173.04965426097624 88.595451950320239 0 88.595451950320239 266.63913492819938 0 0 0 0 -206.33557733971929 -253.40354340967087 0 -253.40354340967087 -28.717176316555197 0 0 0 0 -2718.4342537111806 64.702948338764145 0 64.702948338764145 167.12897425421806 0 0 0 0 137.53906579712202 -108.72134287522249 0 -108.72134287522249 15.725055562453235 0 0 0 0 -3.2888666570022878 -3.7296732101520149 0 -3.7296732101520149 -5.7454599835160813 0 0 0 0 -11.683694267787203 -15.208277512990321 0 -15.208277512990321 -12.784804004686139 0 0 0 0 -36.718571887980943 -83.177256848572824 0 -83.177256848572824 31.319428565013368 0 0 0 0 -1047.1907175843698 -303.962840991132 0 -303.962840991132 -87.858686322624635 0 0 0 0 -1722.4722232029671 107.76207847855449 0 107.76207847855449 131.35646509838898 0 0 0 0 -1930.8274882315745 -173.43100056535059 0 -173.43100056535059 189.07787588995166 0 0 0 0 -1898.8890371466841 -159.45250345323757 0 -159.45250345323757 66.081791438706205 0 0 0 0 -1707.7423080881272 61.681524345491198 0 61.681524345491198 144.35813546875079 0 0 0 0 -2012.4670743050337 -389.81237143904468 0 -389.81237143904468 -188.68754273625927 0 0 0 0 -1525.5551387977321 638.98123157252576 0 638.98123157252576 500.76543037495412 0 0 0 0 -1052.0240390242616 31.299958642532829 0 31.299958642532829 -298.10657785505646 0 0 0 0 -1761.6642743068223 -127.88566014115986 0 -127.88566014115986 527.56335451478662 0 0 0 0 -585.48013502621325 -765.40824031917327 0 -765.40824031917327 92.943415009226101 0 0 0 0 -1021.0534287435148 -1273.9060844003484 0 -1273.9060844003484 1403.2894001116092 0 0 0 0 -30.992502084775595 3.2456729404224589 0 3.2456729404224589 1.9314846365340763 0 0 0 0 -565.56218700113823 213.76626644000316 0 213.76626644000316 -284.82395695540163 0 0 0 0 -983.41016651430618 3771.1765886717603 0 3771.1765886717603 -2068.9368457662094 0 0 0 0 338.28971461941546 -92.616505590187444 0 -92.616505590187444 523.86118801631426 0 0 0 0 -857.40712453384185 679.54721306986539 0 679.54721306986539 -458.36923262544951 0 0 0 0 -1103.4616258515889 -201.83543162412843 0 -201.83543162412843 1933.1391839876705 0 0 0 0 -86.936833479719041 7.7857837161219834 0 7.7857837161219834 -1.9593306401039694 0 0 0 0 -78.673851913874387 1204.4966779473343 0 1204.4966779473343 726.30575600930752 0 0 0 0 -2104.1661593350327 84.248724555579315 0 84.248724555579315 -399.59887002040978 0 0 0 0 -2157.5246526420524 68.954973058971973 0 68.954973058971973 347.08077297725868 0 0 0 0 -70.467242092754503 43.40801346959033 0 43.40801346959033 -36.432186256351983 0 0 0 0 -95.316210094791131 4.6127208054331561 0 4.6127208054331561 43.133131515152364 0 0 0 0 -63.622942811734731 -22.994278762942599 0 -22.994278762942599 -21.548840633108767 0 0 0 0 -188.38033399512642 -204.5527873535234 0 -204.5527873535234 691.14491700963049 0 0 0 0 -930.09192742253072 326.65579294455438 0 326.65579294455438 -353.07755077384695 0 0 0 0 -4717.6433458799438 -10.96655898984227 0 -10.96655898984227 344.88494481748847 0 0 0 0 -1619.0126059157556 2293.1396902942488 0 2293.1396902942488 911.96241356261999 0 0 0 0 -9788.7276133469422 3288.566537830402 0 3288.566537830402 1618.2696450279145 0 0 0 0 -8329.218821485294 391.00182782136471 0 391.00182782136471 -4099.702611345987 0 0 0 0 264.67914276817464 -1511.5147198820957 0 -1511.5147198820957 -823.5130336738589 0 0 0 0 -2374.8681868321437 -2003.6585719665732 0 -2003.6585719665732 -905.73466657396648 0 0 0 0 -24.833838675412665 -16.35025176194344 0 -16.35025176194344 -8.4214101504095531 0 0 0 0 -6645.6621979640404 -538.94499920476551 0 -538.94499920476551 -910.31823504348358 0 0 0 0 -939.07399237491336 369.09551938503762 0 369.09551938503762 -1132.1562422093866 0 0 0 0 -1895.1243911713827 -473.43237230846057 0 -473.43237230846057 -911.63046838551327 0 0 0 0 -2673.5151233009528 -1717.921889635189 0 -1717.921889635189 -1778.4047899754294 0 0 0 0 -474.66462772042723 -132.35404261006738 0 -132.35404261006738 -898.97074174865543 0 0 0 0 -922.60814643331105 -814.62639742856231 0 -814.62639742856231 -1747.912668604373 0 0 0 0 -296.59153096378941 531.90140076864657 0 531.90140076864657 206.30663007702515 0 0 0 0 -444.8782737863512 -165.57666531734083 0 -165.57666531734083 -622.4048338991704 0 0 0 0 -193.4509280738057 391.18380172837738 0 391.18380172837738 -480.88562385574983 0 0 0 0 -81.274631990047055 -18.519844858849069 0 -18.519844858849069 74.431961536477274 0 0 0 0 -22.234180774423294 -110.83993397868636 0 -110.83993397868636 -452.70286437641312 0 0 0 0 -256.36799029118265 -361.56587779474444 0 -361.56587779474444 -661.55101467468251 0 0 0 0 -13.530925789818866 -51.476393818736369 0 -51.476393818736369 -115.22079220536426 0 0 0 0 -104.69213678003871 -12.511129899064713 0 -12.511129899064713 -129.87341652522991 0 0 0 0 -7.171629398890218 324.93051249415311 0 324.93051249415311 98.73204597746917 0 0 0 0 -85.882315207680676 30.292766316142234 0 30.292766316142234 -1.228413845356815 0 0 0 0 -37.135855993565201 -87.167880635508538 0 -87.167880635508538 45.999873614720855 0 0 0 0 -228.22114384880115 229.21338757736657 0 229.21338757736657 118.40519004161285 0 0 0 0 -97.476760305124685 26.177364263838484 0 26.177364263838484 1.6673654300565515 0 0 0 0 -262.06625806474403 247.40431782185453 0 247.40431782185453 297.27648757310794 0 0 0 0 158.59525849614874 -150.46092235794021 0 -150.46092235794021 -47.770145239293072 0 0 0 0 78.461174921685597 80.422351034187727 0 80.422351034187727 -97.047933632139348 0 0 0 0 -389.31170379222021 150.31192049982758 0 150.31192049982758 329.28692695741006 0 0 0 0 -696.06544004450552 -432.09354200230723 0 -432.09354200230723 -146.81407678901542 0 0 0 0 -2.0974904855984278 -1.7040049610918118 0 -1.7040049610918118 -0.85597081569896138 0 0 0 0 28.098224773682887 -7.4221688622577062 0 -7.4221688622577062 76.26037905494718 0 0 0 0 -138.89812813012395 -252.04138163206886 0 -252.04138163206886 -281.72580440417789 0 0 0 0 -470.92831236933125 256.5367543066975 0 256.5367543066975 -203.7711585971511 0 0 0 0 -4.8405077435891144 3.4249489139356797 0 3.4249489139356797 -185.62546802000219 0 0 0 0 -1.9829796298750182 2.3053856406314281 0 2.3053856406314281 -2.7338914215265429 0 0 0 0 -571.19770932590473 97.370434710980817 0 97.370434710980817 98.362454006740506 0 0 0 0 -120.01593095372664 206.7693159212443 0 206.7693159212443 -224.5335998716123 0 0 0 0 9.5965617054025643 2.0976972580940014 0 2.0976972580940014 -85.308997671128282 0 0 0 0 -52.344312828514376 76.91672304290654 0 76.91672304290654 17.253188659536249 0 0 0 0 -17.905305366541143 -17.058703026452179 0 -17.058703026452179 -0.98582662710339264 0 0 0 0 -17.391356846424742 -0.66251204402749408 0 -0.66251204402749408 -0.20884155529673532 0 0 0 0 -17.082278828786741 2.1078255058819764 0 2.1078255058819764 -7.3702649967955214 0 0 0 0 -77.717139220825629 17.921015102660249 0 17.921015102660249 3.0228860390453605 0 0 0 0 -150.1219905275284 -168.24192629764821 0 -168.24192629764821 5.5125896571626072 0 0 0 0 -196.55526162110618 -17.324452846506119 0 -17.324452846506119 -79.539723578990873 0 0 0 0 -433.73897443366877 -275.82358511798611 0 -275.82358511798611 -117.23223979121713 0 0 0 0 -27.087392585082853 -97.397326073960699 0 -97.397326073960699 -52.115034570638727 0 0 0 0 96.843220627131814 99.904130172344139 0 99.904130172344139 -92.264414597138284 0 0 0 0 -34.860285281320103 -54.817687806483036 0 -54.817687806483036 -103.21174817303603 0 0 0 0 26.409506144453189 149.90217553109414 0 149.90217553109414 67.774223975146469 0 0 0 0 18.659926924592583 22.692900004322496 0 22.692900004322496 24.100795168246862 0 0 0 0 -82.469770338473779 20.898396827723943 0 20.898396827723943 1.2260517911809687 0 0 0 0 -121.08020252463757 -22.613908603367236 0 -22.613908603367236 -52.291256408707 0 0 0 0 -171.04863318066054 -29.104845670693066 0 -29.104845670693066 94.594230579393525 0 0 0 0 -15.286674680793439 -37.016804867574109 0 -37.016804867574109 -18.985588238854298 0 0 0 0 -267.12028710167215 -37.659903558794213 0 -37.659903558794213 37.031661390632507 0 0 0 0 -2.3763641660480062 21.79433732767933 0 21.79433732767933 -9.0588768868565239 0 0 0 0 -117.4165245524855 92.274975172528741 0 92.274975172528741 8.5334872966105877 0 0 0 0 -42.424131951368892 45.927074917160212 0 45.927074917160212 -2.7630436146271782 0 0 0 0 -49.325357756068684 39.504382919211707 0 39.504382919211707 -0.45773691328134092 0 0 0 0 -39.833656411977273 37.269019690286058 0 37.269019690286058 -4.0559570663845657 0 0 0 0 -365.71849284030759 32.694802628318769 0 32.694802628318769 -290.51380460690689 0 0 0 0 -98.165367929337663 40.771024293022947 0 40.771024293022947 1.9997499058727044 0 0 0 0 -383.10787273797905 -165.71487696598365 0 -165.71487696598365 -60.704418167277254 0 0 0 0 -64.520322801586701 50.110999618504067 0 50.110999618504067 -2.7947802068276104 0 0 0 0 -11.061930674476969 -8.5302029608279071 0 -8.5302029608279071 -1.2346947098671164 0 0 0 0 -221.76076893418212 18.330708797966281 0 18.330708797966281 22.896336226759558 0 0 0 0 -220.65217036186368 51.769050969681984 0 51.769050969681984 14.323605510378911 0 0 0 0 -263.16564286249195 88.82473656074049 0 88.82473656074049 20.698309993400869 0 0 0 0 -261.73072842158581 75.693862904789256 0 75.693862904789256 43.601302192811346 0 0 0 0 -18.93308470636839 5.1669683215804412 0 5.1669683215804412 20.847320751907546 0 0 0 0 -14.301308512609467 119.03888415540183 0 119.03888415540183 -48.601468646582475 0 0 0 0 -13.775737190152356 48.161423160731005 0 48.161423160731005 -2.8991030640453426 0 0 0 0 -100.59325145825278 55.19217542188926 0 55.19217542188926 -3.2548327677606039 0 0 0 0 30.049764324707212 79.690020517235041 0 79.690020517235041 -38.69617952048182 0 0 0 0 -532.05627107354667 79.105233643407757 0 79.105233643407757 37.682152622207582 0 0 0 0 -240.80399526971451 214.19638053570253 0 214.19638053570253 -125.6485561194331 0 0 0 0 -196.70492574783566 1.0333978204254997 0 1.0333978204254997 12.18721690843824 0 0 0 0 -21.641099365420189 -7.181763419923243 0 -7.181763419923243 11.108021929835653 0 0 0 0 -131.05168092016538 -76.213066882824478 0 -76.213066882824478 83.711047252718345 0 0 0 0 -221.2351561577234 -67.872406300042485 0 -67.872406300042485 142.62185116400542 0 0 0 0 -78.964735084024142 -31.864615598342425 0 -31.864615598342425 70.594243505650866 0 0 0 0 -99.44001877263895 7.5977938610917128 0 7.5977938610917128 2.5897333284723634 0 0 0 0 -234.72667653891403 -147.55817535606457 0 -147.55817535606457 39.489688533445587 0 0 0 0 -325.74316971601365 42.433863093822367 0 42.433863093822367 48.724103743681553 0 0 0 0 -332.5996744100994 239.64993869812508 0 239.64993869812508 -311.63714518167671 0 0 0 0 -140.75556315520953 -36.162125970492013 0 -36.162125970492013 -20.988378766290225 0 0 0 0 -10.562996015307604 -2.9438241256090407 0 -2.9438241256090407 12.649998244029856 0 0 0 0 -137.85293939981784 3.8437915431694591 0 3.8437915431694591 21.513014906099897 0 0 0 0 -166.45989690048009 -9.4108267388739932 0 -9.4108267388739932 15.513307737055811 0 0 0 0 -86.99094321279199 -0.40007715452240689 0 -0.40007715452240689 14.955075343380827 0 0 0 0 -144.3364675772209 6.4781810699784188 0 6.4781810699784188 20.485685449119501 0 0 0 0 -72.6980687090836 43.326951108336289 0 43.326951108336289 -2.611551959811095 0 0 0 0 -108.07803529937519 23.943742085590884 0 23.943742085590884 15.641933264634417 0 0 0 0 -107.56311376624723 38.129522641056369 0 38.129522641056369 7.2006312834468744 0 0 0 0 -529.87630083484692 5.7513778815288106 0 5.7513778815288106 308.50456175552063 0 0 0 0 -21.513963868595731 39.451899459162945 0 39.451899459162945 -6.5687866036583831 0 0 0 0 -13.509304051217342 0.90909529401790223 0 0.90909529401790223 -9.7269427049994572 0 0 0 0 -307.19543933979003 5.1684640449826702 0 5.1684640449826702 -234.03969852191494 0 0 0 0 -500.5848696721223 59.581092942915575 0 59.581092942915575 -34.667237728758096 0 0 0 0 102.68061514696819 -0.089401290948714518 0 -0.089401290948714518 -112.60953127596508 0 0 0 0 -694.52239389530587 -49.36181488324965 0 -49.36181488324965 303.19482788520418 0 0 0 0 0.65754568660754842 0.74695121079363958 0 0.74695121079363958 -2.8835600745647567 0 0 0 0 -603.41671157581732 -90.54259188728247 0 -90.54259188728247 158.89622159888904 0 0 0 0 -9.3254835574929871 7.791534830101071 0 7.791534830101071 3.9452813238814537 0 0 0 0 -181.06827454981976 -18.221964732827246 0 -18.221964732827246 -37.355018118564999 0 0 0 0 -29.905770638411923 -25.794253984479006 0 -25.794253984479006 -66.34957772947331 0 0 0 0 -28.467618426511763 -39.688997223217825 0 -39.688997223217825 20.495297409249076 0 0 0 0 0.80564570240676403 57.037715272996365 0 57.037715272996365 29.026945187578818 0 0 0 0 69.427955475886847 46.850160852331612 0 46.850160852331612 -22.589887890376531 0 0 0 0 -25.276367046557425 -21.774045688353667 0 -21.774045688353667 -46.87790510036416 0 0 0 0 -116.48549041972728 1.3220458617273607 0 1.3220458617273607 2.0036261809256075 0 0 0 0 8.7390007165377028 46.616002103080973 0 46.616002103080973 -19.926566536375731 0 0 0 0 -103.28171412023949 -51.609313527094372 0 -51.609313527094372 -41.736745146056933 0 0 0 0 -126.35048918030225 -106.43641211313 0 -106.43641211313 -84.589053183339487 0 0 0 0 -177.33728191474802 -34.328991300633106 0 -34.328991300633106 -12.592108042817358 0 0 0 0 -379.07204194742371 -74.375101636268312 0 -74.375101636268312 11.257417246160912 0 0 0 0 -565.82046505573089 61.241962358399178 0 61.241962358399178 21.391853633176197 0 0 0 0 -170.38678767296369 99.972181552663187 0 99.972181552663187 14.52967632771697 0 0 0 0 -901.49486309161875 386.39410233508943 0 386.39410233508943 -76.307813436847027 0 0 0 0 -19.984103969152784 28.539184159919387 0 28.539184159919387 -106.83785510162488 0 0 0 0 -24.135432310664328 54.115092202285496 0 54.115092202285496 -105.6735704807752 0 0 0 0 -41.760069997020764 51.589837962143065 0 51.589837962143065 -105.56596315030973 0 0 0 0 -179.68995268442086 72.226570257590311 0 72.226570257590311 -53.098890993008354 0 0 0 0 -52.909579238417791 25.525715146502534 0 25.525715146502534 -106.88140280697598 0 0 0 0 -75.553602007008124 -1.7223521153680608 0 -1.7223521153680608 1.736474983091894 0 0 0 0 -166.52519253711944 -7.8142425265023121 0 -7.8142425265023121 306.01386136242854 0 0 0 0 61.295199364002656 232.49408009194181 0 232.49408009194181 -246.62109555767529 0 0 0 0 75.650452938716626 -125.1549096803426 0 -125.1549096803426 -46.008535686511095 0 0 0 0 -27.936719203850771 -3.5920791703239434 0 -3.5920791703239434 -0.78835814327233578 0 0 0 0 2802.4968956356752 -2248.1030231909608 0 -2248.1030231909608 -2523.4410202705521 0 0 0 0 -755.16911020842963 579.68215140054076 0 579.68215140054076 -264.93714057815305 0 0 0 0 -2150.514330615435 484.70462422339506 0 484.70462422339506 268.36636365524555 0 0 0 0 -696.53786801175738 -1196.5431460967372 0 -1196.5431460967372 338.04026617790896 0 0 0 0 -3575.2252801106661 1530.9686171550015 0 1530.9686171550015 -361.1229570416524 0 0 0 0 -76.344393305065353 19.241538701841634 0 19.241538701841634 -3.5785842978365703 0 0 0 0 -2023.3318960532488 -622.88468763965739 0 -622.88468763965739 602.36001238571043 0 0 0 0 -847.3035484541906 -946.02847231423459 0 -946.02847231423459 661.29249054670663 0 0 0 0 -420.85859102640825 -753.03029494880548 0 -753.03029494880548 227.74147432313453 0 0 0 0 -1438.7826918535284 -463.21822180746312 0 -463.21822180746312 396.82761668629581 0 0 0 0 -1065.6056753531593 0.67811269682658804 0 0.67811269682658804 299.73334636144591 0 0 0 0 -943.03506120399106 110.22508631967253 0 110.22508631967253 352.36234622953975 0 0 0 0 -609.73657114343951 -162.86631557953706 0 -162.86631557953706 266.53010020719694 0 0 0 0 -615.9446055413282 -591.58771651324435 0 -591.58771651324435 387.43038705976625 0 0 0 0 -777.36392479258939 -320.52940242835189 0 -320.52940242835189 125.7843595273828 0 0 0 0 -382.34159016550439 -310.50906870049801 0 -310.50906870049801 -37.215202384238786 0 0 0 0 -130.33449603099143 -219.14462271417466 0 -219.14462271417466 -279.76794705534348 0 0 0 0 -234.77264549776737 -294.83485155322171 0 -294.83485155322171 -56.341597469144403 0 0 0 0 -389.64140132231114 -528.71087415273314 0 -528.71087415273314 -254.47922301749821 0 0 0 0 -282.25730886132442 -515.72916290775515 0 -515.72916290775515 -495.44285376277162 0 0 0 0 -493.61741633797647 -853.8360230260048 0 -853.8360230260048 -131.956746979603 0 0 0 0 -623.15074684091087 -639.35125109675209 0 -639.35125109675209 164.66860809019113 0 0 0 0 -769.56477618190547 -428.60343788954503 0 -428.60343788954503 299.37464420834908 0 0 0 0 -538.66255066420126 -842.85956537824347 0 -842.85956537824347 -886.3909725231149 0 0 0 0 -1393.3004686240456 -466.50179149250192 0 -466.50179149250192 -235.11937928820601 0 0 0 0 -2050.1867856694444 -1185.4078235368304 0 -1185.4078235368304 -978.06824189529289 0 0 0 0 -2550.9113957531081 386.53501513142612 0 386.53501513142612 -46.550259462928352 0 0 0 0 -1268.1985188286781 503.37195750075392 0 503.37195750075392 189.36201484474265 0 0 0 0 -835.21345155374729 -737.59998623723959 0 -737.59998623723959 -205.41466233825798 0 0 0 0 -1626.2594728618715 252.58357600519145 0 252.58357600519145 557.90996883594994 0 0 0 0 -417.32313769788016 13.485811800343072 0 13.485811800343072 599.9233658034384 0 0 0 0 -846.33107592409942 189.7637285371452 0 189.7637285371452 1801.5124293987292 0 0 0 0 -587.42587509952136 -175.96501844871727 0 -175.96501844871727 1246.8177916548184 0 0 0 0 -283.04664618811512 530.37039093880867 0 530.37039093880867 1230.4788009952783 0 0 0 0 1035.6569116360624 1060.417834427215 0 1060.417834427215 1443.4409500427928 0 0 0 0 -751.73716507925201 -236.97840249343523 0 -236.97840249343523 879.02409389517516 0 0 0 0 -664.8628924448567 356.32463465818637 0 356.32463465818637 1197.5645862566571 0 0 0 0 293.42518438881962 481.4238791041771 0 481.4238791041771 860.74502043837435 0 0 0 0 12.893387598043773 -295.54722902018102 0 -295.54722902018102 283.31883081887554 0 0 0 0 -576.08774880300916 -643.64968352899677 0 -643.64968352899677 417.89596981255181 0 0 0 0 913.63828642110457 -376.90507726275564 0 -376.90507726275564 142.65314400982265 0 0 0 0 -138.3057111815433 -12.440128830170806 0 -12.440128830170806 174.17192898343865 0 0 0 0 -2664.7918518205333 -900.09490777394035 0 -900.09490777394035 107.02429707786723 0 0 0 0 -75.154631701175788 22.124569296982287 0 22.124569296982287 -1.6326639337485165 0 0 0 0 -143.81974535324844 8.3109282825841433 0 8.3109282825841433 100.83781882019608 0 0 0 0 -3.9363250974258506 -21.259207390007248 0 -21.259207390007248 26.2165555417034 0 0 0 0 102.6773890825134 -55.073211776774286 0 -55.073211776774286 -98.987703551037526 0 0 0 0 -2365.8261971171014 23.446457112506323 0 23.446457112506323 -120.15683107351197 0 0 0 0 -2349.3798990745563 -269.81328931135249 0 -269.81328931135249 -541.76694432315344 0 0 0 0 -188.33296560059534 -99.124977659362401 0 -99.124977659362401 70.911314249151644 0 0 0 0 -91.863147450028919 -29.059995081231477 0 -29.059995081231477 45.592896821870909 0 0 0 0 -81.479953452682821 -83.218394136910206 0 -83.218394136910206 69.514757835543264 0 0 0 0 -24.007311601773836 59.542377363237108 0 59.542377363237108 123.5526898863983 0 0 0 0 -131.53857541299658 -47.236539051786878 0 -47.236539051786878 139.99333753000951 0 0 0 0 -124.4687346535211 -46.02761583746215 0 -46.02761583746215 64.973062676639302 0 0 0 0 -135.23838009228348 -82.167236295604368 0 -82.167236295604368 50.899677147495822 0 0 0 0 -112.96630807398469 -43.042229500336148 0 -43.042229500336148 22.914219413649221 0 0 0 0 -106.91225545394991 -82.580082574934465 0 -82.580082574934465 4.4489352737497256 0 0 0 0 -117.24927830473462 -63.107617342799642 0 -63.107617342799642 -32.210879862325328 0 0 0 0 -107.10909161862219 -52.999213909704395 0 -52.999213909704395 -46.81067788781462 0 0 0 0 -0.17901019129078577 -12.030786468128269 0 -12.030786468128269 19.790786252818748 0 0 0 0 -2936.9537573307825 -518.93787765674813 0 -518.93787765674813 299.14461060253416 0 0 0 0 1.626556946974862 -1.5393485711629182 0 -1.5393485711629182 0.07725335107529574 0 0 0 0 -243.75464979578101 -63.076260265667202 0 -63.076260265667202 80.909506656709596 0 0 0 0 -186.16833808751835 -19.01669424417436 0 -19.01669424417436 -3.4044694663408563 0 0 0 0 -75.260621045672451 23.314547004357134 0 23.314547004357134 24.923662461984463 0 0 0 0 -3187.8282212065824 -746.09922479363797 0 -746.09922479363797 -244.6257177400912 0 0 0 0 -0.071314966301123661 -5.4173802745772832 0 -5.4173802745772832 6.2683787080112499 0 0 0 0 -2529.5830072362005 -199.70620515008858 0 -199.70620515008858 -79.252775370338895 0 0 0 0 -112.02300199327874 -63.316669760402561 0 -63.316669760402561 -31.600778050282656 0 0 0 0 -2.9095351877804347 0.45626647517860874 0 0.45626647517860874 2.0384396565171032 0 0 0 0 -2.1034341413079929 -1.4229418196213146 0 -1.4229418196213146 0.89018635292150661 0 0 0 0 -2180.4768495213648 229.05018385654986 0 229.05018385654986 -775.3321523781251 0 0 0 0 -64.011643811740214 30.346665116055092 0 30.346665116055092 48.688463499017196 0 0 0 0 -4064.8039229966234 -91.239737217516591 0 -91.239737217516591 723.04756884429924 0 0 0 0 -17.130362092764699 -23.024851304928379 0 -23.024851304928379 -32.000397092041453 0 0 0 0 -12.614150251058163 -32.320405934351463 0 -32.320405934351463 -35.712454096559647 0 0 0 0 -0.031621203582815838 -0.3326362163705312 0 -0.3326362163705312 0.33450244827357306 0 0 0 0 -128.60884042890393 -61.47869130298583 0 -61.47869130298583 7.763129703331292 0 0 0 0 -17.310578061995329 -15.144215575116339 0 -15.144215575116339 -0.026836243324044988 0 0 0 0 -33.988122757640667 -43.953979195998343 0 -43.953979195998343 -22.839941174559698 0 0 0 0 -54.405520214699209 -15.688821229625319 0 -15.688821229625319 -1.0918566941274435 0 0 0 0 -88.858742065669503 -66.938256564768182 0 -66.938256564768182 -26.946745717303024 0 0 0 0 -119.83506972725445 -46.50413607487161 0 -46.50413607487161 -25.487452404906037 0 0 0 0 -97.087415557471104 -69.938029220292094 0 -69.938029220292094 -33.748605157447386 0 0 0 0 -109.25745815446135 -56.316390872207251 0 -56.316390872207251 -14.719101990084496 0 0 0 0 -94.317218249634607 -67.165319132019562 0 -67.165319132019562 -34.016545785475273 0 0 0 0 -117.86355727050977 -45.129503227873471 0 -45.129503227873471 -48.853783750513514 0 0 0 0 -146.47927976236679 -17.977495988352782 0 -17.977495988352782 -77.917316790681298 0 0 0 0 -153.86336723912973 -47.541624690732291 0 -47.541624690732291 -28.976603265084066 0 0 0 0 -121.52223160186259 -51.164482314100205 0 -51.164482314100205 -38.350899827151068 0 0 0 0 -199.10275753444876 -19.777977018265993 0 -19.777977018265993 -1.2460955869716499 0 0 0 0 -198.06674296488154 34.661007149747817 0 34.661007149747817 -61.654286799688393 0 0 0 0 -387.72240121144569 -31.303562236800264 0 -31.303562236800264 -0.033099692389413876 0 0 0 0 -307.13181715609971 160.275822273568 0 160.275822273568 -81.585088352163211 0 0 0 0 -190.43812070094282 -37.061341831370214 0 -37.061341831370214 -39.838737165727593 0 0 0 0 -54.814627778003342 34.921262254496398 0 34.921262254496398 -54.641485857758312 0 0 0 0 -408.82283908763202 320.3694204162141 0 320.3694204162141 -25.538632490324055 0 0 0 0 -122.64645805525652 13.334409919331392 0 13.334409919331392 30.750520644929111 0 0 0 0 -120.45795984836877 -6.8373022839749638 0 -6.8373022839749638 -43.157390916322242 0 0 0 0 -70.338615472865058 -71.579882171118868 0 -71.579882171118868 -44.380876026249013 0 0 0 0 0.5087272590608336 -80.590628526620321 0 -80.590628526620321 -15.388585371270892 0 0 0 0 -104.63133177863347 81.69145476038176 0 81.69145476038176 399.46719879856016 0 0 0 0 -108.72704266669462 -76.220729232655117 0 -76.220729232655117 277.34229207550129 0 0 0 0 -36.860979397315532 -154.87217934977207 0 -154.87217934977207 315.33393697900476 0 0 0 0 -75.26112691470189 -17.474359077073132 0 -17.474359077073132 122.44065995024573 0 0 0 0 178.69254982541554 175.45687431050595 0 175.45687431050595 1.3377851357463442 0 0 0 0 180.90421478757639 -168.97906433624277 0 -168.97906433624277 134.27014528274663 0 0 0 0 82.167238931870088 -61.566710851901462 0 -61.566710851901462 35.83449139025852 0 0 0 0 -309.94647077741683 -1423.250000107864 0 -1423.250000107864 -1555.3871583787948 0 0 0 0 -37.36695486834833 5.1940565822116724 0 5.1940565822116724 -0.067054908299796656 0 0 0 0 -491.3322686694446 507.99856376978693 0 507.99856376978693 219.91600043806744 0 0 0 0 363.96932259082678 499.07889449291469 0 499.07889449291469 -1910.2207043898425 0 0 0 0 -2890.1469000458892 -859.48081355713975 0 -859.48081355713975 1684.7375115290358 0 0 0 0 -2271.0379081676801 -426.07880355832879 0 -426.07880355832879 158.8547077943449 0 0 0 0 -936.27559139914229 -1279.7109842247687 0 -1279.7109842247687 -1319.8555925245812 0 0 0 0 -934.48845917923609 -96.630934420059674 0 -96.630934420059674 183.6356259854727 0 0 0 0 -768.91967836301774 306.74608369807282 0 306.74608369807282 -4.5438456334467556 0 0 0 0 -1345.0427463209489 481.28663652225077 0 481.28663652225077 251.97578503721593 0 0 0 0 -525.35273020499153 180.24958320066978 0 180.24958320066978 -14.760235213313649 0 0 0 0 -720.9099283714022 67.824766539854053 0 67.824766539854053 41.544601448523323 0 0 0 0 -408.20475199940847 68.84632179608252 0 68.84632179608252 -9.7805972139248922 0 0 0 0 -1081.8940212304005 28.660098079141591 0 28.660098079141591 135.68365765316491 0 0 0 0 -707.47530196318985 31.895857857399477 0 31.895857857399477 135.14371099497356 0 0 0 0 -481.40317777512246 57.099975800758344 0 57.099975800758344 24.90255470627762 0 0 0 0 -710.44616580530419 -52.802909895905124 0 -52.802909895905124 0.090350512487745616 0 0 0 0 -680.11351925018243 -123.04166925425257 0 -123.04166925425257 95.875384520307009 0 0 0 0 -874.28213282288925 -123.98677407683132 0 -123.98677407683132 101.03279441441543 0 0 0 0 -1119.5860619191517 -307.43080473750734 0 -307.43080473750734 68.262480882242755 0 0 0 0 -660.04826404995401 -201.31228912779068 0 -201.31228912779068 92.697084923474875 0 0 0 0 -607.54526900312339 -106.67898743180795 0 -106.67898743180795 118.85165607967724 0 0 0 0 -637.67662852237117 -179.31570531104001 0 -179.31570531104001 71.521387743812625 0 0 0 0 -667.65091523513547 -132.61693805022412 0 -132.61693805022412 0.17284781558115458 0 0 0 0 63.802460666454863 72.105260425956175 0 72.105260425956175 24.2574579352775 0 0 0 0 -1.1552102722753261 -0.9851983961789017 0 -0.9851983961789017 -0.40664371750392347 0 0 0 0 74.206320326426066 15.227358025885888 0 15.227358025885888 -0.1348168019974629 0 0 0 0 1.2271313678324702 -0.89618614295449106 0 -0.89618614295449106 0.28274757997907951 0 0 0 0 55.165038042876404 -0.87640175418183475 0 -0.87640175418183475 -188.30638685041552 0 0 0 0 639.54971535237564 20.817277288507171 0 20.817277288507171 -735.98623737590981 0 0 0 0 83.035985869384604 -103.69250144592745 0 -103.69250144592745 -225.03730864716314 0 0 0 0 60.775782983051613 105.46331902892896 0 105.46331902892896 -85.471833425539842 0 0 0 0 -74.450405108160339 111.59305538410229 0 111.59305538410229 -22.592406287717267 0 0 0 0 164.11604477100627 44.752915325990571 0 44.752915325990571 -497.01818793996978 0 0 0 0 121.74531560792821 147.48390659570913 0 147.48390659570913 -105.20515374418818 0 0 0 0 -258.74463927507168 -173.37668080155805 0 -173.37668080155805 -272.73201501819796 0 0 0 0 -319.30602270623785 -352.39622888368922 0 -352.39622888368922 -364.76030603995332 0 0 0 0 -422.59525138733443 -356.50081020820204 0 -356.50081020820204 -356.80511813171773 0 0 0 0 202.68323191517266 307.89358484939726 0 307.89358484939726 -127.08754990398506 0 0 0 0 -242.11328964226414 737.90975964737686 0 737.90975964737686 1280.6336723256177 0 0 0 0 255.03043947537662 1014.1355423365773 0 1014.1355423365773 129.50363412050558 0 0 0 0 67.64816865301691 182.21256023116337 0 182.21256023116337 181.49689013176999 0 0 0 0 213.09177118059506 -76.326376296551629 0 -76.326376296551629 -1290.7149717722145 0 0 0 0 415.73502645894769 621.30645888274171 0 621.30645888274171 603.25098451294662 0 0 0 0 -81.237026930553839 236.47606926166986 0 236.47606926166986 156.67428630293364 0 0 0 0 -227.81857079046313 -3.0045386073152258 0 -3.0045386073152258 101.76360737179095 0 0 0 0 209.91414332471322 222.77164551366718 0 222.77164551366718 188.45163535328675 0 0 0 0 -100.75502832084527 -0.53829143049353689 0 -0.53829143049353689 6.8563328706650468 0 0 0 0 -21.694368736391112 2.6657898357897238 0 2.6657898357897238 1.8476777512284137 0 0 0 0 28.174299436795991 231.82601160273055 0 231.82601160273055 68.109680063008227 0 0 0 0 10.387747367261909 204.48712489197459 0 204.48712489197459 64.648351670369493 0 0 0 0 62.508844329044223 182.17812144826382 0 182.17812144826382 -114.04161126923753 0 0 0 0 79.312402114395809 250.9875063739284 0 250.9875063739284 10.276026606977666 0 0 0 0 35.773625907488167 193.56201967968741 0 193.56201967968741 134.63414189852665 0 0 0 0 -658.00425204964995 391.75286955308479 0 391.75286955308479 -356.9581423240038 0 0 0 0 -175.97020455042366 7.8450623359698497 0 7.8450623359698497 -365.37099122473256 0 0 0 0 -301.37016375170788 127.66183023819777 0 127.66183023819777 -331.39233442927684 0 0 0 0 -605.61003950635495 352.92675221913129 0 352.92675221913129 -438.368468406727 0 0 0 0 -256.4385347309144 185.39948053321214 0 185.39948053321214 -445.80836707683915 0 0 0 0 -417.97490064179874 86.719625742806002 0 86.719625742806002 -389.85252918829815 0 0 0 0 -1.6871372986787492 -1.1467115892905611 0 -1.1467115892905611 -1.1403939362755995 0 0 0 0 -456.40048733286676 117.49290428302551 0 117.49290428302551 -98.131297962202495 0 0 0 0 38.747008165693842 0.7702948774201559 0 0.7702948774201559 -211.7149464196022 0 0 0 0 -147.85599374593585 -137.57812276444565 0 -137.57812276444565 -232.21938114499923 0 0 0 0 -286.29051030387654 -211.95070794937726 0 -211.95070794937726 38.926298504354918 0 0 0 0 -262.96988307430001 11.240579673633448 0 11.240579673633448 -272.46891935351425 0 0 0 0 -296.06952319119591 -157.97534646804553 0 -157.97534646804553 77.785580840647697 0 0 0 0 -414.32306576192059 56.217803776341398 0 56.217803776341398 195.2167968972916 0 0 0 0 -319.4046114271332 -132.60529291640819 0 -132.60529291640819 225.9154237690376 0 0 0 0 -613.30863280087942 -93.91580602080893 0 -93.91580602080893 228.13711447527987 0 0 0 0 -538.08686197969655 92.025265678576616 0 92.025265678576616 194.58657862482016 0 0 0 0 -512.38210898779198 1507.9170769115215 0 1507.9170769115215 127.06720999408435 0 0 0 0 -25.5229007786441 8.4418153209923048 0 8.4418153209923048 1.6490577759673024 0 0 0 0 -73.374311600084184 -367.01059333634925 0 -367.01059333634925 206.38304373442361 0 0 0 0 -100.74676509917248 -0.69059525367800134 0 -0.69059525367800134 3.2016592950211122 0 0 0 0 -367.26457247987855 -360.49424408103698 0 -360.49424408103698 501.58696148022091 0 0 0 0 77.083331481830101 -130.42372532863362 0 -130.42372532863362 135.41287344003933 0 0 0 0 -134.28365503251553 -412.60253890382819 0 -412.60253890382819 1007.7444444762882 0 0 0 0 -63.136366549261027 -10.627231904925495 0 -10.627231904925495 1.4871781392348442 0 0 0 0 -96.122259964278783 -117.2634382313957 0 -117.2634382313957 792.21882768696196 0 0 0 0 -147.73965710203629 -222.11451558427979 0 -222.11451558427979 100.30087905774394 0 0 0 0 41.023569092620164 -30.481261045053145 0 -30.481261045053145 -449.11714468550008 0 0 0 0 59.94382223195862 -47.585107713069739 0 -47.585107713069739 -740.18316975800303 0 0 0 0 -84.43439770679106 -123.97164180977478 0 -123.97164180977478 48.27974897848901 0 0 0 0 -344.06262347640586 -107.83242006611755 0 -107.83242006611755 80.93160415035527 0 0 0 0 155.78235946866334 -72.801135408052801 0 -72.801135408052801 76.675246042671006 0 0 0 0 134.96243794099428 -172.17043920697552 0 -172.17043920697552 11.798201895555962 0 0 0 0 -181.53736851355643 -197.9034197219006 0 -197.9034197219006 614.37006661502664 0 0 0 0 486.25021817581728 -212.9934558858248 0 -212.9934558858248 613.87930750204396 0 0 0 0 -103.95327868702589 193.03315866715661 0 193.03315866715661 1129.9224849876882 0 0 0 0 -588.75882168248063 -324.5400601726592 0 -324.5400601726592 1727.7705446504265 0 0 0 0 -392.30691501544788 -379.6675863852131 0 -379.6675863852131 797.98899237153307 0 0 0 0 -360.79836542502471 115.68031182989003 0 115.68031182989003 296.73549837903101 0 0 0 0 67.628201584011549 -638.84066038719857 0 -638.84066038719857 813.06773387927569 0 0 0 0 37.504705644304522 391.2789189890604 0 391.2789189890604 159.4402974418058 0 0 0 0 -641.361325572856 382.59602694968271 0 382.59602694968271 993.81556795237793 0 0 0 0 -649.39327120447706 1165.3072132184238 0 1165.3072132184238 -756.05757125506375 0 0 0 0 -404.52871961938217 942.78417185730814 0 942.78417185730814 -845.66006114389495 0 0 0 0 -1313.1338619527814 919.87262083526332 0 919.87262083526332 27.352005240177107 0 0 0 0 -1025.7910644121876 -263.1907987253328 0 -263.1907987253328 102.08060189483416 0 0 0 0 -236.7816536614846 -88.659450657509581 0 -88.659450657509581 -1176.7240819811661 0 0 0 0 -2579.8190139197395 213.21968859237433 0 213.21968859237433 157.19287909394305 0 0 0 0 -5435.8450360625429 -588.46263532822809 0 -588.46263532822809 -86.306530293332798 0 0 0 0 -4240.3197400772042 2182.52935628658 0 2182.52935628658 -599.7795785118974 0 0 0 0 -1551.3636934088136 1417.9277580893618 0 1417.9277580893618 -391.67777656487499 0 0 0 0 -2497.6474891453981 1349.8156706894788 0 1349.8156706894788 283.12792530546687 0 0 0 0 328.20600906797335 540.52040714319855 0 540.52040714319855 -1007.4632821306263 0 0 0 0 -1537.7150412278424 1278.7278332090234 0 1278.7278332090234 -263.77767189452771 0 0 0 0 -755.41483301318658 1100.3571007978012 0 1100.3571007978012 -230.41997206322912 0 0 0 0 -1933.1086700509186 421.00100731970815 0 421.00100731970815 126.44276584512045 0 0 0 0 -1850.7441023188003 980.89522282400821 0 980.89522282400821 -23.163057121204247 0 0 0 0 -1948.5896808996331 1014.7094340368158 0 1014.7094340368158 332.42488265672938 0 0 0 0 -2165.8031267632614 1076.6204594765093 0 1076.6204594765093 749.44037289460721 0 0 0 0 -2396.7227095956914 822.70481612978074 0 822.70481612978074 784.23304338653236 0 0 0 0 -166.55722196845454 172.01058830908005 0 172.01058830908005 -278.06721881687554 0 0 0 0 -18.20605132826438 -2.2092286928847074 0 -2.2092286928847074 6.291457665926945 0 0 0 0 -3711.5739358158025 -1891.2809930646181 0 -1891.2809930646181 -1066.3265298603055 0 0 0 0 -15.942375473629141 0.13064682445681797 0 0.13064682445681797 8.2311090050010574 0 0 0 0 -6.6517559848361998 1908.4280385254112 0 1908.4280385254112 880.33519340303792 0 0 0 0 -3939.0490877893171 1899.517982310861 0 1899.517982310861 2398.9196970316307 0 0 0 0 -2157.0411165305704 503.96017780059583 0 503.96017780059583 1184.8764417405464 0 0 0 0 -4685.6427268878761 -872.75691260968767 0 -872.75691260968767 789.40666564958156 0 0 0 0 -1712.0948460221989 -303.92487073688426 0 -303.92487073688426 -1479.8313798555027 0 0 0 0 -1565.7599686057656 252.37134637045801 0 252.37134637045801 -210.1831129157988 0 0 0 0 -227.83277921073022 -184.72854265919659 0 -184.72854265919659 -436.78958722142852 0 0 0 0 -429.90150786396407 -750.86599990778132 0 -750.86599990778132 96.153369594099786 0 0 0 0 -213.93176944722654 1200.0569676686446 0 1200.0569676686446 443.75109467924926 0 0 0 0 -578.43233126307314 -462.65077553602282 0 -462.65077553602282 -274.01320241132544 0 0 0 0 -16.401654240185991 20.934696239011117 0 20.934696239011117 -20.16046334219044 0 0 0 0 -2606.9197851805075 -785.23573415377132 0 -785.23573415377132 33.599755557019307 0 0 0 0 -1757.8779992208874 450.61565191893806 0 450.61565191893806 127.69554091207101 0 0 0 0 -3720.6719037503353 205.23950984457133 0 205.23950984457133 428.6925084377981 0 0 0 0 -2638.9643002269295 -804.94463674997223 0 -804.94463674997223 251.26977943199381 0 0 0 0 -739.75235276939929 954.02621790531202 0 954.02621790531202 -1195.0098353637761 0 0 0 0 1437.8556407259312 639.82504740412969 0 639.82504740412969 -1000.451494057148 0 0 0 0 -5.6627714507519897 8.3015433148800923 0 8.3015433148800923 -11.873522732208521 0 0 0 0 -2369.1140122802681 161.19172767552283 0 161.19172767552283 -103.24320952522066 0 0 0 0 -762.01003367669182 13.80907582169047 0 13.80907582169047 -89.934417021273902 0 0 0 0 -895.07928345599066 81.49036154251111 0 81.49036154251111 19.09650957580044 0 0 0 0 -854.843657829937 -37.706459225468109 0 -37.706459225468109 -1.2783463014646372 0 0 0 0 -604.48065231075452 -106.6912223761276 0 -106.6912223761276 10.952808997355934 0 0 0 0 -618.25103270841646 53.643562178644736 0 53.643562178644736 82.420631994667872 0 0 0 0 -688.17803042851301 130.07524363192368 0 130.07524363192368 23.636936095248245 0 0 0 0 -2214.0729730673484 -187.37907828400284 0 -187.37907828400284 576.6754257713153 0 0 0 0 -2362.3957866724231 79.479395114112776 0 79.479395114112776 105.19947050165138 0 0 0 0 -2262.6480339533882 -739.8225052153939 0 -739.8225052153939 -502.05604729436891 0 0 0 0 -2363.5170971846674 -288.83856172870219 0 -288.83856172870219 327.09105794300194 0 0 0 0 -2297.4276121228759 -724.79287970913811 0 -724.79287970913811 -126.83533773481031 0 0 0 0 -2109.4047753739287 -371.28316667331637 0 -371.28316667331637 292.13484257087828 0 0 0 0 -1720.9059153436829 -821.51422305739925 0 -821.51422305739925 414.21183535857926 0 0 0 0 -391.02487521442526 50.728010863473749 0 50.728010863473749 93.709757746761994 0 0 0 0 -2161.6062459235254 -634.24672981746266 0 -634.24672981746266 -232.50269377909399 0 0 0 0 -1293.6161124306091 145.0172590621055 0 145.0172590621055 32.840107778883748 0 0 0 0 -18.575614080215814 19.497774835582277 0 19.497774835582277 -13.169429310873253 0 0 0 0 -10.202355761838817 7.5651784211956397 0 7.5651784211956397 -3.4882905962710971 0 0 0 0 15.310574131886824 363.96918380279772 0 363.96918380279772 -12.714890952538013 0 0 0 0 -4068.6682173588579 -898.05095166660465 0 -898.05095166660465 358.77361619596786 0 0 0 0 -466.81118451865041 -77.590920881661404 0 -77.590920881661404 98.379959862332697 0 0 0 0 -129.90177955909166 36.915195044450918 0 36.915195044450918 54.91122414489449 0 0 0 0 -561.6704118004709 -30.124618796408889 0 -30.124618796408889 52.918299001041305 0 0 0 0 -512.46064140833914 -29.807516543744651 0 -29.807516543744651 -0.33768047187562655 0 0 0 0 -311.90072180429706 361.6422439262368 0 361.6422439262368 29.590192874201442 0 0 0 0 -2390.1881925939379 -93.36865609181794 0 -93.36865609181794 0.70285106228014083 0 0 0 0 -562.19748143098332 26.611686582397937 0 26.611686582397937 50.532448811719384 0 0 0 0 -569.81699510480394 8.1923350337660921 0 8.1923350337660921 104.44968800235651 0 0 0 0 -564.51963347767014 47.695418707766059 0 47.695418707766059 0.20148534695329223 0 0 0 0 -531.27519618405495 91.771910000141276 0 91.771910000141276 46.893498664605872 0 0 0 0 -507.89746461176401 68.439665068255977 0 68.439665068255977 0.01852996747268508 0 0 0 0 -640.39387670208816 97.679100905110857 0 97.679100905110857 49.262604138605852 0 0 0 0 -452.17188615017221 122.35713128585799 0 122.35713128585799 -80.49205077752012 0 0 0 0 -556.15367785258422 170.45750684657386 0 170.45750684657386 -17.406331578965904 0 0 0 0 -493.20967191635282 147.9507722258605 0 147.9507722258605 -94.376707344799541 0 0 0 0 -205.31780784312286 73.274793686157992 0 73.274793686157992 -65.532965298861811 0 0 0 0 -3.7547853742275947 -2.9941590423169657 0 -2.9941590423169657 -2.2796666313218701 0 0 0 0 -234.55486249073874 175.31082027453692 0 175.31082027453692 -126.86032991710019 0 0 0 0 -443.32913933585223 156.38209122762677 0 156.38209122762677 -41.027976501659737 0 0 0 0 -251.62820356317388 108.77070582448425 0 108.77070582448425 -51.175781579508239 0 0 0 0 -225.59256535457098 142.68337896700481 0 142.68337896700481 -59.537498357983523 0 0 0 0 -392.57383387579466 112.08572309306101 0 112.08572309306101 -20.465280052529188 0 0 0 0 -384.92499752076401 143.61357190879565 0 143.61357190879565 2.7670300934045198 0 0 0 0 -249.06515838619089 60.389738870960954 0 60.389738870960954 -0.01486452340108857 0 0 0 0 -192.44118947019888 119.68814082690454 0 119.68814082690454 -25.215461203057686 0 0 0 0 -2.634115108841911 -1.3378506987530727 0 -1.3378506987530727 -0.56806402922341315 0 0 0 0 -400.90360775892623 -241.85948548446032 0 -241.85948548446032 11.417006037814168 0 0 0 0 -94.016205491541768 44.810248012151455 0 44.810248012151455 -0.14049842020342068 0 0 0 0 -122.84210004852503 50.648063238594702 0 50.648063238594702 -28.888984483731367 0 0 0 0 -782.8660162948072 -130.99957727616666 0 -130.99957727616666 -56.478355454492814 0 0 0 0 -759.18459579253977 -84.323340010865707 0 -84.323340010865707 34.77854450072229 0 0 0 0 -981.77341198775684 155.87160308228735 0 155.87160308228735 41.249240748434772 0 0 0 0 -1022.9787664527539 54.444999528426308 0 54.444999528426308 -0.081343101619500383 0 0 0 0 -926.86434312647543 -127.79708696098339 0 -127.79708696098339 33.243113132188739 0 0 0 0 -639.10778687486891 165.89288627832696 0 165.89288627832696 38.072129035615262 0 0 0 0 -750.79911361524137 -120.60292493122489 0 -120.60292493122489 60.634815897185717 0 0 0 0 -786.61130983137991 -143.62538978991051 0 -143.62538978991051 39.169111323628229 0 0 0 0 -760.87406791668036 -101.99416483932146 0 -101.99416483932146 35.171726992130289 0 0 0 0 -789.19323117367458 -154.6795779876079 0 -154.6795779876079 72.012863896760337 0 0 0 0 -693.74536440939778 -170.34372570185099 0 -170.34372570185099 22.29554707083912 0 0 0 0 -804.48906681046356 -148.77265045555288 0 -148.77265045555288 72.846441195695434 0 0 0 0 -692.42412510383292 -61.430592058456 0 -61.430592058456 81.97689251027424 0 0 0 0 -580.03642299774219 -103.13427700011232 0 -103.13427700011232 16.865276462614702 0 0 0 0 -429.95998387146392 -17.241545342751124 0 -17.241545342751124 -12.507664113682324 0 0 0 0 -628.10573077005392 -184.29485468064328 0 -184.29485468064328 -60.96760636538454 0 0 0 0 -678.8586709745141 -118.34185759979636 0 -118.34185759979636 -76.154973396860669 0 0 0 0 -812.48180570226396 -188.61123625428138 0 -188.61123625428138 28.663666152544124 0 0 0 0 -4.4135424163850985 -3.2010850239423689 0 -3.2010850239423689 -1.8772273970460363 0 0 0 0 -190.13193159575167 -72.881842310617088 0 -72.881842310617088 19.055779843464052 0 0 0 0 -284.95876319348463 104.38166025588231 0 104.38166025588231 -47.357863961641101 0 0 0 0 -130.55254198217881 87.92551808631697 0 87.92551808631697 -43.49717916841297 0 0 0 0 -324.95238990827056 -77.586739261903858 0 -77.586739261903858 -89.893704027869717 0 0 0 0 -5.2517688614170766 -59.660335895869906 0 -59.660335895869906 -39.410229309274484 0 0 0 0 -60.162087369564688 53.637769833880384 0 53.637769833880384 -124.7598959877555 0 0 0 0 -44.045503576053306 86.962855847289248 0 86.962855847289248 -86.697881100955897 0 0 0 0 -84.277126603017678 6.9677888243816426 0 6.9677888243816426 -47.127140058929911 0 0 0 0 -13.36830041599751 80.782946022948863 0 80.782946022948863 -86.841493598170445 0 0 0 0 -211.10667466012819 10.401161416100024 0 10.401161416100024 -86.159584358901725 0 0 0 0 -84.46753592393361 -11.732595392037467 0 -11.732595392037467 -162.29297375280805 0 0 0 0 -420.13778642567922 -151.18382302631318 0 -151.18382302631318 -106.93217627794377 0 0 0 0 -497.86115242232336 -77.148100874277532 0 -77.148100874277532 -104.50486070467073 0 0 0 0 -730.73519567830954 -214.67175693891807 0 -214.67175693891807 -28.873794146013893 0 0 0 0 -583.20017790631391 -306.17041176606403 0 -306.17041176606403 -24.054882285919007 0 0 0 0 -762.46928201694391 -89.411996565927751 0 -89.411996565927751 -57.294116718734358 0 0 0 0 -210.94650016998639 -52.973138592711678 0 -52.973138592711678 -128.54654232764597 0 0 0 0 -93.548354581813328 -138.52566109136225 0 -138.52566109136225 -148.56312448338858 0 0 0 0 6.8293950075749308 -163.27378494323136 0 -163.27378494323136 -224.37808030053782 0 0 0 0 -116.36459325183387 93.880196331865093 0 93.880196331865093 208.42795640875374 0 0 0 0 -728.34833631351648 -655.02407496776505 0 -655.02407496776505 45.741101688975505 0 0 0 0 -21.005049882494234 2.259448977315671 0 2.259448977315671 -0.53417898418678145 0 0 0 0 -546.37987047513889 929.56202817274675 0 929.56202817274675 -1595.341125334297 0 0 0 0 -59.698861887100577 3.5798226289903781 0 3.5798226289903781 0.95018030863729608 0 0 0 0 -45.698781528510153 -148.92273772531183 0 -148.92273772531183 531.47609458933687 0 0 0 0 64.488510469411267 301.41539386802242 0 301.41539386802242 -709.85419204292566 0 0 0 0 -151.82694035035092 225.79952588212399 0 225.79952588212399 197.46469380023223 0 0 0 0 -666.70153700388391 -1485.8057452807147 0 -1485.8057452807147 706.53477430471958 0 0 0 0 -92.151658931811482 5.4442221235749635 0 5.4442221235749635 2.511995885436284 0 0 0 0 -585.58286863521789 240.05036131037468 0 240.05036131037468 242.35238720293785 0 0 0 0 -94.948455948207993 73.880952198311959 0 73.880952198311959 11.384729191449509 0 0 0 0 -96.032614315940009 73.866759969770911 0 73.866759969770911 37.047385489306436 0 0 0 0 208.29065995139536 73.742959540400889 0 73.742959540400889 27.852580424178427 0 0 0 0 -215.38970168090964 -166.56229957730068 0 -166.56229957730068 -330.28679861167768 0 0 0 0 -529.90078327595256 -173.40752068971892 0 -173.40752068971892 -141.96275103390667 0 0 0 0 135.7577992377046 -44.189597121999867 0 -44.189597121999867 -231.35668789587163 0 0 0 0 -162.2481591229116 11.48839030529291 0 11.48839030529291 -54.314391144946285 0 0 0 0 -224.46458191511192 -269.13303941210705 0 -269.13303941210705 -4.615472542679413 0 0 0 0 -189.89446739270352 -326.46818586178949 0 -326.46818586178949 -120.94034034853144 0 0 0 0 -259.01570518482913 -166.32452584333697 0 -166.32452584333697 -289.53598420747608 0 0 0 0 -528.15545030625071 48.818005302773358 0 48.818005302773358 -1147.1251714351254 0 0 0 0 -847.31951888086041 -888.2972238413472 0 -888.2972238413472 -642.52737908204517 0 0 0 0 -1793.561750678884 -134.81434505485484 0 -134.81434505485484 225.3324195626696 0 0 0 0 -1462.9454758035426 413.90004972214115 0 413.90004972214115 -228.86865959904299 0 0 0 0 -1319.4347680722713 45.910249184718737 0 45.910249184718737 95.965798298502136 0 0 0 0 -871.97214821450507 56.867202326680825 0 56.867202326680825 -39.790047173089192 0 0 0 0 -1343.9702045086597 4.592820168512219 0 4.592820168512219 55.450481780599262 0 0 0 0 -960.34632923229947 -227.81963325986601 0 -227.81963325986601 102.07496507288863 0 0 0 0 -1017.698518362522 -63.401178573741163 0 -63.401178573741163 -8.9034247314577897 0 0 0 0 -919.68846353857953 -21.98786528422869 0 -21.98786528422869 -142.54517754659332 0 0 0 0 -1262.7114342862042 113.3635067681189 0 113.3635067681189 -135.35404883496244 0 0 0 0 -1022.0930715530994 -192.75783223879694 0 -192.75783223879694 -325.67492231150754 0 0 0 0 -850.34715787059395 -199.5122245816068 0 -199.5122245816068 -60.786696291009321 0 0 0 0 -977.07027319713507 -71.433241071826473 0 -71.433241071826473 62.121887317177425 0 0 0 0 -1997.9852461618138 51.93941111308618 0 51.93941111308618 146.0926533126642 0 0 0 0 -1337.3659528378485 318.37676405082794 0 318.37676405082794 -513.1227821835605 0 0 0 0 -1068.7779019781156 -37.666024220913641 0 -37.666024220913641 -554.89088478697954 0 0 0 0 670.49452260206454 682.09972788470031 0 682.09972788470031 -663.82093604467161 0 0 0 0 -952.32181716017658 -1042.1136765419326 0 -1042.1136765419326 -258.92956090821417 0 0 0 0 -3.7664669596808835 -1.0804273673335487 0 -1.0804273673335487 -1.7150733774485489 0 0 0 0 -8.8537483125752487 -4.8959110247652937 0 -4.8959110247652937 -1.8857331346153303 0 0 0 0 -936.68261819949839 -204.89588601982587 0 -204.89588601982587 139.62027812469648 0 0 0 0 -332.93080967714195 71.343090780931504 0 71.343090780931504 143.6361631766249 0 0 0 0 -1.9755540572248833 2.9035208841504527 0 2.9035208841504527 -2.2288012480210075 0 0 0 0 -7.0634213285520673 -4.6331335394816051 0 -4.6331335394816051 -18.147619095170285 0 0 0 0 -103.62997420651664 -93.454769740041854 0 -93.454769740041854 -256.61467779053032 0 0 0 0 -977.94049681207798 -227.44887137761384 0 -227.44887137761384 -5.6077587262916495 0 0 0 0 -463.39325696678134 -116.6278276754386 0 -116.6278276754386 -75.35546536040647 0 0 0 0 -495.63973242841894 44.949832337680732 0 44.949832337680732 -193.23965165760291 0 0 0 0 -473.09763519174885 -67.145138692509022 0 -67.145138692509022 -5.6907645708796508 0 0 0 0 -102.62282711768057 -170.86940875474795 0 -170.86940875474795 -9.9619615153018231 0 0 0 0 -136.789032791512 -131.72306857788044 0 -131.72306857788044 -172.04731460139874 0 0 0 0 -834.53901380752723 -138.65536521554381 0 -138.65536521554381 -16.85958326356149 0 0 0 0 57.122873602900654 103.1573503558252 0 103.1573503558252 87.297503954619515 0 0 0 0 155.62587305229681 -98.345964355809741 0 -98.345964355809741 -91.473494497051973 0 0 0 0 -144.23175819519383 -33.588097732339619 0 -33.588097732339619 -37.738943773455958 0 0 0 0 158.02667535038199 35.357791002540353 0 35.357791002540353 -135.38569116282156 0 0 0 0 -32.586803764977958 -18.833766538963914 0 -18.833766538963914 -13.160230334847142 0 0 0 0 -21.943703715716538 -9.0203738447070627 0 -9.0203738447070627 -2.8442131463490181 0 0 0 0 -32.216294890560675 -11.452274049232074 0 -11.452274049232074 -6.1937617000394312 0 0 0 0 -1.431726708866961 -11.662800421934378 0 -11.662800421934378 -4.157661829044331 0 0 0 0 -4.9831266432083794 -11.908600547831213 0 -11.908600547831213 -11.816900742049256 0 0 0 0 96.459140128339641 85.169827127698284 0 85.169827127698284 -83.091743282501398 0 0 0 0 -22.295363334385911 -29.171508506656323 0 -29.171508506656323 18.021258433304638 0 0 0 0 -18.810779482402722 -35.713329904984505 0 -35.713329904984505 6.2031401548506437 0 0 0 0 -2.617069059388939 -0.96111081091689243 0 -0.96111081091689243 -0.40076816704755291 0 0 0 0 -474.67053127540203 58.559044650328886 0 58.559044650328886 -10.612335089419616 0 0 0 0 -446.45009996229055 239.74584420989089 0 239.74584420989089 -194.80379082903846 0 0 0 0 -454.39229631432681 177.96779047873113 0 177.96779047873113 12.694912538649177 0 0 0 0 -535.589216606837 1.9984078590452441 0 1.9984078590452441 41.586835217566261 0 0 0 0 -64.382907776409866 61.015606751635353 0 61.015606751635353 -48.394154384163073 0 0 0 0 -829.30875347327674 -142.65962218888274 0 -142.65962218888274 6.7583755388272948 0 0 0 0 -938.28654771239962 -237.01451715415106 0 -237.01451715415106 -66.491983528449055 0 0 0 0 -942.24636168923462 -74.916462537513667 0 -74.916462537513667 -152.83438836203754 0 0 0 0 -930.44466681018821 36.407948165572463 0 36.407948165572463 -49.385375230543104 0 0 0 0 -1077.8893589677464 -98.893486470824314 0 -98.893486470824314 54.303604450845214 0 0 0 0 -1480.0528681928699 -151.27220574707496 0 -151.27220574707496 -113.14287761011428 0 0 0 0 -1268.003646086785 489.30213451573616 0 489.30213451573616 -217.22667009099086 0 0 0 0 -982.09987083316082 51.424611841844467 0 51.424611841844467 30.993897509939188 0 0 0 0 -718.2124161995016 95.683693100895312 0 95.683693100895312 38.094742855857518 0 0 0 0 -899.60725315003947 -74.105518049463342 0 -74.105518049463342 94.15055846997268 0 0 0 0 -861.37998070308822 -87.717943483305589 0 -87.717943483305589 54.867393795351852 0 0 0 0 -885.88977032858384 -177.58816617824533 0 -177.58816617824533 69.534122769047144 0 0 0 0 -805.57032249809708 -139.21746876694948 0 -139.21746876694948 86.530154596259877 0 0 0 0 -780.975341550351 -129.62428726401558 0 -129.62428726401558 71.578869250630305 0 0 0 0 -797.07006860091496 -107.14858382911834 0 -107.14858382911834 81.107880850958111 0 0 0 0 -673.64623045327608 -35.258940102905854 0 -35.258940102905854 88.392748049369629 0 0 0 0 -693.88712110894267 27.322173230388497 0 27.322173230388497 96.272552025011123 0 0 0 0 -612.13710198552872 -44.042801125679546 0 -44.042801125679546 40.168239010684594 0 0 0 0 -726.0081034804607 -114.57287932711183 0 -114.57287932711183 0.093854116412463259 0 0 0 0 -446.45721197430976 6.1881165859719403 0 6.1881165859719403 42.123028524960318 0 0 0 0 -442.22727539547486 42.038204002534172 0 42.038204002534172 23.59927432928864 0 0 0 0 -598.83710823395086 11.477815975748399 0 11.477815975748399 71.755157575752051 0 0 0 0 -410.45698580873432 -53.286806049631601 0 -53.286806049631601 0.02336352399573394 0 0 0 0 -183.7264168880065 46.771198219818075 0 46.771198219818075 -24.987737706337036 0 0 0 0 -173.7931859177661 -9.9627699503781031 0 -9.9627699503781031 29.212020325446474 0 0 0 0 90.278574542026035 -34.073834688751852 0 -34.073834688751852 -51.753455573524008 0 0 0 0 -32.597598984881188 -50.662715737593373 0 -50.662715737593373 -0.019774309508483211 0 0 0 0 -10.876380852379953 30.019715712860005 0 30.019715712860005 -15.022652145153017 0 0 0 0 -68.385030952525995 -65.987725870601807 0 -65.987725870601807 27.279844220091007 0 0 0 0 -14.266045091252977 -8.7295561908497348 0 -8.7295561908497348 -2.8852818476887996 0 0 0 0 -621.54103547430714 15.623635997025758 0 15.623635997025758 79.566606030879939 0 0 0 0 -41.653905609644426 -7.939406641012539 0 -7.939406641012539 16.985612505004639 0 0 0 0 -2.4549510367695007 -0.62042197970504276 0 -0.62042197970504276 0.50935964685641411 0 0 0 0 -8.6146014477770905 -1.7955120728276484 0 -1.7955120728276484 0.018312569158568048 0 0 0 0 -3.3489030249329517 -23.347118117321095 0 -23.347118117321095 0.0087569563262889331 0 0 0 0 -1913.4498670742905 914.61167166148607 0 914.61167166148607 -241.0911810129428 0 0 0 0 -1438.2599786155915 -526.92829664636361 0 -526.92829664636361 -1.0805944388543893 0 0 0 0 -2213.4324931576994 -165.93769498328402 0 -165.93769498328402 459.62583278478223 0 0 0 0 -1423.6639915683772 -80.077805529956095 0 -80.077805529956095 298.16566926200903 0 0 0 0 -658.4604670561821 195.84221017542495 0 195.84221017542495 87.925775948578575 0 0 0 0 -1036.1195127358078 -108.05747675136263 0 -108.05747675136263 155.03315189197338 0 0 0 0 -1306.5813279373542 -97.512034687837513 0 -97.512034687837513 248.87602969859654 0 0 0 0 -902.1730854429843 -327.64263693763826 0 -327.64263693763826 48.065793476042018 0 0 0 0 -1285.0295924374805 -169.17276618453781 0 -169.17276618453781 355.23102491021746 0 0 0 0 -1294.5158199881262 -244.60202600839193 0 -244.60202600839193 167.3862299405173 0 0 0 0 -1164.6944282397744 -320.40360249461014 0 -320.40360249461014 -190.78471294332849 0 0 0 0 -1223.0958516109677 -252.21379975455284 0 -252.21379975455284 148.5243860810192 0 0 0 0 -1229.2723052006186 -331.17792605935347 0 -331.17792605935347 -58.00367859945618 0 0 0 0 -3.3371515408462074 0.96137371384235593 0 0.96137371384235593 0.087426038100963055 0 0 0 0 -6.3875025186890753 -1.6751227019775961 0 -1.6751227019775961 -3.4487327516868036 0 0 0 0 14.1894980223733 2.6657832754488027 0 2.6657832754488027 -11.140536019538388 0 0 0 0 -171.68694965026225 -368.42687745201238 0 -368.42687745201238 -315.11183970274533 0 0 0 0 -115.94831351688481 134.4672082806037 0 134.4672082806037 -133.33505024328042 0 0 0 0 -8.0499861674616113 -23.79397780838076 0 -23.79397780838076 -5.361026819032304 0 0 0 0 -7.8015987923698589 -10.844853296228081 0 -10.844853296228081 -10.608075876333153 0 0 0 0 -8.5507756539154798 -35.100021318005815 0 -35.100021318005815 -22.859074499620192 0 0 0 0 -8.1114550235624847 -10.379555084970718 0 -10.379555084970718 -5.1709120143058644 0 0 0 0 -3.5391969558498886 -3.6235254481365473 0 -3.6235254481365473 -2.4367672502514353 0 0 0 0 2.7483603933942504 -3.907333267912918 0 -3.907333267912918 -23.93814880765126 0 0 0 0 -91.95822501314251 -157.21515078449499 0 -157.21515078449499 -10.730567978754152 0 0 0 0 -274.48709606932243 48.820197638467107 0 48.820197638467107 -49.665592750583528 0 0 0 0 -856.92254461659104 95.678474863706029 0 95.678474863706029 154.58612100819909 0 0 0 0 -635.40520786019806 138.2514737114729 0 138.2514737114729 120.66524520088453 0 0 0 0 -155.57320591057942 -83.884921200614315 0 -83.884921200614315 -0.16371189196827771 0 0 0 0 -583.44656687990209 -129.66429445224784 0 -129.66429445224784 84.038821332667425 0 0 0 0 -945.82328072367818 -147.76891740462744 0 -147.76891740462744 129.23079232574446 0 0 0 0 -1655.7765494746782 515.51682992738915 0 515.51682992738915 -18.886609983326707 0 0 0 0 -2.5835870062492177 -2.5381264080872938 0 -2.5381264080872938 3.6551396170985204 0 0 0 0 129.15704980512965 -521.78237398565238 0 -521.78237398565238 72.081876663475668 0 0 0 0 -857.13678777091263 -334.82423307427536 0 -334.82423307427536 505.5495230940088 0 0 0 0 -597.58629059397208 -181.11358847291277 0 -181.11358847291277 0.55951255606385331 0 0 0 0 -809.02861867359024 -216.3648276893432 0 -216.3648276893432 69.984004030300639 0 0 0 0 -1492.4802771848917 -387.79974933525835 0 -387.79974933525835 418.25330291046635 0 0 0 0 -932.99298198940232 -341.47431868152103 0 -341.47431868152103 280.90094025804319 0 0 0 0 -1294.1349362230758 -258.27348430428361 0 -258.27348430428361 294.58526369180436 0 0 0 0 -843.43340682874623 -81.431743501227231 0 -81.431743501227231 214.34383572823162 0 0 0 0 -977.50870174146257 -114.06101968619578 0 -114.06101968619578 62.032719857212669 0 0 0 0 -1475.2656764010026 -17.076536442817087 0 -17.076536442817087 52.607141894440247 0 0 0 0 -1654.8598267298003 422.81936839484797 0 422.81936839484797 20.780674467237986 0 0 0 0 -5.5041566911874895 -5.6491223817206446 0 -5.6491223817206446 8.8997919009206399 0 0 0 0 -909.57169920339948 -206.25352675826821 0 -206.25352675826821 172.21374001391086 0 0 0 0 -991.68743550250656 -11.801531231741137 0 -11.801531231741137 -24.399221120605674 0 0 0 0 -949.36354465431214 93.740871653169393 0 93.740871653169393 119.61326007944308 0 0 0 0 -732.76842041310738 270.25830498946675 0 270.25830498946675 -103.18030060593844 0 0 0 0 -501.72642159684619 -70.51494105893812 0 -70.51494105893812 -180.52293719854765 0 0 0 0 -21.513720382873231 -22.76321851061391 0 -22.76321851061391 -5.0270539349617813 0 0 0 0 -58.107821208319365 -19.330320895004775 0 -19.330320895004775 -1.6539782364106941 0 0 0 0 -59.168851456644916 -15.609436972171466 0 -15.609436972171466 -1.1394557713792892 0 0 0 0 -6.3673286508454794 -0.19355877459182125 0 -0.19355877459182125 2.587535149985706 0 0 0 0 -78.560472773839138 87.861320626430427 0 87.861320626430427 -153.52771151359724 0 0 0 0 -4.9878101663179564 -3.6082744725792963 0 -3.6082744725792963 -1.4243023957408516 0 0 0 0 -74.423388179231551 -5.9428881617063496 0 -5.9428881617063496 -27.664416903944812 0 0 0 0 -54.700030787702417 -19.128078314900677 0 -19.128078314900677 -1.7816221433586179 0 0 0 0 -51.86525610856188 -13.530007241844942 0 -13.530007241844942 -1.3206493078250787 0 0 0 0 -594.45620810045511 254.44346187593237 0 254.44346187593237 -246.71622509814642 0 0 0 0 -20.332903433485342 -17.366598288257762 0 -17.366598288257762 2.3089283991428289 0 0 0 0 -25.634905496597639 -23.964600067969741 0 -23.964600067969741 -0.89865022307685649 0 0 0 0 -33.873521406618693 -23.863397684734281 0 -23.863397684734281 11.894138104764824 0 0 0 0 -1702.8338335429144 340.8775257653042 0 340.8775257653042 90.503415305272028 0 0 0 0 -1093.2943654741102 172.0084016542155 0 172.0084016542155 19.027439038492048 0 0 0 0 -7.0164968691564695 -6.3793834979297515 0 -6.3793834979297515 9.8924462100949349 0 0 0 0 -1434.8035612607346 279.19927768709067 0 279.19927768709067 114.042159722409 0 0 0 0 -1578.737079006256 -324.45583585469876 0 -324.45583585469876 -36.82000110802619 0 0 0 0 -1942.4861846441636 -101.11534449177907 0 -101.11534449177907 106.69001582295459 0 0 0 0 -4509.5460890711984 -412.72178317468479 0 -412.72178317468479 253.36612577393589 0 0 0 0 -2597.187055522576 19.856878832822076 0 19.856878832822076 -124.18861986312641 0 0 0 0 -5.8026677162356322 -3.4760919525107568 0 -3.4760919525107568 4.8203635778991121 0 0 0 0 -2837.1989138330828 -1635.6065432716241 0 -1635.6065432716241 -677.20887959907213 0 0 0 0 -28.357502564187371 9.5320502992126563 0 9.5320502992126563 -3.9412855221743115 0 0 0 0 -4081.5158720230684 -1665.1827097828977 0 -1665.1827097828977 -596.08291822486353 0 0 0 0 -1433.8952798404571 -102.29923160568296 0 -102.29923160568296 33.784618154524651 0 0 0 0 -3475.0784542328911 -474.62670014154355 0 -474.62670014154355 265.52806249723244 0 0 0 0 -6506.5309152604314 461.36140306988818 0 461.36140306988818 28.707926647107342 0 0 0 0 -129.88647956405288 56.651663282676481 0 56.651663282676481 36.859296872856802 0 0 0 0 -3727.3256687203539 -389.16958774077102 0 -389.16958774077102 396.8053200162467 0 0 0 0 -2120.8569127587252 944.19434211884982 0 944.19434211884982 362.00923383855752 0 0 0 0 -1135.5012511261157 -750.14247979702304 0 -750.14247979702304 -1016.5173552954748 0 0 0 0 -50.495420713617932 -42.852977835894535 0 -42.852977835894535 -128.91189512492474 0 0 0 0 -61.501917342952311 -13.212146662879235 0 -13.212146662879235 30.642645774861609 0 0 0 0 -1319.5567517369127 -663.58389686030341 0 -663.58389686030341 -189.45851699300147 0 0 0 0 10.695047887444673 -5.0396719294556647 0 -5.0396719294556647 5.7947888100358504 0 0 0 0 -1540.3824006286195 274.1252976104206 0 274.1252976104206 -150.34690929091448 0 0 0 0 -2700.0331444624171 1165.8092658624337 0 1165.8092658624337 -1944.5429902051874 0 0 0 0 -1554.8205035116407 432.35516895574347 0 432.35516895574347 -1577.7926986414295 0 0 0 0 -1169.6807435822411 642.52678606216568 0 642.52678606216568 -224.64294347600298 0 0 0 0 -84.846405191085069 -18.737124277340811 0 -18.737124277340811 31.412301727423227 0 0 0 0 -58.743983553285943 1.1246382349707531 0 1.1246382349707531 -99.625916749096874 0 0 0 0 -80.763961904898679 106.34470533350483 0 106.34470533350483 -10.748816169781662 0 0 0 0 -64.152784320073636 13.637925215989455 0 13.637925215989455 7.9355939681698642 0 0 0 0 -110.43786248787364 -19.26174915762499 0 -19.26174915762499 53.301369331804381 0 0 0 0 -20.795403671996723 -5.6898098131109123 0 -5.6898098131109123 13.909112470654666 0 0 0 0 -270.87192003251403 -138.68359245352622 0 -138.68359245352622 -169.65458343357113 0 0 0 0 -59.218013326462824 6.4719554928747058 0 6.4719554928747058 -54.377022127837506 0 0 0 0 -81.626553883892484 -35.479918562418788 0 -35.479918562418788 12.246184727970558 0 0 0 0 -64.482119741543102 -3.5395241103727528 0 -3.5395241103727528 -3.4130076480570604 0 0 0 0 -28.678330739731564 -9.9731388316722445 0 -9.9731388316722445 -12.294173003540454 0 0 0 0 -88.924283324755379 3.2242107813767689 0 3.2242107813767689 -19.458791719719216 0 0 0 0 -36.950150716380449 123.07275217081587 0 123.07275217081587 49.35097021723368 0 0 0 0 -24.908167262809002 168.74846373766036 0 168.74846373766036 -239.01758397769845 0 0 0 0 -94.901822640304772 24.408629357860988 0 24.408629357860988 -9.3792454364100273 0 0 0 0 -18.673455064279111 1.6205160703632089 0 1.6205160703632089 -12.142071289586356 0 0 0 0 -42.369552417774685 -14.139717278074954 0 -14.139717278074954 -4.2227973800331711 0 0 0 0 5.4453913922479842 8.2668452303482809 0 8.2668452303482809 -77.039089806979973 0 0 0 0 -46.588503866754763 -89.784747400479773 0 -89.784747400479773 -208.38115140212449 0 0 0 0 -24.413916582503589 -19.655851808170155 0 -19.655851808170155 9.7793685766193903 0 0 0 0 -668.31297205880401 153.54074030393804 0 153.54074030393804 67.348547734543217 0 0 0 0 -880.23815674768412 -451.73257572742841 0 -451.73257572742841 -130.56955980771818 0 0 0 0 -1276.0082597403089 -591.25343753734705 0 -591.25343753734705 -122.16491591204976 0 0 0 0 -1394.1868561121228 -256.4100560856059 0 -256.4100560856059 -87.783338587627895 0 0 0 0 -280.17332988456474 -56.436436556336957 0 -56.436436556336957 -370.63715839245606 0 0 0 0 -757.62957781675505 -1167.1319036759437 0 -1167.1319036759437 -1011.5755950702387 0 0 0 0 -423.28475126946432 -53.239049605804439 0 -53.239049605804439 130.19654134346183 0 0 0 0 -68.622577099466127 23.646189477701725 0 23.646189477701725 -7.0842597097814402 0 0 0 0 -61.158237213589018 -9.621748229683817 0 -9.621748229683817 -105.32394479149843 0 0 0 0 -233.67482558105257 -166.80729361718568 0 -166.80729361718568 800.21909983328896 0 0 0 0 -927.51243680113112 1202.8608641057453 0 1202.8608641057453 417.95306825223633 0 0 0 0 494.97646311184508 192.99960428995973 0 192.99960428995973 -439.95878185980837 0 0 0 0 -1040.2327228180075 -112.36534922259489 0 -112.36534922259489 -496.61742327887396 0 0 0 0 -228.32038076114986 241.08786561879378 0 241.08786561879378 -1130.6507821148498 0 0 0 0 -390.9182646390982 -150.38511183396076 0 -150.38511183396076 -93.68968977908969 0 0 0 0 -117.79946802975792 -202.38876520633016 0 -202.38876520633016 -48.848150465404615 0 0 0 0 -29.627033531494163 -65.658735449685366 0 -65.658735449685366 -15.308646547633773 0 0 0 0 -154.17853889406979 -77.29865192077159 0 -77.29865192077159 147.2659220573305 0 0 0 0 -131.18695637334895 -11.066401221777596 0 -11.066401221777596 -88.290793300349378 0 0 0 0 -118.60038147722361 39.605328987427576 0 39.605328987427576 22.817703204365468 0 0 0 0 -16.171741872305574 -39.213852763776231 0 -39.213852763776231 -230.80513742320181 0 0 0 0 -250.31752533082545 -138.75953906674749 0 -138.75953906674749 197.70046134782388 0 0 0 0 -150.41450154321501 109.01314536997506 0 109.01314536997506 -88.432826167111671 0 0 0 0 -131.24374254339745 62.060028350703149 0 62.060028350703149 31.435832693601487 0 0 0 0 -99.437767873416306 -58.979467340588599 0 -58.979467340588599 -628.28686679954626 0 0 0 0 -459.04572114848997 24.149827754617945 0 24.149827754617945 276.59684540937769 0 0 0 0 -1053.766731723772 403.67787282754125 0 403.67787282754125 63.077146112616902 0 0 0 0 -131.90787424544624 62.15436635888387 0 62.15436635888387 30.228015456286315 0 0 0 0 -972.32883506597136 336.24096313358768 0 336.24096313358768 -75.649104079331664 0 0 0 0 -416.88834165045409 373.50064936097351 0 373.50064936097351 -424.63424973904694 0 0 0 0 -710.24325424099516 276.41911868554985 0 276.41911868554985 -66.905611771967415 0 0 0 0 -1059.5457718356629 557.83708362131938 0 557.83708362131938 -104.91344381970703 0 0 0 0 -1112.0548974982812 518.47151010547714 0 518.47151010547714 -284.25342813734369 0 0 0 0 -1269.3979852183547 436.33845395274238 0 436.33845395274238 -61.481919898018035 0 0 0 0 -880.49995243866579 128.53837873934867 0 128.53837873934867 -15.313134914253055 0 0 0 0 -339.71607699271408 -28.719053152181232 0 -28.719053152181232 32.418637154843964 0 0 0 0 -763.18011153988482 234.82067319809812 0 234.82067319809812 -16.096027731344293 0 0 0 0 -300.09468026862305 7.3834046512638452 0 7.3834046512638452 -90.720953675834608 0 0 0 0 -673.0247225648709 79.138101582164381 0 79.138101582164381 -675.66990717740009 0 0 0 0 -111.16649131071416 -60.28722898646167 0 -60.28722898646167 4.4607924135925998 0 0 0 0 310.39406255782524 -617.21726957521241 0 -617.21726957521241 -537.72348100641398 0 0 0 0 125.32297183189075 -261.10622643926945 0 -261.10622643926945 -1036.0257643598125 0 0 0 0 -14.077881563847768 76.807127716688228 0 76.807127716688228 -370.23157930417256 0 0 0 0 -2470.6595070686008 758.24974638373192 0 758.24974638373192 -469.26229643134138 0 0 0 0 -1517.4117024459119 -533.65499310587802 0 -533.65499310587802 -62.435408628951336 0 0 0 0 -2577.5117570410512 -1214.9291645909107 0 -1214.9291645909107 -346.69506944657405 0 0 0 0 -964.45284220423491 -1239.6228483691193 0 -1239.6228483691193 -1635.3092374693842 0 0 0 0 -4292.8803403760685 -811.77011735062615 0 -811.77011735062615 -322.17639718657301 0 0 0 0 103.886012815914 347.56812075308881 0 347.56812075308881 -1466.4531698041974 0 0 0 0 -32.035817566604209 14.449294374809455 0 14.449294374809455 -22.952844131686234 0 0 0 0 -1391.0585273459583 -14.458054961006383 0 -14.458054961006383 -427.97535776446966 0 0 0 0 -1425.4764401682914 219.26813939926251 0 219.26813939926251 -1555.292213137689 0 0 0 0 -1784.0750814678904 224.16027255087829 0 224.16027255087829 -54.359953245820179 0 0 0 0 -1418.2755469205877 724.21738552896022 0 724.21738552896022 -352.90410641463677 0 0 0 0 -916.74900621629786 320.06853572387899 0 320.06853572387899 -99.105173824400708 0 0 0 0 -1307.1241424468353 326.07730717852769 0 326.07730717852769 -83.598904038063665 0 0 0 0 -114.654502458729 -61.997357847779412 0 -61.997357847779412 20.036259679217068 0 0 0 0 -533.21706040386016 -306.37700089691157 0 -306.37700089691157 68.956770493610748 0 0 0 0 -1340.7748503048788 299.52807328437666 0 299.52807328437666 -42.679178060443519 0 0 0 0 -482.61589830051525 -834.75550436511003 0 -834.75550436511003 -134.9829139973117 0 0 0 0 -849.09385050892161 -71.314921928573767 0 -71.314921928573767 -269.12370843477947 0 0 0 0 -116.45307468386949 -65.949813784501842 0 -65.949813784501842 17.026619715112716 0 0 0 0 -520.96748404939353 -273.02607561435298 0 -273.02607561435298 -196.99799290551709 0 0 0 0 -752.16971535544872 -207.32488823979111 0 -207.32488823979111 64.303153939592448 0 0 0 0 -749.90055768282605 -272.84416008949034 0 -272.84416008949034 -22.990567767135872 0 0 0 0 -710.7156455298682 -236.80445854319896 0 -236.80445854319896 -121.69427243991242 0 0 0 0 -711.16263851660187 -189.67440575961427 0 -189.67440575961427 -116.23340131044097 0 0 0 0 -739.05505654052104 -295.16077170255994 0 -295.16077170255994 -324.78578877427208 0 0 0 0 -927.83695668422297 -105.69456580781662 0 -105.69456580781662 155.13623729308165 0 0 0 0 -807.72659460919385 -79.584722784933547 0 -79.584722784933547 93.788769269336626 0 0 0 0 -807.48933357199712 -161.92340404859897 0 -161.92340404859897 43.009720890504468 0 0 0 0 -746.20071474796714 -225.81134268404958 0 -225.81134268404958 107.90463561661818 0 0 0 0 -607.60755646185135 -171.65410668491859 0 -171.65410668491859 24.552976897900407 0 0 0 0 -628.78756978712045 -215.0936398593974 0 -215.0936398593974 132.04149505000896 0 0 0 0 -578.20007702126168 -110.46239835422421 0 -110.46239835422421 241.05504193141292 0 0 0 0 -540.5232075714066 -304.92455587059442 0 -304.92455587059442 155.79839329700371 0 0 0 0 -186.95662472009644 -47.53197088197112 0 -47.53197088197112 122.86719519573853 0 0 0 0 -106.4882258060821 -56.419370446461215 0 -56.419370446461215 22.770626428357822 0 0 0 0 -11.824858810614387 -267.38562826223438 0 -267.38562826223438 62.370604019771235 0 0 0 0 182.21432916707272 -231.12417026957382 0 -231.12417026957382 61.722008173895119 0 0 0 0 54.334908686912968 296.63275243104545 0 296.63275243104545 182.72516941943331 0 0 0 0 -663.93224616558291 51.718898323777239 0 51.718898323777239 745.15222357054688 0 0 0 0 -169.80213465660927 -445.94431217615397 0 -445.94431217615397 409.17189599536141 0 0 0 0 -859.61598856489582 -159.2290626959425 0 -159.2290626959425 284.88703253752374 0 0 0 0 -653.41293295257492 13.052170756152009 0 13.052170756152009 81.61671070854527 0 0 0 0 -859.66854126567341 150.39541630310168 0 150.39541630310168 149.59064032933782 0 0 0 0 -893.38159282390552 41.173317311466917 0 41.173317311466917 -202.60379530041791 0 0 0 0 -970.82296925201081 26.821636433491221 0 26.821636433491221 59.320644934982738 0 0 0 0 -1196.0126745402667 495.27220568194116 0 495.27220568194116 -382.01124852254645 0 0 0 0 -1076.8774350596359 -254.73653496827913 0 -254.73653496827913 24.290342364630646 0 0 0 0 -213.54084661074739 85.014158919942247 0 85.014158919942247 -204.17578164586394 0 0 0 0 -346.13255475468031 -185.26301970600298 0 -185.26301970600298 -216.27709821319195 0 0 0 0 -785.8484254512914 206.19946939408646 0 206.19946939408646 -138.06655130276476 0 0 0 0 -1569.2401111556101 335.41625444766362 0 335.41625444766362 -40.682175835308442 0 0 0 0 -1291.8309641324449 610.84052307494119 0 610.84052307494119 -255.76002004737055 0 0 0 0 -1152.9963701209417 607.19012463834213 0 607.19012463834213 -491.74545996383836 0 0 0 0 -2022.7106111700705 972.75070332453663 0 972.75070332453663 -484.47773639390277 0 0 0 0 -1677.9298451424947 242.64724797032778 0 242.64724797032778 -438.89763999866852 0 0 0 0 2.6997426217248233 -15.293065132301221 0 -15.293065132301221 3.0017717178380736 0 0 0 0 -103.40213224390877 -45.631280442023353 0 -45.631280442023353 21.609345780679352 0 0 0 0 109.01794457599317 -99.970777540447898 0 -99.970777540447898 -23.554740668650993 0 0 0 0 -696.64085692232766 -430.90765309171911 0 -430.90765309171911 1322.1752583871432 0 0 0 0 112.05186827383295 -590.62115826680747 0 -590.62115826680747 434.97964296854252 0 0 0 0 -190.71220411072136 23.940913035758058 0 23.940913035758058 1488.7227299742751 0 0 0 0 -135.66871263372013 -973.95067596183208 0 -973.95067596183208 565.02558822057563 0 0 0 0 187.67996634912561 -610.29337699906591 0 -610.29337699906591 541.20575239635309 0 0 0 0 -21.553571460015135 -0.9753795478001166 0 -0.9753795478001166 2.9225836224407642 0 0 0 0 -958.83676641244529 300.68632030810932 0 300.68632030810932 -291.33834990482956 0 0 0 0 -100.34517380940446 14.52493411653132 0 14.52493411653132 1.085344917798281 0 0 0 0 -1556.9926239760716 -25.247274352860927 0 -25.247274352860927 -94.984944242655274 0 0 0 0 -3300.4248827588563 1415.7260941327486 0 1415.7260941327486 -128.85395464950147 0 0 0 0 -114.35720694293195 -37.709556157483121 0 -37.709556157483121 -118.92651446085756 0 0 0 0 -676.27383295165055 494.33482292180054 0 494.33482292180054 -105.37786776219207 0 0 0 0 -89.300376849566788 25.92453533312105 0 25.92453533312105 -6.6300404929667991 0 0 0 0 -543.67200313421199 286.39660928723424 0 286.39660928723424 -277.79358892330174 0 0 0 0 -911.11377660223661 169.75648565779579 0 169.75648565779579 -13.76640618193278 0 0 0 0 -430.00526454309875 157.65202846972238 0 157.65202846972238 -102.01028373848237 0 0 0 0 -245.62113474511716 -55.6743504827582 0 -55.6743504827582 6.1746567482998671 0 0 0 0 -793.50401318421063 259.93201647266801 0 259.93201647266801 -9.403567313073836 0 0 0 0 -42.051781101724842 -51.42404211506863 0 -51.42404211506863 -6.2755216063760209 0 0 0 0 -141.01176141895849 -88.795561976349745 0 -88.795561976349745 -41.008498568146251 0 0 0 0 -231.29251253178882 -74.966607175306194 0 -74.966607175306194 122.24001411300105 0 0 0 0 -199.13675556446833 4.4750273961913081 0 4.4750273961913081 13.673895575705046 0 0 0 0 -95.864464289336468 0.49300307861552994 0 0.49300307861552994 -9.8288454051342491 0 0 0 0 -684.11841042108426 227.49053403331618 0 227.49053403331618 -103.23027907366077 0 0 0 0 -123.13000067151648 -22.895043302865496 0 -22.895043302865496 5.8137252281965637 0 0 0 0 -50.042672210265572 -74.334051688750492 0 -74.334051688750492 -44.9603647468752 0 0 0 0 -826.16616501622775 7.7991523062146371 0 7.7991523062146371 -69.102743818541057 0 0 0 0 -1105.8982068353944 210.18202010474647 0 210.18202010474647 26.052768520978134 0 0 0 0 -231.08452937324182 5.1221320712629677 0 5.1221320712629677 -3.0140038220238239 0 0 0 0 63.177986794202297 -33.020660813000973 0 -33.020660813000973 -158.7348604862691 0 0 0 0 95.026961561350618 -186.99663389665147 0 -186.99663389665147 400.87756064700807 0 0 0 0 -26.166797727581368 -9.4384811954358554 0 -9.4384811954358554 7.7629959323165281 0 0 0 0 -122.33381183548772 178.96720994470388 0 178.96720994470388 154.28112611395409 0 0 0 0 0.82918621363933198 -51.166404648709431 0 -51.166404648709431 300.23531865340192 0 0 0 0 -147.47660012752749 137.93604230727215 0 137.93604230727215 249.97356231402318 0 0 0 0 -109.82012011745246 -0.63921112656316836 0 -0.63921112656316836 405.75699247590956 0 0 0 0 -347.13328967164853 -195.57924548571464 0 -195.57924548571464 382.80372817057469 0 0 0 0 40.872168380912626 58.26771627553353 0 58.26771627553353 102.53768092048995 0 0 0 0 -778.04565063855262 156.68145268377884 0 156.68145268377884 256.68463636621163 0 0 0 0 -498.00822364570922 59.041316051785543 0 59.041316051785543 5.728335008432623 0 0 0 0 -530.03997919801623 -6.2787711851287895 0 -6.2787711851287895 71.619117581043611 0 0 0 0 -627.46037620648713 142.3335230812279 0 142.3335230812279 -26.996376905243778 0 0 0 0 -115.08276981440429 -8.6996279638282381 0 -8.6996279638282381 10.698820491046108 0 0 0 0 -595.28551262906694 181.38648995336052 0 181.38648995336052 -0.53211923396384009 0 0 0 0 -35.206011771241975 -59.963908685381853 0 -59.963908685381853 -36.235324508006059 0 0 0 0 -316.78992370293417 -132.48162654381974 0 -132.48162654381974 -26.637089218669644 0 0 0 0 -100.91274981803144 -89.303780805888437 0 -89.303780805888437 -67.344368693666183 0 0 0 0 -917.18496391264489 -112.59563798822228 0 -112.59563798822228 112.527661232235 0 0 0 0 -18.455489144516392 -63.794148409387731 0 -63.794148409387731 -30.974695072477139 0 0 0 0 -758.39176891952957 209.45303345546358 0 209.45303345546358 8.8374278476312611 0 0 0 0 -922.2331521276501 358.01510070256882 0 358.01510070256882 -122.41882933824218 0 0 0 0 -630.03118158472353 -78.278642810452084 0 -78.278642810452084 -241.85543256349899 0 0 0 0 16.819332028870122 -59.221234310921318 0 -59.221234310921318 -161.5902262443949 0 0 0 0 -111.93750311271288 -254.06230663533188 0 -254.06230663533188 -38.551134982784788 0 0 0 0 -3.5192101734729135 -5.7191770344991255 0 -5.7191770344991255 -1.3988753521132988 0 0 0 0 -57.654521416130592 -6.2006188984260007 0 -6.2006188984260007 10.305767247468793 0 0 0 0 -35.488596296021555 -24.500558832488821 0 -24.500558832488821 7.045401055475196 0 0 0 0 -45.267851976896054 -14.641884368140836 0 -14.641884368140836 -0.58764918230895091 0 0 0 0 -59.494477503394592 -9.579916050795191 0 -9.579916050795191 -1.0401238085510158 0 0 0 0 -57.214457658978063 0.34371341514815867 0 0.34371341514815867 -12.762537821968181 0 0 0 0 -67.73514389929187 10.352844297241973 0 10.352844297241973 1.264345477515235 0 0 0 0 -197.03015721427801 -49.215261737393575 0 -49.215261737393575 13.879770652707521 0 0 0 0 -33.540421843724431 15.599198784000379 0 15.599198784000379 18.478473106237395 0 0 0 0 -59.729400254553184 4.4728556489590119 0 4.4728556489590119 1.5855805087448971 0 0 0 0 -111.38418408930011 6.9130414872240635 0 6.9130414872240635 -49.299702984983014 0 0 0 0 -52.590576969276299 -0.23389682151605484 0 -0.23389682151605484 -32.980979100360514 0 0 0 0 -115.98036564125505 27.282348511614146 0 27.282348511614146 13.33884751763253 0 0 0 0 -78.36322969327739 30.942516763452659 0 30.942516763452659 -27.227266754013272 0 0 0 0 -105.40253525139997 -16.430419247459213 0 -16.430419247459213 -23.024013952326641 0 0 0 0 -65.282662755278579 -47.445096317870593 0 -47.445096317870593 -73.609767530347199 0 0 0 0 -82.915337916514545 2.5822379226292469 0 2.5822379226292469 6.1723935710706428 0 0 0 0 -8.1325562437432808 -2.5529485119363073 0 -2.5529485119363073 1.3478797154457922 0 0 0 0 -84.378441443630436 10.822336296351295 0 10.822336296351295 6.6273137996304285 0 0 0 0 -83.589347656292375 7.3551158127638701 0 7.3551158127638701 15.911523493487948 0 0 0 0 -73.685394814274332 3.1461759647149847 0 3.1461759647149847 0.028709207468637032 0 0 0 0 -79.064621855453879 9.5286920135195032 0 9.5286920135195032 3.2067890141333919 0 0 0 0 -78.174522609057021 10.002263795048748 0 10.002263795048748 -0.93687102117110044 0 0 0 0 -21.977106824766366 25.092652047896451 0 25.092652047896451 11.784227289724129 0 0 0 0 -73.285663901959197 12.669083622427024 0 12.669083622427024 0.30692977236776642 0 0 0 0 -65.60218865830393 0.26814887082218775 0 0.26814887082218775 8.9354519249955047 0 0 0 0 -76.936217408816447 10.211578495350295 0 10.211578495350295 2.2743769452918059 0 0 0 0 -77.741967488131195 8.9974017614276818 0 8.9974017614276818 1.6499479960002645 0 0 0 0 -80.120033792802133 11.815502552131875 0 11.815502552131875 5.3989706985175872 0 0 0 0 -82.313489830004983 11.642924416055394 0 11.642924416055394 2.9620999896906142 0 0 0 0 -83.157070508463221 4.3986729280056807 0 4.3986729280056807 -1.6577027568600897 0 0 0 0 -196.76816069619963 -170.22930596266451 0 -170.22930596266451 79.699551464786055 0 0 0 0 -177.56666842312552 45.445083741640701 0 45.445083741640701 263.69685510379531 0 0 0 0 -266.51817901112372 -21.375734739678592 0 -21.375734739678592 190.67479806591291 0 0 0 0 -307.91046752029797 0.43047090981417568 0 0.43047090981417568 -56.438950167168514 0 0 0 0 -345.78892283764435 27.724105527258871 0 27.724105527258871 263.3800929251629 0 0 0 0 -228.50764516218624 -155.76612769388612 0 -155.76612769388612 -95.602444486781678 0 0 0 0 -7.8643649118407666 -10.59545846110213 0 -10.59545846110213 -7.1770248033791049 0 0 0 0 -453.5377883616602 -86.658998567720118 0 -86.658998567720118 168.50590574520902 0 0 0 0 -363.86686329211807 -280.55683261560625 0 -280.55683261560625 17.631394258598448 0 0 0 0 -256.76057510037208 83.804331536055543 0 83.804331536055543 237.16322585047783 0 0 0 0 -199.46768564853119 104.38228651028885 0 104.38228651028885 171.37393475479621 0 0 0 0 -190.41685765494913 69.401600605408476 0 69.401600605408476 161.81251851774141 0 0 0 0 -226.14713263709564 75.427311924740934 0 75.427311924740934 163.65388306667592 0 0 0 0 -199.52584050339647 104.36324496524685 0 104.36324496524685 83.912288225757948 0 0 0 0 -204.18535995518323 71.765196786374872 0 71.765196786374872 59.644469427588774 0 0 0 0 -198.19899650855223 106.77320054035954 0 106.77320054035954 17.057655340522615 0 0 0 0 -210.28692733599746 82.893046608945951 0 82.893046608945951 73.451742274330172 0 0 0 0 -175.0971812371281 68.3425163870088 0 68.3425163870088 12.375261596098426 0 0 0 0 -225.97713195864344 62.392643213024712 0 62.392643213024712 79.620442330828155 0 0 0 0 -203.43295612430666 22.061305296356295 0 22.061305296356295 142.60475111144478 0 0 0 0 -300.21209288202226 20.028277266139412 0 20.028277266139412 143.61262719888327 0 0 0 0 -91.226811363841989 7.8562774939600786 0 7.8562774939600786 1.7757463587390703 0 0 0 0 -90.943205077244784 4.0347650653475284 0 4.0347650653475284 1.6447870991942182 0 0 0 0 -29.334296393625266 27.882472875169356 0 27.882472875169356 4.3381686626995446 0 0 0 0 -102.4270660403854 12.245695277617415 0 12.245695277617415 23.027442077003798 0 0 0 0 -171.81373933400755 63.130719847409182 0 63.130719847409182 1.6758571681748435 0 0 0 0 -178.56554417390544 102.71157317671373 0 102.71157317671373 -43.776857714834478 0 0 0 0 -97.189625920872459 41.949959022616625 0 41.949959022616625 24.00363934616243 0 0 0 0 -87.924038777011447 -94.506556263551829 0 -94.506556263551829 209.76699312013807 0 0 0 0 -10.819818586792167 6.2448189157852312 0 6.2448189157852312 3.552794709054794 0 0 0 0 -195.41403602447826 128.88414787439979 0 128.88414787439979 -42.89487883289587 0 0 0 0 -31.910779941026703 -14.635245592458887 0 -14.635245592458887 56.013118562408636 0 0 0 0 -45.049181448592265 6.5150189191793686 0 6.5150189191793686 40.640169470357641 0 0 0 0 -50.181041748306598 0.2077546834552777 0 0.2077546834552777 155.07531919202665 0 0 0 0 -61.5773247400939 -168.85985860611618 0 -168.85985860611618 71.713837598040072 0 0 0 0 -118.41289819526537 185.37630037931103 0 185.37630037931103 -80.331778250882053 0 0 0 0 -218.60190213988426 67.75680590751665 0 67.75680590751665 -13.420106576988474 0 0 0 0 -211.29657839765423 81.238391037606561 0 81.238391037606561 -55.724374369776342 0 0 0 0 -221.52082428592257 112.72161341572428 0 112.72161341572428 -14.846723348597152 0 0 0 0 -451.91597121563973 137.87257337171741 0 137.87257337171741 -53.94493953450683 0 0 0 0 -28.758657920081511 34.530982756094858 0 34.530982756094858 -30.072481685473619 0 0 0 0 -92.37211561780714 34.293015061149617 0 34.293015061149617 -1.3116639802401551 0 0 0 0 -62.481895164996047 0.68915461273380174 0 0.68915461273380174 9.9157143186803935 0 0 0 0 -83.6855259111544 17.44907543903264 0 17.44907543903264 -1.2807921915627958 0 0 0 0 -68.15901481200126 0.6208192554240668 0 0.6208192554240668 0.46216034623876112 0 0 0 0 -66.911307976406533 8.0857400771237735 0 8.0857400771237735 -1.4567098339307449 0 0 0 0 -87.13932441585348 21.622337008369868 0 21.622337008369868 30.02782227033822 0 0 0 0 -60.117343972565095 -0.2577199110024111 0 -0.2577199110024111 23.912683193438156 0 0 0 0 -85.52342774976205 23.575995041148758 0 23.575995041148758 14.160788204506389 0 0 0 0 -144.79557467403356 61.430365649701344 0 61.430365649701344 50.823897122267226 0 0 0 0 -83.165856834799342 32.341575032221499 0 32.341575032221499 8.4163318748978782 0 0 0 0 -90.287415944297265 36.994947015534571 0 36.994947015534571 14.744954404358833 0 0 0 0 -86.754853422753513 32.931186242503827 0 32.931186242503827 23.341252785013239 0 0 0 0 -73.18282466888013 145.38958757174527 0 145.38958757174527 7.5935890903892869 0 0 0 0 -889.79523235149099 129.35954606926862 0 129.35954606926862 -137.2473783634764 0 0 0 0 323.24872695808881 175.99508433626693 0 175.99508433626693 5.7936465286196608 0 0 0 0 -34.641695247318253 16.995213917040815 0 16.995213917040815 -5.369567470860428 0 0 0 0 -68.333734077546978 197.5697510353807 0 197.5697510353807 176.70327584700499 0 0 0 0 -127.26666203839704 264.95003184732309 0 264.95003184732309 103.38977195092184 0 0 0 0 -35.568388108050613 19.715235264346774 0 19.715235264346774 23.344715313727001 0 0 0 0 -69.404403483898932 218.54555171418741 0 218.54555171418741 94.690461353723549 0 0 0 0 -78.938332550111227 266.97863738154138 0 266.97863738154138 101.11700418857799 0 0 0 0 -28.529417865807773 323.29594163819905 0 323.29594163819905 -113.74036731969113 0 0 0 0 -107.11408644174662 220.55070460254797 0 220.55070460254797 96.128158078085107 0 0 0 0 -0.87275733129416722 -6.7529976729771022 0 -6.7529976729771022 -2.9174458769805547 0 0 0 0 91.108247964715702 367.01867220865137 0 367.01867220865137 -120.1932416926918 0 0 0 0 -1329.5213642959134 401.30012330623913 0 401.30012330623913 -6.3286820640839778 0 0 0 0 -56.820084553226479 503.39007945098047 0 503.39007945098047 73.558195760279659 0 0 0 0 -24.982430792224477 358.94803400434398 0 358.94803400434398 331.97307299476051 0 0 0 0 -245.64211328155943 206.47139369833121 0 206.47139369833121 716.98726565306515 0 0 0 0 -133.36809052682656 498.01353472289384 0 498.01353472289384 -226.34519361863886 0 0 0 0 -310.31749402892819 166.05697633408084 0 166.05697633408084 -120.52731113649816 0 0 0 0 -1910.1868743940722 0.7719050277455608 0 0.7719050277455608 295.68499112508607 0 0 0 0 -350.25637212532456 62.666102403025661 0 62.666102403025661 290.48304084061283 0 0 0 0 -112.80617741374505 34.243898688644002 0 34.243898688644002 20.682593212884854 0 0 0 0 -801.99823183957778 -239.89048264865198 0 -239.89048264865198 1341.6299778748235 0 0 0 0 -325.83259010463371 121.78440161651633 0 121.78440161651633 145.31256962680618 0 0 0 0 -119.4331264365245 33.48428371217986 0 33.48428371217986 20.866703862618188 0 0 0 0 -686.41732106654672 -12.387784559925421 0 -12.387784559925421 -7.6832524181909321 0 0 0 0 -813.29647437088352 -834.72514951706285 0 -834.72514951706285 1044.9063346080779 0 0 0 0 -571.33877960214159 -301.96518527673595 0 -301.96518527673595 226.64914535181265 0 0 0 0 -462.50514283769007 -539.15315123780624 0 -539.15315123780624 -119.2512849240232 0 0 0 0 -369.93029143329477 -318.78569029899074 0 -318.78569029899074 362.31837275942735 0 0 0 0 -46.888593712305465 -61.486190116403804 0 -61.486190116403804 -48.701228017491871 0 0 0 0 -57.269171645803397 -57.740740496984529 0 -57.740740496984529 -18.504194792681346 0 0 0 0 -94.215428592469834 -109.58059071552543 0 -109.58059071552543 -13.729532401825054 0 0 0 0 -695.29083357178024 -69.880213406337134 0 -69.880213406337134 -90.934496049245354 0 0 0 0 -109.70203452000976 11.777436100595281 0 11.777436100595281 7.3126856713039521 0 0 0 0 -728.79023157426855 -95.460402618864464 0 -95.460402618864464 2.0619956560549326 0 0 0 0 -786.7181357221416 5.04695114759852 0 5.04695114759852 -27.571912741952474 0 0 0 0 -23.944932812579353 -76.87243754179454 0 -76.87243754179454 -28.796208076307735 0 0 0 0 25.944973578538338 -144.5699018973537 0 -144.5699018973537 -133.41807121312604 0 0 0 0 -1054.975269406892 6.3287974359500367 0 6.3287974359500367 65.302233285270631 0 0 0 0 -775.78986355045345 -107.98312740654546 0 -107.98312740654546 -17.43523877194184 0 0 0 0 -679.93301682007586 25.321168548037804 0 25.321168548037804 14.053807107939065 0 0 0 0 -487.15014269725361 -171.19271522997042 0 -171.19271522997042 125.44309082837663 0 0 0 0 -200.54443251909106 -49.72199391396498 0 -49.72199391396498 87.752886901762849 0 0 0 0 -136.05592725024326 106.98860622510438 0 106.98860622510438 45.666952748750191 0 0 0 0 -206.94121657495998 90.542705649701475 0 90.542705649701475 160.45998434470675 0 0 0 0 -199.99098780177201 39.35823334917302 0 39.35823334917302 4.8524133364699082 0 0 0 0 -370.12816078182368 57.457370365778843 0 57.457370365778843 41.035901658218791 0 0 0 0 -230.9548449114518 11.619729844647281 0 11.619729844647281 -30.541422075959417 0 0 0 0 -481.67951809614897 -32.298935580778561 0 -32.298935580778561 40.151475624221348 0 0 0 0 -261.042912397912 56.511226022394112 0 56.511226022394112 3.8703653349621163 0 0 0 0 -455.78706507493916 -62.329738377235117 0 -62.329738377235117 -29.980089316493832 0 0 0 0 -718.69341843328584 -111.28328801309681 0 -111.28328801309681 72.860858056141296 0 0 0 0 -1436.0955004489952 331.89986102938002 0 331.89986102938002 150.21248271923355 0 0 0 0 -3261.9445001409331 -1687.6527388420441 0 -1687.6527388420441 -278.73731773376841 0 0 0 0 -4731.2421701391722 459.95753195653981 0 459.95753195653981 466.24073893113177 0 0 0 0 -5499.9668591745867 -447.98437062125913 0 -447.98437062125913 -522.44267633291236 0 0 0 0 -6575.5670893705101 380.6433871887657 0 380.6433871887657 -874.65524285682477 0 0 0 0 -17.091845621350188 -2.1635441077369819 0 -2.1635441077369819 -7.4937737124832022 0 0 0 0 -455.47110028238967 132.77389384588605 0 132.77389384588605 597.36046792290017 0 0 0 0 66.890967762796208 -698.2135387221872 0 -698.2135387221872 -331.76736800506302 0 0 0 0 -6413.2029322145681 -566.83161237947684 0 -566.83161237947684 -67.621308240779626 0 0 0 0 53.667724158120109 86.730664744328237 0 86.730664744328237 -540.27254002394898 0 0 0 0 46.518892553031037 70.4894153267918 0 70.4894153267918 20.56656378432308 0 0 0 0 -78.933188951793397 12.460624318082933 0 12.460624318082933 5.8495860870967427 0 0 0 0 -110.94428806842916 36.203959169151773 0 36.203959169151773 -139.57310225198853 0 0 0 0 -21.394723812233821 1.7315061313001081 0 1.7315061313001081 12.172144367995823 0 0 0 0 -537.86670692457119 507.50682797957688 0 507.50682797957688 457.29999149603304 0 0 0 0 -116.76777065487113 -162.47905904609297 0 -162.47905904609297 226.57174816052157 0 0 0 0 -0.57820153567149646 0.4569634870439927 0 0.4569634870439927 3.6331090240733537 0 0 0 0 -1182.3445208117555 -549.99257283804639 0 -549.99257283804639 -325.38921157713582 0 0 0 0 -4.8590716471997268 -9.894249025766328 0 -9.894249025766328 -0.93224899900216607 0 0 0 0 91.713031489591231 -140.76637816795568 0 -140.76637816795568 -494.46859493950888 0 0 0 0 -133.46202765439193 -393.33159322030434 0 -393.33159322030434 -746.32253361921948 0 0 0 0 54.805230776401004 135.47778261139354 0 135.47778261139354 -682.60815580841245 0 0 0 0 -296.67334567261969 854.31967102301917 0 854.31967102301917 364.65516878466508 0 0 0 0 -4.7280004372187818 2.9815618329100886 0 2.9815618329100886 -0.96097806099043315 0 0 0 0 -339.04489178941003 -177.20484196930261 0 -177.20484196930261 -67.028880095992577 0 0 0 0 -47.142563696019351 -1.9167392179659828 0 -1.9167392179659828 2.2892348200537072 0 0 0 0 -473.84805246043834 -104.59346098027146 0 -104.59346098027146 102.1888943390444 0 0 0 0 -494.43673875044988 50.474428431524046 0 50.474428431524046 -3.5386342280525014 0 0 0 0 -1.579710706657238 -1.5381515362010703 0 -1.5381515362010703 -1.5894941623727463 0 0 0 0 13.96059700177284 -49.549326105947785 0 -49.549326105947785 145.62818331429918 0 0 0 0 -413.78661484875192 -83.628696585386393 0 -83.628696585386393 170.63013704334412 0 0 0 0 -249.43343485111836 53.208649850864617 0 53.208649850864617 190.08625864520471 0 0 0 0 52.307963332365034 131.46117725347892 0 131.46117725347892 7.7506991987335141 0 0 0 0 -3265.0102990264058 927.20140012488071 0 927.20140012488071 277.88575033180945 0 0 0 0 -2667.0871235394297 756.87173787205074 0 756.87173787205074 266.00349108291232 0 0 0 0 -5501.4788683619845 30.950111201867319 0 30.950111201867319 921.34668472131102 0 0 0 0 -5488.2632139903435 2907.3134140311558 0 2907.3134140311558 -861.46229665571354 0 0 0 0 -15.862623619208989 -1.9689231040714503 0 -1.9689231040714503 -0.92207263221788049 0 0 0 0 89.68443130524247 87.457175964272153 0 87.457175964272153 29.217856146990698 0 0 0 0 -59.906122253072681 -5.1659060713689939 0 -5.1659060713689939 -45.206949866940292 0 0 0 0 -31.725377562858881 -17.606247407773822 0 -17.606247407773822 -0.55088447202262203 0 0 0 0 -79.08783344263793 5.0031464905137568 0 5.0031464905137568 -29.917991571497453 0 0 0 0 -5291.4049595706165 -422.13996675915706 0 -422.13996675915706 220.91403322791547 0 0 0 0 -76.084245159290731 25.76191497598893 0 25.76191497598893 -52.618317087212375 0 0 0 0 -14.436814259667472 1.0083778698936641 0 1.0083778698936641 -0.90229536936999311 0 0 0 0 -12.681270405340598 6.7078721909031458 0 6.7078721909031458 -2.3403596285784474 0 0 0 0 -99.751584840298165 38.230129160555698 0 38.230129160555698 -32.322311423163782 0 0 0 0 -78.337651286798064 1.2567352644922494 0 1.2567352644922494 -15.667754117036907 0 0 0 0 -19.543297024280434 -18.558864602666347 0 -18.558864602666347 1.9932252328870919 0 0 0 0 -5498.2296074984479 -224.57884616974795 0 -224.57884616974795 0.04605754164362999 0 0 0 0 -133.59502888236602 70.659599664032172 0 70.659599664032172 -57.310197675905982 0 0 0 0 -153.86252622361644 110.34065786612017 0 110.34065786612017 -0.107142721941571 0 0 0 0 -13.73891022480268 -1.2977436124952533 0 -1.2977436124952533 -0.10210786813681487 0 0 0 0 -210.00235052403877 73.239950074073434 0 73.239950074073434 -20.022488634522688 0 0 0 0 -14.644991562608396 0.040411848924350124 0 0.040411848924350124 -0.18239274443242687 0 0 0 0 -45.43654736323515 0.58505263933240292 0 0.58505263933240292 -0.0094423708569787868 0 0 0 0 -5228.242547438218 11.675948728734019 0 11.675948728734019 -2.063045545332935 0 0 0 0 -257.3421858077636 189.65304690120499 0 189.65304690120499 -0.075384228892738658 0 0 0 0 -444.47724794680835 348.06682354812449 0 348.06682354812449 -124.1823046747806 0 0 0 0 -209.07031401782297 188.00162094466708 0 188.00162094466708 -108.5024197912457 0 0 0 0 -106.41866910044337 87.600555296525542 0 87.600555296525542 -119.3878847427805 0 0 0 0 -75.885023671638919 79.083889874080938 0 79.083889874080938 -129.09177119438687 0 0 0 0 -76.516942971109529 223.06634929671912 0 223.06634929671912 -379.07787627500352 0 0 0 0 -13.003710930439411 86.527021320190698 0 86.527021320190698 -168.82701854982167 0 0 0 0 -20.985493102314649 50.477747374141472 0 50.477747374141472 -206.76769512586526 0 0 0 0 -85.749074231105624 -46.257239434517857 0 -46.257239434517857 32.680570352042793 0 0 0 0 24.146680106845452 -61.110736307832966 0 -61.110736307832966 -85.017864572816492 0 0 0 0 -72.11848864404601 62.361881519886538 0 62.361881519886538 -153.44138735129343 0 0 0 0 -17.579398311441764 126.46048361616545 0 126.46048361616545 159.09542061450881 0 0 0 0 -73.838288445699959 -8.6257411190197928 0 -8.6257411190197928 0.81805275489426221 0 0 0 0 -158.16542394689168 -77.441916020549002 0 -77.441916020549002 -146.19878336677448 0 0 0 0 106.96588812189293 178.85300147084041 0 178.85300147084041 -134.82927538729109 0 0 0 0 -130.58588380733272 -210.12383868083143 0 -210.12383868083143 236.44368748123645 0 0 0 0 -71.733798405301513 -5.0515441662120466 0 -5.0515441662120466 0.89185217431672581 0 0 0 0 -455.79101618099958 -358.67146505849348 0 -358.67146505849348 94.33737967702541 0 0 0 0 -184.79333513940219 -119.27505458424488 0 -119.27505458424488 292.54373104646561 0 0 0 0 22.745307842589682 -36.779607835615593 0 -36.779607835615593 88.460898153435323 0 0 0 0 23.868441157741472 -37.525029895553985 0 -37.525029895553985 82.069414019630557 0 0 0 0 -57.809444674616657 -1.9384395797842231 0 -1.9384395797842231 1.0639260612006942 0 0 0 0 -1584.2734599360265 -155.76817060023609 0 -155.76817060023609 229.46365871295973 0 0 0 0 -957.09088514637551 1078.4229492621121 0 1078.4229492621121 -898.25332608778012 0 0 0 0 -7.1165216160297859 304.16923538558808 0 304.16923538558808 -1158.7559782445514 0 0 0 0 159.15082993515534 -234.00222482498035 0 -234.00222482498035 -350.65411117157771 0 0 0 0 -105.92784074018709 373.07250152357682 0 373.07250152357682 -757.63564696593744 0 0 0 0 -413.84782410487242 434.07507429642118 0 434.07507429642118 -351.00823335386417 0 0 0 0 -1185.6328351434568 729.79177115429968 0 729.79177115429968 -166.43913526000335 0 0 0 0 -410.81698752502234 556.25065963997372 0 556.25065963997372 -412.20921239537745 0 0 0 0 -1071.6356408910797 449.98474302931356 0 449.98474302931356 -1.1266844003633791 0 0 0 0 -146.44750885170652 -160.78806437899661 0 -160.78806437899661 0.2351867397576938 0 0 0 0 154.15866995371471 1.766936815945531 0 1.766936815945531 14.517592467748329 0 0 0 0 200.34688398486469 -152.67015679036811 0 -152.67015679036811 0.034194652891356293 0 0 0 0 -3.8857551376537458 0.13821043549972956 0 0.13821043549972956 2.0901226126650245 0 0 0 0 -1586.7913116656273 736.10511955148968 0 736.10511955148968 -166.4528944899879 0 0 0 0 66.240017480246024 -291.34383548404213 0 -291.34383548404213 94.242230063918896 0 0 0 0 -2.032223516699446 -1.2379475489362335 0 -1.2379475489362335 6.6416478087351303 0 0 0 0 -539.07293795931037 292.26506188765313 0 292.26506188765313 -166.26352626418793 0 0 0 0 307.98274911922636 -78.958554376966049 0 -78.958554376966049 -360.67339741806177 0 0 0 0 -20.359283430516712 -3.0357701206313976 0 -3.0357701206313976 0.27978410829485512 0 0 0 0 -706.26233663347375 -79.600738608818119 0 -79.600738608818119 221.21115322587366 0 0 0 0 -358.64312965469435 -387.93494256795771 0 -387.93494256795771 249.63724545037823 0 0 0 0 -866.22452876951502 2337.5251543168597 0 2337.5251543168597 -2410.9490213851996 0 0 0 0 -24.475376507944361 2.5187079368815191 0 2.5187079368815191 -0.29888893612022749 0 0 0 0 -525.86101820808835 2078.2404193302095 0 2078.2404193302095 -2259.7470406206794 0 0 0 0 -602.11875431291992 191.69986043610925 0 191.69986043610925 211.59215805135909 0 0 0 0 -1549.3435225611065 47.422354922048825 0 47.422354922048825 307.07236786921931 0 0 0 0 -3.1778614587569223 -0.85097710651060865 0 -0.85097710651060865 0.25161057557883237 0 0 0 0 -95.725287090458323 40.955693940115438 0 40.955693940115438 14.497453904140798 0 0 0 0 961.28726930513221 -784.35742756924367 0 -784.35742756924367 -272.74680679893868 0 0 0 0 -148.73963478617952 38.358128083681777 0 38.358128083681777 -61.554942315401945 0 0 0 0 -145.02176888962276 5.4133445822540125 0 5.4133445822540125 -36.525057372792162 0 0 0 0 -167.46658082253271 10.870561373009934 0 10.870561373009934 6.1731291920036711 0 0 0 0 43.081450089579448 60.446670570758101 0 60.446670570758101 -57.543130505600175 0 0 0 0 254.09001470523071 -66.583370764273241 0 -66.583370764273241 -65.848491929308466 0 0 0 0 -409.13138152027386 -118.64762769732238 0 -118.64762769732238 11.735841215611742 0 0 0 0 110.70211720163934 -44.787074374608665 0 -44.787074374608665 67.775226118276805 0 0 0 0 47.888213553989772 -95.002572511391804 0 -95.002572511391804 125.61017508243299 0 0 0 0 0.98129699708078988 -44.771618071201601 0 -44.771618071201601 74.26191517937059 0 0 0 0 13.014389162970474 -58.489051837799479 0 -58.489051837799479 71.502812987360585 0 0 0 0 -6.3444826284539886 -9.3433385037590142 0 -9.3433385037590142 49.497486284148522 0 0 0 0 -8.5729116754882853 -2.9689097477624102 0 -2.9689097477624102 -2.9133382889816182 0 0 0 0 -46.94581314872994 -1.8161757213533676 0 -1.8161757213533676 -5.2031509815240327 0 0 0 0 -15.642958868921141 1.6084537484870012 0 1.6084537484870012 -1.24083484974912 0 0 0 0 -31.188802436547121 55.102874295995093 0 55.102874295995093 -157.24464921842613 0 0 0 0 -85.903056207462214 82.969927204460419 0 82.969927204460419 -23.055176965694955 0 0 0 0 -8.818444915344287 -4.401397707109016 0 -4.401397707109016 -0.60487323237462143 0 0 0 0 -35.450047441205243 -43.506339996730048 0 -43.506339996730048 -38.6977914012067 0 0 0 0 -62.051789910605294 48.497301726214914 0 48.497301726214914 -38.711287282689 0 0 0 0 -23.519501221532209 -8.8803942928745982 0 -8.8803942928745982 -5.4993459623445284 0 0 0 0 -72.532102530036354 43.04458292452091 0 43.04458292452091 -37.874844403905229 0 0 0 0 -80.407519120719371 28.38529430918959 0 28.38529430918959 1.2727752846203657 0 0 0 0 -81.107507306507614 31.498771898488997 0 31.498771898488997 7.0555598899873075 0 0 0 0 -67.733340238104574 69.723209648697321 0 69.723209648697321 38.938486827622455 0 0 0 0 16.0832486620493 40.569847709807135 0 40.569847709807135 -34.833649020067014 0 0 0 0 -174.45821032211825 90.677622160167289 0 90.677622160167289 27.833093874448423 0 0 0 0 -86.093879854131956 20.127234057430542 0 20.127234057430542 38.741795409906821 0 0 0 0 -83.500890866336022 19.908550364011884 0 19.908550364011884 6.0571598361837751 0 0 0 0 -18.659972982745785 12.48634292017951 0 12.48634292017951 5.1866077996097353 0 0 0 0 -101.94658366463358 66.287549071466685 0 66.287549071466685 22.088795545060311 0 0 0 0 -10.800606549582426 11.163373561289703 0 11.163373561289703 2.2109074922306067 0 0 0 0 -82.679801592719741 59.936880017362455 0 59.936880017362455 8.1245154585303681 0 0 0 0 -84.734519894424011 23.360595998875397 0 23.360595998875397 3.7573218458628617 0 0 0 0 -62.228278371594058 16.92895607575926 0 16.92895607575926 3.4710848224681214 0 0 0 0 -29.880991206184262 22.673004894284531 0 22.673004894284531 64.98661799840329 0 0 0 0 -86.800506582745584 25.829935880715311 0 25.829935880715311 8.1194765761324561 0 0 0 0 -86.596027295461681 24.647310325291755 0 24.647310325291755 -1.8410230498702731 0 0 0 0 -37.920112358377082 9.0220714711922483 0 9.0220714711922483 50.179425657473985 0 0 0 0 -71.814214230543826 27.603975446702449 0 27.603975446702449 29.748123249602866 0 0 0 0 -59.591728056082502 28.905048353281018 0 28.905048353281018 70.61288783728196 0 0 0 0 -63.6646048894508 -10.843120383663631 0 -10.843120383663631 36.362879215719829 0 0 0 0 -46.788108429434942 127.42528951861641 0 127.42528951861641 -65.741370701418418 0 0 0 0 -136.14816036383854 169.05817005001882 0 169.05817005001882 138.77748237877222 0 0 0 0 -3.460984367398737 2.3907589859280591 0 2.3907589859280591 -1.0619674401207209 0 0 0 0 -144.67430807571509 -127.9405270584648 0 -127.9405270584648 -100.43953702499039 0 0 0 0 212.34016652334685 -104.55572801355333 0 -104.55572801355333 -271.36446484322096 0 0 0 0 -350.01796859313617 -130.10486454969032 0 -130.10486454969032 -1.4276562740160443 0 0 0 0 -467.47010175129981 253.39166281304279 0 253.39166281304279 48.664493003027019 0 0 0 0 171.24739329112344 21.229976757828354 0 21.229976757828354 30.79843462089957 0 0 0 0 -343.15354233446487 343.97129247008229 0 343.97129247008229 -48.05150352673445 0 0 0 0 -133.1127537880966 -38.838305127236254 0 -38.838305127236254 27.129307674950951 0 0 0 0 -52.313858825353122 -12.464799197851278 0 -12.464799197851278 -1.8659794632230602 0 0 0 0 -70.801384613791015 -16.751803895370358 0 -16.751803895370358 228.78619892949018 0 0 0 0 -37.200139216859498 14.90441752153599 0 14.90441752153599 18.316555273748222 0 0 0 0 -282.45798698185536 671.2639127747151 0 671.2639127747151 -802.827360148357 0 0 0 0 -422.17024709923135 130.66884598763181 0 130.66884598763181 -219.57402112860882 0 0 0 0 -539.19613181579552 84.485766965922039 0 84.485766965922039 -225.42165768935956 0 0 0 0 -183.17904343396367 200.07560376881247 0 200.07560376881247 -259.37277170495236 0 0 0 0 -359.60342645499622 265.29826163631878 0 265.29826163631878 -109.19303521796246 0 0 0 0 -139.58787259866949 134.09179269070228 0 134.09179269070228 -163.34720307424141 0 0 0 0 637.51511084486265 36.348878135495852 0 36.348878135495852 -376.06987222482257 0 0 0 0 -20.45914398675086 270.25513899267571 0 270.25513899267571 6.1043116320543049 0 0 0 0 -0.36400665733958704 -0.87404930528555269 0 -0.87404930528555269 -9.6971942237349076 0 0 0 0 -2552.2436427849025 1631.9032324117991 0 1631.9032324117991 -208.48400367495378 0 0 0 0 -2022.7479926302331 1179.3403660837494 0 1179.3403660837494 21.91272348365419 0 0 0 0 -2932.6376785039756 506.98489073281189 0 506.98489073281189 129.72375746823718 0 0 0 0 124.11189108948747 554.05702255686811 0 554.05702255686811 144.46873869738556 0 0 0 0 -42.211077077059741 -2.5745511850091134 0 -2.5745511850091134 -6.3561864014543099 0 0 0 0 130.32327534350043 -47.736228412700939 0 -47.736228412700939 351.16986346052272 0 0 0 0 -2409.0885667606199 578.31640755710339 0 578.31640755710339 -128.33225872450021 0 0 0 0 -191.96330961222941 14.009258114050837 0 14.009258114050837 24.567920431246911 0 0 0 0 -97.274109950612228 -41.716186517376457 0 -41.716186517376457 -13.933969438912468 0 0 0 0 -450.30167073747725 189.09224649686686 0 189.09224649686686 -154.32902570031874 0 0 0 0 -71.087437698464157 -38.419584905487284 0 -38.419584905487284 4.0426907439572179 0 0 0 0 -902.13200498564402 19.331006840796817 0 19.331006840796817 -276.08676784752618 0 0 0 0 -220.90427476167679 71.601963822271955 0 71.601963822271955 -78.791820799391644 0 0 0 0 -969.98714852787089 1528.058250303257 0 1528.058250303257 -1398.9581748994678 0 0 0 0 -125.5541697605222 8.4305541643180959 0 8.4305541643180959 -69.936207235933125 0 0 0 0 -60.694210421623239 -45.021052996020273 0 -45.021052996020273 -1.8264097414958909 0 0 0 0 -150.85336179219303 12.104324445069494 0 12.104324445069494 -49.443641447207483 0 0 0 0 -546.8840667414479 173.22435094163757 0 173.22435094163757 -100.93645800104605 0 0 0 0 -1248.6291190143165 457.76693976442533 0 457.76693976442533 -307.0764542583255 0 0 0 0 -77.543469075739182 -46.991302269425489 0 -46.991302269425489 -0.78263726104934506 0 0 0 0 -455.62964806654782 197.84614025185397 0 197.84614025185397 -436.62654428301585 0 0 0 0 -577.66912876570132 265.36354146338829 0 265.36354146338829 -115.23334326574077 0 0 0 0 -55.814277555336446 3.3034632611079644 0 3.3034632611079644 -11.193596557896152 0 0 0 0 -205.83512406354657 -100.18634910425271 0 -100.18634910425271 28.513773944850982 0 0 0 0 -231.49159748721831 175.42942973602976 0 175.42942973602976 -78.207380447112882 0 0 0 0 1.0712571582918144 -4.5969263354629959 0 -4.5969263354629959 -6.5980002242319884 0 0 0 0 -1082.0933614999813 818.89590293723154 0 818.89590293723154 104.43983307914095 0 0 0 0 13.345228233926548 -10.97133827774114 0 -10.97133827774114 -8.9075720923266424 0 0 0 0 -1074.4102972666442 357.88603501201192 0 357.88603501201192 738.90257045057228 0 0 0 0 -16.218794192725909 3.8514883013787085 0 3.8514883013787085 4.1771102985921988 0 0 0 0 -245.80648853682214 -601.29221088556767 0 -601.29221088556767 -536.11582715057375 0 0 0 0 -155.39360192496679 10.540370512426307 0 10.540370512426307 -19.08399394792832 0 0 0 0 -72.737899518808604 -20.836409129497426 0 -20.836409129497426 3.6702748203549742 0 0 0 0 -171.16990424264804 -59.285439705884983 0 -59.285439705884983 32.417337385095834 0 0 0 0 -113.52211692361863 -36.156202242120997 0 -36.156202242120997 -8.9047725230065549 0 0 0 0 -1036.3569260279182 918.40941480366303 0 918.40941480366303 -555.77111755067563 0 0 0 0 -1161.9313887863991 807.81377965906154 0 807.81377965906154 -431.86484062304771 0 0 0 0 -765.70781786997395 756.90602359357922 0 756.90602359357922 -642.01853912019124 0 0 0 0 -316.72736158842235 416.25001325636151 0 416.25001325636151 -451.49229876218578 0 0 0 0 -798.70339148967469 442.94068471705873 0 442.94068471705873 -296.04517200261375 0 0 0 0 -124.50667939436812 41.426421293234228 0 41.426421293234228 5.4862040156808067 0 0 0 0 -1194.0759037622247 1929.6239635846362 0 1929.6239635846362 -968.80029145771812 0 0 0 0 -1001.2459898351372 655.22443735951924 0 655.22443735951924 -415.67508351980757 0 0 0 0 -1481.0606815632491 1907.5024403126608 0 1907.5024403126608 -708.90578144898973 0 0 0 0 -55.715347423832497 0.57944086226207503 0 0.57944086226207503 1.6880450768744946 0 0 0 0 -2138.9051838935266 -70.515849502106505 0 -70.515849502106505 -711.03471678936421 0 0 0 0 -30.602760227094336 12.421681884084251 0 12.421681884084251 9.3507313447615097 0 0 0 0 -300.93763103397941 208.45118575935413 0 208.45118575935413 221.24859777450399 0 0 0 0 -117.29670561486273 -75.274044075904499 0 -75.274044075904499 223.14571839260225 0 0 0 0 -114.37345193103624 73.075321230272337 0 73.075321230272337 324.74919226024349 0 0 0 0 -41.788244686764187 7.0030380833409538 0 7.0030380833409538 -6.7154165517160909 0 0 0 0 -42.007398578163702 -0.015920729010190371 0 -0.015920729010190371 -15.463958202514959 0 0 0 0 44.392903953004861 -63.394131832556695 0 -63.394131832556695 17.815568212337439 0 0 0 0 -187.41392915471806 -55.211439695020999 0 -55.211439695020999 302.24911258602128 0 0 0 0 -274.83160163345747 87.588318756563694 0 87.588318756563694 123.45764145987619 0 0 0 0 -41.292188812891254 78.820959896502927 0 78.820959896502927 -171.34372481414766 0 0 0 0 -254.96616127059679 -107.99690519877896 0 -107.99690519877896 215.9853398036602 0 0 0 0 1.3671184868435375 -2.1317207822810431 0 -2.1317207822810431 -37.755956606587119 0 0 0 0 -351.95731424813857 -135.72029110375559 0 -135.72029110375559 -47.24412324579724 0 0 0 0 -705.02297994723631 392.62007111442 0 392.62007111442 -133.77159081570994 0 0 0 0 -353.45160774380201 574.16943547594008 0 574.16943547594008 -291.83853110103189 0 0 0 0 -941.59833295170392 -81.6461972997526 0 -81.6461972997526 -1.5209798763367866 0 0 0 0 -1445.2866167520551 943.18429645475669 0 943.18429645475669 -186.90137378007213 0 0 0 0 -265.7646867633448 161.75533842395947 0 161.75533842395947 -121.66589238292113 0 0 0 0 -6.2797394988081123 -2.0385533458635337 0 -2.0385533458635337 -0.23797480503877083 0 0 0 0 -733.41084734477045 166.68829140306343 0 166.68829140306343 276.07351953853822 0 0 0 0 -594.92803811773774 708.025125486501 0 708.025125486501 -227.01864149436472 0 0 0 0 -5.4637359814304887 -1.3700390564532086 0 -1.3700390564532086 1.5074969337010486 0 0 0 0 185.10069185026805 -356.49412532992716 0 -356.49412532992716 -1.6277135077298668 0 0 0 0 -818.86617215869774 1033.3966390658697 0 1033.3966390658697 -521.28553002582817 0 0 0 0 -12.232070211702194 -3.7255659585578655 0 -3.7255659585578655 6.1881454298294676 0 0 0 0 -1852.1082012169063 -186.59212680179166 0 -186.59212680179166 -1914.6018429554938 0 0 0 0 27.166359092283528 -400.57175784073411 0 -400.57175784073411 229.09339710837409 0 0 0 0 -37.868848756106672 199.4577541524886 0 199.4577541524886 -334.43497348619337 0 0 0 0 -1967.3736461184308 1291.7369062932385 0 1291.7369062932385 1181.6494004130377 0 0 0 0 -5.9869251411821551 -0.052743419222821331 0 -0.052743419222821331 13.790857882873471 0 0 0 0 -485.97919455837837 211.44681864644599 0 211.44681864644599 -132.45337032650968 0 0 0 0 -1720.748897959129 -524.16816866409795 0 -524.16816866409795 -3.5342348211945591 0 0 0 0 40.763347818457987 575.49656914919774 0 575.49656914919774 -494.39009429715918 0 0 0 0 -4.1871201016591044 6.4391186429377854 0 6.4391186429377854 -6.8593861718047915 0 0 0 0 -641.76431587929255 -23.759450210794739 0 -23.759450210794739 146.67447704356186 0 0 0 0 -162.51614070529467 185.75483373729855 0 185.75483373729855 17.451059618595991 0 0 0 0 -856.76333882426843 -43.368116489951262 0 -43.368116489951262 221.38248391934667 0 0 0 0 -707.00018996716244 299.17072120916168 0 299.17072120916168 53.582469010080331 0 0 0 0 -409.53150731438654 238.74964101493725 0 238.74964101493725 -124.46312679234234 0 0 0 0 -808.22300674574217 -48.923219336416878 0 -48.923219336416878 35.274642536044666 0 0 0 0 -29.427136895036142 23.591888240804337 0 23.591888240804337 26.219660859220436 0 0 0 0 -283.31888189222082 187.49831214273399 0 187.49831214273399 -16.646878381844999 0 0 0 0 -34.43306678997476 1.662066035121768 0 1.662066035121768 7.7488594004947267 0 0 0 0 -114.72836917237146 62.957667178747215 0 62.957667178747215 -7.5625075569378737 0 0 0 0 -262.965629248607 162.35649971001828 0 162.35649971001828 -67.398534619153452 0 0 0 0 -359.69728539767675 336.83443982392834 0 336.83443982392834 -65.954509707850079 0 0 0 0 -439.12875613532378 78.271841868767751 0 78.271841868767751 105.98232721974205 0 0 0 0 -12.721371061052196 -45.009528693659377 0 -45.009528693659377 32.371414636627833 0 0 0 0 -13.993793038035108 -9.8742084599213911 0 -9.8742084599213911 -4.4751296118868655 0 0 0 0 -16.540593109704787 -69.349162092788106 0 -69.349162092788106 45.523106347617784 0 0 0 0 -22.055198465895955 -49.814122966050917 0 -49.814122966050917 -0.002230958185895103 0 0 0 0 39.074315560923424 -16.11622304779781 0 -16.11622304779781 6.1795165149662905 0 0 0 0 39.940120735642267 -46.658087344581666 0 -46.658087344581666 0.067964941997206041 0 0 0 0 0.056579096922803274 -0.10718994717646524 0 -0.10718994717646524 -0.013392957729122579 0 0 0 0 -241.85752342181513 51.812188614724931 0 51.812188614724931 19.727187604866998 0 0 0 0 -123.40537561898236 -58.10431433566248 0 -58.10431433566248 -0.10192252100628311 0 0 0 0 -63.500689691863954 2.3481727237501033 0 2.3481727237501033 18.738621784510755 0 0 0 0 -6.7275659260631073 -51.461928991772879 0 -51.461928991772879 -15.482070432897501 0 0 0 0 -97.175626467564143 -8.4870973062464259 0 -8.4870973062464259 -3.2783726415152614 0 0 0 0 -131.18208856394631 7.7098558454416946 0 7.7098558454416946 23.060134232857365 0 0 0 0 -90.478788269057986 -31.586949046949826 0 -31.586949046949826 39.059321445905056 0 0 0 0 -87.188902771682478 9.5525834805870318 0 9.5525834805870318 29.019825543607226 0 0 0 0 -222.11952695155924 -10.975068161071476 0 -10.975068161071476 -57.294022292629961 0 0 0 0 -195.89474893435545 -6.4647921549315015 0 -6.4647921549315015 -313.79374002008262 0 0 0 0 -35.445571946451025 -12.707735862562174 0 -12.707735862562174 -8.7265557095092614 0 0 0 0 -501.20914688630728 105.62073392265575 0 105.62073392265575 32.792399747895615 0 0 0 0 -47.823826800807581 1.3991251204791126 0 1.3991251204791126 4.908755164137899 0 0 0 0 -90.066737548928359 -8.2432929701196826 0 -8.2432929701196826 2.9792697905872387 0 0 0 0 -134.45574471029977 4.7611422100583241 0 4.7611422100583241 -2.7823766186902503 0 0 0 0 -134.64846596819575 -11.330737458319966 0 -11.330737458319966 -28.142640622338149 0 0 0 0 -66.387394213315872 -22.265264528548073 0 -22.265264528548073 0.037877607080837095 0 0 0 0 -107.06281145170215 13.336635626505313 0 13.336635626505313 -5.0387671926832098 0 0 0 0 -126.22900658688741 -2.1826074486311313 0 -2.1826074486311313 -9.2589390184655258 0 0 0 0 -86.153085457029306 -27.124444952792274 0 -27.124444952792274 19.048079069917321 0 0 0 0 -126.90050585533027 -6.5452247813814211 0 -6.5452247813814211 0.046733130063557837 0 0 0 0 -126.85215727391187 -11.886129760448853 0 -11.886129760448853 9.5737820262288551 0 0 0 0 -122.55382289614113 25.608764876530131 0 25.608764876530131 3.6651803089045032 0 0 0 0 -133.58565617513301 -1.715436542871509 0 -1.715436542871509 13.300716697419375 0 0 0 0 -355.15348283547792 11.757376570484666 0 11.757376570484666 122.03661069283226 0 0 0 0 -133.56202143669361 3.9805197946902808 0 3.9805197946902808 1.2972164785309701 0 0 0 0 -112.36478970677126 195.93227116979506 0 195.93227116979506 10.396455048572079 0 0 0 0 -89.529313904413129 24.736960663767661 0 24.736960663767661 -9.2615923878287578 0 0 0 0 -243.09732743557834 -81.85803729922327 0 -81.85803729922327 8.4971819153397519 0 0 0 0 -575.39727706294798 -159.37941054269288 0 -159.37941054269288 71.904913917689555 0 0 0 0 -187.21494285398853 -51.657921313858466 0 -51.657921313858466 39.972108607430556 0 0 0 0 -292.69936489083921 -66.306322746820115 0 -66.306322746820115 -54.073895897944567 0 0 0 0 -259.3766983896785 157.18818841957091 0 157.18818841957091 -88.87106822179021 0 0 0 0 -264.05155166072655 180.6494118459359 0 180.6494118459359 -81.756803265462167 0 0 0 0 -117.27562827428611 99.297739917271059 0 99.297739917271059 3.8453485449805331 0 0 0 0 -784.24657589585695 446.13274573236595 0 446.13274573236595 -611.16898335200676 0 0 0 0 -267.38681441776862 135.5959343226632 0 135.5959343226632 -10.501907951743306 0 0 0 0 -267.36398473659938 132.49978111824203 0 132.49978111824203 -72.004013800570021 0 0 0 0 -341.33191168837948 -303.34013267744967 0 -303.34013267744967 -110.29928554568778 0 0 0 0 -41.141608575691691 -15.07061366910203 0 -15.07061366910203 14.611255380962646 0 0 0 0 -205.56030871448456 228.94575259380917 0 228.94575259380917 -611.68132989441483 0 0 0 0 -167.40536430792054 -15.374228581158661 0 -15.374228581158661 -119.63455411064933 0 0 0 0 -461.62625040536659 268.16637912039573 0 268.16637912039573 -73.97203373231514 0 0 0 0 -416.45214308598952 340.73194153943928 0 340.73194153943928 -0.38097611118109853 0 0 0 0 -696.84962563539739 656.00407034410637 0 656.00407034410637 -312.06538916382351 0 0 0 0 -559.01453356629645 279.92731077424696 0 279.92731077424696 -26.279265326234281 0 0 0 0 -287.55125963503087 140.86045113746582 0 140.86045113746582 -142.60174984709602 0 0 0 0 -120.24461020581441 81.342210708437221 0 81.342210708437221 -13.402863556403121 0 0 0 0 -1383.1695709671185 253.76373590973685 0 253.76373590973685 477.29736531944491 0 0 0 0 -60.066711721190416 13.187996833957058 0 13.187996833957058 1.178111241690857 0 0 0 0 -292.76331520303393 177.60210887710531 0 177.60210887710531 -125.37972907470976 0 0 0 0 -448.42907811875921 -169.37504019570247 0 -169.37504019570247 345.63192748560368 0 0 0 0 -29.321462357182583 -13.936135341095081 0 -13.936135341095081 -26.576011769471329 0 0 0 0 -209.15742277461686 85.663349399371896 0 85.663349399371896 -221.49658948756598 0 0 0 0 -268.74236501127598 185.91268124689168 0 185.91268124689168 -102.26302386795487 0 0 0 0 -65.833411788931699 167.0317097089785 0 167.0317097089785 -199.6725581669466 0 0 0 0 -269.96614933945239 175.26742380881285 0 175.26742380881285 -116.03993442449223 0 0 0 0 -267.8133561785362 184.23658827404756 0 184.23658827404756 -125.39116427949239 0 0 0 0 -273.69629323032859 211.98328796445458 0 211.98328796445458 -228.30942163377085 0 0 0 0 -272.70765845160349 177.19650769197028 0 177.19650769197028 -102.71346030366722 0 0 0 0 -22.10237494011173 13.370328825039138 0 13.370328825039138 15.530516859038954 0 0 0 0 273.2334700403444 -698.81464670718469 0 -698.81464670718469 693.46385978767466 0 0 0 0 -482.58233881846536 300.76773688847129 0 300.76773688847129 -71.383804102551721 0 0 0 0 -1110.6042440873425 217.36184976085133 0 217.36184976085133 -75.740998091851907 0 0 0 0 -292.69977911439491 130.11842542822228 0 130.11842542822228 -238.14342955663074 0 0 0 0 1.1282511750692379 -0.48993675038668982 0 -0.48993675038668982 -5.8169341196598641 0 0 0 0 -427.27138512028614 -68.522305699471076 0 -68.522305699471076 -453.9190706376969 0 0 0 0 -242.24436675332254 131.95926431963562 0 131.95926431963562 -170.77373013947908 0 0 0 0 -269.66283173399279 65.712439063737747 0 65.712439063737747 -317.48084009176091 0 0 0 0 -192.87993610920967 128.36186110436165 0 128.36186110436165 -300.1145485063584 0 0 0 0 -210.66552632520325 172.55889711418513 0 172.55889711418513 -302.53619473735716 0 0 0 0 -80.636790251338425 0.95780823349334199 0 0.95780823349334199 9.4519700924456629 0 0 0 0 -201.95724867534591 152.94604349518113 0 152.94604349518113 -328.69729390925272 0 0 0 0 -48.559454889383062 -16.471601964695822 0 -16.471601964695822 -23.224735807110346 0 0 0 0 -72.896041089506355 -23.176513064777332 0 -23.176513064777332 -0.0051844148924156119 0 0 0 0 -141.83165010088851 -0.75655801126913502 0 -0.75655801126913502 -8.8877181548955377 0 0 0 0 10.665909002362127 -24.694934692232192 0 -24.694934692232192 -5.5553342529404208 0 0 0 0 -98.009829379880102 -15.971384520862387 0 -15.971384520862387 -46.333990746291533 0 0 0 0 -689.58304317881266 63.938862167910088 0 63.938862167910088 -83.26465229850055 0 0 0 0 -164.27019567042589 139.93376585467968 0 139.93376585467968 -91.473302335412427 0 0 0 0 -84.192790435197281 -41.001312333367622 0 -41.001312333367622 7.6056399897646259 0 0 0 0 -289.34937522080145 -60.455420740366662 0 -60.455420740366662 1.7833587401610203 0 0 0 0 -925.15307195704372 1702.1616643717166 0 1702.1616643717166 -572.9527222281863 0 0 0 0 -1498.610833065628 119.40461755043958 0 119.40461755043958 123.89466012890647 0 0 0 0 -618.80831444385694 -696.13427010563942 0 -696.13427010563942 593.58580830108144 0 0 0 0 -642.81305143861391 -69.117659071324283 0 -69.117659071324283 -309.26245443911466 0 0 0 0 -68.799466890391784 41.779551384155312 0 41.779551384155312 -44.872117437950855 0 0 0 0 464.36915717368538 265.73950939771578 0 265.73950939771578 -391.12481577957249 0 0 0 0 -194.27635471269605 207.1404218440648 0 207.1404218440648 -310.49784344499255 0 0 0 0 -92.884563242419972 95.456860108739193 0 95.456860108739193 -431.80734646195492 0 0 0 0 -1104.7762246348138 7.6128780508912541 0 7.6128780508912541 -181.12099196124549 0 0 0 0 -1109.6747497612523 -106.26427595209475 0 -106.26427595209475 169.19195112010573 0 0 0 0 -541.22682773010456 370.236742641577 0 370.236742641577 -230.17600363835891 0 0 0 0 -260.84173117263708 -94.214287661203343 0 -94.214287661203343 -215.100971241769 0 0 0 0 -1962.5199376824894 -400.32475117689046 0 -400.32475117689046 1369.565168910889 0 0 0 0 -206.73298115306534 60.179006105736903 0 60.179006105736903 -381.90805854626797 0 0 0 0 1157.7279874446358 -951.03038563089558 0 -951.03038563089558 -2060.2808008505813 0 0 0 0 3.4284989337293155 2.2281893072642589 0 2.2281893072642589 -1.0085317836402758 0 0 0 0 -180.8859535157826 551.45275613646595 0 551.45275613646595 384.47684671775164 0 0 0 0 518.25439685701349 919.4495407245264 0 919.4495407245264 -199.13227232440659 0 0 0 0 -1325.9193856152706 -1192.2821862897026 0 -1192.2821862897026 -2603.7824468232175 0 0 0 0 -577.85034837260685 1501.9720571590522 0 1501.9720571590522 -3111.6380265946536 0 0 0 0 -565.68042602636694 219.99132361146528 0 219.99132361146528 -475.59100644204909 0 0 0 0 215.36556053199456 184.39600991594386 0 184.39600991594386 -643.39345462222514 0 0 0 0 -1828.3720679504622 220.50675898483541 0 220.50675898483541 -52.665056302466837 0 0 0 0 -4.3396489875322288 -7.2819260717364784 0 -7.2819260717364784 -11.040411968838729 0 0 0 0 -1387.2453139290155 439.20148196007563 0 439.20148196007563 -93.499256427843761 0 0 0 0 -314.21028863150786 33.095358851144894 0 33.095358851144894 -1241.7013513125282 0 0 0 0 213.64114289813256 241.2156464138063 0 241.2156464138063 -1163.3869198678162 0 0 0 0 872.51608730353473 -187.54363604919172 0 -187.54363604919172 -961.02004646846001 0 0 0 0 -337.31974166015425 -689.36450964868482 0 -689.36450964868482 500.94120946714065 0 0 0 0 -2520.1694161096966 -585.8050960527753 0 -585.8050960527753 608.1649455575855 0 0 0 0 -1859.1606871142285 323.70842207488982 0 323.70842207488982 603.86615836582314 0 0 0 0 -25.256813004575804 16.80500950971436 0 16.80500950971436 -12.335493685232301 0 0 0 0 -192.00633941310662 640.65092079412807 0 640.65092079412807 -1160.5052721675638 0 0 0 0 102.80710864679713 -139.35017913766774 0 -139.35017913766774 -448.01105738963452 0 0 0 0 -428.25011349951092 318.30674796841049 0 318.30674796841049 -799.95363817987254 0 0 0 0 -385.80589268446784 -107.36386187725657 0 -107.36386187725657 -209.79479185209766 0 0 0 0 -543.32680025919399 -88.915691115465961 0 -88.915691115465961 -184.81942315409833 0 0 0 0 -399.35138622071827 -296.70988932386354 0 -296.70988932386354 77.749513511569603 0 0 0 0 -49.252206588804796 43.572195201968775 0 43.572195201968775 -34.272351343662258 0 0 0 0 -433.79421693667246 112.27009735062802 0 112.27009735062802 143.17824016341001 0 0 0 0 -432.10311165211169 -51.14247819247521 0 -51.14247819247521 -355.84392859564196 0 0 0 0 -700.0753125880874 -217.6649095997218 0 -217.6649095997218 -99.588241360695974 0 0 0 0 -573.09662553733415 -225.59324653187514 0 -225.59324653187514 -118.96614110293012 0 0 0 0 -700.61265182758507 -191.62277229635492 0 -191.62277229635492 -96.25776258021142 0 0 0 0 -783.29943866800386 -99.92522698476273 0 -99.92522698476273 -78.432420587529123 0 0 0 0 -687.42996993343695 -142.43910426666116 0 -142.43910426666116 -69.288614112747382 0 0 0 0 -656.02961034690907 58.834271804291632 0 58.834271804291632 -309.04095663896078 0 0 0 0 -880.3219126163749 237.06369311253275 0 237.06369311253275 -183.30680066659033 0 0 0 0 -898.09924215616047 186.97303643682881 0 186.97303643682881 -86.211822796926754 0 0 0 0 -1195.9096185578237 268.64058180562006 0 268.64058180562006 -14.680208590313669 0 0 0 0 -1050.9958182630362 88.194938237682436 0 88.194938237682436 3.875654247512557 0 0 0 0 -923.38820581212349 13.40782046989807 0 13.40782046989807 46.233256510286992 0 0 0 0 -1032.5284675454386 131.39528726761773 0 131.39528726761773 86.619182524152166 0 0 0 0 -1382.5562020518846 175.98590140186252 0 175.98590140186252 89.301847104171173 0 0 0 0 -1276.235328612187 367.45639163606029 0 367.45639163606029 74.217391599032453 0 0 0 0 -1519.1709823623751 295.88521007171903 0 295.88521007171903 -79.725047150104047 0 0 0 0 -1594.3331937400362 254.70702173717928 0 254.70702173717928 34.393570020580228 0 0 0 0 -1178.0355423799774 25.669810466193212 0 25.669810466193212 109.04285975994071 0 0 0 0 -1160.504012649908 128.48411215031183 0 128.48411215031183 -28.715762812513276 0 0 0 0 -1626.9990471448036 9.2367587122155328 0 9.2367587122155328 -58.251207061409559 0 0 0 0 -365.97656599178299 199.63249692448471 0 199.63249692448471 -159.92814791613364 0 0 0 0 -1560.0726878464629 622.18454378521005 0 622.18454378521005 85.251645282365416 0 0 0 0 -1130.6314203392249 614.74069812626749 0 614.74069812626749 52.560562880256839 0 0 0 0 -1359.9818295378791 416.37942498003349 0 416.37942498003349 69.78740075765927 0 0 0 0 -1107.9658732291355 442.52648641060114 0 442.52648641060114 71.955137404941524 0 0 0 0 -866.30087237355474 405.69506013618297 0 405.69506013618297 -8.0509303006738264 0 0 0 0 -926.85769028390496 361.59002246404816 0 361.59002246404816 70.454572400301913 0 0 0 0 -1248.0819699341228 489.33274524926946 0 489.33274524926946 84.722394345363682 0 0 0 0 -1064.5799853575081 320.50066690690801 0 320.50066690690801 158.18205147937078 0 0 0 0 -1187.9690632834245 577.65589392126822 0 577.65589392126822 -122.97193837364921 0 0 0 0 -807.97565623084847 459.34962840196351 0 459.34962840196351 -229.02042254925072 0 0 0 0 -849.60154359715671 600.66933539570027 0 600.66933539570027 -411.60173284370285 0 0 0 0 -1707.9755931413529 1494.2193464710881 0 1494.2193464710881 -862.36003925651403 0 0 0 0 -895.14832706070229 854.60910119524965 0 854.60910119524965 -365.07961830307613 0 0 0 0 -2295.0534983300749 685.03190314314179 0 685.03190314314179 69.239838906437399 0 0 0 0 -3290.6473878866309 -542.64351964836646 0 -542.64351964836646 103.27689361114608 0 0 0 0 -173.72947451969958 -119.84722068139945 0 -119.84722068139945 -100.71089168212166 0 0 0 0 -888.91233962398837 -449.10328022202066 0 -449.10328022202066 9.3754626694394574 0 0 0 0 -129.90615458403772 57.661785603942917 0 57.661785603942917 60.703366505778831 0 0 0 0 -18.95534737809794 236.06655815770318 0 236.06655815770318 -401.07119202320882 0 0 0 0 232.01222123599291 -50.759932055142599 0 -50.759932055142599 -340.37793795940343 0 0 0 0 -71.849907805837574 -181.6652274031253 0 -181.6652274031253 -94.172461689667671 0 0 0 0 73.772087195749918 8.8617650794117253 0 8.8617650794117253 -49.95011028755107 0 0 0 0 -243.75606727911509 16.981532737784619 0 16.981532737784619 -55.787615996920067 0 0 0 0 -1154.1075504627734 209.33376426186032 0 209.33376426186032 60.072394389995679 0 0 0 0 -740.9777273270447 -308.93472916282099 0 -308.93472916282099 -25.456269417110434 0 0 0 0 -555.69374611131207 -81.504075092475887 0 -81.504075092475887 0.009075034586885522 0 0 0 0 -472.83870594226755 119.9077946431471 0 119.9077946431471 36.360654041529529 0 0 0 0 -89.497297341491503 20.057979841861226 0 20.057979841861226 -74.170483469883948 0 0 0 0 153.77726075856481 -6.2018126141601897 0 -6.2018126141601897 -93.2777840754934 0 0 0 0 -112.60659359673718 -125.76853723112225 0 -125.76853723112225 11.022808671531493 0 0 0 0 82.86168900597113 -90.386283535646498 0 -90.386283535646498 -3.5175548530014566 0 0 0 0 -29.860716557916021 -136.38519397194023 0 -136.38519397194023 122.13668078429419 0 0 0 0 0.62477117705566343 9.3430488778014933 0 9.3430488778014933 39.347986168424995 0 0 0 0 -435.16468964188243 205.12463919554557 0 205.12463919554557 35.69123414798014 0 0 0 0 -27.938515323156025 69.577478249630985 0 69.577478249630985 -60.532234294847058 0 0 0 0 -247.20400613843231 -90.942737094746917 0 -90.942737094746917 4.071433852989685 0 0 0 0 -151.90773507070844 133.22164726659776 0 133.22164726659776 -110.66288592901856 0 0 0 0 -518.61254715938412 -63.075321976487885 0 -63.075321976487885 39.916098292674633 0 0 0 0 133.00019847833028 41.734289475733476 0 41.734289475733476 -21.746867343262011 0 0 0 0 -267.48858600759195 77.144548408470541 0 77.144548408470541 53.254520454460362 0 0 0 0 -12.822012416247212 -19.832821890937353 0 -19.832821890937353 -3.3381299047713533 0 0 0 0 -93.931857383617171 -174.55599701734673 0 -174.55599701734673 -99.604328556361452 0 0 0 0 1.3284657614348419 -2.8566129787377754 0 -2.8566129787377754 -1.1894065165299113 0 0 0 0 138.12521337649378 -18.445132678617483 0 -18.445132678617483 -56.402145387121209 0 0 0 0 -7.334102135555618 -23.0420684489265 0 -23.0420684489265 -13.430447001438241 0 0 0 0 -160.1270274806011 -100.40408589764411 0 -100.40408589764411 33.334492965756908 0 0 0 0 15.485267136624316 -74.269211935951489 0 -74.269211935951489 -12.22400489679967 0 0 0 0 -127.51272214307028 -4.9761456802006023 0 -4.9761456802006023 31.967964483574178 0 0 0 0 -149.51688132386334 15.509802722405311 0 15.509802722405311 17.38713477017518 0 0 0 0 -100.96156622649505 0.015117838422497698 0 0.015117838422497698 6.7771681903991521 0 0 0 0 -126.0913531801998 -28.217591993550968 0 -28.217591993550968 11.307694021759744 0 0 0 0 194.36065528374456 -49.804481811982441 0 -49.804481811982441 -80.697311510522923 0 0 0 0 116.6707575765613 -46.468030516409726 0 -46.468030516409726 -22.909899706657598 0 0 0 0 62.572473690262996 52.814208341059384 0 52.814208341059384 -54.707955215949369 0 0 0 0 52.100877160646633 -35.687311186026363 0 -35.687311186026363 -31.835907967659296 0 0 0 0 1.6592095210754394 0.92872145620611946 0 0.92872145620611946 0.88869487295070115 0 0 0 0 110.84995572298067 -204.85636645110571 0 -204.85636645110571 -61.607633325063944 0 0 0 0 -10.481302715836343 -23.533317097947361 0 -23.533317097947361 -21.879784160204203 0 0 0 0 21.110359569410008 1.8043676262761039 0 1.8043676262761039 -14.970170142994458 0 0 0 0 -20.67788577688043 43.773954244828928 0 43.773954244828928 76.080133767938605 0 0 0 0 -14.485203387095389 19.428444790179938 0 19.428444790179938 -6.9137410024781261 0 0 0 0 -47.737670848226117 -31.753469238481557 0 -31.753469238481557 -35.731577140951003 0 0 0 0 -90.163478541100631 -26.87164841083495 0 -26.87164841083495 -9.9526893771635514 0 0 0 0 -29.844182722881669 28.663153068836891 0 28.663153068836891 -23.351289853134404 0 0 0 0 52.134661187446909 29.810292285565083 0 29.810292285565083 -80.396968926482259 0 0 0 0 -25.970563430125111 -21.238601903534146 0 -21.238601903534146 -19.663909383301363 0 0 0 0 -92.789870226784842 45.777917894291022 0 45.777917894291022 -78.334754703875433 0 0 0 0 -12.571787166285503 43.514081253088989 0 43.514081253088989 -102.5063704942113 0 0 0 0 -15.780612759190262 39.552179659579451 0 39.552179659579451 -87.846845014424616 0 0 0 0 -19.168360780880903 11.393796827991764 0 11.393796827991764 -8.6169698802550556 0 0 0 0 -8.7425097752972931 -2.7917352230707735 0 -2.7917352230707735 -9.9868743005879708 0 0 0 0 -71.173532873988734 31.473443928229244 0 31.473443928229244 -39.282401296481112 0 0 0 0 -56.249868716244237 63.02460461069677 0 63.02460461069677 17.820611109571473 0 0 0 0 -17.041362513758941 22.279299029552931 0 22.279299029552931 -99.909102084427332 0 0 0 0 -14.453107798064593 37.953332979062907 0 37.953332979062907 -65.175191216523672 0 0 0 0 -11.724951526628502 21.754420523395765 0 21.754420523395765 -70.04931844802195 0 0 0 0 -10.710146793746389 18.849319212651608 0 18.849319212651608 -53.94206335600029 0 0 0 0 21.332411420808057 -22.276967791378411 0 -22.276967791378411 -12.311405412334352 0 0 0 0 38.396017896156991 45.076091002129033 0 45.076091002129033 -40.178052640672831 0 0 0 0 0.90631271022721194 73.39485082326064 0 73.39485082326064 -11.717782759721104 0 0 0 0 -31.344350148669037 63.683647974051382 0 63.683647974051382 -13.251921476901771 0 0 0 0 -116.41608911748335 -21.209106706332022 0 -21.209106706332022 78.150270224072301 0 0 0 0 -2.7118268326187547 -0.4979634134911386 0 -0.4979634134911386 -0.17701450928506213 0 0 0 0 -232.00366447895067 40.026739105656816 0 40.026739105656816 48.887312943377765 0 0 0 0 -78.058550298523187 29.762689446012246 0 29.762689446012246 3.2247066537893261 0 0 0 0 -76.441669547813945 24.372793721791822 0 24.372793721791822 -31.532169932295801 0 0 0 0 -180.13442882805248 84.629803569090654 0 84.629803569090654 -25.217187297723285 0 0 0 0 -111.92534644294938 212.17367620219375 0 212.17367620219375 -136.37385133943462 0 0 0 0 -29.7429932297091 97.833484555183531 0 97.833484555183531 -80.696401390967367 0 0 0 0 -33.149347586877411 40.806352208735916 0 40.806352208735916 -81.071362372369549 0 0 0 0 -31.889459832455032 84.83023969273745 0 84.83023969273745 -72.535737716594667 0 0 0 0 28.663758109498303 29.691580550974322 0 29.691580550974322 -88.647596878148761 0 0 0 0 6.8332076990627684 -61.739202312535781 0 -61.739202312535781 -28.051542630273616 0 0 0 0 113.86077808504342 44.41419416366989 0 44.41419416366989 -98.32421614874329 0 0 0 0 17.264253188943258 53.980620747162902 0 53.980620747162902 -80.129380877862786 0 0 0 0 40.291688488276122 110.73644069873717 0 110.73644069873717 -117.26607558659452 0 0 0 0 75.13055622234242 116.92839970621253 0 116.92839970621253 -21.542485031350225 0 0 0 0 40.274519413549569 17.263034280543252 0 17.263034280543252 -64.893399310803943 0 0 0 0 34.04456739455054 129.26439929870253 0 129.26439929870253 -170.09042536268316 0 0 0 0 -460.56668102078402 346.43336467206791 0 346.43336467206791 -78.828964345098029 0 0 0 0 2.5343263431759269 2.6732405933190648 0 2.6732405933190648 8.49022974181878 0 0 0 0 -233.66211857777671 151.61978643209932 0 151.61978643209932 6.0284984248755791 0 0 0 0 937.36343147666048 -247.83557302367626 0 -247.83557302367626 -388.63072319214371 0 0 0 0 -2931.5971058953328 619.06491265574778 0 619.06491265574778 962.02269471203726 0 0 0 0 -848.15479651733767 1718.2012037767099 0 1718.2012037767099 -1831.4279448705342 0 0 0 0 -1887.8707879416902 749.2262774988568 0 749.2262774988568 317.58000337021349 0 0 0 0 -1909.3073242011742 361.56038193612187 0 361.56038193612187 662.40509496602522 0 0 0 0 -13.323333252089114 19.030048612284062 0 19.030048612284062 30.950716888490312 0 0 0 0 73.321679380322166 122.75173138024638 0 122.75173138024638 -235.45034346178545 0 0 0 0 221.48166899041098 123.40902926910576 0 123.40902926910576 -156.44987412027263 0 0 0 0 -183.17767296055126 114.9332136629676 0 114.9332136629676 27.925028741323331 0 0 0 0 -258.27705395025077 127.71274819379278 0 127.71274819379278 32.10470976630495 0 0 0 0 -2937.5104960194003 1097.306828969944 0 1097.306828969944 95.257782265419792 0 0 0 0 -29.402790898781319 9.5598591897404575 0 9.5598591897404575 1.0141476887272889 0 0 0 0 -1921.8932857432155 -417.03164197716887 0 -417.03164197716887 80.392651274990385 0 0 0 0 -1999.3507024883002 1691.1526420311911 0 1691.1526420311911 -1453.518067847361 0 0 0 0 -3016.5606437550668 2069.9355663233491 0 2069.9355663233491 -363.81236322808309 0 0 0 0 -422.99438761585043 1149.7711521613969 0 1149.7711521613969 -427.67756571969505 0 0 0 0 234.64279227083898 203.43563618551843 0 203.43563618551843 -47.383310554712807 0 0 0 0 196.20411911618248 523.91748371977224 0 523.91748371977224 -1568.7587550054495 0 0 0 0 -12.181338089023683 10.148390344412491 0 10.148390344412491 -24.283587785233177 0 0 0 0 -2709.644373100542 1033.8994057426917 0 1033.8994057426917 163.01752291206526 0 0 0 0 77.23402194265509 151.07688765676903 0 151.07688765676903 62.749504687035369 0 0 0 0 -139.93126826100342 172.03647691980768 0 172.03647691980768 11.378760306808545 0 0 0 0 -25.727025896456325 263.06761223604553 0 263.06761223604553 26.250998487983452 0 0 0 0 -148.62207609535835 177.61825197655799 0 177.61825197655799 106.66937017769305 0 0 0 0 -290.60620802313497 155.45705861889928 0 155.45705861889928 65.651955460929457 0 0 0 0 -509.07335435578716 31.484060829185637 0 31.484060829185637 90.616442211427056 0 0 0 0 -213.37404890306061 23.926341422158202 0 23.926341422158202 126.1826680955237 0 0 0 0 -248.03123317201971 126.38118535255671 0 126.38118535255671 156.84242471939069 0 0 0 0 -124.0529770598223 159.37489820552037 0 159.37489820552037 62.263946761684565 0 0 0 0 -120.03544761851663 86.351363484749527 0 86.351363484749527 168.63379267884011 0 0 0 0 -96.642059657722712 54.175511185556388 0 54.175511185556388 212.88478204051353 0 0 0 0 -171.79991595944739 113.07800701739507 0 113.07800701739507 270.12833035899348 0 0 0 0 -200.71322413481539 142.76422353216458 0 142.76422353216458 -56.875344691110513 0 0 0 0 -70.262831018781952 53.505825977523969 0 53.505825977523969 -12.167052413902393 0 0 0 0 -149.02174276637379 72.044262871739193 0 72.044262871739193 256.48805406249994 0 0 0 0 -9.9610258485127474 11.972764409699931 0 11.972764409699931 -15.86390965327965 0 0 0 0 -191.50456867896719 112.24236408306751 0 112.24236408306751 226.71820485522767 0 0 0 0 -193.10387605805317 73.047514959336524 0 73.047514959336524 207.74716976786294 0 0 0 0 -8.6037853346497286 165.86918298134697 0 165.86918298134697 85.185765921272832 0 0 0 0 437.03233762356103 -49.812096177618514 0 -49.812096177618514 -443.34154292359131 0 0 0 0 -61.939732027687342 56.559226941049886 0 56.559226941049886 -18.791936647000391 0 0 0 0 -462.800935817766 270.35205291967395 0 270.35205291967395 121.92594551259026 0 0 0 0 -14.158934631297598 163.53325570656125 0 163.53325570656125 108.09538933122531 0 0 0 0 -3.0124608120240737 -18.181694447416248 0 -18.181694447416248 43.547543809714625 0 0 0 0 -13.745525719526881 -3.0648090504020828 0 -3.0648090504020828 6.5819173005562286 0 0 0 0 -120.78185063152341 71.437206845008404 0 71.437206845008404 -78.733053606948488 0 0 0 0 -83.017847390903626 -22.81143308276296 0 -22.81143308276296 102.19126803585277 0 0 0 0 -79.466868974246609 -10.756794656367219 0 -10.756794656367219 72.586201748206804 0 0 0 0 -79.832412813539122 -32.476500215520218 0 -32.476500215520218 53.07649839234 0 0 0 0 -53.042668148567287 12.26087959453568 0 12.26087959453568 42.203546870479535 0 0 0 0 -57.150856197497546 33.827410328239331 0 33.827410328239331 2.5004726594870905 0 0 0 0 -91.792591503675794 6.5612484972389211 0 6.5612484972389211 160.3572946012971 0 0 0 0 -33.780563928961357 10.975163628050698 0 10.975163628050698 4.7402827847857552 0 0 0 0 -14.555943818297237 2.5576152028061188 0 2.5576152028061188 22.893835321004872 0 0 0 0 -71.288508599762281 8.1738073728529343 0 8.1738073728529343 109.12229429709987 0 0 0 0 -49.624947334896774 28.575390051234947 0 28.575390051234947 -12.87910918214056 0 0 0 0 -36.502676256408449 54.448649358603689 0 54.448649358603689 152.17490762060697 0 0 0 0 -103.20307430421235 129.93422218221531 0 129.93422218221531 214.87428728942177 0 0 0 0 -159.12764604386757 0.40799295528086077 0 0.40799295528086077 135.38297516292732 0 0 0 0 -154.64388287201291 83.413601859459959 0 83.413601859459959 171.07449963079489 0 0 0 0 -125.18863258951387 -56.244916676740104 0 -56.244916676740104 75.748244983918994 0 0 0 0 -116.93502660579543 -6.1288333077070547 0 -6.1288333077070547 106.66734374834778 0 0 0 0 -238.23268693833961 -63.321246340568905 0 -63.321246340568905 81.265062740461872 0 0 0 0 -223.82207826484228 51.511692845162543 0 51.511692845162543 89.333591844449984 0 0 0 0 -124.75164422670787 -76.427365553878133 0 -76.427365553878133 23.011342097608576 0 0 0 0 -123.90874910849379 -61.904191210745921 0 -61.904191210745921 15.540036326101472 0 0 0 0 18.357053160085343 -34.834503457986102 0 -34.834503457986102 -57.672533084645693 0 0 0 0 -66.541327955812449 -45.444291900184908 0 -45.444291900184908 38.44441642565107 0 0 0 0 -49.401786831876962 -20.172074281599635 0 -20.172074281599635 53.906540636475256 0 0 0 0 -33.330664017121308 -7.5293002580256143 0 -7.5293002580256143 20.07825213743854 0 0 0 0 3.13350009984606 29.307876602772126 0 29.307876602772126 39.626917623638292 0 0 0 0 -63.432840720409729 2.6384300599874564 0 2.6384300599874564 45.772098207633334 0 0 0 0 -28.307787017110968 10.609924711117856 0 10.609924711117856 50.377111589766173 0 0 0 0 -117.65804280547241 -15.675050618026795 0 -15.675050618026795 108.18351123842149 0 0 0 0 -77.288192603340804 40.871033120018964 0 40.871033120018964 4.273056775489481 0 0 0 0 -99.965870563086355 35.806475508549056 0 35.806475508549056 28.090035653516111 0 0 0 0 -118.6545682233571 153.82750316628619 0 153.82750316628619 243.7556169718182 0 0 0 0 -76.577244020983926 19.557981078808893 0 19.557981078808893 27.143214685365592 0 0 0 0 -23.055267973259845 5.4685418127858441 0 5.4685418127858441 28.144944334780604 0 0 0 0 -128.24904685195452 -207.4701141307697 0 -207.4701141307697 -604.28904068242264 0 0 0 0 -449.66118104148336 -16.723554693889582 0 -16.723554693889582 288.20077855692489 0 0 0 0 -196.83207354022306 -168.25186901615825 0 -168.25186901615825 -30.610057245467033 0 0 0 0 -68.619680446208804 -107.85822427793028 0 -107.85822427793028 -133.67258566479904 0 0 0 0 -4.7993714002555521 2.044934214402474 0 2.044934214402474 -0.41104346667536196 0 0 0 0 65.978720162413083 252.44497520291316 0 252.44497520291316 -631.31738381641253 0 0 0 0 1.287127285846509 -18.486778676844551 0 -18.486778676844551 -21.794196409768119 0 0 0 0 -128.72773741389392 -70.702166823930384 0 -70.702166823930384 109.04130058763401 0 0 0 0 -92.79287887110695 70.459527387220987 0 70.459527387220987 -137.64209493944873 0 0 0 0 -243.96944896167406 142.88269524209159 0 142.88269524209159 219.72772657798669 0 0 0 0 -136.79498629283626 95.602642140160697 0 95.602642140160697 11.563858630248433 0 0 0 0 -146.79339980959776 138.20467386055134 0 138.20467386055134 -111.36619299602262 0 0 0 0 -77.645777280995389 543.35451607990262 0 543.35451607990262 -144.59465651902883 0 0 0 0 -7.980697530843571 -8.0194073427668968 0 -8.0194073427668968 16.513114557858309 0 0 0 0 -283.78094408059405 101.78849005594589 0 101.78849005594589 117.0109521560862 0 0 0 0 -129.00318705282552 31.636382494383042 0 31.636382494383042 7.4222323530211725 0 0 0 0 -97.540729400185228 -34.915256238334791 0 -34.915256238334791 101.87534971778143 0 0 0 0 -124.91194238142634 38.655586370923629 0 38.655586370923629 19.3983716047087 0 0 0 0 -109.22624042072857 39.798683462393001 0 39.798683462393001 0.85764507323415273 0 0 0 0 -96.427938868386263 25.814278843007173 0 25.814278843007173 -2.3603331965064172 0 0 0 0 -128.78611828306748 48.097429761646708 0 48.097429761646708 -2.4948845787712344 0 0 0 0 -84.4787698914879 51.326597386794674 0 51.326597386794674 -23.769355491296665 0 0 0 0 -129.02419754379662 76.987140539948086 0 76.987140539948086 -37.170674548355237 0 0 0 0 7.7176784086041152 -18.757791302790793 0 -18.757791302790793 -18.658602623359911 0 0 0 0 -1.0887240983925892 -1.7773864958097025 0 -1.7773864958097025 1.1803961623133086 0 0 0 0 -48.955843422285398 75.898715198956779 0 75.898715198956779 -110.77094616959948 0 0 0 0 -120.31240664511279 59.06918932626013 0 59.06918932626013 -84.927714539859153 0 0 0 0 -96.661693441907119 64.620495510921046 0 64.620495510921046 -93.287187131627434 0 0 0 0 0.23270957272413284 1.2559630357476408 0 1.2559630357476408 -16.318720360359194 0 0 0 0 -35.472498883173103 16.980889338637098 0 16.980889338637098 -35.213623886722417 0 0 0 0 -65.774366128760448 71.143112567864762 0 71.143112567864762 -33.536934204559657 0 0 0 0 -33.631652769850916 29.676506222585886 0 29.676506222585886 -61.462917515218578 0 0 0 0 -22.706364744757593 36.179416948804601 0 36.179416948804601 -66.163138704967423 0 0 0 0 -84.468805793607316 51.008629200188011 0 51.008629200188011 -31.890996544807422 0 0 0 0 -51.515680901909946 36.665814715113811 0 36.665814715113811 -24.491693145453155 0 0 0 0 -30.254648817528505 33.479238863611954 0 33.479238863611954 -26.738410980698973 0 0 0 0 -57.75782394775888 31.36178774572727 0 31.36178774572727 -21.147127956620352 0 0 0 0 -64.442390955518931 38.685748833043817 0 38.685748833043817 -20.462458964963503 0 0 0 0 -59.429692750811228 24.64466480293504 0 24.64466480293504 -15.502419805532554 0 0 0 0 -87.990127197088441 32.731418663102133 0 32.731418663102133 -7.8849575585252012 0 0 0 0 -72.949104869905568 7.9421658119665466 0 7.9421658119665466 -2.3536080056504716 0 0 0 0 -31.405487884661852 23.305023392965836 0 23.305023392965836 -22.566672073469817 0 0 0 0 -105.33779667453018 34.595771182095895 0 34.595771182095895 -28.953134008285588 0 0 0 0 -115.94211241394805 12.65179080730482 0 12.65179080730482 -10.730605193629117 0 0 0 0 -13.39269602590096 24.613710205627015 0 24.613710205627015 -13.882068650115855 0 0 0 0 -96.257904524674814 5.2480928388630446 0 5.2480928388630446 -13.413572947151806 0 0 0 0 -63.164890544969239 26.416556829370165 0 26.416556829370165 -19.160230407504628 0 0 0 0 -97.979131948610302 24.802158895803132 0 24.802158895803132 -24.170795021131426 0 0 0 0 -21.596683703253149 26.832416380420781 0 26.832416380420781 -21.814340271985607 0 0 0 0 -82.291987883807451 56.231403173675972 0 56.231403173675972 -44.207401319279597 0 0 0 0 -146.21990304992141 36.965601329357014 0 36.965601329357014 -10.640333672216116 0 0 0 0 -33.753566373137772 -8.6131870352094353 0 -8.6131870352094353 -13.358814440652587 0 0 0 0 -114.43163894738245 2.98083761218777 0 2.98083761218777 -24.756684488525025 0 0 0 0 -72.336120809534719 -3.365066200684236 0 -3.365066200684236 8.6828955798836542 0 0 0 0 -61.97224157978053 -82.741614335071972 0 -82.741614335071972 48.16213449377392 0 0 0 0 -83.115264866311918 10.881116774432485 0 10.881116774432485 6.2698875455039342 0 0 0 0 -55.928631064602023 -13.840302501846082 0 -13.840302501846082 32.105625608305928 0 0 0 0 -3.9630245447152106 4.4891693097456589 0 4.4891693097456589 -5.7025867147221874 0 0 0 0 -40.718137186473712 -3.5831382804288268 0 -3.5831382804288268 12.339258200925691 0 0 0 0 -54.664493440490332 -7.0190078746752533 0 -7.0190078746752533 -19.001873865519883 0 0 0 0 -83.155815654870821 -44.586494584664251 0 -44.586494584664251 -55.784476547463328 0 0 0 0 -208.96914151583405 53.201868556255704 0 53.201868556255704 15.726075807109737 0 0 0 0 -508.2438726371729 306.1797729603868 0 306.1797729603868 -10.805348010529542 0 0 0 0 -119.69504985759475 33.082089984673985 0 33.082089984673985 28.700945674598749 0 0 0 0 -266.3719732827085 -36.738457590388862 0 -36.738457590388862 175.29458017756042 0 0 0 0 -186.31477876343706 32.490189107422339 0 32.490189107422339 89.620088851568653 0 0 0 0 -111.01826857286505 29.763639826772305 0 29.763639826772305 -76.216342661472027 0 0 0 0 -165.80180736850525 52.944727879160496 0 52.944727879160496 -31.0851122385709 0 0 0 0 -193.77904395442602 -1.3358088335000957 0 -1.3358088335000957 -136.09747387387324 0 0 0 0 -123.93364020829301 41.825306154430073 0 41.825306154430073 23.314659205696227 0 0 0 0 -179.90432534470165 -1.518802737220085 0 -1.518802737220085 -33.753631231888946 0 0 0 0 -138.40158602240263 33.721013094467764 0 33.721013094467764 5.1070275713429965 0 0 0 0 -10.517072449710341 -14.40006293492624 0 -14.40006293492624 5.0132171156218179 0 0 0 0 -120.83183660083887 31.953138925655594 0 31.953138925655594 3.8626857385647781 0 0 0 0 -219.79344335156202 25.618452779012728 0 25.618452779012728 2.9334542535004857 0 0 0 0 -110.309054361991 11.725843421682839 0 11.725843421682839 -3.7319319267312494 0 0 0 0 -105.57213319044968 132.93624246058016 0 132.93624246058016 33.044913737454408 0 0 0 0 -96.508783149372903 108.16821716431718 0 108.16821716431718 -3.6824005522557854 0 0 0 0 23.769963465078035 70.269524714783529 0 70.269524714783529 -3.8590753798944206 0 0 0 0 -85.986506419207217 202.46975670465969 0 202.46975670465969 -162.4071645529466 0 0 0 0 -853.43549909425201 1.5241955331562167 0 1.5241955331562167 82.82848075965012 0 0 0 0 -151.55634261993691 344.3009504793763 0 344.3009504793763 -77.185068670052146 0 0 0 0 -61.030743886432901 568.63874292037633 0 568.63874292037633 306.63244225956964 0 0 0 0 -218.00692715491459 275.25987865883167 0 275.25987865883167 165.73933881836228 0 0 0 0 318.61856888221519 697.26220020688083 0 697.26220020688083 334.8871258157003 0 0 0 0 -34.197179583325891 9.5323273739178376 0 9.5323273739178376 16.782651047685864 0 0 0 0 -177.0043889151566 42.004108175130341 0 42.004108175130341 -25.240378587148371 0 0 0 0 -387.21878421229485 44.662052794304145 0 44.662052794304145 -24.638618652176092 0 0 0 0 -303.38508208162966 141.32135863750227 0 141.32135863750227 -4.9264548897356235 0 0 0 0 -557.95517070971255 505.9104518955055 0 505.9104518955055 -665.63580798841076 0 0 0 0 -367.81798844110017 55.043755221871606 0 55.043755221871606 -68.373682491796444 0 0 0 0 -124.59389865310706 43.870351200213882 0 43.870351200213882 18.494858779781836 0 0 0 0 -614.31886972907159 598.22119949364469 0 598.22119949364469 -71.919581823585759 0 0 0 0 -520.54386083679856 297.12480945685684 0 297.12480945685684 2.5388936498457042 0 0 0 0 -3608.601152686766 879.7391639837092 0 879.7391639837092 -68.248464722984068 0 0 0 0 -3027.6307563967712 -440.8347002486089 0 -440.8347002486089 173.99300624669172 0 0 0 0 -37.647412317459271 24.568324988371891 0 24.568324988371891 -7.843820800612777 0 0 0 0 -48.957184463977399 57.642044512760137 0 57.642044512760137 -57.359084956090463 0 0 0 0 -1029.4556644075928 462.66867537470625 0 462.66867537470625 -1140.5426839271383 0 0 0 0 -519.25312149053934 828.11351369679119 0 828.11351369679119 -1682.3904469857575 0 0 0 0 -5491.1288959658486 1685.8323791889984 0 1685.8323791889984 -345.76683228232241 0 0 0 0 -1997.4018338537135 2881.4581123440576 0 2881.4581123440576 -3341.9851617101422 0 0 0 0 -17.337423215886758 4.6515830849338506 0 4.6515830849338506 0.82337475773404534 0 0 0 0 -2001.459433376207 -1916.6434371788032 0 -1916.6434371788032 1869.9759944737862 0 0 0 0 -6452.6134671182954 -508.61122642421554 0 -508.61122642421554 1685.1983558417769 0 0 0 0 -214.96110808235244 572.79090545314443 0 572.79090545314443 1553.3792117357179 0 0 0 0 195.56733308888215 1263.7075305311448 0 1263.7075305311448 24.953249578715713 0 0 0 0 -101.15707480849233 295.98451057799366 0 295.98451057799366 -318.79268154741203 0 0 0 0 303.9864268317906 699.29607999200891 0 699.29607999200891 -480.97788779373877 0 0 0 0 40.355467331537511 -4.8945889791334594 0 -4.8945889791334594 -448.80494256903251 0 0 0 0 -43.750560468601179 270.74861151262348 0 270.74861151262348 -984.20024816689079 0 0 0 0 -6065.1427937650951 -1593.0056549687938 0 -1593.0056549687938 -413.05066589682224 0 0 0 0 -5492.3813738567333 -1235.7716602958715 0 -1235.7716602958715 -1987.632599682566 0 0 0 0 -1539.4819035734545 1207.4197498538738 0 1207.4197498538738 -829.18963142527787 0 0 0 0 -23.707191492975511 14.157798052973035 0 14.157798052973035 -11.939033824136697 0 0 0 0 -3850.3210984262987 -1757.5947018099105 0 -1757.5947018099105 -492.14293715357974 0 0 0 0 -4040.5016652250779 -320.80554894796279 0 -320.80554894796279 756.72999742271929 0 0 0 0 -5501.6826545948707 -1116.0722560082877 0 -1116.0722560082877 766.99297280953374 0 0 0 0 -1877.5827328479645 -1077.2689485424223 0 -1077.2689485424223 -442.25654195279702 0 0 0 0 -1423.0091234301872 274.47429611092207 0 274.47429611092207 -171.19329988581956 0 0 0 0 -90.01857704971917 94.106450403792223 0 94.106450403792223 55.66286707607378 0 0 0 0 -91.797989450755267 81.58557957392793 0 81.58557957392793 102.08897112673912 0 0 0 0 -22.409402054353791 9.5574115618577338 0 9.5574115618577338 -0.42715574505155729 0 0 0 0 -20.006306685594609 72.220984748775209 0 72.220984748775209 -60.580382353239656 0 0 0 0 -77.300886924625956 48.835102017723329 0 48.835102017723329 92.584505257051887 0 0 0 0 -52.150753282190692 41.326131028183227 0 41.326131028183227 -31.285968806371471 0 0 0 0 -80.076046968475566 62.662947511517814 0 62.662947511517814 64.67730653927083 0 0 0 0 -86.728249005682301 43.437203918184878 0 43.437203918184878 -36.915841308682502 0 0 0 0 -20.590168406222119 8.4492450961147654 0 8.4492450961147654 -18.805185747994695 0 0 0 0 -483.19867125641031 -270.55189034362269 0 -270.55189034362269 -191.48401317617149 0 0 0 0 -85.181783500403981 34.097935726210835 0 34.097935726210835 -17.451595920628279 0 0 0 0 -126.75867635448958 104.37205440807247 0 104.37205440807247 -36.906864496829712 0 0 0 0 -59.048492242978455 47.926357710215342 0 47.926357710215342 -30.22195164712635 0 0 0 0 -95.253155062411679 32.258572489472044 0 32.258572489472044 -17.77519856402796 0 0 0 0 -50.144522368501697 16.916292470341972 0 16.916292470341972 8.3995695634363479 0 0 0 0 -87.647871198452776 18.505313467166161 0 18.505313467166161 6.8230534453359724 0 0 0 0 -70.427297170041129 23.292673615760577 0 23.292673615760577 -24.990663634241173 0 0 0 0 -76.056313900284295 33.420258028650323 0 33.420258028650323 -20.6691266429807 0 0 0 0 -61.681150275625498 9.5452267608344918 0 9.5452267608344918 -5.9484722650371484 0 0 0 0 -10.796179216801477 -3.0282975456966312 0 -3.0282975456966312 -16.922035955072673 0 0 0 0 -981.15347066300455 90.038108627689809 0 90.038108627689809 -153.08136612273256 0 0 0 0 -11.170378968523664 -0.40910262879459935 0 -0.40910262879459935 -6.1431865280508564 0 0 0 0 -3745.6521948622249 2664.8936011149976 0 2664.8936011149976 -1034.5304619058743 0 0 0 0 -6058.0297977889131 -748.83594718050688 0 -748.83594718050688 -856.29758025837646 0 0 0 0 -4003.7710550853953 -370.41954813084465 0 -370.41954813084465 751.39310001561205 0 0 0 0 -5498.8710574140205 451.29797538780991 0 451.29797538780991 645.79934054079229 0 0 0 0 -2983.6585409255495 1093.6960810917708 0 1093.6960810917708 127.41738648781785 0 0 0 0 -4169.5723365417471 1753.8404721531974 0 1753.8404721531974 496.61778738244584 0 0 0 0 -4634.802039400216 2297.7837543043934 0 2297.7837543043934 555.35011467192771 0 0 0 0 -5498.9146878762949 2052.1399516997062 0 2052.1399516997062 807.23498166483682 0 0 0 0 -4834.0932740201733 1793.8710802016492 0 1793.8710802016492 737.37321081214054 0 0 0 0 -4779.6084458476471 1849.868102825187 0 1849.868102825187 531.94748528237437 0 0 0 0 -4025.9078624269132 1563.1962472389241 0 1563.1962472389241 230.3332182242068 0 0 0 0 -3312.1445387871136 885.44865783328237 0 885.44865783328237 456.555902914331 0 0 0 0 -2940.4948796441677 1282.5648888959936 0 1282.5648888959936 238.28233772572818 0 0 0 0 -3050.8875329474145 892.09396063278064 0 892.09396063278064 304.47037455944906 0 0 0 0 -3907.950477165261 1969.454687219185 0 1969.454687219185 23.223647223151431 0 0 0 0 -2346.0274243541739 1562.2943967836036 0 1562.2943967836036 -226.02880314174982 0 0 0 0 -2495.0092243713389 972.07737398126233 0 972.07737398126233 -11.877727751482666 0 0 0 0 -3632.4395505148823 2418.6473117879359 0 2418.6473117879359 -715.21510388510103 0 0 0 0 -5502.9689524819005 2604.42601980477 0 2604.42601980477 447.49854137559259 0 0 0 0 -3530.7283146977716 2807.0756356518641 0 2807.0756356518641 -285.45893723005378 0 0 0 0 1677.716365756427 769.39922363090966 0 769.39922363090966 -2635.7675611153932 0 0 0 0 -5482.9808254891468 3687.1910366502616 0 3687.1910366502616 -675.48632093224728 0 0 0 0 -2811.436572223527 3666.7339607325621 0 3666.7339607325621 -2868.4569003738038 0 0 0 0 -14.639935725735072 15.25093003218268 0 15.25093003218268 -22.380394458014369 0 0 0 0 -5497.7572897203618 -1977.4327923315261 0 -1977.4327923315261 -306.88834693551524 0 0 0 0 -1192.110765184334 833.18260922724266 0 833.18260922724266 229.54071468795846 0 0 0 0 -30.995494486255794 43.999097963748056 0 43.999097963748056 -50.478183741474261 0 0 0 0 297.51508546578225 1370.5696557332794 0 1370.5696557332794 189.84486043367724 0 0 0 0 -5499.7527924114884 -323.64676488262029 0 -323.64676488262029 626.73227212424285 0 0 0 0 -3084.2992904369457 82.417869655625552 0 82.417869655625552 -445.86334206579795 0 0 0 0 -3589.8508125603694 -1501.0586532231364 0 -1501.0586532231364 -190.00639711605544 0 0 0 0 -857.97209892004321 400.25748226888845 0 400.25748226888845 41.517158923285024 0 0 0 0 -686.68362656659883 495.03625417373405 0 495.03625417373405 -89.860034711761728 0 0 0 0 -765.60984581385128 518.90742064855067 0 518.90742064855067 163.45485202043801 0 0 0 0 -1049.3257282460509 197.70174552885055 0 197.70174552885055 -416.27250396944237 0 0 0 0 -1198.5695646423737 294.72048878103124 0 294.72048878103124 98.850736328189669 0 0 0 0 -1039.07965078282 546.94176128211257 0 546.94176128211257 -409.606474595907 0 0 0 0 -881.49495058418688 468.94481508561898 0 468.94481508561898 -883.74057759243533 0 0 0 0 -894.0315513902533 1481.6743443131877 0 1481.6743443131877 -1137.7231297664148 0 0 0 0 -1654.5071561001478 1035.1353904129287 0 1035.1353904129287 -589.68252873701022 0 0 0 0 -1274.4673306247823 493.45459492011037 0 493.45459492011037 -283.52112503102308 0 0 0 0 -806.43426896957317 476.00365385548753 0 476.00365385548753 -184.93551276561681 0 0 0 0 -670.12972316253217 62.901203491551087 0 62.901203491551087 -166.31460409848933 0 0 0 0 -939.46512415738107 212.54172452379953 0 212.54172452379953 -80.015326251184888 0 0 0 0 -568.3056489757073 162.33470872886664 0 162.33470872886664 -189.06072080343347 0 0 0 0 -598.15845263624897 -5.384057258655389 0 -5.384057258655389 88.173492909101697 0 0 0 0 -1008.5603220770877 221.37956085740672 0 221.37956085740672 -113.63683907557424 0 0 0 0 -902.56938132750292 448.77272904622396 0 448.77272904622396 -468.97899373207974 0 0 0 0 -766.01807969091169 334.09344362967204 0 334.09344362967204 -92.439547080552074 0 0 0 0 -783.62917738214696 108.97569595588527 0 108.97569595588527 11.01281176838711 0 0 0 0 -476.20276182763337 19.880932707606007 0 19.880932707606007 23.541717210118804 0 0 0 0 -436.42388523606496 103.56296783809557 0 103.56296783809557 -52.143502953214011 0 0 0 0 -210.19661714031099 0.94512522577679192 0 0.94512522577679192 -18.03948664894051 0 0 0 0 -367.21975845431325 -20.107668380401208 0 -20.107668380401208 84.127135037397238 0 0 0 0 -350.68652026016343 174.43747191282876 0 174.43747191282876 -41.014275799047027 0 0 0 0 -641.43471077636059 179.38302030410341 0 179.38302030410341 -54.612872458522133 0 0 0 0 -666.19726126592286 155.19767073138792 0 155.19767073138792 51.701099911377241 0 0 0 0 -88.168938403920038 -67.422226050417521 0 -67.422226050417521 28.807640908735038 0 0 0 0 -34.920201573251077 -45.580672257401972 0 -45.580672257401972 21.799120077454575 0 0 0 0 -121.4423597415589 -37.776109808923138 0 -37.776109808923138 31.509699243581053 0 0 0 0 -117.04241419549362 -33.133854970376206 0 -33.133854970376206 38.141141135404723 0 0 0 0 -151.99850113065622 -80.988823759113984 0 -80.988823759113984 -15.617863760821365 0 0 0 0 -218.82778229440737 -30.345934131079048 0 -30.345934131079048 67.669971284758958 0 0 0 0 -15.028244815461235 -3.9493687089320488 0 -3.9493687089320488 6.697246968783567 0 0 0 0 -185.27210511644444 -113.01616369117619 0 -113.01616369117619 -45.838990268098314 0 0 0 0 -96.322994600684979 21.009313509758158 0 21.009313509758158 17.188444476430959 0 0 0 0 -90.286794754130824 13.371075470288815 0 13.371075470288815 -51.717014785407628 0 0 0 0 -115.20677764892753 -35.042778346630257 0 -35.042778346630257 48.382493909092886 0 0 0 0 -166.24433838116965 5.5789632022588194 0 5.5789632022588194 84.908442613041871 0 0 0 0 -185.28814233560115 -68.96907440790892 0 -68.96907440790892 45.246756419966687 0 0 0 0 -114.91983230623009 -34.267616186115447 0 -34.267616186115447 26.275826167106061 0 0 0 0 -51.347434781228728 -45.537382075441315 0 -45.537382075441315 12.417812228530607 0 0 0 0 -122.97604193568259 -24.601569188124358 0 -24.601569188124358 32.594627585789567 0 0 0 0 -116.7294043395741 -48.442646041895841 0 -48.442646041895841 26.589499096375221 0 0 0 0 -419.32407815115994 99.028918199620875 0 99.028918199620875 -51.382976848864246 0 0 0 0 -35.23209964308262 9.1121382960750452 0 9.1121382960750452 -22.802975259706727 0 0 0 0 -27.009082202916034 -17.908572435189853 0 -17.908572435189853 22.002206716002547 0 0 0 0 -0.50839772784294013 1.6307080701157659 0 1.6307080701157659 -0.6177879379343203 0 0 0 0 5.8140780810208526 -53.710339687335363 0 -53.710339687335363 -2.2699665181535238 0 0 0 0 -107.57922285200173 -32.598325251136139 0 -32.598325251136139 36.566780242108223 0 0 0 0 2.5175161076972472 3.1822871765575673 0 3.1822871765575673 -5.5969209556261816 0 0 0 0 -137.52034251167788 -106.92689391100066 0 -106.92689391100066 -16.712783863928053 0 0 0 0 -229.37257223507913 -118.67546064270937 0 -118.67546064270937 -7.1794659968581982 0 0 0 0 -27.775532966057654 88.048120427574759 0 88.048120427574759 11.836897413393672 0 0 0 0 -133.83566257702478 -126.4563413974829 0 -126.4563413974829 -123.10296353811009 0 0 0 0 -145.84922928871674 13.780649483368052 0 13.780649483368052 42.279203112289906 0 0 0 0 -85.492949880543165 72.114038261503083 0 72.114038261503083 18.759881345104077 0 0 0 0 -10.941220384433109 8.5943138131697197 0 8.5943138131697197 -8.0951269911784038 0 0 0 0 21.98799985802907 56.037656658485503 0 56.037656658485503 -20.961093276207976 0 0 0 0 -10.178993819614334 66.931908162856985 0 66.931908162856985 -37.564731036675767 0 0 0 0 -99.229982747820031 -81.283646226632754 0 -81.283646226632754 -81.320547366113715 0 0 0 0 -604.84644831827245 154.07750822143885 0 154.07750822143885 -125.73985174378095 0 0 0 0 3.6810853329302304 -2.7723997704222256 0 -2.7723997704222256 -0.65131374833178057 0 0 0 0 -232.41242026598047 -46.124473753583516 0 -46.124473753583516 96.32267681030271 0 0 0 0 -269.26328198564443 151.37076875948469 0 151.37076875948469 -62.164975489022936 0 0 0 0 46.045017376441137 -41.857197257481801 0 -41.857197257481801 -26.791400058754334 0 0 0 0 1.0230432299059231 29.480553689396331 0 29.480553689396331 -14.374555343565707 0 0 0 0 -107.67151834005927 7.7542407304545122 0 7.7542407304545122 13.781046740733586 0 0 0 0 -68.435683422576403 -7.1340875332725773 0 -7.1340875332725773 16.708762612177452 0 0 0 0 -210.01461315820416 -47.235882531934067 0 -47.235882531934067 49.098543664372301 0 0 0 0 -45.85049160505514 -104.98290708548598 0 -104.98290708548598 52.161417976291887 0 0 0 0 22.48173754387426 143.34530266510831 0 143.34530266510831 -38.173761188099434 0 0 0 0 -147.24477681781093 8.7878777576869922 0 8.7878777576869922 158.246230616297 0 0 0 0 -148.45945407313286 51.636016890201773 0 51.636016890201773 -87.897076769053456 0 0 0 0 -141.45751910001491 -50.869207506784164 0 -50.869207506784164 -102.62268011399487 0 0 0 0 -404.03849332016762 96.52342156077998 0 96.52342156077998 41.024831111953972 0 0 0 0 -174.04151744615046 -109.56869477810335 0 -109.56869477810335 142.2880978537371 0 0 0 0 -295.75554616604859 169.32546175569934 0 169.32546175569934 -99.605205558393536 0 0 0 0 -508.64175114888712 -34.389085250974119 0 -34.389085250974119 -74.962913631012043 0 0 0 0 -1033.7577360110008 265.57952877427448 0 265.57952877427448 37.585662750676306 0 0 0 0 -387.94793653212673 152.9381894287348 0 152.9381894287348 -160.93222072234198 0 0 0 0 -660.29343598823471 73.568554986552272 0 73.568554986552272 14.879264237279244 0 0 0 0 -1298.0805371620881 299.37995149266283 0 299.37995149266283 -13.696712688501108 0 0 0 0 -1438.9567293834443 938.77993233291477 0 938.77993233291477 -575.65975023398119 0 0 0 0 -970.33592168979521 491.50532474510226 0 491.50532474510226 -303.57076177652766 0 0 0 0 -1993.6751557701464 440.53919960132271 0 440.53919960132271 127.27427412880286 0 0 0 0 -1254.8535979603075 357.98550416468868 0 357.98550416468868 -47.552039677804487 0 0 0 0 -1892.1713621223098 938.79015455590638 0 938.79015455590638 -163.31685666784131 0 0 0 0 -3080.332739527752 1038.0993353407434 0 1038.0993353407434 238.73723313348381 0 0 0 0 -2377.8744316824086 335.16254578126905 0 335.16254578126905 261.97972881982491 0 0 0 0 -2211.245884480657 495.18935056436794 0 495.18935056436794 159.67011677916037 0 0 0 0 -802.28817163928397 229.10224429697928 0 229.10224429697928 -84.521845791644409 0 0 0 0 -671.83393958313172 -43.795573824592793 0 -43.795573824592793 28.633886922073771 0 0 0 0 -90.343550241046614 112.16844849603194 0 112.16844849603194 -193.95152589751729 0 0 0 0 -340.23188192577436 -82.539163552544778 0 -82.539163552544778 -76.724607999338332 0 0 0 0 -11.094067856900438 201.48584605690166 0 201.48584605690166 -13.541937611382934 0 0 0 0 -1273.3902449469279 45.611158330339606 0 45.611158330339606 48.804490370401481 0 0 0 0 -563.91706477476691 252.50742169641418 0 252.50742169641418 -131.02790305990879 0 0 0 0 -180.69231573523962 53.056488655724934 0 53.056488655724934 122.61740225767335 0 0 0 0 10.399762011080346 35.296443213170747 0 35.296443213170747 -14.051680850471325 0 0 0 0 -707.83949687453833 520.88813239586307 0 520.88813239586307 830.04339658593449 0 0 0 0 244.8071610104671 -22.337763271239993 0 -22.337763271239993 -170.54634553264572 0 0 0 0 -747.33310542895128 300.348967869803 0 300.348967869803 -115.55096566835755 0 0 0 0 -45.701380565529689 -7.1887312717866507 0 -7.1887312717866507 58.119047032083017 0 0 0 0 226.59732809975321 429.35659918907413 0 429.35659918907413 -290.67063043809048 0 0 0 0 17.219856224572567 1.2999942603312222 0 1.2999942603312222 -12.201347985959337 0 0 0 0 -1022.1035562478828 -602.74536164815561 0 -602.74536164815561 38.616754228708601 0 0 0 0 -1.6521185703173049 -0.25660844676725358 0 -0.25660844676725358 4.9651819267329582 0 0 0 0 162.16372450993731 639.08258155473982 0 639.08258155473982 -689.72187547813974 0 0 0 0 -915.38406175511841 -366.73843049169642 0 -366.73843049169642 -96.740452923066357 0 0 0 0 -1236.0367848232008 353.61276199898714 0 353.61276199898714 77.840828932487142 0 0 0 0 -53.555273831603699 -105.46049907706526 0 -105.46049907706526 130.03016324623366 0 0 0 0 -70.978668502921636 -75.747652448723642 0 -75.747652448723642 -0.40561776218923029 0 0 0 0 41.963724730579997 -230.06333494717023 0 -230.06333494717023 60.553687850667188 0 0 0 0 -334.24770459552201 -25.65545975653589 0 -25.65545975653589 77.287540874784554 0 0 0 0 -290.11798871399515 -200.23049960244157 0 -200.23049960244157 105.09236288819716 0 0 0 0 -463.79981921466333 -42.73269204178527 0 -42.73269204178527 65.59091244478077 0 0 0 0 -423.96496969438886 -244.46040526172078 0 -244.46040526172078 17.782991023778322 0 0 0 0 136.09474954205507 -77.989070674203504 0 -77.989070674203504 -47.219062026669235 0 0 0 0 -110.40600865969463 -195.02871311949548 0 -195.02871311949548 125.97945158304015 0 0 0 0 -95.336302215277101 -146.52219118480298 0 -146.52219118480298 23.850015162337513 0 0 0 0 -91.45534418907755 -106.28406122620082 0 -106.28406122620082 -223.61561747824726 0 0 0 0 -83.645935782449669 -164.37929351398657 0 -164.37929351398657 10.404603619461795 0 0 0 0 48.846568637600285 -110.82395514158475 0 -110.82395514158475 -129.77208149249736 0 0 0 0 -426.95975914185692 -21.208397216396975 0 -21.208397216396975 -29.536166096585021 0 0 0 0 -425.05738263746071 -11.746903931379279 0 -11.746903931379279 -489.49824231439925 0 0 0 0 -159.79411756346235 -147.87333164396705 0 -147.87333164396705 -108.85235082760528 0 0 0 0 -112.39508793520145 -15.300457865779151 0 -15.300457865779151 -30.768915096044111 0 0 0 0 33.740775624857633 -86.731919401902815 0 -86.731919401902815 -68.805905200892994 0 0 0 0 81.645169532919681 -21.660954099703417 0 -21.660954099703417 -9.9674667587655676 0 0 0 0 175.65286149421081 -120.21862815734988 0 -120.21862815734988 -27.238115713952538 0 0 0 0 -61.919782016370768 -72.895201218421462 0 -72.895201218421462 4.1319462065366359 0 0 0 0 -179.33312102937407 -10.674531636361053 0 -10.674531636361053 -300.28371357647029 0 0 0 0 229.67590291296619 -253.73561859822655 0 -253.73561859822655 -37.095546718919195 0 0 0 0 41.534499537800002 -164.19593290360064 0 -164.19593290360064 97.122934329700456 0 0 0 0 -761.46021578578939 44.921727970525353 0 44.921727970525353 176.17830604850133 0 0 0 0 203.09655185747397 -78.948876725964965 0 -78.948876725964965 -159.57933076829704 0 0 0 0 -323.64502623505541 101.39295394978762 0 101.39295394978762 -198.62565783714672 0 0 0 0 -58.324818873801526 -67.678328741854756 0 -67.678328741854756 13.956391385210438 0 0 0 0 15.598873677338705 30.869629902963464 0 30.869629902963464 -13.414339507268762 0 0 0 0 18.950533065843047 -27.219097838845073 0 -27.219097838845073 8.6108340902158034 0 0 0 0 -521.17176583208538 40.719751402315296 0 40.719751402315296 59.446867928905704 0 0 0 0 10.820053401723271 -55.571308950862658 0 -55.571308950862658 38.772687418783335 0 0 0 0 35.404095338257321 -34.603793045937209 0 -34.603793045937209 -21.866378774344184 0 0 0 0 -9.7290472979675542 13.886267261998995 0 13.886267261998995 -32.972765198889192 0 0 0 0 -53.65608498614165 13.852032900539655 0 13.852032900539655 -4.9344787669936068 0 0 0 0 9.3864648129965644 -33.509344236256311 0 -33.509344236256311 7.2254933553826959 0 0 0 0 -25.177714470672072 -0.70666481347677745 0 -0.70666481347677745 -11.921112520851125 0 0 0 0 -12.478059022243542 -51.397851776932157 0 -51.397851776932157 23.917187781969915 0 0 0 0 41.930649873382208 -59.817881765542552 0 -59.817881765542552 1.0136160687238771 0 0 0 0 -69.47565838309265 -56.284866750582339 0 -56.284866750582339 27.329337551014635 0 0 0 0 -45.644863427619839 -16.179738624088827 0 -16.179738624088827 10.523197451200073 0 0 0 0 -118.10625303670895 -31.932529565525329 0 -31.932529565525329 40.296674397265633 0 0 0 0 -112.06134736728563 -29.353775433213741 0 -29.353775433213741 31.137922114228786 0 0 0 0 -104.98496528691612 -38.183447124038594 0 -38.183447124038594 33.409108702815502 0 0 0 0 -50.430381423735525 12.60858416819201 0 12.60858416819201 18.718850033220406 0 0 0 0 -31.694061557315138 1.9473751745736507 0 1.9473751745736507 5.5871893888008151 0 0 0 0 -58.881312349669315 21.649724439191345 0 21.649724439191345 41.058179349192869 0 0 0 0 -31.239213362074224 -6.1872641721378159 0 -6.1872641721378159 -16.276365946050987 0 0 0 0 -13.626730972680782 0.7774009253199381 0 0.7774009253199381 6.2039190949711767 0 0 0 0 -1.9741857848493964 4.9091633078139694 0 4.9091633078139694 -7.6038036125955841 0 0 0 0 -32.448510233261914 37.511854643451898 0 37.511854643451898 -38.675146009542004 0 0 0 0 -113.63030211515434 60.089655483377101 0 60.089655483377101 -44.949574854979801 0 0 0 0 -139.82393615564797 16.961119447310011 0 16.961119447310011 13.180251254486222 0 0 0 0 -160.04996338795172 -45.647755895173759 0 -45.647755895173759 36.61818603067104 0 0 0 0 -211.85631820377603 26.683799715518944 0 26.683799715518944 13.643305860274268 0 0 0 0 -223.82180352667638 -27.297145094761163 0 -27.297145094761163 31.351314500325316 0 0 0 0 -120.11498971030596 -33.23207416810817 0 -33.23207416810817 36.117755482016946 0 0 0 0 -124.86353078423417 5.8269923764519262 0 5.8269923764519262 18.246834139271414 0 0 0 0 -132.90928727698702 -145.078979891833 0 -145.078979891833 279.41716027206394 0 0 0 0 -32.245629004084179 4.0879761578779537 0 4.0879761578779537 3.2748520957891696 0 0 0 0 -28.438101028412348 -2.0903025223760778 0 -2.0903025223760778 24.916833007989226 0 0 0 0 -28.41375771396207 -4.8200457283278517 0 -4.8200457283278517 3.6599733990891199 0 0 0 0 -267.03978324212949 2.7029917803455419 0 2.7029917803455419 241.45847368666045 0 0 0 0 -35.331387597496786 -6.7088498921747757 0 -6.7088498921747757 3.0820403053093841 0 0 0 0 -37.254318046587287 -2.7460479578180639 0 -2.7460479578180639 14.589752639745711 0 0 0 0 -38.849318597036472 -4.9655626480046067 0 -4.9655626480046067 11.702276355691538 0 0 0 0 -33.846724144677864 -7.0291335304325457 0 -7.0291335304325457 4.0803584017401135 0 0 0 0 -27.764440413884586 -1.9310747654180886 0 -1.9310747654180886 7.4729783519746888 0 0 0 0 -22.02895990091929 47.991371111245599 0 47.991371111245599 57.509847402828086 0 0 0 0 -29.976877769206851 1.2339634208902197 0 1.2339634208902197 4.6917329583846392 0 0 0 0 -9.7034445608369424 -30.723062792301221 0 -30.723062792301221 -50.650888912789355 0 0 0 0 -112.0893352308849 23.517364462092473 0 23.517364462092473 -74.836180225221142 0 0 0 0 -78.539940763279446 67.523568904003753 0 67.523568904003753 132.25362539158664 0 0 0 0 -24.243647461069486 -37.518880044474543 0 -37.518880044474543 -118.87700498446725 0 0 0 0 -46.681938914378406 -32.196311260139169 0 -32.196311260139169 -51.786871216594136 0 0 0 0 -6.634407151337264 0.11498432500975753 0 0.11498432500975753 1.2618238354686362 0 0 0 0 -33.549966649792623 15.37085585697514 0 15.37085585697514 -39.107876974988869 0 0 0 0 -45.77432630849944 -32.246121654593253 0 -32.246121654593253 -138.40560997556162 0 0 0 0 -474.98156275268047 -94.505005535101532 0 -94.505005535101532 14.483552202275746 0 0 0 0 -427.76860694840434 -186.08922652785066 0 -186.08922652785066 99.819939052885246 0 0 0 0 -999.59318341424296 -315.16400941957488 0 -315.16400941957488 149.73722033709919 0 0 0 0 -674.15449240541784 -358.42562713685334 0 -358.42562713685334 -90.762522355144768 0 0 0 0 -760.48799775047337 -498.69325883095797 0 -498.69325883095797 -135.52617355748873 0 0 0 0 -137.30297399867413 -266.96763522397475 0 -266.96763522397475 -408.84290709047832 0 0 0 0 -255.1222890047793 -122.78430108995991 0 -122.78430108995991 -40.630687247971423 0 0 0 0 -6.9653614724738873 -5.1221962516809896 0 -5.1221962516809896 -76.389447491493343 0 0 0 0 -113.89603132242337 37.140682529521939 0 37.140682529521939 -116.90550264125807 0 0 0 0 -1265.3456758018219 -928.92085278708134 0 -928.92085278708134 -288.01212733929833 0 0 0 0 -258.12372372567734 -676.14265701666773 0 -676.14265701666773 -989.4128544573714 0 0 0 0 -1930.1763332173869 1396.6926015453314 0 1396.6926015453314 -791.33161042534221 0 0 0 0 -612.87154750052287 570.1223607467025 0 570.1223607467025 -448.70558048240036 0 0 0 0 -15.583388303005876 -1.7694795623825712 0 -1.7694795623825712 -1.0937762370537056 0 0 0 0 -407.13432700755948 345.02536767070512 0 345.02536767070512 -70.998162102129072 0 0 0 0 -39.892932519511447 -7.362133301942773 0 -7.362133301942773 1.4377569143805269 0 0 0 0 -175.10137852197659 -98.757097153419394 0 -98.757097153419394 136.18968836620951 0 0 0 0 -672.7021782716256 237.89569692072666 0 237.89569692072666 81.285232146234648 0 0 0 0 -21.99484685123025 -7.0880920776362473 0 -7.0880920776362473 9.1049192052523722 0 0 0 0 -1054.309064241419 115.34302864283339 0 115.34302864283339 -724.52132881317948 0 0 0 0 -2670.7839123519807 -168.15171742184089 0 -168.15171742184089 -266.2284573299907 0 0 0 0 -2185.6679904603843 615.34736352047594 0 615.34736352047594 -494.03603651456001 0 0 0 0 -1190.8021172332301 -84.161373470080434 0 -84.161373470080434 -1519.6945352926239 0 0 0 0 -909.34465286463092 481.26538507943565 0 481.26538507943565 -920.15273368300632 0 0 0 0 -1065.4317664570262 343.8903104439396 0 343.8903104439396 -505.63449493469875 0 0 0 0 -1007.4063093650484 875.41614545741254 0 875.41614545741254 -486.30100104854091 0 0 0 0 -975.75994231199729 739.23667557995759 0 739.23667557995759 -274.37199393832179 0 0 0 0 -1204.4965585760656 61.245228294288722 0 61.245228294288722 -195.08823839389788 0 0 0 0 -351.69570404187834 8.3811613335763013 0 8.3811613335763013 -207.9947484867796 0 0 0 0 -642.93837384659855 -27.731188645073416 0 -27.731188645073416 320.52083011743821 0 0 0 0 -149.22058877665586 537.8939357657506 0 537.8939357657506 -394.97259821853663 0 0 0 0 -20.174812516868371 4.2227433390767839 0 4.2227433390767839 0.35559432953205117 0 0 0 0 -177.28448952952385 184.48874546233083 0 184.48874546233083 568.27293302190992 0 0 0 0 -17.236475419729686 131.98494993785903 0 131.98494993785903 -249.24648633656034 0 0 0 0 28.684447363404615 -61.953123709447027 0 -61.953123709447027 -34.915586014296878 0 0 0 0 91.81843089096219 295.33822984613857 0 295.33822984613857 -137.45772581919528 0 0 0 0 -355.01419777798583 382.40679167463918 0 382.40679167463918 713.96673086695273 0 0 0 0 -170.76561735943687 -311.15886994447078 0 -311.15886994447078 148.98609820036523 0 0 0 0 -908.5904660432534 -529.12494717625987 0 -529.12494717625987 395.77301928725842 0 0 0 0 -1159.4438491799301 -77.689432401954718 0 -77.689432401954718 85.003571670612132 0 0 0 0 -1063.8812922694633 -315.05326725950454 0 -315.05326725950454 -26.737119821966189 0 0 0 0 -1177.9180876459432 380.20929364872757 0 380.20929364872757 164.65868041701424 0 0 0 0 -426.38099801124918 587.25577583375775 0 587.25577583375775 -34.648013209506416 0 0 0 0 -9.8684292343921243 1.845671480725386 0 1.845671480725386 0.083240637250780569 0 0 0 0 -504.24732601504184 319.51102285773072 0 319.51102285773072 -74.527771122348895 0 0 0 0 -519.74824363940479 276.23334118765581 0 276.23334118765581 121.24610919380302 0 0 0 0 -641.96662858755008 215.54163804955419 0 215.54163804955419 91.486905289962692 0 0 0 0 -577.10093468433479 -74.446986420522308 0 -74.446986420522308 114.94191078291908 0 0 0 0 -371.08714563760441 134.59844686716701 0 134.59844686716701 32.888621542897113 0 0 0 0 -206.44138672400004 -141.65069607900358 0 -141.65069607900358 120.52586982652662 0 0 0 0 -514.02890418829702 127.5315992986084 0 127.5315992986084 -3.5491629609671236 0 0 0 0 -553.4712840249922 154.98319183666786 0 154.98319183666786 124.87899272152947 0 0 0 0 -502.65163685922744 112.68640169656965 0 112.68640169656965 -52.102015073408893 0 0 0 0 -351.24940582623822 -46.996816251454447 0 -46.996816251454447 -118.20792414542893 0 0 0 0 -508.05104452445812 -55.090820833211637 0 -55.090820833211637 -105.39176602561872 0 0 0 0 -446.24084678347572 -128.48039214622804 0 -128.48039214622804 -134.50607219312946 0 0 0 0 -386.19956945168087 -209.20520509682837 0 -209.20520509682837 -124.28432164924152 0 0 0 0 -315.68495903367875 -136.35505532206889 0 -136.35505532206889 -134.05699867692198 0 0 0 0 -392.07089975167037 -82.688899249010319 0 -82.688899249010319 -142.3023445741951 0 0 0 0 -239.67323311633118 -259.35049951510712 0 -259.35049951510712 -245.89419640967526 0 0 0 0 -124.01185931554573 -39.557510085446211 0 -39.557510085446211 -156.55045022485274 0 0 0 0 -227.63931732981291 160.90033414338222 0 160.90033414338222 -48.082449096752043 0 0 0 0 -298.18697568800417 62.403476598687348 0 62.403476598687348 -74.219558791541431 0 0 0 0 -1147.670786351302 84.660236901512235 0 84.660236901512235 1551.5029331723003 0 0 0 0 -508.913264192317 -169.03590941133234 0 -169.03590941133234 422.79368709168193 0 0 0 0 -95.320681464482504 -21.443284790252683 0 -21.443284790252683 -2.732336367039466 0 0 0 0 -958.70144214247557 -440.81762962939138 0 -440.81762962939138 -338.56573188235279 0 0 0 0 -743.36785643536496 1103.2300537919373 0 1103.2300537919373 588.24852589316697 0 0 0 0 -2321.2714807699322 -995.5918972577183 0 -995.5918972577183 50.778063626774383 0 0 0 0 -1801.2840846514373 -4073.5991392741298 0 -4073.5991392741298 -1826.5437157283923 0 0 0 0 986.06470445735613 1110.8761130806597 0 1110.8761130806597 -4795.2716098828514 0 0 0 0 -1995.3750894120749 -1353.6515959866911 0 -1353.6515959866911 -433.14700102418465 0 0 0 0 -563.41192310327278 7.3801628912471244 0 7.3801628912471244 -204.96368813210233 0 0 0 0 -595.34156679779153 -92.659034043323985 0 -92.659034043323985 -113.79381299779129 0 0 0 0 -456.88801096512907 -186.59597796145232 0 -186.59597796145232 -121.77616405644608 0 0 0 0 -488.66407694458758 -68.583422371220806 0 -68.583422371220806 -231.68320686756852 0 0 0 0 -449.70769905790803 -141.40850509817494 0 -141.40850509817494 -158.46161685950892 0 0 0 0 -467.61201932152471 -32.247699684681791 0 -32.247699684681791 -354.29649455409901 0 0 0 0 -546.85832990641211 -137.20423654255657 0 -137.20423654255657 -270.1952998742106 0 0 0 0 -721.68824390435475 -11.543803024524465 0 -11.543803024524465 38.900046001576129 0 0 0 0 -97.968673905657496 -14.766892661851569 0 -14.766892661851569 -2.70988144058391 0 0 0 0 -555.99405937072152 141.95194494207328 0 141.95194494207328 77.675939803302811 0 0 0 0 -283.28377209062091 -25.647983715599821 0 -25.647983715599821 201.10399088609029 0 0 0 0 -501.91904789546606 117.7814107502096 0 117.7814107502096 122.82575255416396 0 0 0 0 -393.95048388527539 78.50628051391368 0 78.50628051391368 119.65725159613703 0 0 0 0 -703.36642218033194 322.64107422849338 0 322.64107422849338 -36.46231828028067 0 0 0 0 -172.67011809801579 38.658723650755064 0 38.658723650755064 57.443939049890105 0 0 0 0 -181.56350463705348 103.74191859344228 0 103.74191859344228 -96.282659944038642 0 0 0 0 14.933197354464937 -77.732651054340295 0 -77.732651054340295 -74.684259886363179 0 0 0 0 -48.977075090813742 31.830186155335468 0 31.830186155335468 -101.36231398086329 0 0 0 0 -289.70759248937156 162.37149765273614 0 162.37149765273614 -139.07469149453391 0 0 0 0 -299.13566687997081 108.56125356794109 0 108.56125356794109 -29.164518616300484 0 0 0 0 -1092.4592145753413 540.3163322072669 0 540.3163322072669 -248.55985620375486 0 0 0 0 -1593.7441097254487 245.24777156019354 0 245.24777156019354 220.97683913627588 0 0 0 0 -1599.9409027317051 -1.5168894066855501 0 -1.5168894066855501 230.16731005881229 0 0 0 0 -2003.3323311873028 149.68115766786104 0 149.68115766786104 340.55206403134071 0 0 0 0 -1244.3997795079049 71.975291564053805 0 71.975291564053805 96.871278620375961 0 0 0 0 -989.0924053172721 -108.73196381742764 0 -108.73196381742764 40.608131863444214 0 0 0 0 -1301.7127876249906 -46.732596331672539 0 -46.732596331672539 228.70475612731752 0 0 0 0 -720.96935963100987 118.39568837458319 0 118.39568837458319 154.9651523916109 0 0 0 0 -1907.2574128588094 -691.19301270033975 0 -691.19301270033975 321.03466416249239 0 0 0 0 -1967.0281849159583 -662.08081658235096 0 -662.08081658235096 329.37659548626834 0 0 0 0 -1156.0250077477831 -487.47040948791891 0 -487.47040948791891 81.120069101727495 0 0 0 0 -1544.6106189076163 -1098.4723202650712 0 -1098.4723202650712 -290.15772662184099 0 0 0 0 -1503.2144647684945 -427.26234799377198 0 -427.26234799377198 308.93508435703916 0 0 0 0 -1679.8276616913317 -614.66501782032446 0 -614.66501782032446 137.00585871193562 0 0 0 0 -1678.7814981790743 -534.16355331272302 0 -534.16355331272302 412.47318138372066 0 0 0 0 -1795.2428884189285 -546.03964532134523 0 -546.03964532134523 420.7340470804138 0 0 0 0 -1839.1619774425635 -418.980699937385 0 -418.980699937385 470.43227552283861 0 0 0 0 -1558.1255556378055 -472.38875333751184 0 -472.38875333751184 392.09181117424305 0 0 0 0 -1810.9250513610496 -470.60312108757444 0 -470.60312108757444 532.42620183686631 0 0 0 0 -2086.5656722517924 -461.97945244010498 0 -461.97945244010498 465.10499794720272 0 0 0 0 -1815.7372464113796 -407.79501405233611 0 -407.79501405233611 380.97140323345229 0 0 0 0 -1739.0011748509423 -497.16101439386057 0 -497.16101439386057 188.14126014984504 0 0 0 0 -2427.1474610517289 -591.38039183637011 0 -591.38039183637011 177.96790637099912 0 0 0 0 -1595.933311793653 -299.54250177806352 0 -299.54250177806352 444.25961242595258 0 0 0 0 -1086.9722154275732 -532.72748444804301 0 -532.72748444804301 -425.82707474264316 0 0 0 0 -1086.8060112086168 -538.9472282284305 0 -538.9472282284305 -1054.4267645802811 0 0 0 0 -2933.6010800902841 -1176.8458895914846 0 -1176.8458895914846 -445.89494965488302 0 0 0 0 -1313.0057842033602 629.41089810019639 0 629.41089810019639 -2002.6591375822381 0 0 0 0 -1799.9608829040772 -1214.5787696970483 0 -1214.5787696970483 -1688.5927882022734 0 0 0 0 -1517.7214261829031 1006.7292475564818 0 1006.7292475564818 -552.65372286869206 0 0 0 0 -27.315303648173575 -2.9675567957419204 0 -2.9675567957419204 -1.9858251925126491 0 0 0 0 -916.2418973052603 -1023.3031942896678 0 -1023.3031942896678 -1070.5852807071115 0 0 0 0 -3208.8292025294886 276.97684422729253 0 276.97684422729253 231.83376758527811 0 0 0 0 -862.9541025645658 -779.55852191531812 0 -779.55852191531812 62.238410821952129 0 0 0 0 -3620.0033179585171 -762.1846253815711 0 -762.1846253815711 207.28813560326125 0 0 0 0 -1199.9382521630459 186.01758218467126 0 186.01758218467126 -294.17966701704609 0 0 0 0 -1442.9651939587147 -561.12303434178932 0 -561.12303434178932 131.50274758284922 0 0 0 0 -772.90274391230741 -508.10659415288342 0 -508.10659415288342 55.016377420184199 0 0 0 0 -1047.5118389403833 257.913103058915 0 257.913103058915 -44.093865008008834 0 0 0 0 -3.4127145567084449 -0.21656779369910373 0 -0.21656779369910373 1.2909314047289211 0 0 0 0 -676.70863518864121 -561.34640323862936 0 -561.34640323862936 -9.2985273396723187 0 0 0 0 -1013.4456338181197 -612.91972214601537 0 -612.91972214601537 225.10582212990766 0 0 0 0 -954.82712872472575 -705.12094594458267 0 -705.12094594458267 -34.026008819137132 0 0 0 0 -633.03341997572261 -634.02866557679067 0 -634.02866557679067 -23.498743337273936 0 0 0 0 -826.29748349798319 -888.78670271926774 0 -888.78670271926774 -203.1825686302854 0 0 0 0 -1471.5734653827251 -820.80692928807389 0 -820.80692928807389 163.70950821217457 0 0 0 0 -948.7909421094937 -836.9656598410362 0 -836.9656598410362 -151.01877906669108 0 0 0 0 -1300.9589748837136 -1381.4600464151035 0 -1381.4600464151035 -792.67164891158882 0 0 0 0 -123.05907811495217 -694.83521506405441 0 -694.83521506405441 -1053.708624344998 0 0 0 0 44.351288216774265 -43.422645651176936 0 -43.422645651176936 -160.49318132403187 0 0 0 0 -317.13842699174074 -380.05139078160016 0 -380.05139078160016 -178.80065400995682 0 0 0 0 -518.75931497458259 -579.86228601196376 0 -579.86228601196376 -366.42253783286594 0 0 0 0 1.3793183730113014 -578.51316979899707 0 -578.51316979899707 -455.02029224525108 0 0 0 0 -830.01843079884111 -745.21110571064457 0 -745.21110571064457 -565.37018816908471 0 0 0 0 -1.7760631759121548 -2.23529571808217 0 -2.23529571808217 1.4398041014193557 0 0 0 0 -770.52477662320734 -1025.5007625225394 0 -1025.5007625225394 -648.79851322768104 0 0 0 0 -1944.6198951859428 346.58170230627081 0 346.58170230627081 -1803.8368175064252 0 0 0 0 -1.6149769899339339 -2.2896120347876883 0 -2.2896120347876883 -6.4868483084098845 0 0 0 0 -1805.6232312191526 -1099.8229809505424 0 -1099.8229809505424 5.2281460313311072 0 0 0 0 -2871.1122275210482 -1129.8672334410905 0 -1129.8672334410905 838.71474630449484 0 0 0 0 -1391.6912717603423 121.93967079456661 0 121.93967079456661 -987.47956489045339 0 0 0 0 -1425.8435101791715 -580.63973740231631 0 -580.63973740231631 107.41176914097377 0 0 0 0 -15.10629357754442 -1176.8811074824644 0 -1176.8811074824644 259.9964147359151 0 0 0 0 39.665640349645855 -7.0861769978520215 0 -7.0861769978520215 821.53733654494226 0 0 0 0 568.44305606690432 -457.02278458745195 0 -457.02278458745195 -494.92033688124229 0 0 0 0 -127.2078429095618 -280.40399278279415 0 -280.40399278279415 -426.59795219274247 0 0 0 0 378.70768588357851 -626.60718668734535 0 -626.60718668734535 613.89078075985435 0 0 0 0 -11.159413061683797 5.6062193267673841 0 5.6062193267673841 12.491095016202188 0 0 0 0 156.55483232391634 105.48956126560961 0 105.48956126560961 35.173989568677825 0 0 0 0 149.37617521506178 -148.66013216168358 0 -148.66013216168358 -381.64870283782955 0 0 0 0 -1341.3719077643555 -1321.940180026073 0 -1321.940180026073 -402.63692284038279 0 0 0 0 -830.93178293765322 -33.990491962575106 0 -33.990491962575106 1424.4181363230637 0 0 0 0 -265.44846286540087 87.433828927853938 0 87.433828927853938 220.08053335460136 0 0 0 0 -145.60955928764724 -148.29015421410782 0 -148.29015421410782 184.61088088268116 0 0 0 0 62.34308926481026 152.08263004889341 0 152.08263004889341 -390.33906008336407 0 0 0 0 -72.457243782731183 -11.109084566239904 0 -11.109084566239904 9.1280576094543289 0 0 0 0 -25.748750068928029 -13.651845660340053 0 -13.651845660340053 4.8436767218625452 0 0 0 0 16.333021949874819 -365.51338982940774 0 -365.51338982940774 790.57920115886736 0 0 0 0 52.668115737825133 -434.22769054357428 0 -434.22769054357428 543.6120106277217 0 0 0 0 -68.606650282868372 80.577803196772749 0 80.577803196772749 523.55630502727081 0 0 0 0 -708.51408636884935 -10.082105758232728 0 -10.082105758232728 530.75094685069553 0 0 0 0 -276.56875589687843 -98.62159192424906 0 -98.62159192424906 533.4419977052421 0 0 0 0 -225.90144080093523 -316.99080945569153 0 -316.99080945569153 -64.091305355514692 0 0 0 0 134.15163623779426 -192.14152738069288 0 -192.14152738069288 -21.507064421503856 0 0 0 0 -469.72329288302353 -87.396247127572678 0 -87.396247127572678 46.241750944874639 0 0 0 0 -205.48785648573539 -169.91127709455418 0 -169.91127709455418 28.62212333737034 0 0 0 0 -162.27733355037253 -142.54035684863425 0 -142.54035684863425 -336.27609660722464 0 0 0 0 -330.99080793976009 -213.23804818384582 0 -213.23804818384582 -311.95499494548409 0 0 0 0 -324.85946982640962 -101.24490469075761 0 -101.24490469075761 -239.84745837594028 0 0 0 0 -6.1363978828938066 5.8942695126656641 0 5.8942695126656641 -5.2522135169079043 0 0 0 0 -1079.2258008078898 229.24693394353585 0 229.24693394353585 167.7872833222558 0 0 0 0 -611.62951408179288 -131.51711455380075 0 -131.51711455380075 -115.27468104221862 0 0 0 0 -651.15287180850373 -202.82076091883846 0 -202.82076091883846 -157.64533932054883 0 0 0 0 -2.4088965536824549 2.3391747164536945 0 2.3391747164536945 -2.0387495779432996 0 0 0 0 -478.85956334694595 -139.73907233037428 0 -139.73907233037428 -141.13773403200821 0 0 0 0 -958.13050493329956 -386.16220835310514 0 -386.16220835310514 153.25306552276811 0 0 0 0 -201.82466359647719 -26.654067930400743 0 -26.654067930400743 -58.850373971662066 0 0 0 0 34.094502046518301 417.67353749940457 0 417.67353749940457 408.47504502676748 0 0 0 0 140.26825305161674 168.69763562977846 0 168.69763562977846 471.69734410557703 0 0 0 0 -444.17344400382626 -332.50008553340467 0 -332.50008553340467 1431.725672079582 0 0 0 0 -110.50018212457928 13.068863942325777 0 13.068863942325777 197.91350875624119 0 0 0 0 -24.665293129228832 -6.0948190572039325 0 -6.0948190572039325 0.26909614198420556 0 0 0 0 -378.74472420498296 431.78937462757739 0 431.78937462757739 914.74234476249785 0 0 0 0 -643.21072873209141 254.32992461438607 0 254.32992461438607 1137.2263451142171 0 0 0 0 -10.954542307694833 -2.2448309134106545 0 -2.2448309134106545 0.47637227058383513 0 0 0 0 -452.78240391206009 -564.48807261645698 0 -564.48807261645698 -482.2077758689008 0 0 0 0 -150.5983017924035 -373.6397139700436 0 -373.6397139700436 -361.75295806357013 0 0 0 0 -761.9514205164146 -501.59559898278104 0 -501.59559898278104 -101.0720201118379 0 0 0 0 -561.05698232885948 -303.99703444771791 0 -303.99703444771791 4.2950335670693862 0 0 0 0 -685.69301101353381 -169.1824534651779 0 -169.1824534651779 -96.908875827649922 0 0 0 0 -496.43424177155725 -318.57491696428076 0 -318.57491696428076 4.9065232854320424 0 0 0 0 -495.81148435405288 -335.46747432022283 0 -335.46747432022283 -220.90335211272884 0 0 0 0 -576.27134033170512 -231.52084592630564 0 -231.52084592630564 -23.281027125802922 0 0 0 0 -385.8479868558822 -72.25848296896163 0 -72.25848296896163 -66.161569810837534 0 0 0 0 -9.4667423053311666 72.839422966164022 0 72.839422966164022 41.97091437662516 0 0 0 0 -199.07711734137149 -161.99953023852919 0 -161.99953023852919 -129.05809874351581 0 0 0 0 -1.6004887374199086 -14.285167242655969 0 -14.285167242655969 29.682548877252717 0 0 0 0 3.7225180037575285 23.872187140872079 0 23.872187140872079 5.2645572183183553 0 0 0 0 -36.655520374989294 -20.853186616404034 0 -20.853186616404034 30.410161401125347 0 0 0 0 8.0703583491304585 2.3389613103567815 0 2.3389613103567815 58.539734629270953 0 0 0 0 97.452140775359766 -72.138259941290073 0 -72.138259941290073 -3.7091005716900654 0 0 0 0 -62.973571737686143 11.101870856907908 0 11.101870856907908 9.4932301935109535 0 0 0 0 -22.778035050971663 -25.993121181451276 0 -25.993121181451276 20.212460439046197 0 0 0 0 -120.41969821723225 51.440552209897611 0 51.440552209897611 20.99797728828019 0 0 0 0 47.315107753583248 29.298259195769504 0 29.298259195769504 -113.63910053707963 0 0 0 0 -325.41574393786419 -59.476158202458976 0 -59.476158202458976 89.144775964773203 0 0 0 0 -227.38542848198085 37.673775451597521 0 37.673775451597521 36.534460395487258 0 0 0 0 -252.90207766103049 -137.30678444724907 0 -137.30678444724907 218.85277278861668 0 0 0 0 -91.430392561670828 -28.089720715450508 0 -28.089720715450508 -0.59735338368492918 0 0 0 0 -67.588328536001427 -35.920728602776308 0 -35.920728602776308 33.713851555258771 0 0 0 0 59.091692645338938 -214.28886012869998 0 -214.28886012869998 -125.63708767908685 0 0 0 0 -42.008514067711566 -28.714904030884156 0 -28.714904030884156 17.425071410524954 0 0 0 0 11.480460736761676 -28.116973338435784 0 -28.116973338435784 -3.6385933006018858 0 0 0 0 -485.65494888497813 1.8051003155237595 0 1.8051003155237595 274.30784500751298 0 0 0 0 -645.22093702746452 -403.44128892763149 0 -403.44128892763149 -447.9338197925091 0 0 0 0 92.48593465675367 316.76933517253906 0 316.76933517253906 12.450102295708888 0 0 0 0 -50.866707497613518 39.261132831582124 0 39.261132831582124 -13.345701630805427 0 0 0 0 251.73364178277291 -207.21518752824289 0 -207.21518752824289 398.00781936949625 0 0 0 0 -290.90163136736783 87.665954268748465 0 87.665954268748465 271.80842505182045 0 0 0 0 -912.08678344873999 -425.79843916604756 0 -425.79843916604756 -16.104150508983935 0 0 0 0 -4.6990976740839168 0.08231965008972017 0 0.08231965008972017 14.799343834956662 0 0 0 0 -318.09996194435354 -168.29439880440896 0 -168.29439880440896 -139.56950829354827 0 0 0 0 -790.45780427161355 -67.131032782684571 0 -67.131032782684571 38.392571958667361 0 0 0 0 -658.98165131123369 -356.39516492255507 0 -356.39516492255507 -223.7829123459851 0 0 0 0 -57.337729352009951 39.014420827386758 0 39.014420827386758 -15.397181552183287 0 0 0 0 -164.98936136671364 609.99590485405747 0 609.99590485405747 369.82378522354065 0 0 0 0 -9.1324472874198364 -86.622704949180076 0 -86.622704949180076 -180.22629520997179 0 0 0 0 -579.80559439358694 249.71802745939988 0 249.71802745939988 162.04020925751297 0 0 0 0 -1397.5813042862628 -107.83944410169079 0 -107.83944410169079 107.45376142825717 0 0 0 0 -1855.3614947753667 278.08550748778816 0 278.08550748778816 105.55105563083924 0 0 0 0 -3317.9443418526171 650.44520212365035 0 650.44520212365035 264.10777522758985 0 0 0 0 -3440.3183001854322 560.40884832458823 0 560.40884832458823 403.24266902811871 0 0 0 0 -2476.6945162736483 301.03347585360376 0 301.03347585360376 -65.189972693086062 0 0 0 0 -2270.4902534820139 -216.85773669186256 0 -216.85773669186256 70.626101607271039 0 0 0 0 -3475.6530893562049 -286.98971152878499 0 -286.98971152878499 -26.542020846531024 0 0 0 0 -4428.393178039064 850.3001454766478 0 850.3001454766478 -1621.8267799391392 0 0 0 0 -7821.1021526408913 -217.49675056398075 0 -217.49675056398075 -25.875380245810504 0 0 0 0 545.39080237736403 2148.4770554184447 0 2148.4770554184447 -618.00429878390469 0 0 0 0 -20.261103325366157 13.577831189459687 0 13.577831189459687 -8.52793340064445 0 0 0 0 -297.10152816872505 -439.27856180754259 0 -439.27856180754259 350.45851277092697 0 0 0 0 -121.09809965700515 -292.13712927848667 0 -292.13712927848667 -523.67527884224046 0 0 0 0 -661.15783621890773 -43.676263931734866 0 -43.676263931734866 1246.214643601832 0 0 0 0 -519.10561395401817 172.78803209744785 0 172.78803209744785 217.79057279519202 0 0 0 0 -48.475870778337075 33.718482659672119 0 33.718482659672119 -15.681058409800929 0 0 0 0 -2445.4493152083814 -392.16273593335228 0 -392.16273593335228 104.82520072732473 0 0 0 0 324.77038478770351 969.99425348294403 0 969.99425348294403 1081.7949340635823 0 0 0 0 -979.90639698555026 -537.42027006448961 0 -537.42027006448961 588.49960443886516 0 0 0 0 206.94213903860071 -257.1960797163772 0 -257.1960797163772 -179.18471580512141 0 0 0 0 -683.86826932418819 -121.93348774161882 0 -121.93348774161882 153.76803192826412 0 0 0 0 -5.3884208903891766 0.75268295677173747 0 0.75268295677173747 12.247182954035274 0 0 0 0 -1761.7208106352227 -455.37519378253813 0 -455.37519378253813 542.7358145006707 0 0 0 0 -1121.8781345569168 -806.31101832945501 0 -806.31101832945501 -133.59940288506434 0 0 0 0 -1110.7286495702101 -107.04389883045343 0 -107.04389883045343 417.67262070009684 0 0 0 0 -265.37405851663789 -651.89815164069057 0 -651.89815164069057 -630.71909882333193 0 0 0 0 -819.83708240963188 28.207299922762445 0 28.207299922762445 851.81528312052137 0 0 0 0 -110.69174910954553 453.78255058419018 0 453.78255058419018 205.75835988645622 0 0 0 0 -1.865881046790077 -0.21837483543073333 0 -0.21837483543073333 1.7307000308041705 0 0 0 0 -2238.9127722984686 -42.541238071394446 0 -42.541238071394446 -531.81240394786289 0 0 0 0 -1097.3085510218557 266.45377604232954 0 266.45377604232954 633.12099479610629 0 0 0 0 -480.2175406280744 240.49466457623964 0 240.49466457623964 574.68469611264209 0 0 0 0 -861.99158899079794 742.45578637752419 0 742.45578637752419 112.14462088571418 0 0 0 0 -2732.5015868760761 375.6481141737795 0 375.6481141737795 543.30904433581009 0 0 0 0 -1125.9265373775925 112.68609969482054 0 112.68609969482054 -68.306379339617024 0 0 0 0 -4114.8815583278874 608.84863558742472 0 608.84863558742472 642.37967399321747 0 0 0 0 -4113.3463165591602 616.48694711598887 0 616.48694711598887 552.37079645643053 0 0 0 0 -2707.5386070985278 785.48425703959549 0 785.48425703959549 345.59059843908381 0 0 0 0 -4130.7469552799721 845.59024687246074 0 845.59024687246074 267.29373003658094 0 0 0 0 -4318.9648088792956 1033.4248147529197 0 1033.4248147529197 498.01914183409804 0 0 0 0 -4037.2405069687884 2377.1828253270082 0 2377.1828253270082 -509.09160354977098 0 0 0 0 -1766.8207058839412 935.39320954666675 0 935.39320954666675 -315.82970928589566 0 0 0 0 -6096.9662399887802 113.6078479287833 0 113.6078479287833 110.05607371752546 0 0 0 0 -4592.6566385676206 346.17244137712873 0 346.17244137712873 53.375243637466667 0 0 0 0 -4689.0784955292365 763.56390607371372 0 763.56390607371372 -86.884508882394158 0 0 0 0 -4872.9266784013835 376.10711450393188 0 376.10711450393188 552.64194914450377 0 0 0 0 -4149.823330848023 647.58413690021189 0 647.58413690021189 599.82954086718064 0 0 0 0 -4848.9035180015817 244.72161835451402 0 244.72161835451402 801.22225156502896 0 0 0 0 -4520.4902694241728 320.20805536127955 0 320.20805536127955 815.07909238322509 0 0 0 0 -5184.119420612813 233.60521062841531 0 233.60521062841531 983.54681284032517 0 0 0 0 -4913.066011792208 374.82619982738493 0 374.82619982738493 590.16011557104321 0 0 0 0 -5499.7276171453113 486.75882038092635 0 486.75882038092635 805.03132348946053 0 0 0 0 -5190.0440743754643 249.08890949338786 0 249.08890949338786 987.28983852000829 0 0 0 0 -5061.2297702846054 491.48491295580902 0 491.48491295580902 529.71445675228881 0 0 0 0 -5006.2305293607624 418.28750889501026 0 418.28750889501026 591.45456622300662 0 0 0 0 -4840.5376681670605 809.32755338115896 0 809.32755338115896 136.25272048315696 0 0 0 0 -5499.6430294294005 896.58684072170388 0 896.58684072170388 414.92592721292846 0 0 0 0 -5079.5117609391382 622.6632274159042 0 622.6632274159042 506.06038830966395 0 0 0 0 -4939.5546717820453 1031.0703610274015 0 1031.0703610274015 414.60734387638053 0 0 0 0 -5499.4569413907775 1216.1339037341372 0 1216.1339037341372 413.9388260723224 0 0 0 0 -4891.5602188759258 980.94364588186272 0 980.94364588186272 72.255413464820663 0 0 0 0 -4621.1355988550276 1130.2546683374978 0 1130.2546683374978 -3.8997015100876524 0 0 0 0 -4527.7877449385924 1022.8029417856299 0 1022.8029417856299 -458.00476915718809 0 0 0 0 -4437.3649245684692 788.78763972679053 0 788.78763972679053 -220.05467876973739 0 0 0 0 -5027.4078277498502 953.79799936779625 0 953.79799936779625 423.68925359524656 0 0 0 0 -4450.0944719280087 1371.077772636901 0 1371.077772636901 -296.13657902417168 0 0 0 0 -4567.4022325945771 1466.7910738643898 0 1466.7910738643898 87.939096919049149 0 0 0 0 -4855.4302806141459 1336.5767236448712 0 1336.5767236448712 349.41326753532212 0 0 0 0 -4385.4261905053354 1161.6479271071246 0 1161.6479271071246 448.73339033974753 0 0 0 0 -4305.5723621381385 1371.4389197372284 0 1371.4389197372284 465.31215277663978 0 0 0 0 -4215.6703763885762 1481.1190448056402 0 1481.1190448056402 364.77101935162341 0 0 0 0 -5499.701855936728 1564.0712954186956 0 1564.0712954186956 693.48782983380465 0 0 0 0 -4862.7578772420748 1509.0796691153 0 1509.0796691153 546.60992765822959 0 0 0 0 57.706825639681483 -81.141396441512882 0 -81.141396441512882 -101.77014915528116 0 0 0 0 -17.070176657974073 -43.282776832864457 0 -43.282776832864457 1.3043955102500444 0 0 0 0 -596.55512096788152 41.966592290090261 0 41.966592290090261 53.141431958130852 0 0 0 0 -438.92195059780352 37.334269246135136 0 37.334269246135136 -111.67669410967528 0 0 0 0 -578.61578465379716 87.322531930491095 0 87.322531930491095 7.9511327238251397 0 0 0 0 -559.77191622477403 61.335302342042496 0 61.335302342042496 -382.41621316635656 0 0 0 0 -374.21377102268161 -104.60554485987814 0 -104.60554485987814 72.867678395120947 0 0 0 0 -587.42487412167247 -117.62445496160785 0 -117.62445496160785 -27.55059328115567 0 0 0 0 -402.37777936560815 11.375844083584752 0 11.375844083584752 1.9566320901872132 0 0 0 0 -767.72887941916997 -1.1035688743615992 0 -1.1035688743615992 32.867012382245321 0 0 0 0 -532.6660716082115 60.563557941191903 0 60.563557941191903 -127.14910023710854 0 0 0 0 -118.32673808489199 4.1445168182549423 0 4.1445168182549423 23.498636374488342 0 0 0 0 -360.75371497360175 -267.76602220981044 0 -267.76602220981044 -72.035809762623103 0 0 0 0 75.057865109229169 -63.682389419716856 0 -63.682389419716856 23.531657158876897 0 0 0 0 -992.79138573590535 -22.234906457621946 0 -22.234906457621946 -133.24534031106032 0 0 0 0 -0.88018605945399031 -0.34796589098712616 0 -0.34796589098712616 -1.1070562281061704 0 0 0 0 -1203.4300767702553 102.23889942662208 0 102.23889942662208 -35.30592256789987 0 0 0 0 -1072.1238794420315 326.95797109560226 0 326.95797109560226 -88.959894795221771 0 0 0 0 -1097.7689419428934 216.88758922902707 0 216.88758922902707 38.234817328066129 0 0 0 0 4.4361409316188656 -25.41986450459126 0 -25.41986450459126 21.394381704327316 0 0 0 0 4.1955987271703634 -25.767822993189611 0 -25.767822993189611 27.232067378055035 0 0 0 0 -16.310936488103188 -39.787578644283641 0 -39.787578644283641 10.691465601325184 0 0 0 0 90.898729839696898 -36.140721324408787 0 -36.140721324408787 -34.497387461608923 0 0 0 0 -404.84715168882576 144.82449329831005 0 144.82449329831005 85.088854930091202 0 0 0 0 77.593734616013535 -55.606921579791106 0 -55.606921579791106 -84.125151914296907 0 0 0 0 -792.33134348444582 1.787327907735289 0 1.787327907735289 24.954352408825457 0 0 0 0 -1.1739813896073272 1.0464190823812203 0 1.0464190823812203 0.09665381819696961 0 0 0 0 -227.90783546939201 164.37997767337788 0 164.37997767337788 -74.789350704729713 0 0 0 0 -482.18055633355107 203.28388060356849 0 203.28388060356849 -18.807671006877626 0 0 0 0 -23.22743445582455 114.36227055299128 0 114.36227055299128 -56.105764739012102 0 0 0 0 -195.07062685936398 48.570144819411553 0 48.570144819411553 -35.912506302502692 0 0 0 0 6.8343417549715468 3.9830781763770489 0 3.9830781763770489 1.8406392983647262 0 0 0 0 38.849323029251536 20.178132433364453 0 20.178132433364453 -17.799147734040275 0 0 0 0 6.9126085706682261 71.291871018787717 0 71.291871018787717 7.3616443971561694 0 0 0 0 14.71878835609823 100.02417372507512 0 100.02417372507512 3.2863207338008635 0 0 0 0 43.293445438104925 34.791533918460537 0 34.791533918460537 13.049757241475856 0 0 0 0 -20.321469086834298 26.225350712988401 0 26.225350712988401 9.3977781275361529 0 0 0 0 -253.33364227430866 113.99776369979986 0 113.99776369979986 -20.119021133123169 0 0 0 0 33.157651311885274 -23.596197861989594 0 -23.596197861989594 9.7135453841792696 0 0 0 0 -4.2420819184601442 7.5711039440484029 0 7.5711039440484029 11.187123084846926 0 0 0 0 -17.00628991117992 11.99976174032895 0 11.99976174032895 13.690682922331689 0 0 0 0 -13.908372212473637 2.1387431206907017 0 2.1387431206907017 -0.12325383943988477 0 0 0 0 -2.9284246162919487 3.3591380939246847 0 3.3591380939246847 5.0875777208313666 0 0 0 0 -19.494432141953439 14.268674152914173 0 14.268674152914173 3.1853912733013203 0 0 0 0 -28.802235921830288 14.287058166835322 0 14.287058166835322 29.300551722998534 0 0 0 0 -10.803070496142027 10.839794203574456 0 10.839794203574456 3.8099008035381985 0 0 0 0 -46.395552984617282 11.20060290654034 0 11.20060290654034 16.597931211291986 0 0 0 0 -451.93521687841712 158.32628694855157 0 158.32628694855157 0.37512344154492894 0 0 0 0 -151.6088753487129 151.54707282232721 0 151.54707282232721 -85.640053773328418 0 0 0 0 -171.21887770307512 147.73199347881678 0 147.73199347881678 -34.824589469469174 0 0 0 0 -453.79492546721303 169.19817170324541 0 169.19817170324541 -37.689108353226857 0 0 0 0 -165.13556885778235 221.1897686166119 0 221.1897686166119 -302.83005980649477 0 0 0 0 58.938724104358698 -90.305635822604017 0 -90.305635822604017 -24.272696231931661 0 0 0 0 -802.50105736468686 132.68901324065973 0 132.68901324065973 3.4133494141376559 0 0 0 0 -5.3288842563829633 1.3755256523189017 0 1.3755256523189017 0.31232928231151402 0 0 0 0 -515.59625775670429 326.8773180655046 0 326.8773180655046 -130.7028489003751 0 0 0 0 -496.2892300363892 -190.82934672491592 0 -190.82934672491592 141.26424053858273 0 0 0 0 -753.97893960800866 123.96690651522749 0 123.96690651522749 83.318086231311099 0 0 0 0 -74.825731441171229 20.912000426462612 0 20.912000426462612 38.675609315439033 0 0 0 0 -2.7090557146894412 1.652264279293334 0 1.652264279293334 1.358323605376917 0 0 0 0 -60.66927381113419 -33.209214522923389 0 -33.209214522923389 -82.218882251068862 0 0 0 0 -89.190771188848885 -108.10175864805024 0 -108.10175864805024 -157.09206503327061 0 0 0 0 -5.3797419816619367 -32.111975677624059 0 -32.111975677624059 71.544242348784792 0 0 0 0 -42.097088916983921 -28.762612381633517 0 -28.762612381633517 -53.285612977939763 0 0 0 0 -268.37827878845746 -24.92057282226034 0 -24.92057282226034 46.932616803826932 0 0 0 0 -267.68440002333955 -22.681985524627635 0 -22.681985524627635 18.918036385454343 0 0 0 0 -493.21709821488184 196.36627372779458 0 196.36627372779458 -5.6398909690119581 0 0 0 0 -33.653166624331789 30.991726190268082 0 30.991726190268082 39.715665791831213 0 0 0 0 -37.767410659033629 4.2593586958686984 0 4.2593586958686984 22.014397774640507 0 0 0 0 -28.720165985796484 22.039395632955802 0 22.039395632955802 17.223030386178834 0 0 0 0 -24.188694197260929 7.4300788498459616 0 7.4300788498459616 4.396900892977003 0 0 0 0 -42.594880934950197 10.160680030430285 0 10.160680030430285 67.941652157029921 0 0 0 0 -31.889544048113748 -12.328315595590311 0 -12.328315595590311 15.168148072740223 0 0 0 0 -42.809909654619872 -5.9806192396294335 0 -5.9806192396294335 15.646034101138229 0 0 0 0 -30.384002213271742 -1.4570182090797061 0 -1.4570182090797061 0.87110866358489147 0 0 0 0 -55.646409627748653 19.156555458249827 0 19.156555458249827 52.204501225898532 0 0 0 0 -77.268099826476828 -2.4422418784727142 0 -2.4422418784727142 53.437991689253522 0 0 0 0 -83.302337213168357 -17.211613305286686 0 -17.211613305286686 4.5420851551393184 0 0 0 0 -142.44320785677701 22.670220359573477 0 22.670220359573477 16.322406690984621 0 0 0 0 -58.761858929974551 2.5435016270308246 0 2.5435016270308246 24.717363282131458 0 0 0 0 -42.152910189633985 -62.172644707174804 0 -62.172644707174804 33.657221911182205 0 0 0 0 -106.49561375381745 19.678876052486885 0 19.678876052486885 -16.335252417916763 0 0 0 0 -57.823354673368158 -19.861160527582797 0 -19.861160527582797 -32.607916707931963 0 0 0 0 -340.95793385357501 101.03784693615785 0 101.03784693615785 -28.620018866470673 0 0 0 0 -72.729841179010691 -10.414289627140079 0 -10.414289627140079 15.99407174937437 0 0 0 0 -10.646903710753918 1.0719419088316897 0 1.0719419088316897 0.44835412464013302 0 0 0 0 -106.89830058020016 56.898795136832632 0 56.898795136832632 -3.6304597919752268 0 0 0 0 -48.098362629959723 -16.038279132377696 0 -16.038279132377696 11.925507357599118 0 0 0 0 -21.319444591648789 -39.168143285338203 0 -39.168143285338203 5.7374800354955369 0 0 0 0 -54.24487371534633 -8.1058889639014069 0 -8.1058889639014069 -1.3174815299407783 0 0 0 0 -688.29475176669075 307.28243405032208 0 307.28243405032208 -135.3475341165574 0 0 0 0 -900.24488774423662 382.00595146770684 0 382.00595146770684 -138.70429792061532 0 0 0 0 -785.187131779634 36.369423828578988 0 36.369423828578988 44.021758099517683 0 0 0 0 -1002.3745568663962 137.8030290068084 0 137.8030290068084 4.3893912355270004 0 0 0 0 -705.93581803421694 69.996706101628433 0 69.996706101628433 58.271278348901433 0 0 0 0 -19.600174950689905 -48.710634046624762 0 -48.710634046624762 -8.5972958353499198 0 0 0 0 -573.54595614242135 193.03074468874456 0 193.03074468874456 15.531356199161564 0 0 0 0 -669.6047805246053 152.28336279843597 0 152.28336279843597 47.205198926099911 0 0 0 0 -540.79267305486428 107.08607147837108 0 107.08607147837108 25.10702428944478 0 0 0 0 -671.55319258904456 80.053569936806227 0 80.053569936806227 -6.8157873222680792 0 0 0 0 -633.46437029683148 170.31299635914183 0 170.31299635914183 1.3926361522350419 0 0 0 0 -18.107770663063768 -46.059529572881303 0 -46.059529572881303 -5.0177283749692752 0 0 0 0 -556.47411041389205 148.25532857212522 0 148.25532857212522 -107.53220931061514 0 0 0 0 -699.8564257219623 269.56328477230011 0 269.56328477230011 -54.461278647560903 0 0 0 0 -633.8437240505591 170.63580569683882 0 170.63580569683882 79.818179162519982 0 0 0 0 -521.66241050673852 -127.2498478128274 0 -127.2498478128274 40.63933951198544 0 0 0 0 -19.479344937588394 -123.19613098317984 0 -123.19613098317984 -48.19904688488532 0 0 0 0 -344.34748216324078 26.64965924411797 0 26.64965924411797 25.747132441061467 0 0 0 0 -504.14862699456717 99.024634708782173 0 99.024634708782173 2.0835034377830652 0 0 0 0 -520.56610375719629 -1.8399656819677404 0 -1.8399656819677404 91.664579512535056 0 0 0 0 -186.39659319995553 -68.143517344978136 0 -68.143517344978136 -9.0340955110216896 0 0 0 0 -16.922992978863689 -49.842162272911906 0 -49.842162272911906 -10.524185328318753 0 0 0 0 -147.32101867848633 -68.886204651820833 0 -68.886204651820833 -27.649884710842116 0 0 0 0 -547.3241212739631 63.812943699712037 0 63.812943699712037 -34.248190648367199 0 0 0 0 -941.9558827159417 135.04893888736524 0 135.04893888736524 83.03668291324459 0 0 0 0 -989.72300973276288 -145.8351359604228 0 -145.8351359604228 211.07315737107524 0 0 0 0 -1676.0341791562387 300.05556851772371 0 300.05556851772371 183.73918152274882 0 0 0 0 -965.26064196893503 -37.609683240776718 0 -37.609683240776718 342.76909581502969 0 0 0 0 -1616.2292870959293 -561.41402821913323 0 -561.41402821913323 674.27325634507815 0 0 0 0 -517.72945552815509 -482.467117276615 0 -482.467117276615 231.04689652600496 0 0 0 0 -543.86730685594011 -166.35318131004479 0 -166.35318131004479 181.72349932350744 0 0 0 0 -764.70955330880497 -60.592488224988358 0 -60.592488224988358 -58.853283887663565 0 0 0 0 -480.29305151155131 -239.03087269375987 0 -239.03087269375987 49.939597948415894 0 0 0 0 -970.97558207918337 -285.81186983211592 0 -285.81186983211592 153.41436842233065 0 0 0 0 -712.27205602597678 -248.35409840527677 0 -248.35409840527677 47.558527971208832 0 0 0 0 -870.42323659259273 -83.14830759394431 0 -83.14830759394431 -65.152967070032446 0 0 0 0 -689.27975887220236 -63.109574830205702 0 -63.109574830205702 -139.48233809612611 0 0 0 0 -841.11761669673433 -108.58866700287518 0 -108.58866700287518 -137.34512027528535 0 0 0 0 -929.38925095714694 90.659626602199694 0 90.659626602199694 -189.63235032392231 0 0 0 0 -814.49855918518733 -4.03460065471495 0 -4.03460065471495 -88.122222354482801 0 0 0 0 -782.5829330792767 -82.659475917167811 0 -82.659475917167811 33.434852972342469 0 0 0 0 -605.09885124490575 -9.4948756081457191 0 -9.4948756081457191 43.627272696381624 0 0 0 0 -818.15856161861302 -57.117046240972059 0 -57.117046240972059 115.47799024723395 0 0 0 0 -852.15041997122171 -144.15467307434247 0 -144.15467307434247 37.192743286464065 0 0 0 0 -811.90782126787235 -79.660331553076048 0 -79.660331553076048 109.65597473067032 0 0 0 0 -902.7735225482902 546.80593126079293 0 546.80593126079293 -279.81192863663841 0 0 0 0 -1042.8568398802963 204.19237806237376 0 204.19237806237376 -65.697224533087137 0 0 0 0 -830.57354994561319 416.92531503060809 0 416.92531503060809 -498.35691183238487 0 0 0 0 -728.10154193284689 459.42816778003885 0 459.42816778003885 60.094351058074608 0 0 0 0 -827.05650894997825 354.10827002431768 0 354.10827002431768 -51.935982555922237 0 0 0 0 -907.59547089911575 608.9609957248208 0 608.9609957248208 -283.3918801441921 0 0 0 0 -959.34086902155832 318.74368118961638 0 318.74368118961638 3.5904214664318488 0 0 0 0 -673.174534148151 185.95767745627268 0 185.95767745627268 198.32009521782811 0 0 0 0 -564.27574308487965 237.3480623542066 0 237.3480623542066 -134.65857483158061 0 0 0 0 -380.25205949343945 172.28016142255956 0 172.28016142255956 -102.11670474418816 0 0 0 0 -883.64089978896664 145.26633338110537 0 145.26633338110537 -64.369263426838756 0 0 0 0 -956.74303271902318 18.975931908439861 0 18.975931908439861 -317.50239717643217 0 0 0 0 -1251.3139588392514 199.82926818157017 0 199.82926818157017 -446.59929699824715 0 0 0 0 -1192.0991572176281 330.96403953953768 0 330.96403953953768 -185.28295689730516 0 0 0 0 -759.27122958757172 255.22364351719813 0 255.22364351719813 -206.54493186630725 0 0 0 0 -893.22062739532703 698.87327632893187 0 698.87327632893187 -120.24516648718668 0 0 0 0 -1608.0070175552974 739.94446509931788 0 739.94446509931788 -106.17045256284416 0 0 0 0 -893.65486386008342 737.38310603886043 0 737.38310603886043 -484.23362560251144 0 0 0 0 -10.178056562534778 2.7257386917780115 0 2.7257386917780115 -0.39190260494266582 0 0 0 0 -641.57607332451153 -423.12250993976511 0 -423.12250993976511 310.12024058503471 0 0 0 0 -735.16065912495105 1237.6667107806322 0 1237.6667107806322 -483.90485646194202 0 0 0 0 -1714.6060311348811 508.26427479461404 0 508.26427479461404 -118.59029275981379 0 0 0 0 -1747.0129526961318 408.46555541848102 0 408.46555541848102 -425.92493286112926 0 0 0 0 -1356.3745040582289 496.24888137312337 0 496.24888137312337 -507.29382631804606 0 0 0 0 -1061.8335628251079 243.10486507193309 0 243.10486507193309 -406.01338085910425 0 0 0 0 -1231.4822728049885 125.30399592622689 0 125.30399592622689 -473.93510758788125 0 0 0 0 -1305.2748577647435 372.55178944757267 0 372.55178944757267 -511.24944205451175 0 0 0 0 -1322.1811783696503 202.59850746157827 0 202.59850746157827 -378.80671310806974 0 0 0 0 -1236.8319964696711 392.20967473420978 0 392.20967473420978 -456.47415014531975 0 0 0 0 -2406.7750600572508 85.518905824890908 0 85.518905824890908 -92.731238240056882 0 0 0 0 -1824.1220311992474 587.21916275479032 0 587.21916275479032 -503.9091441055125 0 0 0 0 -1334.1179139733431 286.58956907994673 0 286.58956907994673 -748.03975504941445 0 0 0 0 -360.14416144210554 -99.937832535428697 0 -99.937832535428697 -370.59284371931506 0 0 0 0 -332.3785823183116 -247.33388930007271 0 -247.33388930007271 -166.28399503167316 0 0 0 0 -327.35751659832749 -93.535559121166216 0 -93.535559121166216 -14.299512946731284 0 0 0 0 -3.1481658483437229 4.6097762659214965 0 4.6097762659214965 -7.0935491840163465 0 0 0 0 -375.44431954548782 -224.29098773550851 0 -224.29098773550851 -115.76856069735504 0 0 0 0 -385.56967301125405 -211.4852790948521 0 -211.4852790948521 -130.61741677867894 0 0 0 0 -352.29005351027081 -215.84775473689183 0 -215.84775473689183 -130.6889579781182 0 0 0 0 -383.83257943855642 -223.06265143887754 0 -223.06265143887754 -130.12856950557739 0 0 0 0 -873.26672347361455 191.06768569994983 0 191.06768569994983 -234.23004085766374 0 0 0 0 -834.28055331994983 75.111262292311949 0 75.111262292311949 -166.79077328808535 0 0 0 0 -739.52285532747919 117.59445552517855 0 117.59445552517855 -157.11565043383234 0 0 0 0 -705.15792105379478 51.348153517274227 0 51.348153517274227 -29.503849998074202 0 0 0 0 -825.95237032618024 -4.4449919451078586 0 -4.4449919451078586 -48.145700534306798 0 0 0 0 -809.0840997918358 39.150337306394647 0 39.150337306394647 -242.824748640282 0 0 0 0 -887.80738024785023 -13.210703228225384 0 -13.210703228225384 -76.509107019860267 0 0 0 0 -895.32820521102258 93.298790326064136 0 93.298790326064136 -272.29224421572803 0 0 0 0 -948.74859851266956 29.059654672584827 0 29.059654672584827 -347.52420707615101 0 0 0 0 -1029.9902116296362 263.08007521980517 0 263.08007521980517 -388.07625915930095 0 0 0 0 -1131.4336175643657 168.85901651318522 0 168.85901651318522 -456.45408102446254 0 0 0 0 -901.768104677255 215.32962210356652 0 215.32962210356652 -445.63812185979805 0 0 0 0 -915.06551111891986 161.99967691956874 0 161.99967691956874 -252.30698250965816 0 0 0 0 -931.69527932179335 314.53889847555365 0 314.53889847555365 -451.37299438381615 0 0 0 0 -1023.2224275722619 270.59078767415895 0 270.59078767415895 -381.61240261398189 0 0 0 0 -1023.3153180874651 277.70050398510239 0 277.70050398510239 -561.94203873569904 0 0 0 0 -1038.7647972785771 364.59893634497155 0 364.59893634497155 -413.18943012737145 0 0 0 0 -1045.7169681616408 276.73052946633948 0 276.73052946633948 -417.82911769579187 0 0 0 0 -922.65940656252133 287.11297942750127 0 287.11297942750127 -385.19523898456282 0 0 0 0 -950.51342078414746 337.19092878370157 0 337.19092878370157 -419.2996595168097 0 0 0 0 -952.52042438607896 361.14526158083117 0 361.14526158083117 -362.46566295920911 0 0 0 0 -1010.5607104310911 364.0053049269809 0 364.0053049269809 -289.39641751081922 0 0 0 0 -929.24089261581503 376.56609082258933 0 376.56609082258933 -395.70205911667654 0 0 0 0 -916.00287938520705 296.88178943549451 0 296.88178943549451 -370.88018649424794 0 0 0 0 -886.04312384710829 215.92929016853554 0 215.92929016853554 -242.6778880213833 0 0 0 0 -918.17792482402001 212.85069896954474 0 212.85069896954474 -213.95304728075575 0 0 0 0 -859.34047402946453 157.59057747340603 0 157.59057747340603 -204.21081328989931 0 0 0 0 -969.2305308241921 196.78378867234005 0 196.78378867234005 -167.40506208021998 0 0 0 0 -933.83286165814206 286.89518780621938 0 286.89518780621938 -315.49033272689758 0 0 0 0 -1107.2431698585642 272.08105601209718 0 272.08105601209718 -207.09397337131304 0 0 0 0 -1163.8594784293673 497.50629957761248 0 497.50629957761248 -294.05889763959385 0 0 0 0 -995.47946840316217 323.51966473062976 0 323.51966473062976 -188.25494051054375 0 0 0 0 -947.23446960576257 429.62897529930797 0 429.62897529930797 -440.88470680753926 0 0 0 0 -1067.3152527407219 430.52333210787037 0 430.52333210787037 -405.72651313716415 0 0 0 0 -927.20922634691669 449.26042111033985 0 449.26042111033985 -476.38267591519616 0 0 0 0 -884.27496321223225 382.99473856762097 0 382.99473856762097 -380.47968091449911 0 0 0 0 -896.90453494492976 367.00852458912414 0 367.00852458912414 -391.61039210272065 0 0 0 0 -871.42971213518467 394.47811788905074 0 394.47811788905074 -431.87499506343283 0 0 0 0 -935.85735583440692 392.02480089781329 0 392.02480089781329 -383.91423190948626 0 0 0 0 -917.75856753409607 385.9669375647203 0 385.9669375647203 -392.14113949496459 0 0 0 0 -913.16172918842494 404.17133322407972 0 404.17133322407972 -380.26234434459184 0 0 0 0 -947.36997911486833 430.03045115256555 0 430.03045115256555 -398.41301688173826 0 0 0 0 -919.54702064245066 385.45506097016914 0 385.45506097016914 -389.96346282302966 0 0 0 0 -927.32089345937948 345.39499995854067 0 345.39499995854067 -393.19899855241783 0 0 0 0 -970.23843228071928 372.63617635523133 0 372.63617635523133 -407.38696614274886 0 0 0 0 -944.62139050036785 362.05316388899246 0 362.05316388899246 -379.40796184018927 0 0 0 0 -1033.6201711388276 338.94893438333793 0 338.94893438333793 -433.39561482303816 0 0 0 0 -1011.2554216878925 302.39028499062147 0 302.39028499062147 -373.92744272748314 0 0 0 0 -928.44005405661301 293.88165483628927 0 293.88165483628927 -379.45099744434538 0 0 0 0 -1003.6013348386768 234.23062662858365 0 234.23062662858365 -282.05836514869225 0 0 0 0 -956.45861407506163 321.48067028150649 0 321.48067028150649 -347.89671189316687 0 0 0 0 -916.63320608407957 338.46539685468952 0 338.46539685468952 -333.05297296151548 0 0 0 0 -892.15456314262701 268.62563990761191 0 268.62563990761191 -306.90379429490713 0 0 0 0 -865.4834530105436 204.15673784048795 0 204.15673784048795 -275.7909259585067 0 0 0 0 -930.29467782579013 283.39664522375642 0 283.39664522375642 -269.52762898109722 0 0 0 0 -845.1172289189999 231.48100720305592 0 231.48100720305592 -243.98356796898042 0 0 0 0 -906.50267884382629 357.53496214247707 0 357.53496214247707 -358.86769963087499 0 0 0 0 -856.14268460667518 361.63440256603644 0 361.63440256603644 -385.00744563446733 0 0 0 0 -882.77680122651509 387.79607658495843 0 387.79607658495843 -398.2230063294046 0 0 0 0 -881.28931011226086 330.28707084002599 0 330.28707084002599 -363.59541161896232 0 0 0 0 -872.33148365236411 338.45886987584527 0 338.45886987584527 -330.47743114380319 0 0 0 0 -848.962406028033 282.925248366917 0 282.925248366917 -296.10625339359649 0 0 0 0 -875.35197526474076 328.39377352163137 0 328.39377352163137 -340.95751948329325 0 0 0 0 -827.52898689842186 275.25454321061534 0 275.25454321061534 -287.79930350913855 0 0 0 0 -859.29923207106549 313.28264622188908 0 313.28264622188908 -284.81977508308591 0 0 0 0 -853.29635381991102 284.53594804543809 0 284.53594804543809 -255.01192448757502 0 0 0 0 -798.20390261917782 190.63652434672804 0 190.63652434672804 -170.09394412323309 0 0 0 0 -808.37954691812683 261.75823314544357 0 261.75823314544357 -294.58630418703069 0 0 0 0 -880.78224016667809 253.38259833601296 0 253.38259833601296 -156.17822139311829 0 0 0 0 -834.87095983308427 221.29958882197207 0 221.29958882197207 -190.92369382023026 0 0 0 0 -884.00553518615925 296.14928742804113 0 296.14928742804113 -247.38270025259772 0 0 0 0 -856.77862665024441 250.40230855834125 0 250.40230855834125 -128.98770502309162 0 0 0 0 -820.31542526628618 177.93732231955119 0 177.93732231955119 -120.78589745893623 0 0 0 0 -813.03539933976572 108.70830214329544 0 108.70830214329544 59.076791048326413 0 0 0 0 -851.86458409464831 175.17884029769539 0 175.17884029769539 11.303020719808046 0 0 0 0 -829.51808735712257 144.37684827000157 0 144.37684827000157 -60.426957640659566 0 0 0 0 -853.96735764249752 65.366501933902327 0 65.366501933902327 64.573163168766769 0 0 0 0 -837.49562089362007 97.18853863399454 0 97.18853863399454 109.79310567363791 0 0 0 0 -770.66373790708531 169.98099719807138 0 169.98099719807138 -205.39531902555609 0 0 0 0 -843.70026453643914 190.89261995138486 0 190.89261995138486 -141.91995069581026 0 0 0 0 -854.05899142174894 79.987861472901386 0 79.987861472901386 -6.6407398540795839 0 0 0 0 -775.09257794472069 82.853052931807724 0 82.853052931807724 -55.187692350378711 0 0 0 0 -723.43073197353806 108.15960259583699 0 108.15960259583699 -127.8043213532178 0 0 0 0 -733.93122573553865 234.59047280447868 0 234.59047280447868 -239.19328619823136 0 0 0 0 -728.30957993232005 219.39055452696812 0 219.39055452696812 -269.03364543466705 0 0 0 0 -572.55647341233271 257.38860066513098 0 257.38860066513098 -269.93579567761026 0 0 0 0 -952.88164323326419 546.39064603637235 0 546.39064603637235 -263.38986264699997 0 0 0 0 -834.16309984222607 350.3764563403538 0 350.3764563403538 -345.58162573241862 0 0 0 0 -803.35454857004515 382.45300505919658 0 382.45300505919658 -314.96509928219393 0 0 0 0 -1038.9327224647523 480.70457283326766 0 480.70457283326766 -370.50765834099002 0 0 0 0 -1035.3870190370726 383.60999924555199 0 383.60999924555199 -339.87647937317683 0 0 0 0 -867.79833316685108 344.80626373620908 0 344.80626373620908 -461.40874556101153 0 0 0 0 -848.12057589692995 372.74347637010214 0 372.74347637010214 -417.56838662743939 0 0 0 0 -825.72971933039662 315.97439258390841 0 315.97439258390841 -366.74093833703319 0 0 0 0 -779.15002889302559 190.93896131216661 0 190.93896131216661 -197.23420550186484 0 0 0 0 -800.0351602214505 317.53977976034639 0 317.53977976034639 -347.57667075269637 0 0 0 0 -882.00771859205088 318.05625373281623 0 318.05625373281623 -327.68329462231486 0 0 0 0 503.05237239850976 -1354.54224427995 0 -1354.54224427995 657.96113569358477 0 0 0 0 -321.76868614822524 -202.28089630035848 0 -202.28089630035848 -160.8484057203126 0 0 0 0 -58.866597260435768 -21.993886419822609 0 -21.993886419822609 -11.90063288838833 0 0 0 0 1114.6328010692669 -1114.3639862211794 0 -1114.3639862211794 -455.11990927493116 0 0 0 0 220.49235142438556 -2053.6257406004106 0 -2053.6257406004106 97.635099194487339 0 0 0 0 1366.7411769530954 -702.00889577376347 0 -702.00889577376347 -128.64529204877726 0 0 0 0 1300.2635746379383 -811.47514745161607 0 -811.47514745161607 -235.8227169403508 0 0 0 0 1274.5541954686778 -651.45302233512336 0 -651.45302233512336 -155.23843479297659 0 0 0 0 1401.0427781220933 -438.79625568581332 0 -438.79625568581332 140.76422947979779 0 0 0 0 1157.010744883868 -705.27777668595627 0 -705.27777668595627 46.554730672575715 0 0 0 0 1179.071039449962 -569.17484113719092 0 -569.17484113719092 395.83401942898854 0 0 0 0 -147.48706533223231 -151.84727273805106 0 -151.84727273805106 -185.45922203775459 0 0 0 0 -411.33220787134633 -191.14942150215123 0 -191.14942150215123 -61.992899477434094 0 0 0 0 -411.31331431044964 -170.20019429336617 0 -170.20019429336617 -136.89619007172325 0 0 0 0 -1301.4273900810804 -121.53584817051797 0 -121.53584817051797 -166.48235039110659 0 0 0 0 -22.276153275855904 -13.59300137596054 0 -13.59300137596054 -158.80897781579435 0 0 0 0 -8.525200514487409 8.7796524098763626 0 8.7796524098763626 -20.461222690030301 0 0 0 0 -1346.4145328129671 -371.9013534528649 0 -371.9013534528649 -503.92073791321673 0 0 0 0 -1804.9333076882467 -153.17637231058325 0 -153.17637231058325 233.7486962696712 0 0 0 0 843.00811104394961 -541.68264570941028 0 -541.68264570941028 477.96779330962022 0 0 0 0 672.41629474662477 -499.88656853917621 0 -499.88656853917621 487.35859268191439 0 0 0 0 811.09385205728177 -405.13877895324475 0 -405.13877895324475 333.67231922881842 0 0 0 0 -1773.681879240321 -429.52549292184631 0 -429.52549292184631 -801.85594477351697 0 0 0 0 -1830.2516115184408 -582.20908961380337 0 -582.20908961380337 -598.5393379374982 0 0 0 0 -1916.0220781023672 -419.0647956176017 0 -419.0647956176017 -299.58555560904642 0 0 0 0 -1459.2357007775136 -130.03015611950559 0 -130.03015611950559 -462.95961874671775 0 0 0 0 -1702.8318570857227 -570.46143725933507 0 -570.46143725933507 -1199.6140970452689 0 0 0 0 -0.99239734907159516 0.73249723822757673 0 0.73249723822757673 -8.3248040864960728 0 0 0 0 -988.60748664804851 -205.46994147644273 0 -205.46994147644273 -519.51508392094547 0 0 0 0 -1214.930655056196 -304.96537691974663 0 -304.96537691974663 -417.52671446800196 0 0 0 0 -987.78966669239162 -26.087690344305884 0 -26.087690344305884 -280.48651840480579 0 0 0 0 -1177.2072791524042 -150.80814200712666 0 -150.80814200712666 -347.06914903568168 0 0 0 0 -1185.7235307511291 -171.65642157702405 0 -171.65642157702405 -231.22952727046322 0 0 0 0 -1318.9190827108214 -279.15736824049782 0 -279.15736824049782 -317.94787387205724 0 0 0 0 -1320.1599119091024 -178.56490173365717 0 -178.56490173365717 -205.19896265750504 0 0 0 0 -1480.7980957694817 -164.19987546714719 0 -164.19987546714719 -39.489047788002154 0 0 0 0 -1185.1768854611473 229.76102473322771 0 229.76102473322771 -303.34748882483109 0 0 0 0 -1480.8543299031305 239.5389953755151 0 239.5389953755151 -297.14009569861446 0 0 0 0 -1120.2832904099123 76.885764113907499 0 76.885764113907499 -278.21542708790184 0 0 0 0 -944.94041654365719 176.28833353556365 0 176.28833353556365 -307.07245906811841 0 0 0 0 -1082.2182868734071 77.451332328784474 0 77.451332328784474 -287.03303793849955 0 0 0 0 -937.15512481941551 37.853194593261833 0 37.853194593261833 -345.06349953189965 0 0 0 0 -933.79273053343059 184.88105033768625 0 184.88105033768625 -236.53324078687206 0 0 0 0 -932.64153891438286 199.14219157370832 0 199.14219157370832 -269.23976095483522 0 0 0 0 -802.97922052095237 185.01164831884307 0 185.01164831884307 -236.71534297330811 0 0 0 0 -791.34203546364006 158.99613002465685 0 158.99613002465685 -258.10947604061585 0 0 0 0 -876.03493304993754 170.99185505206242 0 170.99185505206242 -102.34064224193389 0 0 0 0 -821.4767442020966 240.48073660477348 0 240.48073660477348 -7.3687033748683461 0 0 0 0 -722.31008845291217 124.15348282271043 0 124.15348282271043 -103.55210701770434 0 0 0 0 -208.78812948929772 161.06240637353312 0 161.06240637353312 41.960108157501963 0 0 0 0 -831.13088982441695 73.902249209022557 0 73.902249209022557 191.06185837338489 0 0 0 0 -726.32569446620619 172.52537490291706 0 172.52537490291706 104.27439630115259 0 0 0 0 -719.42990585618827 201.49839232947215 0 201.49839232947215 90.754751534286697 0 0 0 0 -627.10037832852686 -16.875499862001107 0 -16.875499862001107 178.99096269596703 0 0 0 0 -757.24553094448129 200.96824348292466 0 200.96824348292466 74.097979154947097 0 0 0 0 1.728857139440656 2.5110769859160627 0 2.5110769859160627 2.326164308855688 0 0 0 0 -747.55636674602283 -59.198828635253449 0 -59.198828635253449 387.67807017307132 0 0 0 0 -10.646120234428963 -382.87885996426849 0 -382.87885996426849 174.20592182570817 0 0 0 0 -517.82716836348845 58.923244350581626 0 58.923244350581626 -15.020466562595175 0 0 0 0 -585.72432350026429 -44.883191004197215 0 -44.883191004197215 -23.65193053060284 0 0 0 0 -742.92002400860656 134.67910416620907 0 134.67910416620907 -135.83803366978827 0 0 0 0 -867.6285087754768 -51.12660891792234 0 -51.12660891792234 -320.2100179892368 0 0 0 0 -874.08888051557733 -233.66757552509216 0 -233.66757552509216 -220.77901708580976 0 0 0 0 -1006.8628679592512 -103.37106108773332 0 -103.37106108773332 -347.59585082411468 0 0 0 0 -6.8749359808868888 6.6164077976546878 0 6.6164077976546878 -19.940011081938753 0 0 0 0 65.89470671181698 761.99352277666685 0 761.99352277666685 1258.4200046905171 0 0 0 0 199.19778666292405 -133.4804177956994 0 -133.4804177956994 868.40839149885869 0 0 0 0 -1814.8646338735889 -868.55122011042852 0 -868.55122011042852 36.434901373257162 0 0 0 0 -1353.8616616242143 -479.11914806980167 0 -479.11914806980167 -191.02438228273968 0 0 0 0 -1308.4560926401027 -736.62521064941575 0 -736.62521064941575 -41.946708552834025 0 0 0 0 -1810.2838038883856 -608.1782591974752 0 -608.1782591974752 -61.117970098239311 0 0 0 0 -1248.8978783970088 -370.58101510437336 0 -370.58101510437336 -111.51427012547538 0 0 0 0 -1406.1042094838558 -391.01275519614319 0 -391.01275519614319 -311.90052073382321 0 0 0 0 -1835.0503364429242 -525.18155791916979 0 -525.18155791916979 -336.8412946352546 0 0 0 0 -1512.8398294681028 -1237.9117232881986 0 -1237.9117232881986 10.788543636994291 0 0 0 0 -1009.1618495303701 -729.37825439307744 0 -729.37825439307744 0.76421077813211014 0 0 0 0 -1127.9195227567907 -621.66393287587925 0 -621.66393287587925 30.561288332901313 0 0 0 0 -595.70486521757812 -513.96654162947607 0 -513.96654162947607 -133.42183453728285 0 0 0 0 465.6906999856219 -1230.1424393888465 0 -1230.1424393888465 -246.24231936553224 0 0 0 0 -32.855799738492351 -327.74631985283304 0 -327.74631985283304 -71.824706110710395 0 0 0 0 -26.785180042901807 -46.454367909747624 0 -46.454367909747624 -68.045816161160033 0 0 0 0 -665.85414285051229 -432.79240215706159 0 -432.79240215706159 127.87754402942301 0 0 0 0 -223.7261007832949 -915.86361660576085 0 -915.86361660576085 -178.03334250704211 0 0 0 0 -703.06033909724397 -1195.9068915757125 0 -1195.9068915757125 -267.94311537719113 0 0 0 0 -2345.4907592910749 -1779.8939291778734 0 -1779.8939291778734 252.16986730644567 0 0 0 0 910.05404546545469 2022.906278481034 0 2022.906278481034 1266.4115056643523 0 0 0 0 1040.2757250404247 187.07155231120669 0 187.07155231120669 -355.43223407854202 0 0 0 0 -352.9348183144175 -271.03689892473722 0 -271.03689892473722 -460.16994019661615 0 0 0 0 -322.62453174851089 -694.95081858171318 0 -694.95081858171318 -428.74404730602873 0 0 0 0 -984.71924415840476 238.6121886612018 0 238.6121886612018 632.55802759427388 0 0 0 0 -1341.7101977674101 11.99287136019484 0 11.99287136019484 588.93815308293779 0 0 0 0 -1079.7963244244456 -127.77721794854551 0 -127.77721794854551 536.1724809036823 0 0 0 0 -2125.6495056757649 -398.80835006569259 0 -398.80835006569259 412.50201570095487 0 0 0 0 -10.652011059125893 -19.702259550791382 0 -19.702259550791382 -33.430482976319944 0 0 0 0 2151.3494092449546 -389.03888134612407 0 -389.03888134612407 -133.79858621242238 0 0 0 0 -1795.7958118416286 -169.3861306176218 0 -169.3861306176218 533.31690624457769 0 0 0 0 2471.3520066743804 856.64464320030402 0 856.64464320030402 348.33028683116208 0 0 0 0 2186.0404550966487 1311.4598132354267 0 1311.4598132354267 767.83958763300325 0 0 0 0 1674.7212245335832 259.33820787051627 0 259.33820787051627 225.13643672370017 0 0 0 0 1016.8308572648384 1166.4580091045536 0 1166.4580091045536 749.85741388423094 0 0 0 0 1745.5348234955309 -415.50796843294933 0 -415.50796843294933 -37.064201992925206 0 0 0 0 1649.4173849073995 -66.442839879064138 0 -66.442839879064138 173.32188418373266 0 0 0 0 510.98967642048956 131.76766269255404 0 131.76766269255404 645.26994277855556 0 0 0 0 1040.2081177912769 -195.25187751782914 0 -195.25187751782914 385.55582266979945 0 0 0 0 1175.0421095677302 223.41200368070076 0 223.41200368070076 223.48832162582045 0 0 0 0 1138.1731271586759 -245.88829126431847 0 -245.88829126431847 411.1092677684278 0 0 0 0 1142.3982762247506 -303.68235355778779 0 -303.68235355778779 122.96870919762335 0 0 0 0 1434.8597447604552 -849.98037621159438 0 -849.98037621159438 -248.57866698291855 0 0 0 0 -341.04115695995097 -1.6104879695410546 0 -1.6104879695410546 -114.89250878194798 0 0 0 0 -355.37861343220538 184.34365544145294 0 184.34365544145294 -463.18395067655638 0 0 0 0 159.3107877465136 -602.52823504102435 0 -602.52823504102435 224.95659395071561 0 0 0 0 -136.38379430584246 -27.526649695524611 0 -27.526649695524611 -548.62796879220332 0 0 0 0 -261.78768698713611 -321.55780213157686 0 -321.55780213157686 -1225.9624856167684 0 0 0 0 837.58228669079676 -887.74319147486119 0 -887.74319147486119 -524.24234925778183 0 0 0 0 312.46722523699077 372.13877789546018 0 372.13877789546018 -76.267066909300411 0 0 0 0 243.98064866079039 321.92496376587405 0 321.92496376587405 -195.77022608704397 0 0 0 0 507.84472348905365 -120.65350249177118 0 -120.65350249177118 -243.96753860900662 0 0 0 0 -25.884561699109327 -86.529168947994549 0 -86.529168947994549 -92.815897191419936 0 0 0 0 -490.8195904942404 64.11042284564428 0 64.11042284564428 185.80718936922858 0 0 0 0 -32.176161527022487 -351.11477551864664 0 -351.11477551864664 133.64047591646158 0 0 0 0 -5.3382599098419803 2.4992456603256699 0 2.4992456603256699 11.96847227372745 0 0 0 0 -37.573718083475441 -46.284567752332691 0 -46.284567752332691 -67.365021716533633 0 0 0 0 -401.42091228180652 -211.24140053162864 0 -211.24140053162864 424.49673789442022 0 0 0 0 -190.09812311536371 -47.707657493249826 0 -47.707657493249826 3.5049132246085719 0 0 0 0 -616.8640555101083 201.43144629640756 0 201.43144629640756 199.0100569781589 0 0 0 0 -641.72240726500968 63.136604399536736 0 63.136604399536736 118.24924889273825 0 0 0 0 -827.3697377421995 128.33760076991348 0 128.33760076991348 174.63525610028591 0 0 0 0 -1096.9355447339331 -41.234904511336026 0 -41.234904511336026 152.72750303021894 0 0 0 0 -380.56335746752302 466.72909693869406 0 466.72909693869406 -200.62315090692573 0 0 0 0 -7.8746098820560775 -1.1155834467870847 0 -1.1155834467870847 0.88306399424896753 0 0 0 0 -1295.3017072989533 -69.355440268418533 0 -69.355440268418533 -61.569400615258928 0 0 0 0 140.91890768457597 -53.90488286689947 0 -53.90488286689947 -22.789294411129958 0 0 0 0 -881.75635998854341 140.79802009620653 0 140.79802009620653 22.558056145462615 0 0 0 0 209.82251538311357 -89.59491631376369 0 -89.59491631376369 -126.1436259972852 0 0 0 0 -0.59117557550942479 -3.6368123675909416 0 -3.6368123675909416 -2.0611009183716931 0 0 0 0 207.39788145296143 -116.3806797395282 0 -116.3806797395282 -52.492463875643807 0 0 0 0 -14.89100226214611 -18.296036936651184 0 -18.296036936651184 -21.142911979070522 0 0 0 0 137.11633158048789 -75.759047329900568 0 -75.759047329900568 34.343641386610216 0 0 0 0 -270.92017149927779 498.54875247092241 0 498.54875247092241 -257.06603550868954 0 0 0 0 134.16085636053685 -80.769828488015264 0 -80.769828488015264 44.449131251166364 0 0 0 0 -111.65260811981739 -3.2041255788949456 0 -3.2041255788949456 -9.1635905461639595 0 0 0 0 -46.784905138254331 -36.429771477948222 0 -36.429771477948222 -8.3021521391890793 0 0 0 0 -103.80346465946195 -24.725154099019164 0 -24.725154099019164 -24.819126172947563 0 0 0 0 -860.57378794334363 -230.21559790807078 0 -230.21559790807078 293.17827699167538 0 0 0 0 -40.396249588856705 -17.81111497087646 0 -17.81111497087646 10.293774355333849 0 0 0 0 -683.51653783681104 481.6859168458177 0 481.6859168458177 -108.13600586858956 0 0 0 0 134.70163692295682 116.70123583880175 0 116.70123583880175 -43.196731995090687 0 0 0 0 -46.187075070358098 12.756662271967151 0 12.756662271967151 -11.607921053509319 0 0 0 0 -429.58825375500169 33.002838050612951 0 33.002838050612951 115.97006746789373 0 0 0 0 -216.43825270610068 -43.511758918861233 0 -43.511758918861233 -57.946792302745052 0 0 0 0 135.2232016686319 217.299036925742 0 217.299036925742 -240.22325335951427 0 0 0 0 -548.75032752189873 14.773695970484368 0 14.773695970484368 86.146751256895925 0 0 0 0 -226.66979211847502 124.7853192606417 0 124.7853192606417 92.484367595782032 0 0 0 0 92.25897706226533 -177.88058162286507 0 -177.88058162286507 96.014655857374692 0 0 0 0 -466.20245612686267 329.23578761722456 0 329.23578761722456 -139.70547249165247 0 0 0 0 -256.87986450374228 396.57606957280768 0 396.57606957280768 -293.74555040928863 0 0 0 0 -714.51036025523717 572.29880364767678 0 572.29880364767678 -340.10783519912547 0 0 0 0 -647.5752975417272 240.04077939594117 0 240.04077939594117 -193.08246673655412 0 0 0 0 -562.7282291247684 136.84174197244101 0 136.84174197244101 -203.81017867686933 0 0 0 0 -325.00256484318015 139.92944811812731 0 139.92944811812731 -181.28806810869719 0 0 0 0 -528.83928180275689 43.649854922089617 0 43.649854922089617 -76.428908581176074 0 0 0 0 -675.26405904100466 59.400216356201327 0 59.400216356201327 -77.437945932391813 0 0 0 0 -679.33572880623251 76.935205364708963 0 76.935205364708963 -122.98948151722448 0 0 0 0 -746.63005414861436 -49.063811053189511 0 -49.063811053189511 22.602377554543637 0 0 0 0 -825.15603530954104 2.4329549214853614 0 2.4329549214853614 10.741454504456215 0 0 0 0 -953.11519945428881 -6.9975712215600652 0 -6.9975712215600652 146.30779965193824 0 0 0 0 -909.29451340738888 -23.171250398609118 0 -23.171250398609118 44.547361009873413 0 0 0 0 -865.6789626761929 -33.568442391834651 0 -33.568442391834651 44.297924978749506 0 0 0 0 -886.03391298000497 -23.011553574492609 0 -23.011553574492609 -263.80482250813293 0 0 0 0 -816.37672932424903 -55.964382168829616 0 -55.964382168829616 -10.983290950789524 0 0 0 0 -1007.5831785882183 171.71937708760197 0 171.71937708760197 138.27186708065528 0 0 0 0 -1007.957145175671 163.26883465238643 0 163.26883465238643 -24.843903144548676 0 0 0 0 -1164.9986724881328 278.48091306677543 0 278.48091306677543 -76.365826288300013 0 0 0 0 -687.25065241350967 -117.9307677496904 0 -117.9307677496904 138.44099899756111 0 0 0 0 -795.90999132144498 1.0925249080701178 0 1.0925249080701178 19.564333119795776 0 0 0 0 -482.71377055626363 -261.82458479601155 0 -261.82458479601155 278.55315146657813 0 0 0 0 -711.65635719092097 -19.787607028178172 0 -19.787607028178172 109.24315689527066 0 0 0 0 -770.2635815651447 -84.548635771504451 0 -84.548635771504451 391.02358155510592 0 0 0 0 -1161.4603612517676 83.465131969078357 0 83.465131969078357 358.76751748416063 0 0 0 0 -971.44970125199325 -35.284528899512225 0 -35.284528899512225 406.0967359341812 0 0 0 0 -889.17869550290925 -196.53685849525937 0 -196.53685849525937 496.65460663766135 0 0 0 0 -1040.8039446574621 505.71395744786059 0 505.71395744786059 341.8535027650978 0 0 0 0 -883.49986966882511 374.40522148078037 0 374.40522148078037 173.01589228502417 0 0 0 0 -1011.9153705921053 119.14264851368534 0 119.14264851368534 230.40480554170426 0 0 0 0 -1236.557029643227 276.41148471003362 0 276.41148471003362 313.23970556183758 0 0 0 0 -1140.8245238104646 139.27607459667706 0 139.27607459667706 509.43051885658133 0 0 0 0 -1569.5889727964095 211.97821508177185 0 211.97821508177185 545.92402076835606 0 0 0 0 137.83789698822511 -59.062419515516069 0 -59.062419515516069 -17.900366835887326 0 0 0 0 -11.809319812260313 -20.379761122215626 0 -20.379761122215626 -32.778811526787109 0 0 0 0 -1384.3710630804344 616.84071778936232 0 616.84071778936232 331.98700542772713 0 0 0 0 -1883.1478231657384 768.72382841491344 0 768.72382841491344 381.8044172535333 0 0 0 0 -1413.9627186398793 -182.39031844695819 0 -182.39031844695819 576.72127774360331 0 0 0 0 -21.178472293463045 11.018496832340944 0 11.018496832340944 -5.1918791715567494 0 0 0 0 -2032.0845450721026 1969.6441502852886 0 1969.6441502852886 -1365.3710175803681 0 0 0 0 -1444.3664222703956 -74.437528161048249 0 -74.437528161048249 537.40809213596185 0 0 0 0 -1301.2863556726152 54.664001585273581 0 54.664001585273581 567.55965674225445 0 0 0 0 -2010.1449113308336 229.84137667177674 0 229.84137667177674 575.95209969041377 0 0 0 0 -756.53824396032724 -378.21148341783919 0 -378.21148341783919 562.62802043867669 0 0 0 0 1932.9282239937565 805.82266219933445 0 805.82266219933445 -2048.0272203347013 0 0 0 0 -415.60445839549357 -28.25180870299846 0 -28.25180870299846 683.10215565135695 0 0 0 0 235.83936673949393 591.31789947740299 0 591.31789947740299 812.39316651218542 0 0 0 0 -377.11683839777834 -420.63722195567971 0 -420.63722195567971 366.7386269689996 0 0 0 0 -43.368110755461558 19.296651910726219 0 19.296651910726219 -5.5857943239411654 0 0 0 0 -352.45617740857051 462.27992704148255 0 462.27992704148255 1693.2143330220997 0 0 0 0 699.50995267150574 -553.57073302159006 0 -553.57073302159006 883.92710988548606 0 0 0 0 -191.53780828525487 668.42126627959442 0 668.42126627959442 894.50185478305502 0 0 0 0 -6.3889453584361036 -13.233656637227796 0 -13.233656637227796 -72.942897520832048 0 0 0 0 -1721.3668731190955 -401.74896727019313 0 -401.74896727019313 830.59577176272433 0 0 0 0 -2558.7646553312952 -34.461576356966361 0 -34.461576356966361 915.93497059086667 0 0 0 0 -21.629785706771713 8.5258761554260083 0 8.5258761554260083 -1.9857437969948073 0 0 0 0 105.32861518229856 38.389062094541714 0 38.389062094541714 -32.970504611690558 0 0 0 0 1291.2846993047897 35.251107847513595 0 35.251107847513595 -1494.7551207887736 0 0 0 0 146.92058020135664 220.55122088145436 0 220.55122088145436 187.79651807448863 0 0 0 0 -2.4676351021336682 -0.53694921956697073 0 -0.53694921956697073 -5.880363397279524 0 0 0 0 -2396.8283821472578 -1547.0833497966978 0 -1547.0833497966978 3674.0781103752815 0 0 0 0 -1792.5863080781055 491.76413322755434 0 491.76413322755434 -137.93370789176515 0 0 0 0 -2201.722458139131 -924.57346170961864 0 -924.57346170961864 -394.87868335620442 0 0 0 0 -0.33425823287075929 0.50022499416637345 0 0.50022499416637345 -4.102981792532205 0 0 0 0 -2305.6962711624365 238.65177118882093 0 238.65177118882093 207.75177681658352 0 0 0 0 -1689.0374063274576 -224.55415674921096 0 -224.55415674921096 371.46238282917329 0 0 0 0 -1955.242688005419 456.79508173633985 0 456.79508173633985 -45.423879748952459 0 0 0 0 -1911.7068259824264 220.72824697597389 0 220.72824697597389 -488.25609603451812 0 0 0 0 -1327.5465117328604 385.8576267396229 0 385.8576267396229 -149.99859732460664 0 0 0 0 -6.999320874670957 0.59041054256795178 0 0.59041054256795178 -22.866135230960936 0 0 0 0 32.211246446566747 44.784581228699835 0 44.784581228699835 -29.379816720109375 0 0 0 0 -3.3614499332746348 1.2870595243377352 0 1.2870595243377352 -24.164902951669873 0 0 0 0 -3.5225611638662144 -1.395095504692776 0 -1.395095504692776 -19.554585390497053 0 0 0 0 -4.4593890131773684 19.266432113578574 0 19.266432113578574 -24.179267802208656 0 0 0 0 -37.523013403559162 12.553753529511596 0 12.553753529511596 -34.306187654690802 0 0 0 0 -22.51767017694398 16.345619836215775 0 16.345619836215775 -14.753507749561415 0 0 0 0 -13.999693648448144 3.5299618125436467 0 3.5299618125436467 -19.306251095242601 0 0 0 0 -2060.5597690262839 1556.5872740830318 0 1556.5872740830318 -1484.4618728580062 0 0 0 0 -3107.9713096370542 213.74657999407373 0 213.74657999407373 802.5689862612162 0 0 0 0 -1.9732057825718243 -0.34232163680186289 0 -0.34232163680186289 -7.6294535431758561 0 0 0 0 -3.4726494193414368 -3.1798817282923437 0 -3.1798817282923437 -18.118961324561667 0 0 0 0 -47.958003270130575 15.018278329464465 0 15.018278329464465 -21.844418139087793 0 0 0 0 -1267.8524186015857 -309.41788288927728 0 -309.41788288927728 -104.89256670995201 0 0 0 0 -150.02238503415356 32.442770413382732 0 32.442770413382732 -0.54752222327806521 0 0 0 0 -53.330436784119229 17.002430887650917 0 17.002430887650917 -56.842159390391316 0 0 0 0 -45.122809031476208 9.2930446211867093 0 9.2930446211867093 -21.001823544629588 0 0 0 0 523.03715074161846 484.17709077579138 0 484.17709077579138 -522.16355518657292 0 0 0 0 -3048.2548422628197 1307.4521284619645 0 1307.4521284619645 10.938050781200218 0 0 0 0 -503.08139068618766 1443.8066334145715 0 1443.8066334145715 -329.6958724052547 0 0 0 0 -1914.7369671126617 1008.1745414396419 0 1008.1745414396419 -18.249763587545203 0 0 0 0 -1105.6774763132998 1015.2057987476001 0 1015.2057987476001 -167.24774045806407 0 0 0 0 -708.32849606456875 928.1254842612625 0 928.1254842612625 -445.87102841409774 0 0 0 0 -1229.5819051992949 905.09760629079938 0 905.09760629079938 -223.76053009095904 0 0 0 0 -928.07348725194606 817.89023552198205 0 817.89023552198205 -252.81263275430683 0 0 0 0 -928.45415421787766 523.70847606319512 0 523.70847606319512 -250.59444070017526 0 0 0 0 -895.00992936003786 742.42871419906874 0 742.42871419906874 -196.24480477955512 0 0 0 0 -1266.6120810377979 655.18537148508949 0 655.18537148508949 -202.25449236453824 0 0 0 0 -1146.4404204948223 452.81981758514848 0 452.81981758514848 -283.48257123085932 0 0 0 0 -1138.5730950741597 630.82627426312138 0 630.82627426312138 -216.1029261362346 0 0 0 0 -1536.2225096016991 548.96795293247851 0 548.96795293247851 -232.32899368454855 0 0 0 0 -1098.1688286110002 437.26276443474489 0 437.26276443474489 -391.53712218684814 0 0 0 0 -1167.6798420221312 737.8756692484144 0 737.8756692484144 -510.84116948833253 0 0 0 0 -1061.7009732820807 569.95570236097046 0 569.95570236097046 -246.91151810537303 0 0 0 0 -1353.4534133955131 760.76648770104157 0 760.76648770104157 -5.2329368147638888 0 0 0 0 -1281.9877054233639 678.81141998682551 0 678.81141998682551 8.3830987504279619 0 0 0 0 -37.084086627990473 3.1233828593940416 0 3.1233828593940416 -18.118683038008385 0 0 0 0 -39.902386824149289 12.83645350369261 0 12.83645350369261 -25.361302055742271 0 0 0 0 -12.561925191575689 16.040261720222816 0 16.040261720222816 -24.204815645118515 0 0 0 0 -13.025304165147274 16.131761467977483 0 16.131761467977483 -18.678622383117933 0 0 0 0 -40.849017108055705 11.066924414504683 0 11.066924414504683 -21.548183382443312 0 0 0 0 -40.149920857130155 7.2122077757312582 0 7.2122077757312582 -13.562653456501721 0 0 0 0 -34.590669204073492 12.444956729981641 0 12.444956729981641 -14.740678705646133 0 0 0 0 -129.45005357373569 80.170491583512273 0 80.170491583512273 -24.783892978502138 0 0 0 0 -32.401237438130877 8.2307528262100504 0 8.2307528262100504 5.601407665839055 0 0 0 0 -9.7968730955763021 -18.520440488765871 0 -18.520440488765871 10.637404649046402 0 0 0 0 -20.249726645791725 -8.6020158540071279 0 -8.6020158540071279 8.8199143240417506 0 0 0 0 -40.864347824383003 0.91848185939852556 0 0.91848185939852556 -7.0307218661419029 0 0 0 0 -30.541855430873035 -29.658456388155145 0 -29.658456388155145 23.51567281629859 0 0 0 0 -48.906735552111058 15.487019675850206 0 15.487019675850206 -11.045447208154656 0 0 0 0 -3.8936524298178412 2.0074841717776621 0 2.0074841717776621 -12.748877621298355 0 0 0 0 -25.850992244186045 -3.5077684649000815 0 -3.5077684649000815 4.0448257318343082 0 0 0 0 -11.880491045394592 -20.115448430769902 0 -20.115448430769902 22.916524097145157 0 0 0 0 -6.8125083309205365 -11.532113863800987 0 -11.532113863800987 1.7819150221257587 0 0 0 0 -390.52464598943334 169.6068327022092 0 169.6068327022092 18.551663393684976 0 0 0 0 29.735409008768329 -32.660735817114073 0 -32.660735817114073 8.2098049247397284 0 0 0 0 -361.41725494032289 194.57285374327148 0 194.57285374327148 29.587804107859768 0 0 0 0 -13.345642151937163 -36.953880223197459 0 -36.953880223197459 19.39543215901551 0 0 0 0 -47.916152823367156 -93.09213167233429 0 -93.09213167233429 -107.31039404933745 0 0 0 0 9.4459131983894622 -15.628692188814057 0 -15.628692188814057 22.669421513927546 0 0 0 0 9.6563135846845398 -19.780619757173099 0 -19.780619757173099 1.9948380828445806 0 0 0 0 -724.75435212094817 -120.73186423993934 0 -120.73186423993934 32.854258156407013 0 0 0 0 -1.3134927693892777 -2.0179859996775775 0 -2.0179859996775775 -1.6754519116583992 0 0 0 0 7.2586303735879483 -24.428686323893089 0 -24.428686323893089 21.671897019751668 0 0 0 0 -1104.8774408919562 340.7685704095602 0 340.7685704095602 -49.945052594024673 0 0 0 0 -1472.7061643990237 748.53328868608241 0 748.53328868608241 -377.12299238481864 0 0 0 0 -1531.6778618067692 156.05935820118884 0 156.05935820118884 219.21700889191834 0 0 0 0 -1061.7933672540121 396.68113840784116 0 396.68113840784116 -726.21240621419929 0 0 0 0 -1641.7178895297911 414.06346572266648 0 414.06346572266648 -390.53716278490424 0 0 0 0 -23.158302422452834 -3.5357162288992185 0 -3.5357162288992185 15.072524789612089 0 0 0 0 -7.1501426270821185 -2.1092179527350652 0 -2.1092179527350652 -3.0051302239956943 0 0 0 0 -1585.9773988530033 956.25562157694321 0 956.25562157694321 -578.12342609483858 0 0 0 0 -7.7779575829379581 0.057918756354254697 0 0.057918756354254697 0.38298021291409867 0 0 0 0 -142.67745225963154 -141.69402306771462 0 -141.69402306771462 -171.83282849449461 0 0 0 0 -166.58537416241234 68.537533122485456 0 68.537533122485456 19.79713990795085 0 0 0 0 -72.717147184801092 55.14642522313612 0 55.14642522313612 4.2280050827064874 0 0 0 0 -43.945709533720219 198.22530190188786 0 198.22530190188786 39.619851436683007 0 0 0 0 -66.634845925775153 48.725739196148822 0 48.725739196148822 39.995525842841744 0 0 0 0 -201.52965532585222 163.55874312758988 0 163.55874312758988 -30.51826189389493 0 0 0 0 -349.22228022307536 45.17808056094691 0 45.17808056094691 11.450063012394821 0 0 0 0 2.3138161875959007 1.0769007879456325 0 1.0769007879456325 0.76538523958568661 0 0 0 0 -400.30299429745355 100.85013835139125 0 100.85013835139125 -5.0651218141804861 0 0 0 0 -568.14332895212283 23.499834201516819 0 23.499834201516819 52.649567652081487 0 0 0 0 -301.08112342536333 56.472745162780711 0 56.472745162780711 0.8010937635422124 0 0 0 0 -381.21163821236405 -13.974290167956724 0 -13.974290167956724 -13.987968199124225 0 0 0 0 -304.44773753423942 51.796157005832129 0 51.796157005832129 10.997076466587714 0 0 0 0 -305.48549274870311 58.662756351102416 0 58.662756351102416 9.8841891962174486 0 0 0 0 -208.91044011620397 119.6686021716514 0 119.6686021716514 15.005993319776053 0 0 0 0 -345.52641061645409 118.08008976468022 0 118.08008976468022 47.690008789029548 0 0 0 0 -318.27216129565204 103.21298485699617 0 103.21298485699617 40.516207686936468 0 0 0 0 -240.01415557567452 112.21708310811107 0 112.21708310811107 22.376402644436894 0 0 0 0 -273.64701211624197 90.491692238648511 0 90.491692238648511 14.479410322072908 0 0 0 0 -319.03120406561357 41.187350685368642 0 41.187350685368642 30.583223180775349 0 0 0 0 -307.61532476796128 57.532629267125685 0 57.532629267125685 23.95626218239795 0 0 0 0 -249.86723671961227 63.463167494840036 0 63.463167494840036 21.677860404032913 0 0 0 0 -295.89559519411705 28.873055625814004 0 28.873055625814004 22.616377119327808 0 0 0 0 -173.59823231152586 63.014247279440951 0 63.014247279440951 -53.401966249824909 0 0 0 0 -180.95026870765651 79.292936164752973 0 79.292936164752973 -37.872663015674334 0 0 0 0 -119.3107874214147 3.3476343965135413 0 3.3476343965135413 34.475334663824526 0 0 0 0 -236.60508024781302 32.175679988687762 0 32.175679988687762 19.595324205411202 0 0 0 0 -215.91551039415936 144.81175606309046 0 144.81175606309046 -65.59670048840394 0 0 0 0 -133.89041563483653 26.846298184046113 0 26.846298184046113 41.924712281218483 0 0 0 0 -198.60286337818252 98.734232074889178 0 98.734232074889178 15.076613685293864 0 0 0 0 -221.96984956584492 150.02192374323204 0 150.02192374323204 32.987739326920348 0 0 0 0 -103.61173588255905 71.149790449553862 0 71.149790449553862 -5.0437227544475434 0 0 0 0 -112.43389636863685 106.12679939972122 0 106.12679939972122 -23.920911341429019 0 0 0 0 -231.99413519885456 91.945431224357037 0 91.945431224357037 58.99309313311187 0 0 0 0 -120.13950957790075 76.383749106596952 0 76.383749106596952 -27.709373033198062 0 0 0 0 -163.19730435675228 59.868484063988944 0 59.868484063988944 -28.149470114340005 0 0 0 0 -109.11721024633319 29.967225026801284 0 29.967225026801284 38.755577605984399 0 0 0 0 -143.78670956018232 95.247173054049881 0 95.247173054049881 -16.525385344919414 0 0 0 0 -218.80762971072681 154.97867465820309 0 154.97867465820309 -50.159022928099148 0 0 0 0 -206.72273835368082 159.56373562748013 0 159.56373562748013 -61.240737036579958 0 0 0 0 -141.70615054817972 52.34191497631582 0 52.34191497631582 -39.87782527586387 0 0 0 0 -127.37387512689384 87.663573573319809 0 87.663573573319809 -20.315228320312599 0 0 0 0 -95.990103422927888 69.151000737712735 0 69.151000737712735 -10.951164741741295 0 0 0 0 -227.71652071539199 110.90802203868134 0 110.90802203868134 -17.041600350705266 0 0 0 0 -82.038506783451794 140.07860758842435 0 140.07860758842435 -68.780505253387673 0 0 0 0 -97.054536018223644 111.83309731325426 0 111.83309731325426 -74.607671264995588 0 0 0 0 -6.6078795155198549 12.718255257800514 0 12.718255257800514 -21.508295816655362 0 0 0 0 -132.26051209808793 55.107201752454785 0 55.107201752454785 -39.521362307144955 0 0 0 0 -55.767657251427643 51.002008101383154 0 51.002008101383154 -25.592883415783064 0 0 0 0 -87.524080883860734 36.14857085642052 0 36.14857085642052 -20.413256764059042 0 0 0 0 -90.193249432340963 28.744972073560348 0 28.744972073560348 -35.411874518089462 0 0 0 0 -16.280244654903072 45.319355123421701 0 45.319355123421701 7.2855519320874009 0 0 0 0 -29.391856361211467 277.63019577713931 0 277.63019577713931 179.87402696377831 0 0 0 0 -29.391856361213286 277.63019577712112 0 277.63019577712112 179.87402696394929 0 0 0 0 -44.470451124276096 17.074310292529006 0 17.074310292529006 -19.741072055487493 0 0 0 0 -81.776528663536197 40.80452384792234 0 40.80452384792234 -20.283931352805112 0 0 0 0 -27.357378549109853 15.692320397552976 0 15.692320397552976 1.6007162418100052 0 0 0 0 1.6909191311995109 42.066277213517218 0 42.066277213517218 -40.12092469133492 0 0 0 0 -91.300841380233578 67.746422014395648 0 67.746422014395648 -375.6596335995273 0 0 0 0 -29.39185636121465 277.63019577714113 0 277.63019577714113 179.87402696398203 0 0 0 0 -0.82114571933807712 26.670687381728939 0 26.670687381728939 2.2674619066529402 0 0 0 0 -79.74519363557323 169.73269997103398 0 169.73269997103398 202.38381629974174 0 0 0 0 -118.02155294115801 126.03679095958796 0 126.03679095958796 -63.583530057535427 0 0 0 0 -138.231789145927 100.8944925889009 0 100.8944925889009 -65.759421070701137 0 0 0 0 -134.80519366379849 224.09205261176248 0 224.09205261176248 222.77396856386986 0 0 0 0 -245.62001310193841 248.38646891107055 0 248.38646891107055 226.1283992133649 0 0 0 0 -40.002630784988668 50.496741994093576 0 50.496741994093576 -59.559240040470158 0 0 0 0 -26.330417360564752 274.07820902686217 0 274.07820902686217 177.89985742684803 0 0 0 0 -104.84579279919399 277.94551328171838 0 277.94551328171838 195.53648196299036 0 0 0 0 -177.52334355658422 263.66108106540923 0 263.66108106540923 233.62310210927535 0 0 0 0 -26.374648071079719 306.65485033807636 0 306.65485033807636 202.3150262994568 0 0 0 0 -33.465451500469499 265.86496221852576 0 265.86496221852576 200.62514346218086 0 0 0 0 -192.52782035011023 70.472858090759473 0 70.472858090759473 -18.645065302080184 0 0 0 0 -297.60017883455384 132.37945445508558 0 132.37945445508558 -52.638635533039633 0 0 0 0 -157.80529695243786 137.55043588267836 0 137.55043588267836 -107.68610615972284 0 0 0 0 3.509315191801706 3.6641313524086172 0 3.6641313524086172 6.6892548769606037 0 0 0 0 -294.33378181776516 266.69962632066381 0 266.69962632066381 -176.52920951158376 0 0 0 0 -205.73203456735126 -249.52999686117801 0 -249.52999686117801 798.32890350325397 0 0 0 0 -284.25394343110474 163.65181661459246 0 163.65181661459246 -19.03386267409951 0 0 0 0 -939.17412019243329 -372.47020775854617 0 -372.47020775854617 548.4693709937892 0 0 0 0 -41.460872040857794 -95.899943769922174 0 -95.899943769922174 -375.84796920508961 0 0 0 0 -535.41071259928822 406.53434073476637 0 406.53434073476637 413.94019719107018 0 0 0 0 -454.74593520112967 -34.396742208209616 0 -34.396742208209616 -87.486305104532221 0 0 0 0 -816.07900555676224 286.71172975416812 0 286.71172975416812 -356.87752224381802 0 0 0 0 -448.53550704832492 68.33202153621869 0 68.33202153621869 -880.78206812660937 0 0 0 0 -0.038576407424420367 0.12609548254587821 0 0.12609548254587821 -6.032641282788191 0 0 0 0 422.14770815502561 -260.26750265111514 0 -260.26750265111514 -903.06442797456839 0 0 0 0 -1204.890872494876 -407.16539708198979 0 -407.16539708198979 -254.25970537572493 0 0 0 0 -183.83646990704256 355.58137884896678 0 355.58137884896678 -47.711471072201675 0 0 0 0 -122.37131764850528 222.31717476477206 0 222.31717476477206 194.51167647742113 0 0 0 0 -8.0082669870735117 390.71516310164589 0 390.71516310164589 226.91840810916619 0 0 0 0 -311.36151829641858 192.68172414096625 0 192.68172414096625 155.43099545660667 0 0 0 0 -153.85540523305633 244.73563433015079 0 244.73563433015079 154.77442673595215 0 0 0 0 -209.86600585506972 307.17336770958354 0 307.17336770958354 -341.34183755878621 0 0 0 0 -515.24865462024582 139.53659702584991 0 139.53659702584991 -301.98339565412607 0 0 0 0 -100.11988671889048 92.027495323211042 0 92.027495323211042 -323.4370309267797 0 0 0 0 -312.19099158866436 312.95085504178178 0 312.95085504178178 -534.50687168069999 0 0 0 0 -147.78718612260127 324.82162678494933 0 324.82162678494933 -764.69624324845427 0 0 0 0 -281.60992555084925 96.950371514525841 0 96.950371514525841 -669.26791899021919 0 0 0 0 -700.67476673292572 148.15409824917879 0 148.15409824917879 -630.34503520582984 0 0 0 0 -611.97714982289835 474.54154125287823 0 474.54154125287823 -788.74702442347188 0 0 0 0 -494.25409401019533 305.14583083082562 0 305.14583083082562 -576.14450140194094 0 0 0 0 -918.07559357579885 -245.56389203482104 0 -245.56389203482104 -691.58093902506153 0 0 0 0 -1010.2387676572016 -164.19547041788564 0 -164.19547041788564 -527.82930087014756 0 0 0 0 -965.41571359395039 -227.69745513621456 0 -227.69745513621456 -682.96514352762097 0 0 0 0 -637.7413154077999 11.762508267038356 0 11.762508267038356 -535.24599740100166 0 0 0 0 -1074.224902585267 0.33512776216321072 0 0.33512776216321072 -490.89585443273609 0 0 0 0 -1253.2102139874587 -243.19545779928103 0 -243.19545779928103 -446.9079099677765 0 0 0 0 -1387.61823258806 -0.20200977137164955 0 -0.20200977137164955 -264.05111905213198 0 0 0 0 -1354.663033101534 -105.67637054722172 0 -105.67637054722172 15.030985410772701 0 0 0 0 -1590.7477309132446 64.655588717091177 0 64.655588717091177 23.683472253451328 0 0 0 0 -1413.6271573271588 138.35896061843323 0 138.35896061843323 -72.761853421134219 0 0 0 0 -1180.1442047899409 133.4920269699669 0 133.4920269699669 -182.63656612912382 0 0 0 0 -1445.3113007691718 228.01326615483867 0 228.01326615483867 -207.7465561432582 0 0 0 0 -1065.0434491825313 -55.726543796304213 0 -55.726543796304213 -260.13504413771261 0 0 0 0 -1046.0948439204967 239.72055437057134 0 239.72055437057134 -389.43649915571552 0 0 0 0 -810.02265091475874 214.79134837345737 0 214.79134837345737 -390.53646762065728 0 0 0 0 -860.319762381494 309.53406231664303 0 309.53406231664303 -564.12322885389585 0 0 0 0 -786.79100066739204 514.7013852951402 0 514.7013852951402 -381.34599231092579 0 0 0 0 -792.73021416995471 415.8113329660664 0 415.8113329660664 -424.49706129728656 0 0 0 0 -933.16565638073826 364.77211675054059 0 364.77211675054059 -406.65084731623119 0 0 0 0 -869.25071686814954 441.60111245188909 0 441.60111245188909 -327.92746485857788 0 0 0 0 -951.81146050913071 402.51205686637422 0 402.51205686637422 -344.20318892634532 0 0 0 0 -927.04282314642751 377.54984461852928 0 377.54984461852928 -338.33609196108227 0 0 0 0 -1194.6534821779021 265.37476378435065 0 265.37476378435065 -294.10860356131161 0 0 0 0 -946.96347841129818 360.853341350954 0 360.853341350954 -347.53727239545879 0 0 0 0 -1009.3008795029109 333.80137323184317 0 333.80137323184317 -354.41074943021431 0 0 0 0 -1131.3055372357426 301.82215651085835 0 301.82215651085835 -273.74034327974459 0 0 0 0 -1017.4097924280391 376.05005433416227 0 376.05005433416227 -369.93526590807232 0 0 0 0 -1116.4380067245452 370.68362547829986 0 370.68362547829986 -322.05619923715494 0 0 0 0 -1041.9358076499889 353.72082098318833 0 353.72082098318833 -362.37733928432408 0 0 0 0 -1133.7369938562435 427.52970719442737 0 427.52970719442737 -393.12319586466219 0 0 0 0 -1140.3091812752382 404.18280458218362 0 404.18280458218362 -373.29019810512546 0 0 0 0 -1013.974981201322 354.71681532369166 0 354.71681532369166 -329.70915187545529 0 0 0 0 -1020.044276938924 395.73561142346716 0 395.73561142346716 -386.91372382804229 0 0 0 0 -914.49886144145512 361.61804894273473 0 361.61804894273473 -380.01016254514434 0 0 0 0 -915.69650576371941 357.21125760162926 0 357.21125760162926 -341.38297453516316 0 0 0 0 -793.93977038998128 295.23289888193085 0 295.23289888193085 -401.39457533087443 0 0 0 0 -773.93116052185178 302.10659888179543 0 302.10659888179543 -487.06748544836455 0 0 0 0 -890.31034473853788 353.25042033846216 0 353.25042033846216 -433.32010945966249 0 0 0 0 -976.97522320053167 389.22205793036392 0 389.22205793036392 -464.30223694014512 0 0 0 0 -888.386155725202 357.40466473017864 0 357.40466473017864 -453.38847437578897 0 0 0 0 -854.8710911920225 348.05669844665545 0 348.05669844665545 -539.15411860713971 0 0 0 0 -846.28376671424485 361.12779009264818 0 361.12779009264818 -544.69293121431065 0 0 0 0 -851.81978855056514 354.03295808107077 0 354.03295808107077 -527.80142542621331 0 0 0 0 -845.85119275954821 365.52732998724917 0 365.52732998724917 -530.51818304030803 0 0 0 0 -1160.4687833988264 421.73806221319427 0 421.73806221319427 -374.74259872063612 0 0 0 0 -1159.7486617934765 447.14670855508683 0 447.14670855508683 -396.84706834817848 0 0 0 0 -989.9701038926612 439.71313821801505 0 439.71313821801505 -547.17947153765397 0 0 0 0 -984.88301202009598 407.38073179326648 0 407.38073179326648 -546.70491701686967 0 0 0 0 -1362.4112743816386 569.58010942810552 0 569.58010942810552 -473.17174891116213 0 0 0 0 -1506.6587404205293 423.48633762281668 0 423.48633762281668 -226.22740143756528 0 0 0 0 -1650.5852218514447 547.40093726175292 0 547.40093726175292 -300.00663386547069 0 0 0 0 -1961.096604217495 395.41438788228152 0 395.41438788228152 -24.169876317300123 0 0 0 0 -1835.0358325127718 321.6942225952929 0 321.6942225952929 -15.027039540614169 0 0 0 0 -1622.1534455658548 217.53010269761126 0 217.53010269761126 -87.867968305514296 0 0 0 0 -1648.8623603519482 217.90482546968701 0 217.90482546968701 -32.996499901074458 0 0 0 0 -1309.6846213178396 389.78345873198055 0 389.78345873198055 -287.35561068076095 0 0 0 0 -1328.3235888811441 276.83794779420788 0 276.83794779420788 -192.31239433795963 0 0 0 0 -1478.8983555134764 380.49640608002483 0 380.49640608002483 -226.93268783706401 0 0 0 0 -129.11668789328132 -21.915213001782746 0 -21.915213001782746 -95.131995215551797 0 0 0 0 -149.75177687212999 111.51461160358031 0 111.51461160358031 -92.889634448544967 0 0 0 0 -56.594526707611294 -30.736165976495329 0 -30.736165976495329 -17.844121155734683 0 0 0 0 -35.136310998977649 -34.560663592273613 0 -34.560663592273613 -20.77912122454001 0 0 0 0 -51.924545934008535 -14.665434974215813 0 -14.665434974215813 -17.116380067005927 0 0 0 0 55.392489138888777 -149.09446863908261 0 -149.09446863908261 -157.32264204976127 0 0 0 0 -164.62313809647821 -28.345685484437126 0 -28.345685484437126 11.119884860883758 0 0 0 0 -37.431847467402719 0.7198765691966571 0 0.7198765691966571 -1.2624318085490551 0 0 0 0 -120.03091595011938 -84.929750555470264 0 -84.929750555470264 -20.828035423455731 0 0 0 0 -22.208553744712844 20.87208729697204 0 20.87208729697204 -11.562027393724748 0 0 0 0 36.21961844913676 -116.86865913474128 0 -116.86865913474128 -14.449973292739742 0 0 0 0 68.670066774589941 -23.890879600672179 0 -23.890879600672179 176.77336820250821 0 0 0 0 35.894450571169727 -217.81993573163481 0 -217.81993573163481 239.92437275022758 0 0 0 0 13.784302538493648 -117.42556748772176 0 -117.42556748772176 240.91271958362086 0 0 0 0 26.019929369940655 -181.97281623403114 0 -181.97281623403114 108.68256305522982 0 0 0 0 -29.892095128658973 -31.67759663588037 0 -31.67759663588037 -5.6354689954716246 0 0 0 0 15.743601921964 -96.290046507896392 0 -96.290046507896392 -57.029213656396678 0 0 0 0 -292.31528640654142 -134.41068534186707 0 -134.41068534186707 -42.61623548326952 0 0 0 0 -513.25404468465058 -65.443129536087099 0 -65.443129536087099 55.778700267671184 0 0 0 0 -380.27329103993179 -265.67196898257987 0 -265.67196898257987 111.43749551359019 0 0 0 0 -600.03526374160356 292.12883551520395 0 292.12883551520395 -573.31303847433287 0 0 0 0 -280.77860099500685 -212.110235798242 0 -212.110235798242 124.08796220666926 0 0 0 0 -610.40929967432021 171.63791151117175 0 171.63791151117175 -437.48380003368356 0 0 0 0 -668.58912049081118 220.41448487901926 0 220.41448487901926 -396.42001404986377 0 0 0 0 -114.89250847156605 -40.893123211355366 0 -40.893123211355366 14.529821044841514 0 0 0 0 -643.62664589097767 257.56602167608662 0 257.56602167608662 -457.32710759277143 0 0 0 0 -772.63951694441312 306.10894850221257 0 306.10894850221257 -474.77953380477629 0 0 0 0 -794.80749847715197 294.14607256570332 0 294.14607256570332 -396.01575686052183 0 0 0 0 -664.79764300673196 233.23395738057025 0 233.23395738057025 -399.1595747029819 0 0 0 0 -692.97190584831696 216.51721636587263 0 216.51721636587263 -337.6265608370104 0 0 0 0 -759.92847177876229 241.82016227797658 0 241.82016227797658 -220.03632575698066 0 0 0 0 -833.79583337933218 307.09962312908738 0 307.09962312908738 -321.26957039179251 0 0 0 0 -835.02833880237813 313.01702577471224 0 313.01702577471224 -278.73990194302769 0 0 0 0 -107.06068655500837 -45.443844103384578 0 -45.443844103384578 14.578673438760624 0 0 0 0 -538.83786993030662 8.1309845149216926 0 8.1309845149216926 -96.984583215040402 0 0 0 0 -530.84705260275223 112.97701619796226 0 112.97701619796226 -291.40459238400581 0 0 0 0 -750.00444083401453 252.65166788111128 0 252.65166788111128 -220.59536856193336 0 0 0 0 -630.08030805365615 175.57099795875877 0 175.57099795875877 -177.68954399490758 0 0 0 0 -622.74671089695767 112.31433862767335 0 112.31433862767335 -101.65640248714044 0 0 0 0 -580.91280803849077 156.60845362905275 0 156.60845362905275 -56.250016838353986 0 0 0 0 -802.12659342733969 206.4652488316151 0 206.4652488316151 -74.774814349122607 0 0 0 0 -590.66681503298878 59.478116570141879 0 59.478116570141879 -70.076168420426256 0 0 0 0 -598.10744234366553 194.26683194944673 0 194.26683194944673 -106.71823733064593 0 0 0 0 -806.11470376330544 224.99849058781183 0 224.99849058781183 -62.528058713423889 0 0 0 0 -688.67537984473893 189.80372297733265 0 189.80372297733265 -66.175196456932099 0 0 0 0 -820.95014767916655 261.67020126456555 0 261.67020126456555 -113.25908139259082 0 0 0 0 -690.93766517997574 260.02735175580892 0 260.02735175580892 -185.0883145369653 0 0 0 0 -745.75654368996402 266.53419889509769 0 266.53419889509769 -146.87367072913548 0 0 0 0 -966.73339237464097 378.0459650295943 0 378.0459650295943 -123.90671827258484 0 0 0 0 -673.62803628418624 102.61099168831515 0 102.61099168831515 -31.487008654930833 0 0 0 0 -914.32958887503992 404.25769557936474 0 404.25769557936474 -282.23557631132189 0 0 0 0 -860.6449507149573 351.25977775720094 0 351.25977775720094 -247.14411628010748 0 0 0 0 -863.54206466262622 361.00720594651102 0 361.00720594651102 -215.31387775326004 0 0 0 0 -945.56118777572556 465.88637444792766 0 465.88637444792766 -244.03186628330337 0 0 0 0 -904.0474207747593 659.30691275900062 0 659.30691275900062 -549.61001939398193 0 0 0 0 -897.30037533741597 483.41337452372318 0 483.41337452372318 -390.17191731066487 0 0 0 0 -888.45457510895903 429.62854794704526 0 429.62854794704526 -252.33392779338465 0 0 0 0 -1049.2245087853444 561.97841334751138 0 561.97841334751138 -232.95666895340037 0 0 0 0 -1163.3137007344612 331.27954431168109 0 331.27954431168109 -70.178782089989909 0 0 0 0 -996.65960393418209 444.95651359730073 0 444.95651359730073 5.4008304186427267 0 0 0 0 -115.98220230971128 -2.4797766854735528 0 -2.4797766854735528 104.93403432255582 0 0 0 0 -11.143001648004258 -6.309021225449186 0 -6.309021225449186 5.4992981389387339 0 0 0 0 -134.86809805492157 -37.023556362677482 0 -37.023556362677482 42.520963462156942 0 0 0 0 -112.81481052951904 -40.262240428301993 0 -40.262240428301993 -6.9918847970798197 0 0 0 0 -657.84479959675809 235.07262403743516 0 235.07262403743516 -82.406366197013995 0 0 0 0 4.1333095143632619 -4.7185189704351984 0 -4.7185189704351984 -3.598661285199265 0 0 0 0 -28.739685851527611 -18.826735448987165 0 -18.826735448987165 -12.757817846755643 0 0 0 0 -54.993984161907974 -42.866214548433504 0 -42.866214548433504 -23.421270121943962 0 0 0 0 -56.945017691659814 -44.420749541597615 0 -44.420749541597615 -24.186408863140969 0 0 0 0 -30.125970394025124 -32.26101538465231 0 -32.26101538465231 -18.017208766177532 0 0 0 0 -15.571998553436636 -8.6774234526887426 0 -8.6774234526887426 6.3874922284662397 0 0 0 0 -340.5064050662113 171.72802102483001 0 171.72802102483001 -126.20370634884421 0 0 0 0 -238.50214116273128 -99.868487690737311 0 -99.868487690737311 -18.554094400358736 0 0 0 0 -53.566445252674377 -43.037257244341802 0 -43.037257244341802 -5.4939324117771697 0 0 0 0 -92.979409150711874 -34.019626088506215 0 -34.019626088506215 -2.8932199813732744 0 0 0 0 -112.42739730051744 -41.80143466309255 0 -41.80143466309255 -15.450451457644249 0 0 0 0 -120.2524833480802 -523.23512197301056 0 -523.23512197301056 -48.762533130482552 0 0 0 0 -80.123184853040684 -41.194038780423767 0 -41.194038780423767 -19.892341859726635 0 0 0 0 -96.557436112763511 -17.648075087099652 0 -17.648075087099652 1.914415318286677 0 0 0 0 -124.81053331284147 -45.666560969546026 0 -45.666560969546026 -6.4684367747240685 0 0 0 0 -246.79700773172226 -88.098698984051225 0 -88.098698984051225 138.21603844796118 0 0 0 0 29.943212835515624 -707.67874540382036 0 -707.67874540382036 -100.78941550039235 0 0 0 0 -464.17511068956992 -788.59049972988487 0 -788.59049972988487 -71.115336307000689 0 0 0 0 -207.63848347229577 -25.421408886791141 0 -25.421408886791141 237.39996335004616 0 0 0 0 -1272.6137597245288 -111.10431979015266 0 -111.10431979015266 231.29232717653917 0 0 0 0 -430.00298444922737 -182.97213769283371 0 -182.97213769283371 -2250.3330613020571 0 0 0 0 -1777.3834361096451 -847.13786028604136 0 -847.13786028604136 -835.28596155051855 0 0 0 0 -419.48371310008588 290.02142365518785 0 290.02142365518785 -623.9888060401172 0 0 0 0 -874.11483307391791 1148.9335508164822 0 1148.9335508164822 -1036.3964710592154 0 0 0 0 -456.1887198624263 685.64323447816605 0 685.64323447816605 -558.02140893167416 0 0 0 0 -1428.0704697331821 866.20438095240388 0 866.20438095240388 4.9166918247445217 0 0 0 0 -2601.4325392191377 1593.2935264053795 0 1593.2935264053795 -388.44903533856996 0 0 0 0 -539.09375087435183 1563.5678720341839 0 1563.5678720341839 -1770.0007950073959 0 0 0 0 -211.07076133130067 361.58786154765039 0 361.58786154765039 -598.44228524031496 0 0 0 0 179.66332005910226 699.24640379931589 0 699.24640379931589 -1163.0276073266409 0 0 0 0 -75.76823166135182 189.93569739136365 0 189.93569739136365 631.192009064187 0 0 0 0 15.37415319919819 84.725588532681286 0 84.725588532681286 -126.29030253248493 0 0 0 0 -32.064144697892061 350.29274181973551 0 350.29274181973551 -613.8978002212607 0 0 0 0 -13.747063796717164 14.939123858337521 0 14.939123858337521 -19.878049151900569 0 0 0 0 -4181.0953968335616 -722.85232817930137 0 -722.85232817930137 -25.319542986409942 0 0 0 0 832.99726071583427 432.77544780536846 0 432.77544780536846 -1244.1718922858217 0 0 0 0 -1591.1240534775279 -578.21275296814201 0 -578.21275296814201 -20.2848262892403 0 0 0 0 -1159.7690120322586 -269.71242117316706 0 -269.71242117316706 -287.49618014780208 0 0 0 0 -34.370508496273338 42.149313447192384 0 42.149313447192384 -49.383582601165379 0 0 0 0 -2130.2590970578021 766.75179939256486 0 766.75179939256486 -644.92914850177476 0 0 0 0 363.13488234158103 810.67060867842883 0 810.67060867842883 304.52893371411483 0 0 0 0 410.75962968576459 416.26742463319169 0 416.26742463319169 86.356499597692164 0 0 0 0 -37.2899101588132 533.07858041902182 0 533.07858041902182 369.51753340991854 0 0 0 0 -500.08698688929144 21.007780842320244 0 21.007780842320244 -621.88983358996302 0 0 0 0 -2585.2556404343304 1402.2581582466264 0 1402.2581582466264 -1433.0463340442247 0 0 0 0 -1937.9146599330343 -517.33749305997299 0 -517.33749305997299 119.64211635380707 0 0 0 0 -1953.7730833480373 500.34408633912994 0 500.34408633912994 -119.7232812218208 0 0 0 0 461.57936800248353 382.20144747777886 0 382.20144747777886 -851.95793650121777 0 0 0 0 -35.373909128826199 441.46086319031019 0 441.46086319031019 -828.98126335855886 0 0 0 0 -252.73519056685382 494.24242728516788 0 494.24242728516788 -774.54042093934368 0 0 0 0 -995.63614045674331 148.07199407313919 0 148.07199407313919 -179.88635689236321 0 0 0 0 -863.33519467095175 496.73676052340306 0 496.73676052340306 -368.32202427118864 0 0 0 0 -8.6115221180170707 -8.2001720521957964 0 -8.2001720521957964 -14.673518274189107 0 0 0 0 -1346.1508853156229 793.17855587047643 0 793.17855587047643 28.991242841853818 0 0 0 0 -543.61153557367652 1845.3528376934391 0 1845.3528376934391 -1175.6808428403274 0 0 0 0 -1249.5373414718561 478.00332048766177 0 478.00332048766177 167.70699433490518 0 0 0 0 -1056.1848783571768 936.16370775669566 0 936.16370775669566 -994.75101799560071 0 0 0 0 201.32120971223776 369.28637329511002 0 369.28637329511002 -2600.1540419862395 0 0 0 0 283.41613490467716 -50.131999362914939 0 -50.131999362914939 -121.59230905849472 0 0 0 0 -1058.2381326706236 -379.19177627293175 0 -379.19177627293175 1372.9704396122911 0 0 0 0 -1878.5933706048309 980.59547459168789 0 980.59547459168789 1438.2983488863938 0 0 0 0 109.38685582673497 -205.99570827713524 0 -205.99570827713524 86.569286895051846 0 0 0 0 575.24264115825645 -170.9089255736817 0 -170.9089255736817 -133.09144910112809 0 0 0 0 285.67758381522435 -389.29635918701069 0 -389.29635918701069 273.13317758019912 0 0 0 0 -13.715098721050708 -39.712419794936316 0 -39.712419794936316 8.4962307898256366 0 0 0 0 195.90955634735292 -213.59638288728877 0 -213.59638288728877 176.91983845348898 0 0 0 0 -286.90513048490538 -449.8031433630731 0 -449.8031433630731 353.30795870756629 0 0 0 0 -198.83118402307809 -12.900803210793583 0 -12.900803210793583 56.035007253267395 0 0 0 0 -38.340042760670272 -43.253502170074029 0 -43.253502170074029 8.099783669000379 0 0 0 0 558.82878266981425 -62.952137298871207 0 -62.952137298871207 -97.343782085577004 0 0 0 0 423.29669052595636 -243.55472507737204 0 -243.55472507737204 61.963308312973822 0 0 0 0 -68.124268432977843 -33.839609163210284 0 -33.839609163210284 2.0546881207635614 0 0 0 0 -12.418774238162229 -19.486961499949636 0 -19.486961499949636 -23.260900695682697 0 0 0 0 -252.82260009964375 59.703064602428185 0 59.703064602428185 -10.555053967923868 0 0 0 0 -963.65843677749945 448.20157299294442 0 448.20157299294442 106.50381558868685 0 0 0 0 -705.40960921901569 81.107400877037435 0 81.107400877037435 382.34419363791676 0 0 0 0 -1112.3074761491007 500.51918545273838 0 500.51918545273838 103.22877185839388 0 0 0 0 -1254.5818146892561 171.22362377613717 0 171.22362377613717 552.76844914008689 0 0 0 0 -195.09410108057637 -207.63635589851128 0 -207.63635589851128 80.898098944236153 0 0 0 0 -247.63163111750328 181.51833034258834 0 181.51833034258834 -162.97734132408186 0 0 0 0 -395.27335608903377 347.23031112078024 0 347.23031112078024 -179.61346087410402 0 0 0 0 -7.3071934643898615 -9.0679797318486948 0 -9.0679797318486948 -4.7237958193401255 0 0 0 0 -1011.9060576230477 128.18794722522853 0 128.18794722522853 -138.25798406146896 0 0 0 0 -1049.5399611574358 122.07421385355269 0 122.07421385355269 -115.55926515870124 0 0 0 0 -857.68588819273282 309.8073812693533 0 309.8073812693533 -30.565191046991458 0 0 0 0 360.89964078818412 -434.60900688443894 0 -434.60900688443894 403.90238471930195 0 0 0 0 -120.21914717190612 17.427000996479194 0 17.427000996479194 -63.047476565189669 0 0 0 0 -43.731391055971805 -38.468623336056446 0 -38.468623336056446 5.3792721689790151 0 0 0 0 -12.6397820543134 -154.52002307880309 0 -154.52002307880309 98.640551976104234 0 0 0 0 -101.39304243480001 -60.172571973025242 0 -60.172571973025242 -1.2396739785690443 0 0 0 0 38.233695069924579 -68.204758127388004 0 -68.204758127388004 6.5240646229913182 0 0 0 0 -92.403012247334118 -141.46087131832678 0 -141.46087131832678 178.18942518539143 0 0 0 0 -122.23596259252008 -177.40898436400096 0 -177.40898436400096 200.45629335103058 0 0 0 0 176.11139362111862 -347.88605793164015 0 -347.88605793164015 387.45218255326927 0 0 0 0 30.959738361467316 -165.06794360092067 0 -165.06794360092067 174.00764677082998 0 0 0 0 128.7596163905182 -144.66065039369994 0 -144.66065039369994 303.81705362098563 0 0 0 0 -213.43451693915995 -144.6909162274269 0 -144.6909162274269 268.57066940953882 0 0 0 0 -109.01097557449248 -183.83296923420835 0 -183.83296923420835 257.64643707357254 0 0 0 0 -89.224635262333322 -146.28727942291107 0 -146.28727942291107 255.59825783814179 0 0 0 0 -154.87094890391018 -183.65774654259656 0 -183.65774654259656 285.46929988770489 0 0 0 0 -128.1289521246872 -149.42096021840837 0 -149.42096021840837 197.11326015485338 0 0 0 0 1441.0172922953498 -306.81105667278553 0 -306.81105667278553 -696.32295215116028 0 0 0 0 -73.034614781219943 -34.346636022583098 0 -34.346636022583098 4.8313220807749646 0 0 0 0 -132.61867610966738 5.3784760025941978 0 5.3784760025941978 -25.77760490246601 0 0 0 0 -45.907250778274175 -50.729267604719141 0 -50.729267604719141 -12.593364336190383 0 0 0 0 10.070015390437092 -11.60694522633873 0 -11.60694522633873 -6.4034188070744573 0 0 0 0 -741.05003844346356 254.71870471841157 0 254.71870471841157 -433.89318956672525 0 0 0 0 -1826.7147105353688 207.2533410709716 0 207.2533410709716 1160.0315009748406 0 0 0 0 -672.58367249884759 -244.37267970277435 0 -244.37267970277435 17.018356207785018 0 0 0 0 -1016.0455115971999 39.623570377381384 0 39.623570377381384 -152.79473770937898 0 0 0 0 -453.65647163524409 7.889373190166225 0 7.889373190166225 -388.61694268452948 0 0 0 0 -14.362136875709339 -27.869785555544674 0 -27.869785555544674 -46.050584671673334 0 0 0 0 493.69017431299653 -190.01188076778817 0 -190.01188076778817 -1010.5849645699459 0 0 0 0 -1096.9846381232528 303.80559748599489 0 303.80559748599489 -238.12779210277586 0 0 0 0 -898.64119316916913 74.874025794864792 0 74.874025794864792 -160.49722140020276 0 0 0 0 -35.266752213910323 3.0476873046943087 0 3.0476873046943087 -1.6055961841365902 0 0 0 0 -28.873581946183549 16.873173995479192 0 16.873173995479192 -2.3271195092945618 0 0 0 0 -35.268924727443931 2.2403659339200299 0 2.2403659339200299 -3.8374879254883894 0 0 0 0 -84.219011858964222 15.622954432113602 0 15.622954432113602 263.93611541187784 0 0 0 0 -0.653238471270015 10.40285337127807 0 10.40285337127807 165.64430037309194 0 0 0 0 -35.225324780785797 13.330232596101254 0 13.330232596101254 -0.7329015623450772 0 0 0 0 -24.467624710478049 188.98817491509953 0 188.98817491509953 102.96112935464041 0 0 0 0 -71.38713946582709 1.8802538010202454 0 1.8802538010202454 -11.214814561979438 0 0 0 0 -72.422941121371935 -7.2703476101578133 0 -7.2703476101578133 -15.320553646891312 0 0 0 0 -125.74092234598356 -81.787670998839531 0 -81.787670998839531 253.59537743352257 0 0 0 0 -9.3951263461708976 12.455424079846571 0 12.455424079846571 2.3873130906439801 0 0 0 0 -65.703656289977516 40.793390800012276 0 40.793390800012276 196.69249310675059 0 0 0 0 -39.619566816980296 -33.014372733229493 0 -33.014372733229493 151.01527244730187 0 0 0 0 -195.95495595307148 105.7757441013282 0 105.7757441013282 71.215481985199403 0 0 0 0 -81.931520791914863 7.3910686407041553 0 7.3910686407041553 -1.516415754653321 0 0 0 0 -168.95701467047184 -10.564277938922714 0 -10.564277938922714 54.551250099037588 0 0 0 0 -64.676463126874296 -13.281238419313922 0 -13.281238419313922 47.865805536213429 0 0 0 0 -91.918641621063671 -0.71556301796135813 0 -0.71556301796135813 2.6809209235275375 0 0 0 0 -93.314394896651265 -5.1883485178341289 0 -5.1883485178341289 -10.813847396148958 0 0 0 0 -43.476503565990981 -21.599441318108521 0 -21.599441318108521 8.8570584892373319 0 0 0 0 -91.627952619987809 -11.670752232357472 0 -11.670752232357472 10.800404439617523 0 0 0 0 105.6227480162197 -106.07392911097577 0 -106.07392911097577 22.205731808394376 0 0 0 0 -34.859840914232166 -2.0824195835765238 0 -2.0824195835765238 -10.346723481329882 0 0 0 0 -907.55431468901588 96.587018874941009 0 96.587018874941009 10.250203628697392 0 0 0 0 -157.34291130174825 -75.454488528507682 0 -75.454488528507682 60.918165618871626 0 0 0 0 -104.17391569104345 -7.0843260950562126 0 -7.0843260950562126 4.0691485662871862 0 0 0 0 -191.20870005437973 -63.592889358573302 0 -63.592889358573302 79.245408167846108 0 0 0 0 -102.21533288306819 -65.563703070290103 0 -65.563703070290103 55.922682908831121 0 0 0 0 -156.65825550021691 -70.817014847353221 0 -70.817014847353221 71.255894482345866 0 0 0 0 -159.84287690525889 -60.001660830227138 0 -60.001660830227138 53.203676912854462 0 0 0 0 -133.97958261263011 -108.62638538211013 0 -108.62638538211013 103.48186026030453 0 0 0 0 -180.06740226967622 -84.673805484313846 0 -84.673805484313846 135.89271884546361 0 0 0 0 -181.09818982961588 -98.614237711686428 0 -98.614237711686428 133.86561295765569 0 0 0 0 -148.82414779963074 -127.59441406926805 0 -127.59441406926805 150.06112070516565 0 0 0 0 -240.92500994839793 -111.72053417919415 0 -111.72053417919415 220.90328394731955 0 0 0 0 -209.2426983739424 -106.14025001362728 0 -106.14025001362728 213.90376559900386 0 0 0 0 -262.61838849666128 -108.2783936092593 0 -108.2783936092593 256.15751946068895 0 0 0 0 -280.38754835483269 -46.556094636560601 0 -46.556094636560601 191.29088414202573 0 0 0 0 -296.91561631318098 -42.775615249069503 0 -42.775615249069503 210.15611639660597 0 0 0 0 -208.33093934172211 -79.071966751665968 0 -79.071966751665968 167.98775954311304 0 0 0 0 -228.19522628206687 -88.921025743964492 0 -88.921025743964492 192.57359482221864 0 0 0 0 -250.52382642873272 -63.598519631554154 0 -63.598519631554154 165.61460845771279 0 0 0 0 -230.25548839048133 -36.119014390906955 0 -36.119014390906955 146.5809228279968 0 0 0 0 -212.66463288277009 -45.960390488195117 0 -45.960390488195117 150.14399865185169 0 0 0 0 -298.43214643214742 13.71332174192861 0 13.71332174192861 146.25584825630528 0 0 0 0 -270.62180521767732 -10.348347536142683 0 -10.348347536142683 165.71744448716572 0 0 0 0 -224.58558510979492 8.3257015517860964 0 8.3257015517860964 126.73966742534958 0 0 0 0 -245.94564586269735 27.001493942012701 0 27.001493942012701 110.55039435023309 0 0 0 0 -211.6153911025084 -6.6648191530420249 0 -6.6648191530420249 109.69247025955701 0 0 0 0 -170.91968493936474 -31.132400747015481 0 -31.132400747015481 131.0034084774743 0 0 0 0 -176.29347848067118 -33.873293739720339 0 -33.873293739720339 129.75161548134429 0 0 0 0 -184.39403843544278 -56.334348477608728 0 -56.334348477608728 139.59370551360462 0 0 0 0 -217.61161136702867 -53.757139096644096 0 -53.757139096644096 140.27209968164243 0 0 0 0 -187.1596394504013 -66.059120187178451 0 -66.059120187178451 110.18265703733232 0 0 0 0 -146.83596328967906 -48.080934676994275 0 -48.080934676994275 114.81244518833955 0 0 0 0 -185.51821927875062 -19.347175312434274 0 -19.347175312434274 193.46409198687252 0 0 0 0 -187.91348322606063 -7.7004735936238831 0 -7.7004735936238831 139.56557845217139 0 0 0 0 -188.78827695438304 -53.867963922762101 0 -53.867963922762101 148.07358462534285 0 0 0 0 -124.13518857608142 2.4487659675455689 0 2.4487659675455689 136.17142999538783 0 0 0 0 -129.11611172222911 -57.945918884063758 0 -57.945918884063758 146.63780535892329 0 0 0 0 -134.3794617210151 -16.891438579128135 0 -16.891438579128135 122.72450501646381 0 0 0 0 -99.320074969800771 29.936620502052392 0 29.936620502052392 50.607940823074387 0 0 0 0 -160.06291175943261 17.449697910768919 0 17.449697910768919 79.625037783541302 0 0 0 0 -177.53021265423376 24.65422690764899 0 24.65422690764899 88.397298681694338 0 0 0 0 -207.13047422323871 55.738540255685848 0 55.738540255685848 55.777469026226299 0 0 0 0 -234.32537773846707 79.241825470188985 0 79.241825470188985 75.730429396572617 0 0 0 0 -176.84531846629397 96.153722577531653 0 96.153722577531653 26.300388298892926 0 0 0 0 -140.57232564564038 48.927095748679676 0 48.927095748679676 55.535915613942791 0 0 0 0 -157.7074858037613 75.463014811936034 0 75.463014811936034 15.543658265198246 0 0 0 0 -120.55937345141228 98.747550014428271 0 98.747550014428271 -44.455775297636137 0 0 0 0 -158.40712363345665 149.30341956328436 0 149.30341956328436 -57.957696059794443 0 0 0 0 -130.26904057052525 117.69828831345001 0 117.69828831345001 -24.056361093249166 0 0 0 0 -115.10072856373154 188.56501548250117 0 188.56501548250117 -116.36591318915089 0 0 0 0 -140.18528540540137 176.52131475109729 0 176.52131475109729 -106.9165293734477 0 0 0 0 -53.351654131085525 78.196162853931355 0 78.196162853931355 -75.902179319641618 0 0 0 0 -136.89581553401877 138.13197931423747 0 138.13197931423747 -48.341175827296411 0 0 0 0 -95.924509004580614 85.512252036966402 0 85.512252036966402 24.868296927883421 0 0 0 0 -118.38706458608794 41.753586501458813 0 41.753586501458813 86.316697365760774 0 0 0 0 -85.125383286758733 40.079434853858402 0 40.079434853858402 28.287204177823696 0 0 0 0 -53.642025874691171 -2.5638740887479798 0 -2.5638740887479798 109.77108481750111 0 0 0 0 -80.136874839750817 54.675857988967891 0 54.675857988967891 143.94543842100757 0 0 0 0 -50.694529352258542 13.080313326422583 0 13.080313326422583 52.007343317232426 0 0 0 0 -210.15546387495124 256.00357699351406 0 256.00357699351406 -111.21317249467347 0 0 0 0 -190.35341653251453 237.6284075710355 0 237.6284075710355 -140.86324830038211 0 0 0 0 -214.15444469946578 246.43598457066713 0 246.43598457066713 -96.67920644742253 0 0 0 0 -236.54168119081078 275.95055330460104 0 275.95055330460104 -135.58289181707914 0 0 0 0 -212.97723474619852 245.02422359957291 0 245.02422359957291 -96.899905365070481 0 0 0 0 -200.49811863891227 249.96132269697648 0 249.96132269697648 -96.209790059548482 0 0 0 0 -205.42751168824179 244.07750682997721 0 244.07750682997721 -101.34517676088808 0 0 0 0 -207.78829020928242 250.66077907312069 0 250.66077907312069 -93.218156471257117 0 0 0 0 -194.69042733324022 245.36055030132835 0 245.36055030132835 -111.6774674552705 0 0 0 0 -176.05170838240019 237.22778910862286 0 237.22778910862286 -111.14550646517489 0 0 0 0 -198.9573812205017 193.23508947890753 0 193.23508947890753 -54.774900940107727 0 0 0 0 -171.03126980330762 202.27489409871185 0 202.27489409871185 -71.650220142002539 0 0 0 0 -211.26967645662808 203.12961930524716 0 203.12961930524716 -43.241300173593686 0 0 0 0 -208.09933730864941 237.43600382893328 0 237.43600382893328 -86.04994784237897 0 0 0 0 -206.83934834112733 230.07237703650662 0 230.07237703650662 -91.624160274520818 0 0 0 0 -245.25044700684521 233.45986240842808 0 233.45986240842808 -65.012955321129539 0 0 0 0 -202.94257637066403 125.07312986711878 0 125.07312986711878 -5.1064951917678627 0 0 0 0 -199.1142403336853 193.00367694943316 0 193.00367694943316 -53.780510200773392 0 0 0 0 -228.34018288497282 152.47291026445345 0 152.47291026445345 11.563124808117323 0 0 0 0 -292.36501971971666 127.45401663822301 0 127.45401663822301 74.227757883152492 0 0 0 0 -244.09263585522422 169.54369066484594 0 169.54369066484594 -6.933719110193806 0 0 0 0 -309.1365105320001 206.47167304704794 0 206.47167304704794 -1.25560950082658 0 0 0 0 -293.27892275124395 172.36538731585392 0 172.36538731585392 33.318458282614301 0 0 0 0 -242.69471756648272 228.14284643732458 0 228.14284643732458 -63.532993492742207 0 0 0 0 -260.3834796236988 243.45757987657635 0 243.45757987657635 -62.933177766624397 0 0 0 0 -346.68687719399531 230.87942636683238 0 230.87942636683238 -22.340052694003361 0 0 0 0 -312.54467547141758 299.95760603325766 0 299.95760603325766 -122.35107618059055 0 0 0 0 -356.5428878706407 249.62532214837779 0 249.62532214837779 -56.866125610082236 0 0 0 0 -437.96519275832907 172.68141216307436 0 172.68141216307436 44.120987758546107 0 0 0 0 -487.54047199970228 235.73490112314857 0 235.73490112314857 34.082135867853822 0 0 0 0 -356.85619635910552 159.37420454461721 0 159.37420454461721 72.532726960350601 0 0 0 0 -376.20224336887622 238.79482102982922 0 238.79482102982922 -14.671358381227719 0 0 0 0 -337.48302074748062 168.12999181220457 0 168.12999181220457 38.59688843420696 0 0 0 0 -247.92371798174645 93.766636304730767 0 93.766636304730767 60.217178686276668 0 0 0 0 -309.87336844352831 63.053064657467274 0 63.053064657467274 120.65441181896003 0 0 0 0 -348.28322291324002 79.192187123417455 0 79.192187123417455 131.44750702992127 0 0 0 0 -285.72460615270029 27.018752312741753 0 27.018752312741753 157.8097094652228 0 0 0 0 -421.26109265600098 159.29911219236499 0 159.29911219236499 92.277336907631877 0 0 0 0 -339.02531670701876 90.132466128650222 0 90.132466128650222 139.7902552242532 0 0 0 0 -382.91134413550026 50.256253917019649 0 50.256253917019649 183.5878057900635 0 0 0 0 -401.83486674499727 55.095482654287935 0 55.095482654287935 191.20434349769971 0 0 0 0 -302.29045917592885 -12.585833579295524 0 -12.585833579295524 192.98940985609605 0 0 0 0 -346.7840604835722 -0.78748710434951885 0 -0.78748710434951885 214.63727709902668 0 0 0 0 -330.34763367159758 -55.110120702656161 0 -55.110120702656161 260.80692276108311 0 0 0 0 -275.62292085655645 -74.481601459410115 0 -74.481601459410115 247.71778314494975 0 0 0 0 -365.79206403865828 -37.92132137835938 0 -37.92132137835938 269.17929561189828 0 0 0 0 -336.18475468880206 -15.16634621423691 0 -15.16634621423691 223.77807232324949 0 0 0 0 -429.75201746779203 26.319484188281876 0 26.319484188281876 241.13350876074139 0 0 0 0 -414.45518435414851 11.374610428060123 0 11.374610428060123 174.10960111511395 0 0 0 0 -458.16736878413212 120.66354113728767 0 120.66354113728767 132.51716698392102 0 0 0 0 -521.5330016049993 130.16317708609904 0 130.16317708609904 141.14315348821151 0 0 0 0 -611.86035265497048 138.09894993047465 0 138.09894993047465 92.852125369435953 0 0 0 0 -544.70600739885413 246.63811912322581 0 246.63811912322581 6.8560980618499343 0 0 0 0 -493.18790093006101 136.56344413105444 0 136.56344413105444 84.745720288901794 0 0 0 0 -427.8591988322114 -22.411612796756799 0 -22.411612796756799 138.20792025482933 0 0 0 0 -674.32629213964901 39.733700711112306 0 39.733700711112306 133.5188175263288 0 0 0 0 -565.72338749238406 78.906781783329279 0 78.906781783329279 169.81842267601138 0 0 0 0 -521.24677477683144 88.771795009920879 0 88.771795009920879 16.40762590374834 0 0 0 0 -704.232758632068 164.99330395334437 0 164.99330395334437 1.7290800852838402 0 0 0 0 -625.04329090534884 288.26653818047498 0 288.26653818047498 -138.05325263306986 0 0 0 0 -801.44892123311001 228.39105655187814 0 228.39105655187814 -158.33062134384136 0 0 0 0 -923.95132964118966 182.67546792790563 0 182.67546792790563 -110.0578638008642 0 0 0 0 -714.17611995551306 103.29264059114473 0 103.29264059114473 -80.460850523655608 0 0 0 0 -791.88868265757628 2.2133428692702637 0 2.2133428692702637 -213.87154232545799 0 0 0 0 -1539.2311204732541 107.6068371366855 0 107.6068371366855 -406.7656291008343 0 0 0 0 -956.41434460944947 104.48733827674323 0 104.48733827674323 -412.02564023762352 0 0 0 0 -826.65967396625274 402.39100865276077 0 402.39100865276077 -418.19103424073546 0 0 0 0 -1099.5952111807346 257.12085666670282 0 257.12085666670282 -470.91172431333962 0 0 0 0 -1083.6627229150217 206.60660640967262 0 206.60660640967262 -242.51255200083324 0 0 0 0 -761.62530632664129 230.05288101851875 0 230.05288101851875 -241.15940935633807 0 0 0 0 -754.0917241844727 304.16010837254635 0 304.16010837254635 -285.49939352087267 0 0 0 0 -588.2775005848016 488.89397527523488 0 488.89397527523488 -418.28518517276098 0 0 0 0 -631.35731810972356 398.75354068785327 0 398.75354068785327 -457.39520509953854 0 0 0 0 -862.9258268086669 597.46264444666349 0 597.46264444666349 -548.54156607056029 0 0 0 0 -348.84456568871974 520.10541560726506 0 520.10541560726506 -628.28781476792574 0 0 0 0 -366.03419021344962 387.54864398471216 0 387.54864398471216 -342.28624508047869 0 0 0 0 -385.78015072671406 333.63946919810633 0 333.63946919810633 -317.01043459974426 0 0 0 0 -519.90084675428807 400.43789789409038 0 400.43789789409038 -238.34575906506871 0 0 0 0 -548.63360805805132 280.73528832844568 0 280.73528832844568 -172.62424293590448 0 0 0 0 -674.49556737211242 380.03708456267304 0 380.03708456267304 -247.6248630144346 0 0 0 0 -476.78395736608945 222.43780360661094 0 222.43780360661094 -50.383284998744784 0 0 0 0 -669.97428238766224 301.26851383727058 0 301.26851383727058 -72.841720805346085 0 0 0 0 -499.27420895394334 333.43522837530122 0 333.43522837530122 -97.66695398353022 0 0 0 0 -395.4599626776253 290.90669877815617 0 290.90669877815617 -142.64600118695762 0 0 0 0 -294.41709994392295 321.24891137058603 0 321.24891137058603 -203.71354780273577 0 0 0 0 -239.1655477938184 261.83777658033614 0 261.83777658033614 -134.14713873697428 0 0 0 0 -239.86288569979661 266.94137751731387 0 266.94137751731387 -157.72140388338448 0 0 0 0 -180.55224584600364 264.92410271890412 0 264.92410271890412 -325.39883782498691 0 0 0 0 -245.49214760824543 311.00980894373333 0 311.00980894373333 -293.78156452476378 0 0 0 0 -234.79876643925672 265.22631612440637 0 265.22631612440637 -229.88733803870173 0 0 0 0 -317.31197665131913 363.10153210699491 0 363.10153210699491 -246.28226705721136 0 0 0 0 -159.95756111691298 318.17538138416967 0 318.17538138416967 -468.78412710450812 0 0 0 0 -76.154369089104875 96.284815107314898 0 96.284815107314898 -311.83649178204359 0 0 0 0 62.53500085358246 170.01399564404255 0 170.01399564404255 -591.40759356734179 0 0 0 0 -179.30281817140349 302.65596997156581 0 302.65596997156581 -459.56567298270056 0 0 0 0 -127.66884070872493 205.74300896463706 0 205.74300896463706 -309.19694055476066 0 0 0 0 -92.628455289490375 172.46861885460703 0 172.46861885460703 -308.03433267558739 0 0 0 0 -79.036916602517977 108.35844532224797 0 108.35844532224797 -165.84556588902069 0 0 0 0 -110.21879972740135 196.19908091183879 0 196.19908091183879 -335.16968643290966 0 0 0 0 -154.27932374849479 199.76083517765892 0 199.76083517765892 -181.75163453335006 0 0 0 0 -163.54779731771214 213.51728235504697 0 213.51728235504697 -187.3507061205928 0 0 0 0 -180.86612444169805 256.99480757399851 0 256.99480757399851 -210.40067538856147 0 0 0 0 -169.53063842169649 218.10597611513555 0 218.10597611513555 -131.04561468762222 0 0 0 0 -1680.1553908024871 506.74875488726661 0 506.74875488726661 40.561316223934227 0 0 0 0 -8.598008024677199 -13.27696587931932 0 -13.27696587931932 -10.540377515820603 0 0 0 0 820.03136595288561 -376.46399837185584 0 -376.46399837185584 -362.59271152583915 0 0 0 0 -1136.3640837670391 415.1754202865468 0 415.1754202865468 -260.25718952419084 0 0 0 0 155.2737006850839 -149.9250720830488 0 -149.9250720830488 714.29435813522036 0 0 0 0 690.58412979096101 -54.032161197827918 0 -54.032161197827918 65.359042261190552 0 0 0 0 390.0783486487926 -394.3471665328284 0 -394.3471665328284 -300.67907137241491 0 0 0 0 -1407.7024497653911 565.69192093529819 0 565.69192093529819 -77.979063142682207 0 0 0 0 -1007.8420251580574 -155.37367701031872 0 -155.37367701031872 262.82816968728912 0 0 0 0 -1434.7044330569104 72.038142556643265 0 72.038142556643265 179.13948166310547 0 0 0 0 -830.48910500016063 -96.518960590283314 0 -96.518960590283314 22.789213465637658 0 0 0 0 -47.888591061086814 -40.218402984364374 0 -40.218402984364374 -72.767799012601742 0 0 0 0 -123.61296700300224 7.0329209926270373 0 7.0329209926270373 21.660959657720078 0 0 0 0 -749.03926196383145 273.87332627231149 0 273.87332627231149 -160.41503918502076 0 0 0 0 -852.32186292127517 -416.99979839791376 0 -416.99979839791376 386.84623140540589 0 0 0 0 -47.677504442462237 -23.914497653945567 0 -23.914497653945567 -37.075794893132915 0 0 0 0 -527.1983057470261 72.227733855245788 0 72.227733855245788 12.416728704753041 0 0 0 0 -125.42525085857504 7.9495191664808713 0 7.9495191664808713 29.048382596443993 0 0 0 0 -447.26683392971972 61.57419241039679 0 61.57419241039679 -181.69443522311894 0 0 0 0 -13.733565569021991 -0.2335067813484244 0 -0.2335067813484244 3.7431849602388487 0 0 0 0 363.81951361537165 -630.35596461131945 0 -630.35596461131945 374.76365431602972 0 0 0 0 -134.15322979210032 -493.12702262057428 0 -493.12702262057428 433.23471335556405 0 0 0 0 373.12082381300468 -289.1754410714027 0 -289.1754410714027 204.35845918559232 0 0 0 0 42.211721017534728 35.070190832825119 0 35.070190832825119 34.243998875437342 0 0 0 0 -9.1594786341447616 -292.70389610982147 0 -292.70389610982147 575.63792245600189 0 0 0 0 -213.73185234795528 -161.36658675048091 0 -161.36658675048091 312.31391469605671 0 0 0 0 -282.14432053421569 -127.53065930921565 0 -127.53065930921565 324.40250700757451 0 0 0 0 -200.77794901692687 -112.65117028123149 0 -112.65117028123149 283.93922885841357 0 0 0 0 -125.42225300000428 -147.49961484996317 0 -147.49961484996317 274.26709341225978 0 0 0 0 -131.84294700614555 -197.69675606119489 0 -197.69675606119489 356.5976106457648 0 0 0 0 66.083713927757344 -247.67893131972878 0 -247.67893131972878 271.31252253872782 0 0 0 0 -31.557247954711784 -390.94345999128063 0 -390.94345999128063 448.67994015461909 0 0 0 0 -25.603042541558125 -177.46802516172102 0 -177.46802516172102 274.82675630116159 0 0 0 0 -201.71747703388246 -214.65719568252382 0 -214.65719568252382 340.71203588392746 0 0 0 0 -291.85698224986118 -74.127787822752907 0 -74.127787822752907 295.96895849912255 0 0 0 0 -305.17041348221028 -98.503495684394522 0 -98.503495684394522 252.17474168472927 0 0 0 0 -398.79659965910105 7.9549029772017548 0 7.9549029772017548 168.96014362648066 0 0 0 0 -408.23153622316022 -145.9649209051197 0 -145.9649209051197 264.58783157911967 0 0 0 0 -407.5930975192332 -58.417128079003078 0 -58.417128079003078 272.25375067553387 0 0 0 0 -135.84039014645532 -267.14296142398337 0 -267.14296142398337 253.352402716705 0 0 0 0 -251.93439439401845 -92.409658475650303 0 -92.409658475650303 262.43990319509908 0 0 0 0 -327.74161921937412 -194.44990329649181 0 -194.44990329649181 263.79455833901648 0 0 0 0 -387.03001686408243 -284.93492666034172 0 -284.93492666034172 95.253826617206869 0 0 0 0 -389.3699067770649 -86.855412920358503 0 -86.855412920358503 121.57833266786281 0 0 0 0 -291.70453415206248 -150.86187564748047 0 -150.86187564748047 131.19269569490007 0 0 0 0 69.336581096576992 -348.13387068733368 0 -348.13387068733368 269.27417899385091 0 0 0 0 -30.839544383939938 -401.84587512955045 0 -401.84587512955045 299.47010198724092 0 0 0 0 -87.383145828920533 -204.18362177761696 0 -204.18362177761696 332.02116749329252 0 0 0 0 -172.99580428107583 -195.90480808442862 0 -195.90480808442862 128.60729190595248 0 0 0 0 -185.34676230662762 -361.97331358999946 0 -361.97331358999946 141.39381537926147 0 0 0 0 317.18780918231641 -190.27007602559024 0 -190.27007602559024 46.257082586257184 0 0 0 0 5.9455108952242881 -219.78297826490689 0 -219.78297826490689 245.16971828838734 0 0 0 0 1.3661688070424134 -331.1075097004591 0 -331.1075097004591 315.48578716653446 0 0 0 0 -12.527228304745222 -232.22679911897512 0 -232.22679911897512 35.531938367199928 0 0 0 0 35.817732210760369 -445.12081046361283 0 -445.12081046361283 -184.42179985413168 0 0 0 0 114.32018549930945 -437.06376461041464 0 -437.06376461041464 -216.60642364406067 0 0 0 0 -321.59189360348682 -192.20009049759062 0 -192.20009049759062 7.7583524122164818 0 0 0 0 -283.42330904906703 -422.70191637856942 0 -422.70191637856942 -94.474327901201832 0 0 0 0 -235.04917618878244 -354.37823454427144 0 -354.37823454427144 -145.00876940641501 0 0 0 0 -370.46933934716253 -492.04005488025223 0 -492.04005488025223 -271.37860565670053 0 0 0 0 -142.42119037984958 -632.42701202920887 0 -632.42701202920887 -297.5388882997031 0 0 0 0 -79.604671457360382 -630.65466293604732 0 -630.65466293604732 -321.63602766377608 0 0 0 0 -510.83033158095714 13.941326203019798 0 13.941326203019798 14.738230053743337 0 0 0 0 -706.12242295142994 -77.953189856056056 0 -77.953189856056056 -27.439370392399724 0 0 0 0 -383.57398570294026 -270.37670007654106 0 -270.37670007654106 -83.599988563119041 0 0 0 0 -619.2128584181919 -179.16184908780269 0 -179.16184908780269 104.2758052945901 0 0 0 0 -523.75258594393563 -201.29894733964579 0 -201.29894733964579 -97.087575068539991 0 0 0 0 -792.56708368984982 -335.32453430691385 0 -335.32453430691385 -161.68351219751912 0 0 0 0 -878.51539369581587 9.0673537232787567 0 9.0673537232787567 -60.845320610713316 0 0 0 0 -648.8005851623202 -178.8944153242428 0 -178.8944153242428 -242.1022546334334 0 0 0 0 -987.4090110174584 -236.17755599540169 0 -236.17755599540169 -421.44435150303889 0 0 0 0 -1135.8850448650701 62.43115029393266 0 62.43115029393266 -224.00494525840622 0 0 0 0 -827.12096456598192 -474.38732719368136 0 -474.38732719368136 -448.56291918653005 0 0 0 0 -970.90566789571312 -136.68273170359862 0 -136.68273170359862 -245.95128018209607 0 0 0 0 -530.93747474986594 -281.56046506695748 0 -281.56046506695748 -323.02613605666647 0 0 0 0 -1187.1792335292266 -693.38464192925949 0 -693.38464192925949 -742.12919646882438 0 0 0 0 -707.00428697015741 -362.40990881215839 0 -362.40990881215839 -515.55231217211713 0 0 0 0 -1277.695042760155 -140.75795368063791 0 -140.75795368063791 -452.7903104152615 0 0 0 0 -523.69735064438282 -571.75246202036305 0 -571.75246202036305 -1130.1845790256948 0 0 0 0 -227.55877693033835 -732.20348111338808 0 -732.20348111338808 -211.40822025185298 0 0 0 0 -427.14641367559307 -553.68983570366504 0 -553.68983570366504 -262.94846289658199 0 0 0 0 -373.67637498032491 -479.10542101160559 0 -479.10542101160559 -497.58495460336053 0 0 0 0 -605.36950354798319 -446.87164822130489 0 -446.87164822130489 -249.77044656601674 0 0 0 0 -357.21825245543732 -376.68202749371085 0 -376.68202749371085 -990.71702659774246 0 0 0 0 -578.64711319743947 -462.08884919302545 0 -462.08884919302545 -476.21969317731691 0 0 0 0 -631.57708957081923 -603.67377590506294 0 -603.67377590506294 -758.02444631691105 0 0 0 0 -359.29639501275233 -428.57405252307126 0 -428.57405252307126 -459.75529537800867 0 0 0 0 -348.24679678271059 -310.10934727297581 0 -310.10934727297581 -827.37094506518042 0 0 0 0 -214.4784563848807 -699.05781876796573 0 -699.05781876796573 7.6223247476721099 0 0 0 0 -41.043618143823238 18.729388781382433 0 18.729388781382433 -3.4394811706514958 0 0 0 0 -550.77760379983374 352.23622857070745 0 352.23622857070745 1319.4390293584186 0 0 0 0 127.41648662174703 -110.64959567898177 0 -110.64959567898177 844.78543198042644 0 0 0 0 -2.1943731272185687 -821.37927378190943 0 -821.37927378190943 -301.98330557717509 0 0 0 0 -79.811860570425111 -777.60013976694279 0 -777.60013976694279 -326.17729022652202 0 0 0 0 709.73467411974707 -704.93805409997742 0 -704.93805409997742 -800.5210619708696 0 0 0 0 140.08651224640198 -729.7245474931542 0 -729.7245474931542 -371.02704179490865 0 0 0 0 201.17458384626661 -943.10282826363027 0 -943.10282826363027 -363.16975167118517 0 0 0 0 -54.507146926938731 -898.06000129324366 0 -898.06000129324366 -359.43883096705395 0 0 0 0 125.67058614707639 -1053.9044213447869 0 -1053.9044213447869 -428.02312860754137 0 0 0 0 495.14213251010369 -1322.8649328112042 0 -1322.8649328112042 -1399.6090571910336 0 0 0 0 -191.74695835112652 -1410.744806764943 0 -1410.744806764943 354.2046806535991 0 0 0 0 481.55422574296244 -1171.9437528609833 0 -1171.9437528609833 -417.80346257135227 0 0 0 0 347.29347571610924 -917.59853313943563 0 -917.59853313943563 -569.08383817240974 0 0 0 0 523.78080995235359 -712.49463076198845 0 -712.49463076198845 -743.41510370062133 0 0 0 0 175.64714927032037 -686.61202877262667 0 -686.61202877262667 -456.3023986582557 0 0 0 0 457.92933417473978 -441.32002768993698 0 -441.32002768993698 -269.80724573775751 0 0 0 0 -506.25668752808997 804.71214187906298 0 804.71214187906298 -1441.9913527224544 0 0 0 0 -1282.7187163246454 -488.40734606048022 0 -488.40734606048022 -1.7893500869343484 0 0 0 0 -1782.3875500212889 208.70264297246445 0 208.70264297246445 125.4221399736482 0 0 0 0 -180.4318920582009 -2415.4923100003061 0 -2415.4923100003061 -543.81984208295671 0 0 0 0 257.29461765082669 67.627781310840874 0 67.627781310840874 -130.22287442368918 0 0 0 0 111.28293514136749 -87.308655992990225 0 -87.308655992990225 143.13336869713839 0 0 0 0 219.49770166499366 150.93272846830791 0 150.93272846830791 200.00074154506819 0 0 0 0 220.52112765194033 113.90110252553313 0 113.90110252553313 555.39356384293205 0 0 0 0 130.72219680648413 -54.342886725286917 0 -54.342886725286917 549.11845103798896 0 0 0 0 135.76530841349449 -83.722514280549603 0 -83.722514280549603 480.47411895662708 0 0 0 0 160.18564382145996 -270.09544571215065 0 -270.09544571215065 673.07384564729773 0 0 0 0 55.08896836252643 -138.36673217517813 0 -138.36673217517813 383.34025308998844 0 0 0 0 78.713107564486563 -222.37397258396777 0 -222.37397258396777 489.29107421798835 0 0 0 0 108.70059255285742 -6.8661606318723898 0 -6.8661606318723898 293.5033340539394 0 0 0 0 106.97133733513283 -301.91794518101 0 -301.91794518101 454.59813333689817 0 0 0 0 105.86293361162825 -343.90116527009604 0 -343.90116527009604 614.34525682913954 0 0 0 0 145.8915654944758 -441.984583393886 0 -441.984583393886 875.35536970094245 0 0 0 0 192.37982823749189 -383.45559607903169 0 -383.45559607903169 569.50360016728769 0 0 0 0 82.376906787321786 -178.75960945825841 0 -178.75960945825841 593.64174980680491 0 0 0 0 168.65983458459959 -517.02914312615258 0 -517.02914312615258 597.01978142937764 0 0 0 0 77.884488750678429 -284.11192726127979 0 -284.11192726127979 399.46591211988061 0 0 0 0 135.31846889526423 -434.99564097324912 0 -434.99564097324912 511.26653259189152 0 0 0 0 42.448124609592924 -435.07075272035627 0 -435.07075272035627 514.17911187123173 0 0 0 0 385.90235207886144 -366.78060432631321 0 -366.78060432631321 404.94250667749202 0 0 0 0 169.49540660303319 -286.95972974294637 0 -286.95972974294637 375.87917591890709 0 0 0 0 -1778.399602071906 745.00841883320754 0 745.00841883320754 -802.16709186234652 0 0 0 0 516.01224181564612 -981.30345473579257 0 -981.30345473579257 968.43536698249613 0 0 0 0 -1998.4128688731216 1588.3653195176958 0 1588.3653195176958 -626.52365469829738 0 0 0 0 -14.411114899943328 -10.631456704768205 0 -10.631456704768205 -3.8343347886184738 0 0 0 0 631.69193956724484 -618.71696628882034 0 -618.71696628882034 522.23562585842456 0 0 0 0 101.47131962196727 -269.05389415710397 0 -269.05389415710397 791.49812224089521 0 0 0 0 131.50094036322844 -274.27389714820765 0 -274.27389714820765 717.80712233205759 0 0 0 0 -40.774234581225755 -577.08890401009808 0 -577.08890401009808 1160.1235844267412 0 0 0 0 -3439.6015562180546 420.49929457481301 0 420.49929457481301 1483.3306358266368 0 0 0 0 210.95945816810308 1414.7165414615131 0 1414.7165414615131 -549.0621033726884 0 0 0 0 -2105.3831753996515 696.02591639061052 0 696.02591639061052 -352.8860061432224 0 0 0 0 2151.1457607510456 -1452.8162253546293 0 -1452.8162253546293 -560.04535159710736 0 0 0 0 -1223.3390239572909 -898.87096456796098 0 -898.87096456796098 -1094.703467764331 0 0 0 0 -1505.5289815448414 -866.87238935234382 0 -866.87238935234382 -1086.001382097551 0 0 0 0 -17.572574024775477 10.353147888438844 0 10.353147888438844 -7.3546319361755117 0 0 0 0 -1339.244937667223 -153.47649124186734 0 -153.47649124186734 -742.29383654904814 0 0 0 0 -1273.6521681245868 -267.53501660369511 0 -267.53501660369511 -674.38199645589611 0 0 0 0 -2323.5485907664188 -303.66119030329401 0 -303.66119030329401 -762.73611313814035 0 0 0 0 -81.869085109123262 961.37613812218478 0 961.37613812218478 -387.12774777124332 0 0 0 0 -453.91071298115276 1237.8169976285799 0 1237.8169976285799 18.907134351198692 0 0 0 0 -512.72908771142829 38.776263741748153 0 38.776263741748153 -580.9660146098613 0 0 0 0 -431.72801783541945 264.643116918136 0 264.643116918136 48.105015216855463 0 0 0 0 -51.832024156610714 804.26064434556611 0 804.26064434556611 -770.74692874424909 0 0 0 0 -9.5654927212599432 926.12635856003271 0 926.12635856003271 -436.65519483623939 0 0 0 0 -455.78024970868137 -73.811748328442263 0 -73.811748328442263 1412.5163777611151 0 0 0 0 -86.886350447525359 -4.7108137293606376 0 -4.7108137293606376 6.8321521203013091 0 0 0 0 -601.75495564009907 534.82922794122624 0 534.82922794122624 730.15111004567734 0 0 0 0 -417.45495246761129 30.175086858795112 0 30.175086858795112 1063.5162187329561 0 0 0 0 -415.26317239350283 71.916519861930766 0 71.916519861930766 660.12357057093686 0 0 0 0 -363.34257970526232 -230.38143367270459 0 -230.38143367270459 718.79789663272095 0 0 0 0 -377.14391889593389 -250.12420506363742 0 -250.12420506363742 956.28255956849171 0 0 0 0 -251.91091408465581 278.00976790975619 0 278.00976790975619 706.18812807959512 0 0 0 0 -307.18718305107905 114.00214229973335 0 114.00214229973335 501.36195505322758 0 0 0 0 138.87761600252998 347.79407753654687 0 347.79407753654687 1022.8273248626247 0 0 0 0 -298.54914228741654 -7.2657802724138492 0 -7.2657802724138492 735.95981345675318 0 0 0 0 -906.71625746134669 -291.82114921168431 0 -291.82114921168431 780.95402682355825 0 0 0 0 305.27970757642743 -601.49589157859998 0 -601.49589157859998 835.84852836763821 0 0 0 0 -934.75929819812154 -944.041892464591 0 -944.041892464591 1690.6770072620729 0 0 0 0 -806.60889032081468 -506.17246119175979 0 -506.17246119175979 679.8535048701342 0 0 0 0 -2103.646558039452 -1313.0281170036744 0 -1313.0281170036744 -2590.8326402296589 0 0 0 0 -2198.7576988886722 498.3937874081862 0 498.3937874081862 683.8805660657963 0 0 0 0 -1815.7187762303074 -391.93036667556225 0 -391.93036667556225 1377.3947147035597 0 0 0 0 -1813.5706024568308 3571.1950175714696 0 3571.1950175714696 559.61231496369874 0 0 0 0 -34.227059366004582 -30.677577417684887 0 -30.677577417684887 -20.703510947602744 0 0 0 0 -1860.1949833420949 1239.9190544684106 0 1239.9190544684106 -895.11609412936377 0 0 0 0 71.35571736435304 -243.21953891988221 0 -243.21953891988221 146.34616387256847 0 0 0 0 -35.561899012014578 1.3060792256580456 0 1.3060792256580456 3.3676373974430103 0 0 0 0 -907.67647607075196 1152.0890494592459 0 1152.0890494592459 -1550.7339820228553 0 0 0 0 -1329.8299022976571 2259.5977708524442 0 2259.5977708524442 -2067.6881006915391 0 0 0 0 218.55463028413942 -246.1050804167462 0 -246.1050804167462 365.76344132924987 0 0 0 0 -63.328701169521082 -127.78399863999402 0 -127.78399863999402 246.68561378122513 0 0 0 0 1.0163884415087523 -19.338113246978537 0 -19.338113246978537 400.8885840426301 0 0 0 0 -64.615542356435981 65.231822821403398 0 65.231822821403398 211.03758118441147 0 0 0 0 -107.70776937170012 -99.817358553561462 0 -99.817358553561462 322.86340622473995 0 0 0 0 -8.4206222532602624 -103.51363677176028 0 -103.51363677176028 160.7876660741349 0 0 0 0 19.557140531367622 -17.92314699683584 0 -17.92314699683584 48.679915361364692 0 0 0 0 -27.950713037167432 -5.5674087206134111 0 -5.5674087206134111 -0.99931109330492784 0 0 0 0 141.77240013117989 -129.29015694491591 0 -129.29015694491591 16.399566372921981 0 0 0 0 1.8500213772603473 -13.407729022491461 0 -13.407729022491461 -0.6579650299501334 0 0 0 0 -255.13716491709783 -260.0346810365736 0 -260.0346810365736 77.201795056343144 0 0 0 0 -96.578447474787907 -11.724348548121384 0 -11.724348548121384 0.098789474724410908 0 0 0 0 -63.013349465203646 -35.421669055148868 0 -35.421669055148868 0.41704914543697669 0 0 0 0 -107.41401632366615 -173.55425493640541 0 -173.55425493640541 195.03421427746321 0 0 0 0 -129.66659611540672 -70.464172147013414 0 -70.464172147013414 318.91134063686332 0 0 0 0 -753.93909273938334 -179.72751887669801 0 -179.72751887669801 747.44460444893048 0 0 0 0 -530.80860272026621 -287.96148898568299 0 -287.96148898568299 320.24182467010542 0 0 0 0 359.17932722431578 142.9043181131965 0 142.9043181131965 110.22835380379274 0 0 0 0 -897.3634695116998 554.10632919720501 0 554.10632919720501 -790.59699002012712 0 0 0 0 568.7154389982461 -76.687703624991627 0 -76.687703624991627 -296.5110537841756 0 0 0 0 -9.8736375786544954 -0.284445861193106 0 -0.284445861193106 -0.090394680362933855 0 0 0 0 -504.33692017225985 244.78196676492826 0 244.78196676492826 383.53433465186208 0 0 0 0 -449.53009959882911 528.14008770180681 0 528.14008770180681 -789.16388105120859 0 0 0 0 1.3770661432460116 1.0927244668033289 0 1.0927244668033289 -0.15150735383410074 0 0 0 0 665.49430320231841 -144.54234435705803 0 -144.54234435705803 -321.87506191241027 0 0 0 0 -85.507613458190463 357.52592419213033 0 357.52592419213033 -709.54439794514155 0 0 0 0 -435.71866362628498 -520.80058173655834 0 -520.80058173655834 -396.99971952871965 0 0 0 0 -1109.5391655705607 344.45979077480843 0 344.45979077480843 -687.31254099074522 0 0 0 0 -1436.7508518189643 57.004575732066314 0 57.004575732066314 -758.70645196669284 0 0 0 0 -1780.7657532326048 540.66564355701485 0 540.66564355701485 -1378.5724903805212 0 0 0 0 -418.41169064416317 -43.702993382445129 0 -43.702993382445129 352.32092559233297 0 0 0 0 -467.89762462382708 -1713.0791959058117 0 -1713.0791959058117 -768.28242895188305 0 0 0 0 -101.53627228926455 -13.532173105357273 0 -13.532173105357273 3.5467844361049359 0 0 0 0 -1740.8295615240204 233.43609126674164 0 233.43609126674164 -1690.2912777229112 0 0 0 0 -1580.5455142008286 -1350.3098696767847 0 -1350.3098696767847 969.14103683070698 0 0 0 0 -1817.6770096283581 -742.71037725475799 0 -742.71037725475799 449.56431953023093 0 0 0 0 -366.75767546491988 -134.60132995232925 0 -134.60132995232925 399.53795828250986 0 0 0 0 -459.61878473126853 -62.287708796720835 0 -62.287708796720835 576.22850865987675 0 0 0 0 -425.8383339198117 55.02245452722309 0 55.02245452722309 639.64547946068888 0 0 0 0 -340.72078261806746 208.07665728114625 0 208.07665728114625 494.91316085647486 0 0 0 0 -403.73080911465877 31.521976282617743 0 31.521976282617743 533.80305167283768 0 0 0 0 -352.77866123371496 8.2177933729453798 0 8.2177933729453798 428.63869035010066 0 0 0 0 -228.19763014679484 -69.392432662609281 0 -69.392432662609281 319.6726422346037 0 0 0 0 -339.17651239072256 -53.205483978108305 0 -53.205483978108305 427.46265476829649 0 0 0 0 -332.78115994262043 -98.241716305963564 0 -98.241716305963564 477.87808154353479 0 0 0 0 -437.42318330296257 -79.99541807067726 0 -79.99541807067726 492.12389149968658 0 0 0 0 -424.63895810146278 -84.014196119271219 0 -84.014196119271219 453.09225790990422 0 0 0 0 -561.32567769488378 -94.517354137886286 0 -94.517354137886286 452.9681417962056 0 0 0 0 -290.61258908234595 -137.97119273259614 0 -137.97119273259614 410.28102508138727 0 0 0 0 -149.71295747459226 -112.34487400554099 0 -112.34487400554099 536.32072103711471 0 0 0 0 -251.18892259337008 -245.74723781925877 0 -245.74723781925877 360.94851413198307 0 0 0 0 1.0380148652548087 -372.25834654950904 0 -372.25834654950904 487.58395468275921 0 0 0 0 -395.88792520947391 -178.57048805295449 0 -178.57048805295449 495.06141990919423 0 0 0 0 -293.35015190666672 -197.9618287044816 0 -197.9618287044816 481.76259563964413 0 0 0 0 47.694760861156283 -158.32978506646953 0 -158.32978506646953 311.33757763457834 0 0 0 0 -170.69311239304079 -152.51204038346714 0 -152.51204038346714 373.9698475221885 0 0 0 0 -105.86255138720298 -87.53318694005884 0 -87.53318694005884 279.07381971604991 0 0 0 0 -210.41426875298203 -133.57600272849595 0 -133.57600272849595 368.81386571736493 0 0 0 0 -13.256211859770701 -215.82776121489405 0 -215.82776121489405 333.42372450007224 0 0 0 0 -168.01427712306031 -207.45456865438882 0 -207.45456865438882 345.25017318072059 0 0 0 0 95.855328225254198 -230.6610158245403 0 -230.6610158245403 231.02772331847973 0 0 0 0 48.666103462113824 -176.34532309286897 0 -176.34532309286897 251.93417385205066 0 0 0 0 -8.5104512497115685 13.120040274094279 0 13.120040274094279 9.6266006457671693 0 0 0 0 -22.300257003682503 -5.7396732153470111 0 -5.7396732153470111 14.763178797098814 0 0 0 0 564.56370781326405 -687.68744285359276 0 -687.68744285359276 666.90694465156048 0 0 0 0 -5.9573213817469899 2.3134527745648512 0 2.3134527745648512 2.9241195112390841 0 0 0 0 -75.757890337736171 -207.1748724557483 0 -207.1748724557483 449.37419715305077 0 0 0 0 70.819669244054239 -11.695331806611648 0 -11.695331806611648 708.55892794381964 0 0 0 0 469.07633954630001 -583.52496549738726 0 -583.52496549738726 656.73675185435059 0 0 0 0 -105.44415181042132 -316.922183071375 0 -316.922183071375 546.56968356179823 0 0 0 0 -29.31625569184348 18.559966458927335 0 18.559966458927335 5.3517936814707241 0 0 0 0 -43.7268783602849 17.570317128843726 0 17.570317128843726 11.153815580321861 0 0 0 0 -49.566869489077362 -1.1209544488410756 0 -1.1209544488410756 9.7623236628187442 0 0 0 0 -100.63527627196163 -35.317034508947472 0 -35.317034508947472 66.160924741627241 0 0 0 0 -22.387061453366186 -222.69004108481477 0 -222.69004108481477 225.37378753368466 0 0 0 0 -18.616028010370087 1.1604348921896701 0 1.1604348921896701 8.0040140426591933 0 0 0 0 -34.288737507550678 -18.117251638397292 0 -18.117251638397292 26.35232183525169 0 0 0 0 -95.749183064595854 5.7334282958690892 0 5.7334282958690892 85.899381084994729 0 0 0 0 -86.676961079545435 21.797146075564115 0 21.797146075564115 8.0136290765722151 0 0 0 0 -96.201776847228757 8.2671712919463971 0 8.2671712919463971 130.82196708216858 0 0 0 0 -110.80239918046209 75.720641931156933 0 75.720641931156933 -8.878545456660504 0 0 0 0 -199.54354177966161 52.195353644798161 0 52.195353644798161 130.95768228134875 0 0 0 0 -125.72228370768426 -62.819273246161174 0 -62.819273246161174 309.92210136966696 0 0 0 0 -252.2918230287105 69.258593270644269 0 69.258593270644269 377.09468854591978 0 0 0 0 -271.99732922805197 120.57568254921944 0 120.57568254921944 288.96326236163441 0 0 0 0 -222.18226621800568 198.63624451439864 0 198.63624451439864 189.45201481028198 0 0 0 0 -117.18760951700824 80.58542065307347 0 80.58542065307347 76.93306314729125 0 0 0 0 -71.859405887375033 28.090022763747811 0 28.090022763747811 -206.01399240903265 0 0 0 0 -82.222790738075673 7.5629632262155155 0 7.5629632262155155 14.819790201456271 0 0 0 0 -147.39469526029279 17.352934810818624 0 17.352934810818624 126.72034749752856 0 0 0 0 -187.06593906410853 -532.53694207380613 0 -532.53694207380613 -662.56115451995538 0 0 0 0 -80.616162372421371 11.090883525816903 0 11.090883525816903 7.4741298799863394 0 0 0 0 -586.35496392271307 -141.24758232245404 0 -141.24758232245404 -336.31150921818335 0 0 0 0 -29.203019193010135 -1.4367732446285402 0 -1.4367732446285402 13.527354574052993 0 0 0 0 -81.432840345143802 -17.468704860412423 0 -17.468704860412423 15.468634076037079 0 0 0 0 -105.72584836476017 -19.602011687522463 0 -19.602011687522463 54.651714111154433 0 0 0 0 -86.940143186679052 23.799812138604466 0 23.799812138604466 53.381238769738957 0 0 0 0 -75.275798773836868 -1.2986876346285499 0 -1.2986876346285499 5.9686021437901218 0 0 0 0 -40.738539935141503 -7.4213479877334123 0 -7.4213479877334123 37.045141646537843 0 0 0 0 -71.372372860350879 6.0411725490121171 0 6.0411725490121171 19.094311291627491 0 0 0 0 -87.158715942248818 5.8628772990587095 0 5.8628772990587095 44.756370959725245 0 0 0 0 -86.759811724978135 16.56682315178881 0 16.56682315178881 72.641053600075793 0 0 0 0 -86.486948074554675 16.885988703798148 0 16.885988703798148 47.147947531077079 0 0 0 0 -67.050036697488395 19.182538284294424 0 19.182538284294424 29.684733660306847 0 0 0 0 -57.127261038360302 31.181360651523391 0 31.181360651523391 37.716597156487524 0 0 0 0 -76.493367503819172 35.234969627720602 0 35.234969627720602 36.890687616860305 0 0 0 0 -86.230868951504817 39.324484800195023 0 39.324484800195023 44.180818607139372 0 0 0 0 -87.397793985699536 29.343360414497511 0 29.343360414497511 71.838378453114274 0 0 0 0 -78.565050177348894 43.667829914483264 0 43.667829914483264 44.496344531869909 0 0 0 0 -61.859006764949299 47.558111410051424 0 47.558111410051424 28.400651351324086 0 0 0 0 -67.520050170147442 38.581326788399565 0 38.581326788399565 37.101697387250169 0 0 0 0 -46.048363791895099 38.483123762412106 0 38.483123762412106 31.841813470307898 0 0 0 0 -59.313220850941434 36.493230166919375 0 36.493230166919375 32.9272698597415 0 0 0 0 -49.15192515522358 19.637227568417075 0 19.637227568417075 5.9735391515525862 0 0 0 0 -43.200443467954756 31.447372176654881 0 31.447372176654881 18.759759571462382 0 0 0 0 -1565.1173457256227 -319.41781085867296 0 -319.41781085867296 201.87630338278723 0 0 0 0 -1085.8781287664242 72.838528026867607 0 72.838528026867607 -64.039666282871622 0 0 0 0 -1252.1960838175437 -607.98270947349283 0 -607.98270947349283 -257.845827369174 0 0 0 0 -12.824918010565469 9.3324082616326933 0 9.3324082616326933 -11.447822388893677 0 0 0 0 -1259.4958826447182 -467.12008891389905 0 -467.12008891389905 145.08001250484631 0 0 0 0 -1272.6757074619491 -289.8358571391268 0 -289.8358571391268 74.949091094560572 0 0 0 0 -1297.3031715815086 -360.55368870740904 0 -360.55368870740904 636.95564550583731 0 0 0 0 -852.15094231649709 -293.1758455170675 0 -293.1758455170675 149.83632545338514 0 0 0 0 -1047.129090061233 -65.030773647722526 0 -65.030773647722526 382.9687532406715 0 0 0 0 -317.77017202943534 -241.14855454226108 0 -241.14855454226108 418.96218169391432 0 0 0 0 -495.71208984480472 215.87573902512486 0 215.87573902512486 606.84127927707141 0 0 0 0 -328.80553111970221 165.12065215190705 0 165.12065215190705 215.85904554060107 0 0 0 0 -394.88376643050287 296.12408771313858 0 296.12408771313858 361.12416057348582 0 0 0 0 -219.30623358218509 201.53854749379116 0 201.53854749379116 31.66025230460582 0 0 0 0 -238.15541529114125 173.59076548756093 0 173.59076548756093 45.052567098894542 0 0 0 0 -160.64811185655708 180.15171426323013 0 180.15171426323013 -121.10739467954954 0 0 0 0 -283.27106522186659 328.22450806911547 0 328.22450806911547 -256.22954533519442 0 0 0 0 -792.57908731719363 294.73237124173647 0 294.73237124173647 192.29981622343439 0 0 0 0 -744.25275468883774 -124.43414626388221 0 -124.43414626388221 30.861866271296094 0 0 0 0 -1135.727121389893 397.21715566150579 0 397.21715566150579 -147.9356647664481 0 0 0 0 -164.41195909386579 349.73017822683153 0 349.73017822683153 -409.49831519375948 0 0 0 0 -143.18448987731244 -108.07221390228733 0 -108.07221390228733 0.81445392966088548 0 0 0 0 -636.1546758090044 -721.83967591052124 0 -721.83967591052124 143.06957141286875 0 0 0 0 422.01017378916731 345.86899586372056 0 345.86899586372056 -499.06025331420096 0 0 0 0 -25.893014674229136 2.1141600138582035 0 2.1141600138582035 -2.3352244885939797 0 0 0 0 -939.89874554231938 -1719.5863424853978 0 -1719.5863424853978 -1712.762466529799 0 0 0 0 -376.76354693860048 -1187.603288026341 0 -1187.603288026341 933.03630481755317 0 0 0 0 -542.78302223502851 782.70666817842732 0 782.70666817842732 -848.29725493108708 0 0 0 0 -2812.4253545785759 309.45841385149288 0 309.45841385149288 90.011920179504159 0 0 0 0 -1938.1795002808867 -477.55784145135658 0 -477.55784145135658 -290.39732644169999 0 0 0 0 -478.77010966515809 -49.711270128580509 0 -49.711270128580509 -2487.99969014831 0 0 0 0 -1140.9190515903319 -522.7649230345487 0 -522.7649230345487 -1849.0753279281744 0 0 0 0 -1225.0530407541919 -91.490917999566818 0 -91.490917999566818 -1790.9864816127665 0 0 0 0 3.2828304177382961 48.692340640656766 0 48.692340640656766 -61.035251936555142 0 0 0 0 -1.7107827830651843 3.6670919812597162 0 3.6670919812597162 -8.3622322070548876 0 0 0 0 -1682.385708865957 -315.81722690000606 0 -315.81722690000606 -387.39638624536474 0 0 0 0 742.49102680913347 379.15238963560296 0 379.15238963560296 -376.29211649506396 0 0 0 0 -1.1583554263559677 -1.0565151555072418 0 -1.0565151555072418 1.9730661117577029 0 0 0 0 666.66255383715907 274.73605790612783 0 274.73605790612783 -260.49968626823284 0 0 0 0 77.894593004530179 1578.7430244245825 0 1578.7430244245825 -219.10863575142503 0 0 0 0 -1753.4273925123853 667.96665715053314 0 667.96665715053314 -43.012565143856591 0 0 0 0 -600.78415778462659 798.02696219369773 0 798.02696219369773 1725.8210162591949 0 0 0 0 753.77482935365697 5.3084537736122002 0 5.3084537736122002 -1313.356838456195 0 0 0 0 366.06114801414515 214.5421276006291 0 214.5421276006291 -196.86731617255828 0 0 0 0 47.676256571285194 838.81880679329061 0 838.81880679329061 -717.62697889887295 0 0 0 0 -37.107866140974011 3.4225776848045761 0 3.4225776848045761 -0.44483729141581563 0 0 0 0 -410.28889722807799 578.68037278784323 0 578.68037278784323 54.036716072582749 0 0 0 0 -1851.256661849653 726.4597624676818 0 726.4597624676818 45.573097205558952 0 0 0 0 -87.076179759471415 264.30099569941285 0 264.30099569941285 174.66954091711887 0 0 0 0 634.5002127849657 350.46700279469133 0 350.46700279469133 -432.05538244457057 0 0 0 0 45.85296675832069 546.61896297349085 0 546.61896297349085 -170.54039043932789 0 0 0 0 467.38247787142609 126.56347336892577 0 126.56347336892577 171.5610415962874 0 0 0 0 302.40561654685007 443.41781888733476 0 443.41781888733476 140.4959390150575 0 0 0 0 102.17803095036652 181.56216227120512 0 181.56216227120512 170.03239065348316 0 0 0 0 -233.86055393902643 436.20933185550348 0 436.20933185550348 154.05164778077074 0 0 0 0 -1286.1656924452836 11.681972181952915 0 11.681972181952915 386.61332426747686 0 0 0 0 -416.22915182251018 70.25294945737096 0 70.25294945737096 390.03903736039683 0 0 0 0 -477.33154245237165 131.21939788343843 0 131.21939788343843 339.33160550376124 0 0 0 0 -245.96575184685935 101.88070277229235 0 101.88070277229235 342.84939049748937 0 0 0 0 -175.84059850536869 29.768984382453709 0 29.768984382453709 240.98603974720163 0 0 0 0 -267.95548164893262 38.537710829437401 0 38.537710829437401 241.12990138012537 0 0 0 0 -184.67609955242369 83.146512377536055 0 83.146512377536055 224.54510843828575 0 0 0 0 -220.47365856342367 107.47055032568187 0 107.47055032568187 220.07742856120967 0 0 0 0 -192.97461922728689 155.13705446034692 0 155.13705446034692 -53.16248798464585 0 0 0 0 -854.53432173829788 235.53016643387036 0 235.53016643387036 732.42227032557457 0 0 0 0 25.398517722467659 148.03194698731204 0 148.03194698731204 191.9309604181999 0 0 0 0 -20.471399639730919 2.2146554446168807 0 2.2146554446168807 6.3890038086025527 0 0 0 0 -87.753160093707265 -31.790800010992825 0 -31.790800010992825 -15.100439337838907 0 0 0 0 -14.879708814004871 -6.9495696276699022 0 -6.9495696276699022 -16.464315371251267 0 0 0 0 -22.218730962794623 11.582238991791399 0 11.582238991791399 -2.8569118770942481 0 0 0 0 -162.72185266659653 214.29853158548804 0 214.29853158548804 187.54110703539664 0 0 0 0 -99.373884842980345 -36.263695542337956 0 -36.263695542337956 2.0603261776589648 0 0 0 0 -219.28233029684634 -479.89142846552113 0 -479.89142846552113 404.30037000877371 0 0 0 0 1741.336004680139 -1259.6234126976387 0 -1259.6234126976387 866.72648074445897 0 0 0 0 -51.340265435457695 -168.50748015302997 0 -168.50748015302997 319.48725578484255 0 0 0 0 -280.85093049483839 -3.8776568511784717 0 -3.8776568511784717 260.89960806415911 0 0 0 0 -265.97466875646933 -372.807134721078 0 -372.807134721078 193.29590902961718 0 0 0 0 -662.39395928206795 -191.98967038483897 0 -191.98967038483897 351.28448295590078 0 0 0 0 -258.49845345489302 -306.54312669000274 0 -306.54312669000274 384.25403064341663 0 0 0 0 82.616178363357903 -281.98822541929803 0 -281.98822541929803 59.750121420289361 0 0 0 0 -87.871925167863083 -571.65196524920293 0 -571.65196524920293 -387.25718368775961 0 0 0 0 -675.6410306601465 -413.24060751910201 0 -413.24060751910201 191.95019228589308 0 0 0 0 -642.9009896851785 -378.94626482974218 0 -378.94626482974218 145.91069144241737 0 0 0 0 -2273.5888814890859 -781.37228627988679 0 -781.37228627988679 49.864017315845558 0 0 0 0 -226.69014580350631 -1113.1863701762322 0 -1113.1863701762322 -1462.0567838674669 0 0 0 0 145.65682555602689 -99.542211867745209 0 -99.542211867745209 -271.33163671507782 0 0 0 0 109.81669141746534 -125.4052309831568 0 -125.4052309831568 -183.05299554788508 0 0 0 0 260.52462304962683 221.60288559082096 0 221.60288559082096 298.82423060060864 0 0 0 0 -236.00002885526919 -317.10227465457046 0 -317.10227465457046 213.03073122160458 0 0 0 0 -33.55068310261413 -199.64318801160516 0 -199.64318801160516 44.265761451708386 0 0 0 0 -1135.8211354577506 93.928527116231635 0 93.928527116231635 -87.575527549688559 0 0 0 0 -176.47847506806465 -1751.1517302106652 0 -1751.1517302106652 1733.8341930174429 0 0 0 0 -86.561715226591758 -31.790574276578099 0 -31.790574276578099 0.75239855390248778 0 0 0 0 -1224.2414679219801 393.48405539292708 0 393.48405539292708 1010.6661697233521 0 0 0 0 -101.62895206200054 -34.949537628163029 0 -34.949537628163029 2.8931423848728315 0 0 0 0 -289.56769593612989 -368.45896465599321 0 -368.45896465599321 1224.3291835734162 0 0 0 0 -343.083123484932 -181.59159216401076 0 -181.59159216401076 -35.312165621448003 0 0 0 0 -636.22903876985401 364.42488546033928 0 364.42488546033928 -317.32623687193336 0 0 0 0 -301.99417761188124 -183.69495193606417 0 -183.69495193606417 -354.46912135915409 0 0 0 0 -569.19716690721543 69.993878165718343 0 69.993878165718343 -125.26565698939248 0 0 0 0 -814.5629698639932 -231.31924872142645 0 -231.31924872142645 -57.674403624134357 0 0 0 0 -1329.9694036322544 266.78149165011746 0 266.78149165011746 -136.20397913220586 0 0 0 0 -68.952177511127957 98.124165775465372 0 98.124165775465372 -55.880181600234209 0 0 0 0 -303.69816018892379 -83.69921371657847 0 -83.69921371657847 -188.38918489656862 0 0 0 0 -228.53896173889007 68.488991068720225 0 68.488991068720225 -65.819979625946871 0 0 0 0 -346.3203534513159 -554.40469175067483 0 -554.40469175067483 159.91598034670642 0 0 0 0 -1236.0411459429961 -126.48035894715576 0 -126.48035894715576 88.069975466122742 0 0 0 0 -101.94933014710209 -34.962708153551581 0 -34.962708153551581 3.5809651933739168 0 0 0 0 12.540799896407407 -470.79234103502404 0 -470.79234103502404 243.37746562386928 0 0 0 0 -1286.521106744709 -117.38563882002927 0 -117.38563882002927 1847.3957073118654 0 0 0 0 80.184577071297099 -404.81151365419464 0 -404.81151365419464 1.7445255730426652 0 0 0 0 -790.12231698723917 -637.37316615525197 0 -637.37316615525197 669.09242877259021 0 0 0 0 -219.56526100471092 -147.00730565000049 0 -147.00730565000049 15.825249334931868 0 0 0 0 -227.75394566110481 -57.05129178900097 0 -57.05129178900097 -236.10515642486098 0 0 0 0 -662.06361399110756 -64.414014555006361 0 -64.414014555006361 96.687164409891921 0 0 0 0 -422.83515672590147 183.82492124951023 0 183.82492124951023 -27.322583666289574 0 0 0 0 -1198.1068038989106 479.0464749515595 0 479.0464749515595 -35.593642896932579 0 0 0 0 -1940.5896563052302 -106.18337511092614 0 -106.18337511092614 461.09177525765335 0 0 0 0 -2471.0790106716668 1084.4234154588291 0 1084.4234154588291 54.407098503967063 0 0 0 0 -6.9673998857904635 -4.6096956185637197 0 -4.6096956185637197 8.603653505970847 0 0 0 0 1423.9850840236541 -1839.9918074536217 0 -1839.9918074536217 587.48090033175822 0 0 0 0 -1085.3896508664038 502.63616171940066 0 502.63616171940066 -722.13876947942845 0 0 0 0 -1390.0108392062684 104.35755351051466 0 104.35755351051466 -40.413265658806267 0 0 0 0 -1245.6577145739684 407.96969168177202 0 407.96969168177202 128.154718400001 0 0 0 0 -725.60487816041859 243.84186931223485 0 243.84186931223485 313.6385650154225 0 0 0 0 -875.28394872308854 -22.282437386047604 0 -22.282437386047604 -130.6754399501574 0 0 0 0 -320.49765619177197 -64.205147459249929 0 -64.205147459249929 -88.991754447082712 0 0 0 0 -329.91679493331731 -344.45670421511727 0 -344.45670421511727 940.23353851078718 0 0 0 0 -320.65573642192612 -79.633768486920417 0 -79.633768486920417 32.932128972152896 0 0 0 0 232.51351178049663 -495.17635245189103 0 -495.17635245189103 433.28082576126417 0 0 0 0 -754.16714972857881 -33.731584357589782 0 -33.731584357589782 448.46819336601948 0 0 0 0 -58.421100279221719 -153.94847217657116 0 -153.94847217657116 679.77481119629374 0 0 0 0 -175.04364613931102 -391.01109525518768 0 -391.01109525518768 363.60121443831667 0 0 0 0 -489.82565409319068 -559.80060640572265 0 -559.80060640572265 626.10514758521185 0 0 0 0 -675.79749588647246 -202.93053102609429 0 -202.93053102609429 195.10457039391622 0 0 0 0 -1080.0812033780239 373.27154525759352 0 373.27154525759352 104.36217804286571 0 0 0 0 -699.8297610081936 -83.56284856658749 0 -83.56284856658749 -114.61395246747043 0 0 0 0 564.16501684155082 -259.1222818292008 0 -259.1222818292008 247.86030799106447 0 0 0 0 57.737218708152795 126.03745839232488 0 126.03745839232488 906.61978358971101 0 0 0 0 -108.3182022032488 155.52055498408754 0 155.52055498408754 131.10528897701261 0 0 0 0 -55.912606966565363 -190.53594428967244 0 -190.53594428967244 367.02971575556694 0 0 0 0 -1293.5248621411502 791.64652545352044 0 791.64652545352044 -1181.1524086250483 0 0 0 0 -17.10474777408308 -886.01099006463301 0 -886.01099006463301 1742.2867751519298 0 0 0 0 -85.7131164914518 -22.899544854373445 0 -22.899544854373445 5.5927306896328801 0 0 0 0 -1150.967983545188 1235.0666119126786 0 1235.0666119126786 -1711.2022849409022 0 0 0 0 -2537.6024317275042 1607.5254667668341 0 1607.5254667668341 -1279.7814223207824 0 0 0 0 -1520.6989128681598 905.53211213431177 0 905.53211213431177 -809.7123854095521 0 0 0 0 -1433.2294743507182 1030.5367490539932 0 1030.5367490539932 -1180.3574660775766 0 0 0 0 -952.74295683171476 645.30885360085085 0 645.30885360085085 -874.07595856778744 0 0 0 0 -1138.1813360913166 526.85395009063677 0 526.85395009063677 -498.88269618171432 0 0 0 0 -1487.6621345596395 820.51558181093128 0 820.51558181093128 -728.05572486445726 0 0 0 0 -1830.7488929201118 694.12881556196237 0 694.12881556196237 -344.3258110578231 0 0 0 0 -1760.4394873868423 612.7127901086883 0 612.7127901086883 -301.49003765997492 0 0 0 0 -2276.938983233209 549.90859501578427 0 549.90859501578427 -28.976403063443144 0 0 0 0 -2393.0813496225492 944.80634842506208 0 944.80634842506208 -444.48772486641701 0 0 0 0 -347.95888410337648 -648.7112435664194 0 -648.7112435664194 486.21965023178836 0 0 0 0 426.36490992379549 -1000.2043714397851 0 -1000.2043714397851 644.48487953375388 0 0 0 0 -611.58513168929494 -353.44100231820357 0 -353.44100231820357 574.80515864340396 0 0 0 0 -108.60729163392534 -546.38997429886331 0 -546.38997429886331 394.22523993285176 0 0 0 0 -712.78939044989238 -131.92788582861886 0 -131.92788582861886 477.86017330160212 0 0 0 0 -390.75242063114274 -338.29573719738846 0 -338.29573719738846 1080.7453587083546 0 0 0 0 -324.09384496330722 -883.14451406033027 0 -883.14451406033027 1120.2598564506879 0 0 0 0 -216.19013585557695 -1038.548643957798 0 -1038.548643957798 896.65687955424801 0 0 0 0 -101.36145444941523 -35.163698686055383 0 -35.163698686055383 9.1440204867636368 0 0 0 0 -896.63356256055295 470.4878552778855 0 470.4878552778855 -828.29812487244453 0 0 0 0 -934.28995765778268 455.91674414679653 0 455.91674414679653 -753.8057183937326 0 0 0 0 -1073.074108971485 543.61078378065349 0 543.61078378065349 -739.12539434040809 0 0 0 0 -938.39314241419152 446.75620105642133 0 446.75620105642133 -646.2600492256106 0 0 0 0 -765.73764173850213 365.60330861727289 0 365.60330861727289 -761.98889416284692 0 0 0 0 -27.156005818640352 9.611268453528794 0 9.611268453528794 13.370581975698611 0 0 0 0 129.90549126051883 -227.26865786005385 0 -227.26865786005385 517.49280157794419 0 0 0 0 -180.76047673616995 -592.73885681338379 0 -592.73885681338379 848.96582723812935 0 0 0 0 16.062260204574883 -10.937022945380676 0 -10.937022945380676 -0.15666988913093771 0 0 0 0 -747.69408399267559 293.18555294044063 0 293.18555294044063 -571.06597534936748 0 0 0 0 -736.24478746487375 290.3989687560661 0 290.3989687560661 -659.55395134674927 0 0 0 0 -120.78560585845283 -35.369452566700758 0 -35.369452566700758 11.060018745069119 0 0 0 0 43.799222381319851 -472.99138418753955 0 -472.99138418753955 272.10273968069305 0 0 0 0 -86.950740694890555 -507.69519685736361 0 -507.69519685736361 442.39746716497257 0 0 0 0 -317.11990361813514 -211.1116246317888 0 -211.1116246317888 414.93813066579014 0 0 0 0 -508.37699483391771 -194.26448261202677 0 -194.26448261202677 303.44189852621639 0 0 0 0 -722.49078739110701 37.765794759522578 0 37.765794759522578 300.24235010795792 0 0 0 0 -292.78329046955332 -194.02281316260905 0 -194.02281316260905 176.95931699624907 0 0 0 0 -467.47866210871143 -292.76974316486485 0 -292.76974316486485 435.27558348983985 0 0 0 0 -64.073513385003025 -283.50740714776748 0 -283.50740714776748 225.07217117568598 0 0 0 0 -863.45281606387653 -109.9756350440648 0 -109.9756350440648 172.05200817886453 0 0 0 0 -428.35099821087533 58.313152130261528 0 58.313152130261528 220.3533189098016 0 0 0 0 -1167.2593125303756 432.16833464835508 0 432.16833464835508 206.4222464804443 0 0 0 0 74.912433380883158 -165.57425995776885 0 -165.57425995776885 528.66611897806433 0 0 0 0 -26.146150014398138 -21.89549298322234 0 -21.89549298322234 11.905130062773139 0 0 0 0 -535.94921362570494 220.73823541680667 0 220.73823541680667 -131.10167095335055 0 0 0 0 -430.02958577014761 -123.56649684493857 0 -123.56649684493857 5.0648051213411236 0 0 0 0 -13.552061438902552 -3.0882830761299402 0 -3.0882830761299402 -4.107710420970867 0 0 0 0 -127.1197006677321 -50.929577587509357 0 -50.929577587509357 -38.671747524695093 0 0 0 0 20.423902020611422 -160.32190188057393 0 -160.32190188057393 197.62775816576959 0 0 0 0 -6.599037012361805 -190.6032461765659 0 -190.6032461765659 176.86450681290489 0 0 0 0 44.12647874817776 -340.52570686677063 0 -340.52570686677063 436.52876625175156 0 0 0 0 24.960828969225986 -279.28796011271879 0 -279.28796011271879 413.99320230209105 0 0 0 0 60.96248661577556 -293.75952077266402 0 -293.75952077266402 287.99251776430526 0 0 0 0 89.800633253995329 -426.52349202278515 0 -426.52349202278515 304.04746422698895 0 0 0 0 87.836887717421632 -464.31780370692354 0 -464.31780370692354 510.56517794708338 0 0 0 0 147.14791752986139 -496.07998935591252 0 -496.07998935591252 400.17685236329453 0 0 0 0 143.90025408074143 -560.6795287093571 0 -560.6795287093571 505.63101677028908 0 0 0 0 -2.0104701959353406 -719.84292480039085 0 -719.84292480039085 1226.1790547302362 0 0 0 0 -11.588525978295365 -559.07461308381426 0 -559.07461308381426 735.3837094066148 0 0 0 0 -67.636341759003699 -496.98399204232783 0 -496.98399204232783 667.26928347091325 0 0 0 0 -8.6670051714681904 -402.47508857952744 0 -402.47508857952744 538.10327943272023 0 0 0 0 276.55056036196765 -238.51917158290235 0 -238.51917158290235 45.399111277848078 0 0 0 0 -78.521058150108729 -348.20225615341951 0 -348.20225615341951 596.39804540327623 0 0 0 0 386.43489074956597 -508.62761373087415 0 -508.62761373087415 -90.671016596042136 0 0 0 0 639.70304431466502 -98.686138254510297 0 -98.686138254510297 682.8779991828701 0 0 0 0 534.49256251390034 -852.4461309286271 0 -852.4461309286271 656.50373708346433 0 0 0 0 180.38500218186527 -573.2832020419437 0 -573.2832020419437 1580.2640780635156 0 0 0 0 144.27632955348963 -400.29410702604309 0 -400.29410702604309 862.80134671078304 0 0 0 0 565.92736503733977 -847.85099117798688 0 -847.85099117798688 648.56730831406094 0 0 0 0 -17.602029861794904 -5.2651120896317494 0 -5.2651120896317494 6.6986565910299447 0 0 0 0 830.84573411637393 -165.664168223834 0 -165.664168223834 4.5650744319900696 0 0 0 0 767.23140478519781 -1083.1375423156915 0 -1083.1375423156915 707.12190325339634 0 0 0 0 580.1680467849219 -689.72858506716148 0 -689.72858506716148 147.62746582547879 0 0 0 0 194.39979931858397 -372.20684073460734 0 -372.20684073460734 304.07800169458278 0 0 0 0 -28.140766512823319 -0.52512085180843115 0 -0.52512085180843115 4.8211481746273606 0 0 0 0 -91.12184097278805 70.831497700567525 0 70.831497700567525 86.120790146713261 0 0 0 0 -86.475425076560867 3.9112982247289807 0 3.9112982247289807 18.026168933958196 0 0 0 0 395.34379799878661 -612.9413222860494 0 -612.9413222860494 407.63563612479811 0 0 0 0 423.09404431664007 -579.74730171013289 0 -579.74730171013289 447.21809979901718 0 0 0 0 -135.51026946953061 -73.245771877671586 0 -73.245771877671586 163.88174864740176 0 0 0 0 -113.74436601545312 -228.29988455572902 0 -228.29988455572902 637.83475166848166 0 0 0 0 -260.32308020215714 -99.104452669185321 0 -99.104452669185321 861.37454818229469 0 0 0 0 -359.864874756473 189.12404346667699 0 189.12404346667699 538.39668756394713 0 0 0 0 -180.73366669123061 -278.63757176438548 0 -278.63757176438548 1177.9493419933772 0 0 0 0 8.4143551491142716 -11.393568500673609 0 -11.393568500673609 -66.525605775400891 0 0 0 0 -37.026757346873637 -115.46519580562972 0 -115.46519580562972 117.37450116812761 0 0 0 0 -80.322854342783103 -22.816731673933646 0 -22.816731673933646 -7.3858958254068057 0 0 0 0 -94.911102106758335 23.305049925211279 0 23.305049925211279 -8.7866250880074404 0 0 0 0 -122.11501085678901 -24.651189192680704 0 -24.651189192680704 20.487499786448097 0 0 0 0 -79.860810215293895 -22.549671870086968 0 -22.549671870086968 -9.3985320289211813 0 0 0 0 -38.265653797029273 17.88716613593418 0 17.88716613593418 2.0074726590123539 0 0 0 0 -163.73513717860624 -59.417899903010948 0 -59.417899903010948 52.608428085120977 0 0 0 0 -34.422281931229925 13.217494496130115 0 13.217494496130115 13.65385317175804 0 0 0 0 -49.671946192404192 -41.216227695253842 0 -41.216227695253842 -35.116075680456426 0 0 0 0 -96.334489189001033 -214.35108174570541 0 -214.35108174570541 -126.71787025335811 0 0 0 0 -87.232702481163358 8.0700812042764198 0 8.0700812042764198 -3.7851585850098033 0 0 0 0 -243.8769979657518 -3.2800273573820959 0 -3.2800273573820959 257.49239960198975 0 0 0 0 -98.274855557887889 -36.217259543063044 0 -36.217259543063044 -0.30281266422199948 0 0 0 0 -186.00117612037138 -80.422329997295037 0 -80.422329997295037 220.81097581559516 0 0 0 0 417.41205765159975 -581.28669476901996 0 -581.28669476901996 446.80107966554351 0 0 0 0 -163.60280445622629 -63.061783089867276 0 -63.061783089867276 150.84421295085849 0 0 0 0 -175.7472901863257 36.100949646200888 0 36.100949646200888 61.812186483090045 0 0 0 0 457.71269615759957 -558.7199441519524 0 -558.7199441519524 429.69098174560122 0 0 0 0 553.396933940694 -810.03404403934951 0 -810.03404403934951 710.8834709857515 0 0 0 0 -17.56813443633699 -12.516538850946866 0 -12.516538850946866 16.793482910062636 0 0 0 0 -1660.1931951355673 722.06216384933532 0 722.06216384933532 25.13024091808802 0 0 0 0 -826.4877025022206 421.04453532718856 0 421.04453532718856 -345.43553868356139 0 0 0 0 268.95465967364726 -292.47596016380339 0 -292.47596016380339 368.24399074970006 0 0 0 0 397.04003761513013 -538.58639158869482 0 -538.58639158869482 450.85255071719803 0 0 0 0 -4883.1491044427421 -455.96403840885637 0 -455.96403840885637 -189.58340858298982 0 0 0 0 -5154.8935967194921 -329.15303508734979 0 -329.15303508734979 -101.53344662805517 0 0 0 0 -5494.4411217262386 -390.00697488070648 0 -390.00697488070648 9.7727381718172897 0 0 0 0 -5209.5796429168149 -527.19855204412306 0 -527.19855204412306 -71.699175414801374 0 0 0 0 -4490.9615456514148 -816.27842721728928 0 -816.27842721728928 -181.970247112392 0 0 0 0 -4375.9364276876022 -509.31000387466082 0 -509.31000387466082 -122.36344345269038 0 0 0 0 -3298.315801992132 -183.81075671606879 0 -183.81075671606879 -33.828151294776887 0 0 0 0 -4926.2709789375804 -619.28765959401642 0 -619.28765959401642 -252.37546882265312 0 0 0 0 -5646.658278034105 -565.72162078764541 0 -565.72162078764541 -145.20118233973358 0 0 0 0 -5406.7310187586154 -1025.1750518670879 0 -1025.1750518670879 -254.63243293116616 0 0 0 0 -10.055926168283534 4.9434524793738177 0 4.9434524793738177 0.79084913552287051 0 0 0 0 -6313.813955789461 -1078.6654513834842 0 -1078.6654513834842 90.746961384452831 0 0 0 0 -2013.2291066938424 -345.12345317843671 0 -345.12345317843671 -303.77302118343886 0 0 0 0 -4605.7021890942669 -718.13642296642956 0 -718.13642296642956 -157.46739283808529 0 0 0 0 -16.03827754966326 12.680422396273375 0 12.680422396273375 1.8584179827713703 0 0 0 0 -4587.3766960472749 -690.77592402375649 0 -690.77592402375649 -120.65314233867878 0 0 0 0 -5091.6141410370565 -518.57671872658079 0 -518.57671872658079 -16.411542259599287 0 0 0 0 -4801.2281989237199 -470.74564289767278 0 -470.74564289767278 -18.154604802684872 0 0 0 0 -4658.4095430113193 -748.62195113727023 0 -748.62195113727023 -188.66390828407856 0 0 0 0 -5077.9505900138729 -440.97701784899505 0 -440.97701784899505 64.449704210946635 0 0 0 0 -2912.3734086734439 -548.92996990930965 0 -548.92996990930965 -323.14372818050447 0 0 0 0 -11.210994239282648 1.7924367126146805 0 1.7924367126146805 1.511768146932331 0 0 0 0 -5500.0497166154437 -1672.1283699360526 0 -1672.1283699360526 -499.7350403921813 0 0 0 0 -4328.7328784253623 -98.446435276345198 0 -98.446435276345198 -131.18535119083654 0 0 0 0 -14.428976995172164 4.6688560980574607 0 4.6688560980574607 4.9033568482351235 0 0 0 0 -4829.5767728571664 -587.84318049452872 0 -587.84318049452872 -85.579409209519326 0 0 0 0 -5054.1229209705089 -1278.7164790404806 0 -1278.7164790404806 -168.79395895700736 0 0 0 0 -4771.6993622790396 -631.13825230719021 0 -631.13825230719021 -53.930043183123075 0 0 0 0 -5498.515599564269 -1188.0702310338747 0 -1188.0702310338747 167.18371824283921 0 0 0 0 -4887.7879138446388 -632.29642346849391 0 -632.29642346849391 -83.505502608816414 0 0 0 0 -6739.3237545630491 -1336.534325785422 0 -1336.534325785422 190.91559169897346 0 0 0 0 -5270.5829701543189 -5.9577355520739275 0 -5.9577355520739275 957.1510484190427 0 0 0 0 -9.9670464525226468 2.2453835355848923 0 2.2453835355848923 3.6335496678859998 0 0 0 0 -3809.3604558969373 186.51276831992053 0 186.51276831992053 1172.716688350735 0 0 0 0 -5249.1788928567985 67.545435435507954 0 67.545435435507954 1311.6340553337548 0 0 0 0 -5499.6345309357039 32.376379912538162 0 32.376379912538162 1524.2772774300158 0 0 0 0 -5205.875661230345 -155.66696530412645 0 -155.66696530412645 1038.2990522866112 0 0 0 0 -5094.7299558570749 53.918330698663794 0 53.918330698663794 1129.5712298506396 0 0 0 0 -5499.8359215694982 190.04441717116634 0 190.04441717116634 1274.7363999619693 0 0 0 0 -3834.3653223574879 -35.356497867417204 0 -35.356497867417204 903.99542847170278 0 0 0 0 -4658.1965194159748 129.00333963923026 0 129.00333963923026 1104.6062395363201 0 0 0 0 -4660.537765996427 91.863784668004655 0 91.863784668004655 1088.8295397858728 0 0 0 0 -3263.427245241518 -297.11831868626393 0 -297.11831868626393 531.96105587991224 0 0 0 0 -3075.033328026826 -324.49431294549231 0 -324.49431294549231 25.701229397031284 0 0 0 0 -4176.0948540082481 -334.42787441556868 0 -334.42787441556868 532.63779361246748 0 0 0 0 -4554.2717096281622 -749.94208881701547 0 -749.94208881701547 318.20407573162288 0 0 0 0 -5105.8131628311476 -576.39963718806428 0 -576.39963718806428 -9.5925197778742586 0 0 0 0 -4437.4314818288076 -383.37496090585739 0 -383.37496090585739 -64.483488468426003 0 0 0 0 -4261.5425406963004 -911.30984589088109 0 -911.30984589088109 -50.296220536688907 0 0 0 0 -3462.254710291485 -684.75342466149073 0 -684.75342466149073 -147.29390405336062 0 0 0 0 -3428.3656547927003 -269.03482596944923 0 -269.03482596944923 -146.02855940071521 0 0 0 0 -3220.7407763759425 -378.8011917572864 0 -378.8011917572864 -152.21516350795605 0 0 0 0 -3618.1343372470201 -381.65341070065324 0 -381.65341070065324 -166.79946373789062 0 0 0 0 -3722.3218166096003 -321.11545948959156 0 -321.11545948959156 -124.92082361305575 0 0 0 0 -4088.8230695939401 -616.50411886950496 0 -616.50411886950496 -47.776653161163267 0 0 0 0 -15.760176392400957 13.278765846312909 0 13.278765846312909 2.0262253649434125 0 0 0 0 -1531.2119756573798 898.65006819163591 0 898.65006819163591 407.37939037679735 0 0 0 0 -9.0889667789953634 5.5783629830613464 0 5.5783629830613464 0.92160255620787623 0 0 0 0 -5869.020699552545 -726.15510458621657 0 -726.15510458621657 -40.484654023618077 0 0 0 0 -4212.9856392601614 600.29848838369003 0 600.29848838369003 42.611130032785695 0 0 0 0 -2807.3089249215645 623.09024046089985 0 623.09024046089985 -8.471594542839739 0 0 0 0 -3839.1374050659738 801.78540218352305 0 801.78540218352305 777.19403179614073 0 0 0 0 -3008.4435721496238 -199.13963962506131 0 -199.13963962506131 248.27690688307848 0 0 0 0 -2828.7825065729203 316.5073035578705 0 316.5073035578705 -39.42875398975184 0 0 0 0 -2962.3735320209034 30.158628035017728 0 30.158628035017728 -594.89073218087879 0 0 0 0 -4.8095231064480544 3.2590011855115115 0 3.2590011855115115 -3.2547191031518459 0 0 0 0 -2495.8309481942752 -76.660693889061278 0 -76.660693889061278 -334.29472352827179 0 0 0 0 -2491.0773099917496 -221.50777016921086 0 -221.50777016921086 -457.87967790942866 0 0 0 0 -3200.9741085930946 198.88073794205206 0 198.88073794205206 -583.4174013958758 0 0 0 0 -3083.3968653893862 -94.002719162066455 0 -94.002719162066455 -330.62457416012273 0 0 0 0 -2219.9053699409383 -167.80289617872918 0 -167.80289617872918 -474.43689746444511 0 0 0 0 -2315.9824124944162 -382.75183799577206 0 -382.75183799577206 -656.42879267969238 0 0 0 0 -3040.6916816654248 -829.32195204846767 0 -829.32195204846767 -801.31130775076963 0 0 0 0 197.36796668335614 580.44317807226582 0 580.44317807226582 -563.95863952765285 0 0 0 0 -2958.6788294138628 -1111.7793137468707 0 -1111.7793137468707 -354.51210886431397 0 0 0 0 -0.8999202985260859 -1.6081347563775843 0 -1.6081347563775843 -5.0917558424671698 0 0 0 0 -3268.9064883081301 -1000.7751144016165 0 -1000.7751144016165 -36.71394564597108 0 0 0 0 -3013.906606480321 -666.39744826254287 0 -666.39744826254287 -217.90110466651964 0 0 0 0 -3442.2804107546399 -771.53021477786785 0 -771.53021477786785 -201.92230836168849 0 0 0 0 -3266.6415856077801 -517.48173533537192 0 -517.48173533537192 -169.65538449702376 0 0 0 0 -2936.8380548646792 -469.29835106135391 0 -469.29835106135391 -115.34596902598992 0 0 0 0 -3237.6317972340476 -550.42598118802277 0 -550.42598118802277 34.154225037763894 0 0 0 0 -3445.238991012382 -558.6495994320735 0 -558.6495994320735 -31.638658046496118 0 0 0 0 -3265.7405295507051 -490.72537835311908 0 -490.72537835311908 -88.003448936429038 0 0 0 0 -3355.8623931951952 -683.33499712095147 0 -683.33499712095147 -112.02704471409663 0 0 0 0 -2968.1331374464389 -614.10766483972361 0 -614.10766483972361 -626.98507284488369 0 0 0 0 -3431.8972616060491 -884.33058156930076 0 -884.33058156930076 -513.29021266614893 0 0 0 0 -3250.244489956538 -743.08573264013717 0 -743.08573264013717 -570.71179028455254 0 0 0 0 -2866.1345896303546 -575.94971209089374 0 -575.94971209089374 -1898.5656459525558 0 0 0 0 -2939.8737443074024 -767.99051656568633 0 -767.99051656568633 -1132.2270981514062 0 0 0 0 -2873.8968830019585 -1464.6606047898867 0 -1464.6606047898867 -812.53639402146678 0 0 0 0 -2808.6155068526059 -1270.4124329304625 0 -1270.4124329304625 -1717.7016038130632 0 0 0 0 -4359.8694293679509 -1333.1578227919963 0 -1333.1578227919963 363.5349978458546 0 0 0 0 -1631.0169734054507 1348.2672048571649 0 1348.2672048571649 -1102.8151862073737 0 0 0 0 -25.090963887677006 4.2551801779398719 0 4.2551801779398719 -1.3277274015840967 0 0 0 0 421.20684776312487 -332.64314125376859 0 -332.64314125376859 -286.40201123095812 0 0 0 0 -20.962132659112054 -5.4084673588453001 0 -5.4084673588453001 -5.9011009923590896 0 0 0 0 -1146.273395243742 -458.57980081677005 0 -458.57980081677005 -401.76461817697202 0 0 0 0 -3807.594992944134 -6.0963897699573408 0 -6.0963897699573408 -581.29191252187798 0 0 0 0 -3372.6570516198481 -1465.5960804020665 0 -1465.5960804020665 -589.52876085485514 0 0 0 0 -101.67725879743479 2.242353299210766 0 2.242353299210766 0.1336700284936676 0 0 0 0 -293.21221732500271 -358.51502544869572 0 -358.51502544869572 -73.490392052014613 0 0 0 0 -29.11336579062494 3.1850750402897212 0 3.1850750402897212 1.9827522777165907 0 0 0 0 -1681.9537611540593 1651.4627443753793 0 1651.4627443753793 -150.48544852199529 0 0 0 0 -732.08449571031815 -184.97176642875638 0 -184.97176642875638 1037.1526362230213 0 0 0 0 -463.1546365981485 193.94294256386183 0 193.94294256386183 -1444.1230331627589 0 0 0 0 -353.4562642743258 -403.46580789599807 0 -403.46580789599807 106.12159248979924 0 0 0 0 -1432.4856142136939 -1144.2333198196145 0 -1144.2333198196145 -39.642666155200459 0 0 0 0 -524.56668672008527 -34.958194706066251 0 -34.958194706066251 -7.7197970979095523 0 0 0 0 -99.524082501122962 9.427930633910524 0 9.427930633910524 2.5131064470274209 0 0 0 0 -794.07595692079121 249.08577350631629 0 249.08577350631629 217.47389273952871 0 0 0 0 -733.4202432233069 59.882748537399038 0 59.882748537399038 -107.98746873396271 0 0 0 0 -811.69494445298915 205.72907970069031 0 205.72907970069031 265.82656707212533 0 0 0 0 -782.85233285551658 256.17138155510736 0 256.17138155510736 151.58253502695629 0 0 0 0 -791.82091044314438 196.75193524175268 0 196.75193524175268 195.39537661129822 0 0 0 0 -848.91791560221463 267.04700487434428 0 267.04700487434428 463.9724135763812 0 0 0 0 -773.76405625898042 126.54539260027013 0 126.54539260027013 231.21534364628974 0 0 0 0 -834.57948500238126 260.70343567702525 0 260.70343567702525 527.51867087182995 0 0 0 0 -410.70760125547531 173.47046449219079 0 173.47046449219079 467.12822553386928 0 0 0 0 -747.7259604169958 322.39237143929313 0 322.39237143929313 -61.853983446022767 0 0 0 0 -419.15018154364952 -35.0228087780838 0 -35.0228087780838 91.00790453989157 0 0 0 0 -26.316504273162508 -0.082864099216152454 0 -0.082864099216152454 13.579565165745635 0 0 0 0 -913.46961978171021 69.157747405391547 0 69.157747405391547 261.46832476230179 0 0 0 0 -107.79025502853983 -15.25160573920175 0 -15.25160573920175 47.461572566693576 0 0 0 0 -73.75305219319614 -5.7984698976143463 0 -5.7984698976143463 17.166774388049785 0 0 0 0 -194.59634450152953 -214.05284212685473 0 -214.05284212685473 623.15359178546919 0 0 0 0 -389.46572879278392 -148.29779110162895 0 -148.29779110162895 628.69541983716636 0 0 0 0 -450.54497850858024 54.244242598781554 0 54.244242598781554 545.46562964150121 0 0 0 0 89.812605035651359 154.70808758680209 0 154.70808758680209 513.59120030303507 0 0 0 0 -59.897548813180038 -0.33049862691019882 0 -0.33049862691019882 44.065102038566295 0 0 0 0 3.754160710101246 12.504599166495058 0 12.504599166495058 1.0978898268439901 0 0 0 0 -52.921806263396064 -21.606586860606392 0 -21.606586860606392 23.648100221675719 0 0 0 0 -66.984728857205482 -24.708437243574735 0 -24.708437243574735 19.663601929642027 0 0 0 0 -6.0704034164767045 8.6993616665855704 0 8.6993616665855704 12.053978153467531 0 0 0 0 5.5162904737744611 64.948564791807485 0 64.948564791807485 -10.361028963955505 0 0 0 0 -138.87973621809215 58.654032416354312 0 58.654032416354312 48.418069087088952 0 0 0 0 -74.537958970572589 4.8622477883711213 0 4.8622477883711213 28.781956848784244 0 0 0 0 -72.337200578043849 -10.138649768428703 0 -10.138649768428703 13.80618738890716 0 0 0 0 -91.16135517058683 139.62805683581428 0 139.62805683581428 213.67870596188175 0 0 0 0 -81.413118897570442 -1.1392860291815445 0 -1.1392860291815445 14.474844515189286 0 0 0 0 20.582470693185314 119.49605362439911 0 119.49605362439911 43.250805319172287 0 0 0 0 -561.04576365073444 -64.244345154468419 0 -64.244345154468419 71.223225787877652 0 0 0 0 -94.622009419310871 -80.087295218669425 0 -80.087295218669425 -256.19518379472629 0 0 0 0 -250.43790716658805 -291.04397174677774 0 -291.04397174677774 -252.60265003922723 0 0 0 0 4.5149327030819677 155.22874036046358 0 155.22874036046358 71.887239715284068 0 0 0 0 -78.659067569540639 -9.1550733903006858 0 -9.1550733903006858 242.39959832962381 0 0 0 0 -83.704726906796111 113.75530341136044 0 113.75530341136044 -16.638207158130172 0 0 0 0 -300.80624441925829 -118.5432030487658 0 -118.5432030487658 -25.071479193358421 0 0 0 0 -93.765407168764796 -26.05116368429367 0 -26.05116368429367 -181.89641754565764 0 0 0 0 -278.64408257925061 -423.00387253624388 0 -423.00387253624388 -47.497264145579493 0 0 0 0 -307.21899135145941 -393.63091618680505 0 -393.63091618680505 -448.97880586080288 0 0 0 0 -616.43400590207966 -133.81511714573367 0 -133.81511714573367 -261.43864188175002 0 0 0 0 -1051.1915049300096 -7.4893813807711922 0 -7.4893813807711922 -485.61814895065072 0 0 0 0 -671.62091143435964 -288.62172973396866 0 -288.62172973396866 -289.16468452361596 0 0 0 0 -1706.3626335058107 -61.950994624348596 0 -61.950994624348596 -26.498374503747073 0 0 0 0 -643.81994051065703 -533.5986253697381 0 -533.5986253697381 -43.849887197118051 0 0 0 0 -1505.0733881560918 696.61275474422746 0 696.61275474422746 -258.48147640629736 0 0 0 0 -564.49783887563899 63.773075346151813 0 63.773075346151813 -606.44784915060427 0 0 0 0 -1309.3122156572554 -452.69872933796546 0 -452.69872933796546 -794.82204389123376 0 0 0 0 -1461.2515782644568 -114.65765816085627 0 -114.65765816085627 -610.49301570189027 0 0 0 0 -1600.6673095231745 -309.84819709586645 0 -309.84819709586645 -602.20708337782025 0 0 0 0 -684.87146115715404 -338.93494464455387 0 -338.93494464455387 -699.78187319444601 0 0 0 0 -632.80035928626512 -234.50425151007133 0 -234.50425151007133 -522.40666322125014 0 0 0 0 -738.45986763515566 -376.66584861931028 0 -376.66584861931028 -544.30451662042651 0 0 0 0 -613.54400724997504 -260.87922142107777 0 -260.87922142107777 -783.91761744348685 0 0 0 0 -1695.7979228869772 172.96736011884161 0 172.96736011884161 -699.17464389961515 0 0 0 0 -484.68126051883246 -182.86873670434193 0 -182.86873670434193 -751.37444292722341 0 0 0 0 -2.1188356476512027 -1.281949197850814 0 -1.281949197850814 0.70150845259457739 0 0 0 0 -718.35530562572171 -598.83721416177707 0 -598.83721416177707 -541.80894067080158 0 0 0 0 -374.63068486022166 -298.67030918655911 0 -298.67030918655911 -363.6471475778294 0 0 0 0 -846.37541577969932 -349.14103522018382 0 -349.14103522018382 -169.76962730877267 0 0 0 0 -2.2338359817384763 -2.4001512854539211 0 -2.4001512854539211 1.9180668077646845 0 0 0 0 -211.82979588205035 -318.60589361177261 0 -318.60589361177261 -548.22261724999885 0 0 0 0 -412.53872198848512 -345.08045438683018 0 -345.08045438683018 -432.47251407738554 0 0 0 0 -270.09023776446975 -234.22303112164116 0 -234.22303112164116 -503.41652152159679 0 0 0 0 -268.97916788184739 -419.08176846347448 0 -419.08176846347448 -635.00515246362102 0 0 0 0 -299.11734489035643 -343.53334697400362 0 -343.53334697400362 -433.2251368422817 0 0 0 0 -181.12784538420692 -460.87131799877966 0 -460.87131799877966 -616.3722208004184 0 0 0 0 -157.72638389508006 -401.12106828958281 0 -401.12106828958281 -859.22021660284827 0 0 0 0 -313.66999593327182 -391.27189396394874 0 -391.27189396394874 -469.57575829458716 0 0 0 0 -300.49023919314095 -372.81186505818579 0 -372.81186505818579 -677.36357301019154 0 0 0 0 -228.67685352419267 -287.01302544436817 0 -287.01302544436817 -511.71889618354635 0 0 0 0 -141.57325026281978 -257.28359360810441 0 -257.28359360810441 -240.17246805616483 0 0 0 0 -394.06316545356913 -401.85410868389499 0 -401.85410868389499 765.6018868669621 0 0 0 0 127.66594325602637 48.367546035022855 0 48.367546035022855 -1326.3298604532811 0 0 0 0 -337.76618980204148 -579.74255942525133 0 -579.74255942525133 -344.74855886458408 0 0 0 0 -1497.398887016072 -58.989585135214384 0 -58.989585135214384 30.778967347833714 0 0 0 0 -2.6463838268047404 3.4757637319431307 0 3.4757637319431307 -2.5983522069597838 0 0 0 0 -40.022607477694692 2547.0013924853592 0 2547.0013924853592 -810.65879575383633 0 0 0 0 -976.22693118373718 -218.24069035951652 0 -218.24069035951652 -47.931831542202872 0 0 0 0 977.22615885691357 -1110.3606131399101 0 -1110.3606131399101 -635.77604791841441 0 0 0 0 -1391.2690839254749 -286.69342077264122 0 -286.69342077264122 -78.772459194594603 0 0 0 0 -1545.5524949188141 124.38707751843945 0 124.38707751843945 -527.60252039468855 0 0 0 0 105.46289970457292 970.30292377011392 0 970.30292377011392 836.64590452959965 0 0 0 0 -7.7970881755365706 7.2466786191546264 0 7.2466786191546264 -6.0663985104267022 0 0 0 0 -380.60679971594436 -392.57383576257268 0 -392.57383576257268 -699.47481568025853 0 0 0 0 -1199.4560721304051 348.45522651705625 0 348.45522651705625 -876.5955952723084 0 0 0 0 -228.95508242743881 -146.78108586737943 0 -146.78108586737943 -435.38060617849374 0 0 0 0 -285.81705934861384 -298.27649636133719 0 -298.27649636133719 -716.79451011478386 0 0 0 0 -1764.1316798917355 -1011.0262064122016 0 -1011.0262064122016 116.31019218284564 0 0 0 0 -1502.1394997847565 -958.18092306555081 0 -958.18092306555081 -332.21161159034796 0 0 0 0 -1.2003236390743979 -0.66339376687240126 0 -0.66339376687240126 -6.6633317472396421 0 0 0 0 -1107.0439497237403 -566.81920747546894 0 -566.81920747546894 -773.52424206796934 0 0 0 0 -1144.580441181999 -475.6521792586575 0 -475.6521792586575 -46.122373034784005 0 0 0 0 -1355.3651109216653 -671.40323425796021 0 -671.40323425796021 220.35616703136475 0 0 0 0 -1462.8405956910128 -538.60372738040223 0 -538.60372738040223 96.34454989630558 0 0 0 0 -1809.0637686991349 -693.17949120815865 0 -693.17949120815865 222.0669626701779 0 0 0 0 -1767.1637897033934 -915.33772719220997 0 -915.33772719220997 681.72241031692602 0 0 0 0 -3369.9145995411309 -631.77850304975868 0 -631.77850304975868 1192.2059853897413 0 0 0 0 -405.68307936108306 -270.65414427603685 0 -270.65414427603685 -257.78645067891989 0 0 0 0 1.4660768588300925 -105.81836687983309 0 -105.81836687983309 15.251924861453176 0 0 0 0 -244.94811027831452 -125.93807700036621 0 -125.93807700036621 282.11808193603338 0 0 0 0 -40.734695618695014 -12.77424795240206 0 -12.77424795240206 -6.0610579154498794 0 0 0 0 -14.534368802549112 -6.4876260920206281 0 -6.4876260920206281 -3.5090497049346432 0 0 0 0 -441.28718488753384 -961.94964311323247 0 -961.94964311323247 -1224.5483426410942 0 0 0 0 -2016.2839566275557 814.75042079525258 0 814.75042079525258 -251.88717688193265 0 0 0 0 -569.49432359449929 306.18451248514316 0 306.18451248514316 -74.707326303662285 0 0 0 0 5.0486280225243263 -99.669972635782159 0 -99.669972635782159 -206.47003878275677 0 0 0 0 129.25650085126108 -110.09336748103487 0 -110.09336748103487 -167.86081722142035 0 0 0 0 -373.374603335129 93.096214893727392 0 93.096214893727392 -182.47481081872797 0 0 0 0 -1794.3687251525812 -121.4722342731642 0 -121.4722342731642 191.17624637587187 0 0 0 0 -623.67651321332778 -205.42407092523661 0 -205.42407092523661 9.1583678538995628 0 0 0 0 -818.92256165713479 -101.39807113907864 0 -101.39807113907864 165.65399351127797 0 0 0 0 -132.6483646674651 197.78597420145206 0 197.78597420145206 -80.280976835782667 0 0 0 0 -719.42956368828891 -417.75177251487867 0 -417.75177251487867 -68.216027988015753 0 0 0 0 -559.34685224347595 -30.146590304145093 0 -30.146590304145093 1.969640898222309 0 0 0 0 82.009041504229344 109.43610893918901 0 109.43610893918901 74.60575461989356 0 0 0 0 -471.64082508767933 -122.59525706901871 0 -122.59525706901871 88.893229079187222 0 0 0 0 19.33556776228761 62.701490087662023 0 62.701490087662023 13.933673209846603 0 0 0 0 -29.630442541987492 10.352359180261786 0 10.352359180261786 -4.6497590562152658 0 0 0 0 39.467422329618785 28.526207527473389 0 28.526207527473389 -70.120652291717818 0 0 0 0 -67.953874973478378 66.109282350107605 0 66.109282350107605 266.57651866211609 0 0 0 0 -44.665641136036356 -0.31131430191192067 0 -0.31131430191192067 8.7291567965385184 0 0 0 0 2.9347371772449726 7.7419691799922283 0 7.7419691799922283 -5.7279419744805997 0 0 0 0 -16.253646695328499 0.76614273976859693 0 0.76614273976859693 -9.8243060221857306 0 0 0 0 -42.341728995085759 94.490677681888428 0 94.490677681888428 201.99795638075739 0 0 0 0 -30.562830805698468 16.199554397817337 0 16.199554397817337 143.65994471868817 0 0 0 0 -67.192922632332738 82.027022467942402 0 82.027022467942402 94.030565035640393 0 0 0 0 -43.013749729939718 116.55230646007425 0 116.55230646007425 124.11884501167151 0 0 0 0 82.156366834431537 51.723923171164643 0 51.723923171164643 157.60268000040469 0 0 0 0 -51.798098846804351 -0.89886166350470376 0 -0.89886166350470376 -94.439821564213162 0 0 0 0 -90.387349682801869 81.364133053205478 0 81.364133053205478 118.46115153767118 0 0 0 0 -91.18226079732267 125.19175406324575 0 125.19175406324575 -56.52684204059301 0 0 0 0 -45.190648383464577 16.93150609414397 0 16.93150609414397 -9.6153246687190403 0 0 0 0 -171.89561679823782 -468.97023617467289 0 -468.97023617467289 -417.9034710727895 0 0 0 0 -12.980083988755268 274.77913243423291 0 274.77913243423291 317.66257385960034 0 0 0 0 -22.531823185328577 16.077238207227364 0 16.077238207227364 -12.936424714302115 0 0 0 0 -50.460717301227589 155.84033967075638 0 155.84033967075638 -120.32411157271417 0 0 0 0 -126.15438631207508 -75.334378525242755 0 -75.334378525242755 412.16753618743314 0 0 0 0 36.073010945568967 32.59745340300833 0 32.59745340300833 -246.7134653590947 0 0 0 0 992.68147326348844 -65.951886082315013 0 -65.951886082315013 -655.93255805404351 0 0 0 0 -114.48328693915391 793.38477664774655 0 793.38477664774655 -1039.7033853864641 0 0 0 0 -1623.784206014564 827.63543623508485 0 827.63543623508485 -318.03994726721521 0 0 0 0 -538.9820059502963 435.90417180147369 0 435.90417180147369 -227.654081264659 0 0 0 0 -535.06854869039671 471.50434224611126 0 471.50434224611126 -297.14679849761728 0 0 0 0 -157.07562591504393 374.08152186951475 0 374.08152186951475 -537.16600950437305 0 0 0 0 -357.61933745914212 313.21645184038857 0 313.21645184038857 -212.7910709406724 0 0 0 0 -634.18294254361172 278.32652437722385 0 278.32652437722385 -60.329337514815734 0 0 0 0 -1169.6740538276208 317.7826333190967 0 317.7826333190967 -56.443170316402757 0 0 0 0 -65.169347191593261 102.42899815774331 0 102.42899815774331 -129.32316205522011 0 0 0 0 -61.681619822780704 168.34288663373968 0 168.34288663373968 -203.78519878136922 0 0 0 0 -104.35639316864399 193.63340895786177 0 193.63340895786177 -157.41833105857881 0 0 0 0 -56.247763144279816 176.54279970078505 0 176.54279970078505 -382.16380041256343 0 0 0 0 -210.20131394749842 238.24112654588185 0 238.24112654588185 -144.51896702609906 0 0 0 0 -224.86113924318124 320.95852750325315 0 320.95852750325315 -232.20758459021818 0 0 0 0 -184.30689287831046 249.09488139580753 0 249.09488139580753 -162.87390948569271 0 0 0 0 -181.78859531437774 262.21280189333061 0 262.21280189333061 -152.43952070739724 0 0 0 0 -257.61441194434065 258.4181856144462 0 258.4181856144462 -81.3427474077412 0 0 0 0 -246.38380283879451 274.95716298290387 0 274.95716298290387 -106.36943848206556 0 0 0 0 -209.25784706501872 249.01429084126821 0 249.01429084126821 -90.830837620730676 0 0 0 0 -206.12585004502034 245.65184038072084 0 245.65184038072084 -91.912047730117365 0 0 0 0 -227.93882736611977 231.06052695468321 0 231.06052695468321 -93.929212839022057 0 0 0 0 -210.08412510041762 186.23722155487559 0 186.23722155487559 -33.16019008564399 0 0 0 0 -183.05530888733483 205.05421992332094 0 205.05421992332094 -79.620017326596098 0 0 0 0 -178.94233319838168 52.684532215332183 0 52.684532215332183 16.241945509564857 0 0 0 0 -234.47813650942226 162.05876268455609 0 162.05876268455609 -56.795416637262406 0 0 0 0 -335.76092949475242 124.77258224256661 0 124.77258224256661 -11.42997042828415 0 0 0 0 -434.79222968947215 194.99203314771646 0 194.99203314771646 -26.336115329640677 0 0 0 0 -328.90560191256372 247.42563487565948 0 247.42563487565948 -63.568944076593745 0 0 0 0 -315.0074732215071 137.83972059929039 0 137.83972059929039 -3.9201344340558819 0 0 0 0 -438.78164727165858 348.12949600312885 0 348.12949600312885 -121.91744412462454 0 0 0 0 -520.31232751839343 200.02260025803955 0 200.02260025803955 -16.495423083599974 0 0 0 0 -219.62124232195129 -147.03551089335105 0 -147.03551089335105 -55.768439484504199 0 0 0 0 -728.21667301438356 -234.49810129904091 0 -234.49810129904091 -53.098718758527866 0 0 0 0 -99.978388397569233 5.9916310047728416 0 5.9916310047728416 -51.380493854888755 0 0 0 0 -533.45789862507263 -5.5884545257310663 0 -5.5884545257310663 13.288331041491574 0 0 0 0 182.15882227866587 295.91921452326187 0 295.91921452326187 406.55036788111431 0 0 0 0 -145.3243844687604 -69.575962846376342 0 -69.575962846376342 139.35866154154792 0 0 0 0 -6.4196163534704063 4.607371623069298 0 4.607371623069298 3.8466954163081493 0 0 0 0 -61.674572562838875 -29.104870167949002 0 -29.104870167949002 30.993315562337671 0 0 0 0 -14.570385837142217 -7.4303356793714137 0 -7.4303356793714137 15.944532116451642 0 0 0 0 -57.481311795139845 -32.688043575955362 0 -32.688043575955362 -14.823591038987615 0 0 0 0 -214.60765952695147 -35.16827662022888 0 -35.16827662022888 -4.3125380703841074 0 0 0 0 -197.83889243124577 -3.2145965986351257 0 -3.2145965986351257 2.0001054114652561 0 0 0 0 -67.697811209913198 -59.133364342221284 0 -59.133364342221284 10.193276339113254 0 0 0 0 -168.91281265906491 57.937995139919053 0 57.937995139919053 10.98115563247211 0 0 0 0 -88.492673814392219 -46.156020278803908 0 -46.156020278803908 69.338364010894111 0 0 0 0 -73.379454834923308 -55.278713992644043 0 -55.278713992644043 48.861174590912469 0 0 0 0 -73.578882525767995 -14.969344008214298 0 -14.969344008214298 4.3813717316727505 0 0 0 0 -90.57718336382095 11.694162097251592 0 11.694162097251592 84.894047301783189 0 0 0 0 -17.625277051360172 17.132347702538482 0 17.132347702538482 -1.2317481472382497 0 0 0 0 71.475913343034335 15.888301497011525 0 15.888301497011525 -2.2886909495703094 0 0 0 0 -151.59884562927982 -80.749896360854791 0 -80.749896360854791 327.14943786736512 0 0 0 0 -460.42089447425678 154.20183273154635 0 154.20183273154635 215.6529690243874 0 0 0 0 -61.007880662429059 -14.785661359624434 0 -14.785661359624434 -3.3603240418120617 0 0 0 0 121.479942653943 -221.84314462149086 0 -221.84314462149086 -129.41497871324918 0 0 0 0 -49.73285940768983 -260.84608568221392 0 -260.84608568221392 235.1559990266187 0 0 0 0 -112.43544180872777 99.232408233780461 0 99.232408233780461 -111.2523011227554 0 0 0 0 -46.800933205095859 -10.501583085371902 0 -10.501583085371902 -1.5349856040949383 0 0 0 0 -98.330428207978912 109.56748985176182 0 109.56748985176182 -125.06670691631552 0 0 0 0 -136.997830536111 146.90075275251002 0 146.90075275251002 -80.408938611876692 0 0 0 0 -180.29703904711005 182.20479776296054 0 182.20479776296054 -104.12692415754555 0 0 0 0 -152.72541372956493 109.49557799315869 0 109.49557799315869 -23.770681193791461 0 0 0 0 -135.31575718957902 -13.133442445184301 0 -13.133442445184301 64.432910463139478 0 0 0 0 -61.141954366567006 50.929274741627864 0 50.929274741627864 -71.238177717860708 0 0 0 0 123.88903003517771 -494.61320370910607 0 -494.61320370910607 1255.1810921661927 0 0 0 0 -18.791671703576867 -46.941848529314484 0 -46.941848529314484 418.8188360795657 0 0 0 0 -441.71287720891996 -69.588893138308777 0 -69.588893138308777 1191.3488321079708 0 0 0 0 -166.62068762969648 29.868106918492913 0 29.868106918492913 47.089299464495525 0 0 0 0 268.26146866270574 -267.67132339148884 0 -267.67132339148884 1595.6845862223054 0 0 0 0 -8.6141295746290325 2.0607218382868524 0 2.0607218382868524 3.3346867361085746 0 0 0 0 -0.47677640314910263 0.19794767072558273 0 0.19794767072558273 3.94676392809383 0 0 0 0 1047.1967846208863 -1335.2852641300633 0 -1335.2852641300633 1087.3184295569777 0 0 0 0 -70.950960768667727 -2.7295562817652339 0 -2.7295562817652339 1.5727266917431368 0 0 0 0 -17.447891405397996 1.2496124147340311 0 1.2496124147340311 -0.11216875849296848 0 0 0 0 -103.79256444169732 46.519266025075922 0 46.519266025075922 88.640656237841995 0 0 0 0 -54.673520037569688 -78.04426848523326 0 -78.04426848523326 185.49573743863584 0 0 0 0 -89.598375881634766 -11.188183923992028 0 -11.188183923992028 9.678316733764488 0 0 0 0 12.432941530634707 213.81987420144515 0 213.81987420144515 -173.68620001722775 0 0 0 0 -433.07410549280394 -298.59151495597439 0 -298.59151495597439 94.326189687915758 0 0 0 0 43.344294199612705 10.096792624975706 0 10.096792624975706 -241.82478498414457 0 0 0 0 -3.8209710288639656 -2.1099234212818736 0 -2.1099234212818736 -1.1628056716099184 0 0 0 0 23.820933220456936 134.84202144089613 0 134.84202144089613 -183.48375652362665 0 0 0 0 130.85658173737465 -142.06360129997074 0 -142.06360129997074 -52.055171495390368 0 0 0 0 403.26849158413825 -524.03246088780452 0 -524.03246088780452 422.53995298208429 0 0 0 0 170.78252585162409 -416.11005216070726 0 -416.11005216070726 392.12753884748463 0 0 0 0 -79.167449303502721 -11.533622247925429 0 -11.533622247925429 10.926030148419262 0 0 0 0 -47.773874559869 -537.4813408357179 0 -537.4813408357179 577.46866642546775 0 0 0 0 192.96631062768574 -675.38640287597946 0 -675.38640287597946 650.9881676258774 0 0 0 0 -488.96493043961527 -460.79747806786418 0 -460.79747806786418 963.50417278949453 0 0 0 0 220.60488656516827 10.874343637121285 0 10.874343637121285 354.64275568127778 0 0 0 0 -231.8421985954119 -251.43770281250613 0 -251.43770281250613 1453.4998126693345 0 0 0 0 -51.425519771481049 -462.42673844989531 0 -462.42673844989531 1267.7814622836167 0 0 0 0 409.65231236369436 -599.97629864487635 0 -599.97629864487635 444.04785890677977 0 0 0 0 6.9829424324797458 -9.6135171291043839 0 -9.6135171291043839 2.9828757977394091 0 0 0 0 93.072783128445735 -180.40100069196069 0 -180.40100069196069 16.112749210856691 0 0 0 0 165.67021418753347 -24.499985398948979 0 -24.499985398948979 166.53602263922767 0 0 0 0 -755.94282198438304 -571.96464161801168 0 -571.96464161801168 9.8400908187056757 0 0 0 0 87.392662299249878 -41.669483500983432 0 -41.669483500983432 -435.97801951922611 0 0 0 0 25.542933629436448 6.1372585303572578 0 6.1372585303572578 -85.507809144016392 0 0 0 0 -117.842432852005 185.25320797003428 0 185.25320797003428 -280.18147414932673 0 0 0 0 67.224903604277642 19.885050000702904 0 19.885050000702904 -105.63918600054603 0 0 0 0 113.50068095851748 -93.996985052693617 0 -93.996985052693617 -40.743228096060193 0 0 0 0 -77.521499253861748 -50.626303496050383 0 -50.626303496050383 -0.0043252959549135994 0 0 0 0 -73.505848276035977 -105.52783211489896 0 -105.52783211489896 90.468705103769025 0 0 0 0 132.439338912528 -291.09193370622506 0 -291.09193370622506 238.75012473214429 0 0 0 0 -658.14088866026577 418.44641756450528 0 418.44641756450528 165.63843343914505 0 0 0 0 -242.06851266528247 -138.14565377784083 0 -138.14565377784083 65.288089105153631 0 0 0 0 -313.62638961055927 49.080615847669833 0 49.080615847669833 23.56196257459851 0 0 0 0 107.9151546427147 -337.78754249977806 0 -337.78754249977806 905.24657709659004 0 0 0 0 -6.3935102052206219 1.4121806501001686 0 1.4121806501001686 11.907725511740237 0 0 0 0 -171.03409798569919 -55.019395012366203 0 -55.019395012366203 29.890825614332243 0 0 0 0 -133.0525007036631 -6.5302976676384787 0 -6.5302976676384787 19.331028067132138 0 0 0 0 -41.513873908101232 -29.101927943625242 0 -29.101927943625242 -10.475417037357147 0 0 0 0 -40.853546859251992 -39.928612944874018 0 -39.928612944874018 -58.738125270735509 0 0 0 0 -42.038744292218325 18.398322686867914 0 18.398322686867914 0.02154443979725329 0 0 0 0 -16.616079856099532 -17.619864845960592 0 -17.619864845960592 -28.75810600089153 0 0 0 0 -102.31163758281036 -18.155442117702933 0 -18.155442117702933 -7.0426942359094937 0 0 0 0 -52.184651383329765 -0.57653137129318566 0 -0.57653137129318566 2.4146233265892079 0 0 0 0 -3.4833079690451214 12.432435998888181 0 12.432435998888181 5.5054740406249927 0 0 0 0 -57.020166147507553 -7.0064755170692479 0 -7.0064755170692479 -12.582466898477833 0 0 0 0 -90.710750345315319 -3.9217531815038456 0 -3.9217531815038456 10.044126947802397 0 0 0 0 -51.731199159614334 4.7071371553026893 0 4.7071371553026893 2.8096503889040605 0 0 0 0 -16.572877708497934 11.485352284687636 0 11.485352284687636 1.4809726964471572 0 0 0 0 -16.514594868043147 17.300994281777548 0 17.300994281777548 4.3134142390851018 0 0 0 0 -13.582873412051313 0.79888512268802003 0 0.79888512268802003 -5.3058751068462158 0 0 0 0 -66.595780344825471 -2.6726428220199523 0 -2.6726428220199523 -1.9315910854511742 0 0 0 0 -88.731003368920938 45.94579446780358 0 45.94579446780358 -8.5077737417600474 0 0 0 0 -61.363070182487718 31.031258915214494 0 31.031258915214494 -13.482687333212425 0 0 0 0 -32.304808224216174 7.5584705138413284 0 7.5584705138413284 8.2551950806919123 0 0 0 0 -48.132087470236002 67.214910656548 0 67.214910656548 9.5031295381926384 0 0 0 0 -41.064885812156717 33.087656277976748 0 33.087656277976748 17.166205779725715 0 0 0 0 -62.001642319908569 13.762938600564212 0 13.762938600564212 -13.569855528867265 0 0 0 0 -32.620016874452389 36.801257235415605 0 36.801257235415605 -17.087077251268944 0 0 0 0 -40.927917837718269 60.330631015310246 0 60.330631015310246 21.445547003932916 0 0 0 0 -61.316386923339451 61.463260743602405 0 61.463260743602405 25.646953533122542 0 0 0 0 33.225540627638111 51.088492498083724 0 51.088492498083724 15.346909529393997 0 0 0 0 -162.20324324409012 12.936711581153759 0 12.936711581153759 -0.81248257800211832 0 0 0 0 -26.870509134821361 30.155713181757491 0 30.155713181757491 7.1315641818014299 0 0 0 0 -15.406200095504353 -1.3444117268677616 0 -1.3444117268677616 0.02806383174414151 0 0 0 0 -39.93602543506131 11.405144778374051 0 11.405144778374051 -21.889616606540017 0 0 0 0 -15.261897448523598 3.2683049006156821 0 3.2683049006156821 5.5673239601923914 0 0 0 0 -25.17749264009035 26.725584544924686 0 26.725584544924686 -29.582816551909104 0 0 0 0 -34.987050102547983 35.797754592529429 0 35.797754592529429 -26.16482977594319 0 0 0 0 -23.539484969624027 32.742350466382049 0 32.742350466382049 -40.754263520251243 0 0 0 0 -23.549954779788322 3.8631788004919301 0 3.8631788004919301 14.584683920195598 0 0 0 0 -53.05942355436855 41.282244081415683 0 41.282244081415683 129.7378393066565 0 0 0 0 -4.791240031561756 118.13538258479321 0 118.13538258479321 62.632819063505849 0 0 0 0 -68.130756932929216 158.92443788905575 0 158.92443788905575 144.10977153508975 0 0 0 0 -21.560828345362097 157.6494711673829 0 157.6494711673829 -129.77954446895274 0 0 0 0 -29.322042663377943 116.65586634185456 0 116.65586634185456 -3.6468131458989319 0 0 0 0 -2.3175487361363167 -5.49598227644438 0 -5.49598227644438 -7.7434413591471092 0 0 0 0 -9.1261465867646621 30.758584295324908 0 30.758584295324908 -81.645844247750574 0 0 0 0 4.85407726282574 -2.0037207205414234 0 -2.0037207205414234 -29.437898620502622 0 0 0 0 149.39547882258194 -10.276840099369991 0 -10.276840099369991 -778.13979810698947 0 0 0 0 156.49840264362274 -117.84494819742795 0 -117.84494819742795 -138.17242397735026 0 0 0 0 -5.4542015181041563 -6.7581392086225094 0 -6.7581392086225094 -8.8299145162581603 0 0 0 0 -1816.7972953395656 79.464688030790967 0 79.464688030790967 -1118.578382268699 0 0 0 0 -1729.940655484781 526.41070103803349 0 526.41070103803349 314.83574518315982 0 0 0 0 -4857.0878758344243 -1890.7727505838 0 -1890.7727505838 -1437.0148345938178 0 0 0 0 -4765.7253779167295 2160.4828749317635 0 2160.4828749317635 902.60736695541345 0 0 0 0 -30.954016312689134 1.7544870732841602 0 1.7544870732841602 1.3204828462788782 0 0 0 0 -3099.5822211567865 -1697.6605177164274 0 -1697.6605177164274 3578.3217990274024 0 0 0 0 -1783.6707943093788 2099.5195137469873 0 2099.5195137469873 -2764.3493450923534 0 0 0 0 -320.11617587856381 706.96001256170371 0 706.96001256170371 -1575.4519806256485 0 0 0 0 -4023.3347618756306 1742.644528917705 0 1742.644528917705 -165.12927005798338 0 0 0 0 -3738.485803685151 -132.60314751580177 0 -132.60314751580177 1172.8984493763201 0 0 0 0 -420.13663393181923 -2114.5888200766681 0 -2114.5888200766681 1080.2817926771781 0 0 0 0 -2254.6314898382552 -675.70236736569404 0 -675.70236736569404 440.35822217010718 0 0 0 0 -5094.577758785148 -416.0889112980758 0 -416.0889112980758 1986.7221859283536 0 0 0 0 -2728.8886380442564 -322.39844086034418 0 -322.39844086034418 592.75760374623496 0 0 0 0 -2566.1696371126454 -103.74878700787667 0 -103.74878700787667 396.46576603029644 0 0 0 0 -3035.8740017546806 -162.19788588547817 0 -162.19788588547817 553.47046603368722 0 0 0 0 -2881.8222395483463 94.403179425692542 0 94.403179425692542 288.72301629835283 0 0 0 0 -1868.3628425846109 -85.126366517525184 0 -85.126366517525184 -356.24467298194122 0 0 0 0 -725.05105236015515 -338.37006695718173 0 -338.37006695718173 -239.87495942849728 0 0 0 0 -1866.4330127125522 -112.57177882767857 0 -112.57177882767857 -242.8788977962331 0 0 0 0 -4938.5923888397465 1038.1080754382579 0 1038.1080754382579 679.0252834062278 0 0 0 0 -8.1236338133185342 2.5624528328461906 0 2.5624528328461906 5.6215344550655999 0 0 0 0 214.82241156502278 -570.8628995396075 0 -570.8628995396075 377.89586750226408 0 0 0 0 -276.36951487552142 545.86429316396425 0 545.86429316396425 -285.43220098424172 0 0 0 0 -1482.3551998029434 -303.51805468107978 0 -303.51805468107978 1426.1768003330001 0 0 0 0 -4076.113664714183 914.65254182171088 0 914.65254182171088 -74.664760218314768 0 0 0 0 -4.1864486006774939 7.0549192625741881 0 7.0549192625741881 -9.2025379524762734 0 0 0 0 -993.56168457971944 -406.27216362126069 0 -406.27216362126069 -185.96437032682377 0 0 0 0 0.88192572151052673 -2.2116783379071663 0 -2.2116783379071663 -0.95888313797778135 0 0 0 0 -2210.360769624589 913.07476575672831 0 913.07476575672831 -13.700883359749923 0 0 0 0 -3634.9047559582978 512.99572239347765 0 512.99572239347765 446.28229093129983 0 0 0 0 -3725.3870038432069 972.57041190851942 0 972.57041190851942 -1281.642324722121 0 0 0 0 -2438.3714426749211 241.99399926829756 0 241.99399926829756 -678.09085348372787 0 0 0 0 -1913.4549596197758 92.127938038610409 0 92.127938038610409 -357.33745539382539 0 0 0 0 -2614.3632014446921 -32.7008192917325 0 -32.7008192917325 -190.53568057206667 0 0 0 0 -1771.0863941343778 -181.54391358180933 0 -181.54391358180933 -315.66150642992193 0 0 0 0 -1342.6395265510946 -194.7990449004094 0 -194.7990449004094 -473.44133239512121 0 0 0 0 -1282.4530504793511 -67.492666113348037 0 -67.492666113348037 -484.55712636867082 0 0 0 0 -1358.0967512212665 -282.42995535658338 0 -282.42995535658338 -401.14605382717707 0 0 0 0 -1664.068255223945 116.45816386455556 0 116.45816386455556 -350.28243542091559 0 0 0 0 -2252.5501644288452 1001.995258305255 0 1001.995258305255 -513.96139999069715 0 0 0 0 -7.2945329178930933 0.2588097982883184 0 0.2588097982883184 -4.4266628321058263 0 0 0 0 -1914.181217209989 -51.022575039677861 0 -51.022575039677861 -416.81021893325652 0 0 0 0 -2261.9510974458462 473.01541109962977 0 473.01541109962977 -763.38024401920177 0 0 0 0 -778.14145623441436 -82.661244902551175 0 -82.661244902551175 -441.21414375891931 0 0 0 0 -340.69830873954925 -136.3505166303795 0 -136.3505166303795 -443.10556061776276 0 0 0 0 -1183.768273340349 -248.73858623917636 0 -248.73858623917636 -297.00976708927811 0 0 0 0 -871.93457548528386 -368.85459330368678 0 -368.85459330368678 -426.88619978693271 0 0 0 0 -682.25153152357962 -287.39261727981693 0 -287.39261727981693 -374.40267280203454 0 0 0 0 -1321.6184017300257 -78.224904178182442 0 -78.224904178182442 138.93274585441623 0 0 0 0 -26.989482546137879 -426.36223373599705 0 -426.36223373599705 146.73380008651748 0 0 0 0 -752.34181188127695 -169.6760406113722 0 -169.6760406113722 64.909914071317871 0 0 0 0 2875.0090248556808 2555.9558074147872 0 2555.9558074147872 -1349.7439136844978 0 0 0 0 -25.287266896607264 -0.85936086437755677 0 -0.85936086437755677 3.2836101221764249 0 0 0 0 -339.05693440463801 35.932282913042684 0 35.932282913042684 580.7293670847489 0 0 0 0 -498.14828970635426 -1071.3243976081849 0 -1071.3243976081849 2308.3433287390717 0 0 0 0 -1021.5144564838411 267.82901500773869 0 267.82901500773869 1447.6003459622461 0 0 0 0 -871.86798912714585 170.54061973418766 0 170.54061973418766 -989.44730306772544 0 0 0 0 -1016.3406030901679 475.12036014465912 0 475.12036014465912 -277.64151034233419 0 0 0 0 345.15756798356597 -1075.177524166199 0 -1075.177524166199 -560.95380360829222 0 0 0 0 -394.62106645949825 300.03674306950415 0 300.03674306950415 -431.06721860502466 0 0 0 0 -2711.6959574792672 2584.0220636003291 0 2584.0220636003291 1639.1000817830773 0 0 0 0 -68.019030083430067 14.581925188559609 0 14.581925188559609 16.250223278505935 0 0 0 0 -124.11197877285304 186.39285112178095 0 186.39285112178095 -882.07584299258633 0 0 0 0 294.76410937223409 1010.4917118561796 0 1010.4917118561796 2429.7145787089339 0 0 0 0 1466.3156447824003 -1176.5963755525113 0 -1176.5963755525113 -1513.8160807093864 0 0 0 0 -30.621740272312124 3.7854519851198063 0 3.7854519851198063 11.544374497605521 0 0 0 0 -419.25625476703863 490.60000649376434 0 490.60000649376434 -536.94426264186768 0 0 0 0 -6.0888946132562509 34.9871744550248 0 34.9871744550248 49.866424602280446 0 0 0 0 -419.64695705561957 558.03891866172376 0 558.03891866172376 -393.54365912717731 0 0 0 0 -365.66324373880343 460.7897398851519 0 460.7897398851519 -584.45507450473087 0 0 0 0 -305.6970480147429 480.86901947914612 0 480.86901947914612 -577.98346281079284 0 0 0 0 -363.83266156753234 536.36730637581877 0 536.36730637581877 -507.94326791111598 0 0 0 0 -292.03967818338424 704.85827375978079 0 704.85827375978079 -424.10129539637092 0 0 0 0 -321.42741824057885 623.62323432403537 0 623.62323432403537 -533.73719122452485 0 0 0 0 -523.30885959656734 653.27459395178539 0 653.27459395178539 -111.31497634621337 0 0 0 0 -390.44412737439416 740.66798695564512 0 740.66798695564512 -388.19203012463186 0 0 0 0 -579.51845345736365 1155.9834620576994 0 1155.9834620576994 -192.0317792854803 0 0 0 0 152.84993236573064 1280.182485207069 0 1280.182485207069 -185.79634482631081 0 0 0 0 -108.23133694566786 730.34517874751873 0 730.34517874751873 -163.83934202003002 0 0 0 0 -149.63715809825226 814.61820802929105 0 814.61820802929105 -365.59743409116072 0 0 0 0 -288.29390797227097 659.47376411521691 0 659.47376411521691 -342.71965021258438 0 0 0 0 -132.00834880703769 788.36591784974644 0 788.36591784974644 -279.32748696856697 0 0 0 0 -195.15260509672225 601.27611090086975 0 601.27611090086975 -370.25543697028661 0 0 0 0 -366.09134120887757 570.90958698850795 0 570.90958698850795 -355.12421910559169 0 0 0 0 644.01124300000083 1187.8222068421314 0 1187.8222068421314 -360.09273672414929 0 0 0 0 -1.1015781390015036 702.19041993645624 0 702.19041993645624 -196.64040699538691 0 0 0 0 398.27311004095827 748.36834708945571 0 748.36834708945571 -257.8530046636206 0 0 0 0 -560.72219674016378 545.12084110780233 0 545.12084110780233 -99.870034294289326 0 0 0 0 -546.05691374431626 718.11729312996749 0 718.11729312996749 -83.689932480915104 0 0 0 0 -1117.8877004117385 794.7517448812755 0 794.7517448812755 -211.54085259331077 0 0 0 0 -747.02318395320617 740.10202840978764 0 740.10202840978764 -645.89398458963296 0 0 0 0 -505.75636777009277 671.53899814315628 0 671.53899814315628 -626.4099511438435 0 0 0 0 -483.42851709363458 735.45176253505815 0 735.45176253505815 -585.71373055118056 0 0 0 0 -400.29129078151163 695.90588481891791 0 695.90588481891791 -976.19954119480644 0 0 0 0 -276.18827220033563 490.67592819591846 0 490.67592819591846 -639.47146494213303 0 0 0 0 -1004.9529695464007 1329.3879488422544 0 1329.3879488422544 -1285.8762497383254 0 0 0 0 -2518.44493952833 1167.849951320989 0 1167.849951320989 -751.71802309582245 0 0 0 0 -2205.5519782092451 765.87103477082201 0 765.87103477082201 -344.35420389856336 0 0 0 0 -1818.8204550838927 76.163610362092186 0 76.163610362092186 -180.68549213454116 0 0 0 0 -1832.3060633466084 -581.4666823100265 0 -581.4666823100265 -61.073424387999012 0 0 0 0 -4.5849345424655041 -3.778204908604522 0 -3.778204908604522 -3.7289729589714469 0 0 0 0 -3039.6147541686551 -256.80551181529631 0 -256.80551181529631 162.25194800550526 0 0 0 0 -1515.7349993914104 65.435078404926571 0 65.435078404926571 -394.51871041563481 0 0 0 0 -1651.3779481949969 275.13671220569654 0 275.13671220569654 401.51626207524896 0 0 0 0 -1587.9092513194719 617.64610806522637 0 617.64610806522637 97.80478921460508 0 0 0 0 -1099.7882517943799 678.50833731496596 0 678.50833731496596 -352.99640505965345 0 0 0 0 -993.13599766428524 415.20499899048878 0 415.20499899048878 166.18942943449838 0 0 0 0 -1265.6896649094851 460.44071975816246 0 460.44071975816246 505.43170444288626 0 0 0 0 -971.10410166137444 -95.152884997214869 0 -95.152884997214869 583.98846436064719 0 0 0 0 -688.13288580912194 22.149431321200268 0 22.149431321200268 586.79022122935248 0 0 0 0 -584.32938876851404 -192.24434755472726 0 -192.24434755472726 704.84526472581751 0 0 0 0 -821.40321852532725 216.20971803878592 0 216.20971803878592 571.38533301668258 0 0 0 0 -303.36714370796108 58.579146573116532 0 58.579146573116532 497.16641847636424 0 0 0 0 -525.45015809086908 66.09020109614039 0 66.09020109614039 612.19313997278527 0 0 0 0 -135.77995911793187 -166.29469610407631 0 -166.29469610407631 555.6399310925849 0 0 0 0 -943.56024142522801 361.61503407588964 0 361.61503407588964 526.10348653289691 0 0 0 0 -785.9966820901609 232.20144569084096 0 232.20144569084096 565.8046884465756 0 0 0 0 -782.9954858856363 281.92074020742393 0 281.92074020742393 546.8684634094119 0 0 0 0 -797.71507494494654 247.7813484415995 0 247.7813484415995 469.77296048218761 0 0 0 0 -832.8990559236081 455.46378124185742 0 455.46378124185742 354.47134422213185 0 0 0 0 -457.16995129980205 305.92935927133658 0 305.92935927133658 293.05431365687696 0 0 0 0 -243.03179384543182 143.60616713022398 0 143.60616713022398 71.699324698105556 0 0 0 0 -504.97859481209889 219.3264809675307 0 219.3264809675307 259.3083763926586 0 0 0 0 -483.33132975838816 592.21172232285289 0 592.21172232285289 156.97552834206908 0 0 0 0 779.55938619332301 254.78267923993872 0 254.78267923993872 -164.72361424471092 0 0 0 0 55.749042989125883 95.583746016110467 0 95.583746016110467 253.63411757345375 0 0 0 0 -39.245977394061811 444.39877934400499 0 444.39877934400499 34.560303268835014 0 0 0 0 -1002.4255710557629 648.67309945540057 0 648.67309945540057 224.75755745499646 0 0 0 0 -609.6250074965792 436.88040352439066 0 436.88040352439066 332.8671223150393 0 0 0 0 -1300.4605515346557 -151.62898370295187 0 -151.62898370295187 -119.16913405251469 0 0 0 0 -1197.2164785346467 302.19289975748416 0 302.19289975748416 93.971294606094943 0 0 0 0 -1634.846655653575 -93.427331921991026 0 -93.427331921991026 148.19234587898518 0 0 0 0 1000.8458518957777 670.17300186360671 0 670.17300186360671 -478.40670835217679 0 0 0 0 -3319.4847492147783 1114.777741281835 0 1114.777741281835 -206.21225938061707 0 0 0 0 0.61960563724134587 2.9933727102643246 0 2.9933727102643246 0.40120698769107932 0 0 0 0 -894.10396841888769 575.91197757181124 0 575.91197757181124 -296.10603307812221 0 0 0 0 -15.921682006584074 9.7915818059356354 0 9.7915818059356354 6.0749318229685239 0 0 0 0 -2341.8666502276101 428.90636705163593 0 428.90636705163593 157.06598914651454 0 0 0 0 -1.3013114057526209 4.2622019931189001 0 4.2622019931189001 9.5820287501925563 0 0 0 0 -1760.15558079324 240.5798012931985 0 240.5798012931985 182.24131477730964 0 0 0 0 -3423.9627602023575 -1223.0692915296881 0 -1223.0692915296881 -335.84030158875845 0 0 0 0 -2550.6089113595663 -1072.2047207260703 0 -1072.2047207260703 -568.30218035276812 0 0 0 0 -3637.0984347658086 -941.93790653871224 0 -941.93790653871224 -495.60665421572077 0 0 0 0 -3887.8704760492619 -1663.2808584109171 0 -1663.2808584109171 -307.21077969569092 0 0 0 0 -1420.0716305205206 -342.51704468532307 0 -342.51704468532307 -502.64566387589025 0 0 0 0 -2873.4562928265041 -738.87259681013006 0 -738.87259681013006 22.547182242823737 0 0 0 0 -1348.1052957800202 116.30806628229175 0 116.30806628229175 -128.75704025696677 0 0 0 0 -2014.9604292292788 -920.35701641927199 0 -920.35701641927199 -967.62747198673014 0 0 0 0 -1508.2029583436706 104.59785843811301 0 104.59785843811301 360.42851444551798 0 0 0 0 -1744.4976881287985 -1276.5214021122868 0 -1276.5214021122868 -611.06953667701487 0 0 0 0 -817.77466728135914 -2979.0253239073036 0 -2979.0253239073036 -667.53683483282384 0 0 0 0 1648.785622819014 411.59206222466628 0 411.59206222466628 -666.13793275506964 0 0 0 0 -4725.9190241373144 2592.3438445887482 0 2592.3438445887482 -1806.4209671727931 0 0 0 0 -46.970139373786111 -10.320294578004926 0 -10.320294578004926 -2.7320068245585549 0 0 0 0 -3029.3866870346938 -170.82858383745315 0 -170.82858383745315 527.56336631830982 0 0 0 0 -1615.1342904795274 2290.4547471277465 0 2290.4547471277465 2013.0330069775055 0 0 0 0 -1768.5192799859942 -744.47735715807539 0 -744.47735715807539 99.974643734310575 0 0 0 0 -28.581653082298061 -1.9265053701562533 0 -1.9265053701562533 -0.87694600785657517 0 0 0 0 -721.65080998971825 -645.41107736971389 0 -645.41107736971389 -79.171942450409006 0 0 0 0 273.6538684656698 -70.830048813579197 0 -70.830048813579197 -185.75489789238338 0 0 0 0 -413.43568836298073 -303.70001880024392 0 -303.70001880024392 -158.27389530157961 0 0 0 0 -529.11414252966642 -275.98392581013741 0 -275.98392581013741 -26.341658517059841 0 0 0 0 -1583.098648509942 -3.3336700467707487 0 -3.3336700467707487 419.85678973656331 0 0 0 0 -542.81521886635164 -81.99754649108354 0 -81.99754649108354 11.949046940467724 0 0 0 0 -1402.5362116408796 -400.44933465107488 0 -400.44933465107488 40.434152974655717 0 0 0 0 -1117.4806907166658 -53.549701097628031 0 -53.549701097628031 24.489004952187315 0 0 0 0 -1220.1792144445863 138.32893854908139 0 138.32893854908139 59.063479023414857 0 0 0 0 -232.41466899065472 -85.904625978957824 0 -85.904625978957824 -151.5268396835454 0 0 0 0 -2924.7513910879352 1393.1166951686009 0 1393.1166951686009 -496.33448060083174 0 0 0 0 7.7825618042538167 17.640672835909292 0 17.640672835909292 27.394389000270401 0 0 0 0 -278.53857750853786 175.7348830030171 0 175.7348830030171 -144.97426977209989 0 0 0 0 -492.57474034473125 -156.17478341697688 0 -156.17478341697688 -11.670780855218254 0 0 0 0 -365.22229651003363 21.754497948870039 0 21.754497948870039 46.284773839593981 0 0 0 0 -138.55401843439904 167.49701998012279 0 167.49701998012279 29.871339640876386 0 0 0 0 -1900.2493524550227 439.28582540743264 0 439.28582540743264 -132.94812154396277 0 0 0 0 -87.934771888045361 225.65340280651662 0 225.65340280651662 379.63583046117401 0 0 0 0 3.1929992348959786 167.92947443529647 0 167.92947443529647 -55.080423095916558 0 0 0 0 0.64861489125178196 143.58261097039349 0 143.58261097039349 161.763797500902 0 0 0 0 -252.27071103265916 -77.217258596509055 0 -77.217258596509055 -152.32154415032164 0 0 0 0 -114.98773308408272 63.586613227967064 0 63.586613227967064 14.712891869578016 0 0 0 0 -74.539151868244517 78.417394322036671 0 78.417394322036671 -94.872288256492993 0 0 0 0 81.995374505306245 328.39424522357513 0 328.39424522357513 109.80955802294102 0 0 0 0 -79.420378775202636 -7.8545302305029452 0 -7.8545302305029452 7.7485795713813657 0 0 0 0 -789.74203045296599 -617.63863504449989 0 -617.63863504449989 2019.8777748812088 0 0 0 0 -1539.5441892228337 162.84075238705009 0 162.84075238705009 840.09397438306814 0 0 0 0 -1664.7536221141781 139.01940576750894 0 139.01940576750894 936.28465115605968 0 0 0 0 -90.435583766106959 -3.8882216548683441 0 -3.8882216548683441 12.826515796975558 0 0 0 0 4181.1333926073712 707.80873779865715 0 707.80873779865715 -1057.3049236167753 0 0 0 0 -161.59245358659246 -672.0175051791723 0 -672.0175051791723 252.44730898114994 0 0 0 0 -567.12226058732631 831.23860899522867 0 831.23860899522867 -606.14205992306643 0 0 0 0 254.05954293280956 370.69116134527599 0 370.69116134527599 932.96803029638772 0 0 0 0 759.15056316195114 -738.55066083549559 0 -738.55066083549559 669.06835216025638 0 0 0 0 -341.12641636519402 -234.12263752232064 0 -234.12263752232064 366.25460292579237 0 0 0 0 -62.016204419633141 -124.76220292156313 0 -124.76220292156313 -47.550094015135983 0 0 0 0 -743.61026649670384 228.49720772640578 0 228.49720772640578 -186.27038441588559 0 0 0 0 -527.95641003297351 643.19073087701236 0 643.19073087701236 -50.990689149331615 0 0 0 0 -1245.010673330893 171.8557121148088 0 171.8557121148088 -82.969297757699906 0 0 0 0 -2171.2187225242706 1290.8225557459582 0 1290.8225557459582 -5.2308715658987239 0 0 0 0 -1658.4551072149297 -71.960341579712946 0 -71.960341579712946 175.08405942136653 0 0 0 0 -677.95531527489948 298.7633919108689 0 298.7633919108689 -309.60551175059737 0 0 0 0 -1295.6202729595097 249.52158027277329 0 249.52158027277329 -260.37969193120568 0 0 0 0 -550.82742233251338 1086.3763529838459 0 1086.3763529838459 1213.9527695825307 0 0 0 0 -33.412113997815027 24.553323007239598 0 24.553323007239598 -5.6577068205619234 0 0 0 0 -1498.5037920630566 -240.96140380048757 0 -240.96140380048757 120.00437370022087 0 0 0 0 -14.052966099773613 10.928005746322086 0 10.928005746322086 -4.3423354838015138 0 0 0 0 -3667.9848524734116 -742.31418244620784 0 -742.31418244620784 63.378621774364007 0 0 0 0 -1826.3462088041015 -460.53421967161216 0 -460.53421967161216 1042.3550350714886 0 0 0 0 782.70177782492101 2376.2351771398407 0 2376.2351771398407 301.24468180295821 0 0 0 0 -974.59013792964106 1177.0849246715957 0 1177.0849246715957 17.423706733226439 0 0 0 0 -5798.1237921353313 -2001.8887376155449 0 -2001.8887376155449 1915.6942290744546 0 0 0 0 -100.57786598527899 -18.215865314340093 0 -18.215865314340093 2.7602917393217208 0 0 0 0 -1104.2260117155383 200.64387873709688 0 200.64387873709688 957.11817330026633 0 0 0 0 -1411.719362350781 999.40992153702268 0 999.40992153702268 463.32343672092247 0 0 0 0 -142.64102090256347 759.81628163162384 0 759.81628163162384 -1104.9366373839453 0 0 0 0 -2182.8120825266669 1838.1828862593497 0 1838.1828862593497 -338.30932167966046 0 0 0 0 -3634.2716724895799 -423.51681501379159 0 -423.51681501379159 103.24632886470033 0 0 0 0 -7496.8493197888674 -117.80595580560339 0 -117.80595580560339 251.6920378260229 0 0 0 0 -4270.0567266240832 -952.48174017502106 0 -952.48174017502106 -452.07634452666514 0 0 0 0 -4912.3903659855932 -295.12694370764552 0 -295.12694370764552 711.36127738630717 0 0 0 0 -1993.0303214195883 -143.6571734929862 0 -143.6571734929862 444.71822902700455 0 0 0 0 -3850.4686018466673 -626.8161649437593 0 -626.8161649437593 1258.1389925368853 0 0 0 0 -1442.7974811407839 -703.47590802090326 0 -703.47590802090326 103.0317235587811 0 0 0 0 -5502.9235470485364 -1906.8758905009367 0 -1906.8758905009367 1047.7169292913186 0 0 0 0 -4022.9803145589758 -1288.5167303857252 0 -1288.5167303857252 949.9575063214445 0 0 0 0 -3744.070845625592 -1590.3888686014391 0 -1590.3888686014391 509.76231872463302 0 0 0 0 -4718.176288172639 -1220.0276305777074 0 -1220.0276305777074 680.98943458625786 0 0 0 0 -4776.9200750787131 -1917.2998453881507 0 -1917.2998453881507 907.4270711335588 0 0 0 0 -5499.2001894506539 -1463.8235011214726 0 -1463.8235011214726 643.15671939306355 0 0 0 0 -4969.4296171655951 -1701.6168020337377 0 -1701.6168020337377 572.21426040896199 0 0 0 0 -4840.5687619974997 -1730.8840240244861 0 -1730.8840240244861 -89.301319895246692 0 0 0 0 -5499.3053558859101 -1064.4902119623032 0 -1064.4902119623032 -583.86035768445458 0 0 0 0 -5499.3510838380389 -768.70028633875677 0 -768.70028633875677 -739.19470706653499 0 0 0 0 -4911.39869950295 -853.74976220367898 0 -853.74976220367898 -1297.7695835319103 0 0 0 0 -5001.1013565614012 -1015.2228373465092 0 -1015.2228373465092 -643.69599696730029 0 0 0 0 -4986.0119172738123 -368.00345500510286 0 -368.00345500510286 -2799.9041203036422 0 0 0 0 -5731.3023878070235 -2011.0774986648712 0 -2011.0774986648712 -1142.2866400351495 0 0 0 0 -6834.8510884958432 60.926923564031881 0 60.926923564031881 -632.4103268908957 0 0 0 0 -5534.5991834268352 -2624.956126294589 0 -2624.956126294589 87.770253480275642 0 0 0 0 -5381.0665558558685 -1132.0287344231592 0 -1132.0287344231592 132.5616348718705 0 0 0 0 -5447.475859086524 -127.97781551037906 0 -127.97781551037906 -865.12154282283143 0 0 0 0 -4356.7254281102687 -955.0220971683367 0 -955.0220971683367 -269.6181636875109 0 0 0 0 -4389.2394320788771 -1189.7224320795222 0 -1189.7224320795222 -159.91144785894471 0 0 0 0 -4992.8116993000513 -615.74686865266744 0 -615.74686865266744 -96.08994743018701 0 0 0 0 -5085.3116607078409 -734.81102430333362 0 -734.81102430333362 -241.47967244850832 0 0 0 0 -5501.3411436508468 -653.57663295427164 0 -653.57663295427164 -226.30331780045881 0 0 0 0 -5265.1422037450247 -473.51530631213751 0 -473.51530631213751 -90.21116079273331 0 0 0 0 -5268.6076934753455 -455.88970923290668 0 -455.88970923290668 -496.71419163642474 0 0 0 0 -5305.3454276217308 -578.94232828069596 0 -578.94232828069596 -188.24025246948034 0 0 0 0 -2721.4425779463854 -1116.3990833118037 0 -1116.3990833118037 -1366.5273559378049 0 0 0 0 -3149.7611993267637 -640.89296978400478 0 -640.89296978400478 65.098150362347681 0 0 0 0 -4080.7745331845363 -96.34794161844934 0 -96.34794161844934 -239.21093504944028 0 0 0 0 -5500.2349595749547 -1358.1778268571713 0 -1358.1778268571713 48.087126824094675 0 0 0 0 -2602.3434146154614 -1701.0140674194156 0 -1701.0140674194156 -879.93436947465386 0 0 0 0 -2841.7411262278765 -932.01899804434277 0 -932.01899804434277 -339.03112280974722 0 0 0 0 -4144.2528032503178 -1948.7383460667952 0 -1948.7383460667952 -1101.1751314882104 0 0 0 0 -2088.8568799358909 -625.75974016086809 0 -625.75974016086809 -1076.6173648340218 0 0 0 0 -1931.413472224609 -1267.3342723665696 0 -1267.3342723665696 -3072.2316013861978 0 0 0 0 -1005.9467958463647 -345.43639147099771 0 -345.43639147099771 -1347.8319010124196 0 0 0 0 -985.91138334127027 -1354.9040253934991 0 -1354.9040253934991 -484.7241546702719 0 0 0 0 -1441.7884339497759 -139.60623942839075 0 -139.60623942839075 -85.688630515115165 0 0 0 0 -4669.387645834373 -1245.0739138317535 0 -1245.0739138317535 732.25336171328809 0 0 0 0 -4119.0106831794146 -2949.3079662387531 0 -2949.3079662387531 849.70679074579493 0 0 0 0 -3274.5542686042027 -106.52920404763933 0 -106.52920404763933 -1153.7608527157404 0 0 0 0 -3351.669713120602 -2252.3077061158397 0 -2252.3077061158397 1475.7984926843176 0 0 0 0 -3916.844758430263 -3033.4623539867353 0 -3033.4623539867353 668.00851159715603 0 0 0 0 -4284.0793689887214 1672.8011916395351 0 1672.8011916395351 -920.80733701887823 0 0 0 0 -28.477829658781019 -14.760365572241781 0 -14.760365572241781 -6.952779699465335 0 0 0 0 -2.7414494202056972 -2.6548347087007755 0 -2.6548347087007755 0.16792936426336214 0 0 0 0 -1569.5372090675955 1501.7719828718357 0 1501.7719828718357 -1296.0721417264986 0 0 0 0 -102.11036410470842 1039.4133800786663 0 1039.4133800786663 -1155.6690339437323 0 0 0 0 -3589.9977481496353 -617.93980755227653 0 -617.93980755227653 301.93265276010743 0 0 0 0 -3021.8679106787895 1188.3458005013326 0 1188.3458005013326 -237.20992814487136 0 0 0 0 4675.0331830612267 196.75820704677244 0 196.75820704677244 -1671.1856208917807 0 0 0 0 -848.69283818674739 -2784.1329862158154 0 -2784.1329862158154 1454.5588220852901 0 0 0 0 1631.1799242105917 -576.28167635158843 0 -576.28167635158843 -28.102378227952272 0 0 0 0 -638.29882187848852 1249.1463729779548 0 1249.1463729779548 1478.5274956580756 0 0 0 0 -2260.8807450881286 12.87747353916032 0 12.87747353916032 1604.7712440699804 0 0 0 0 -20.121286485841779 1.7006106382224999 0 1.7006106382224999 7.5412125279298339 0 0 0 0 -1964.9833841556538 368.08020995452222 0 368.08020995452222 2010.3464822505339 0 0 0 0 -2026.5563153257899 404.53161119416211 0 404.53161119416211 236.53469757841663 0 0 0 0 -1250.1232330148923 364.24897315887955 0 364.24897315887955 214.27159806402915 0 0 0 0 -1980.8749356740373 379.55284440360401 0 379.55284440360401 -228.79570834548849 0 0 0 0 -5499.9253593894964 663.7255449977398 0 663.7255449977398 817.17172570265302 0 0 0 0 -4032.114508997096 1252.7323263355929 0 1252.7323263355929 745.26113888250723 0 0 0 0 -5490.8111159509781 2911.3589195457048 0 2911.3589195457048 -151.71877966045778 0 0 0 0 -2197.7051277108549 837.52618240097888 0 837.52618240097888 742.31481028781172 0 0 0 0 -145.16365737105662 -897.08196959056954 0 -897.08196959056954 685.61955598403608 0 0 0 0 -15.624128455046957 3.2068115293799906 0 3.2068115293799906 4.6443252095341094 0 0 0 0 -3000.7935158685141 -5.9041695945511492 0 -5.9041695945511492 1725.5972555427297 0 0 0 0 -782.25561147140979 509.19348868404182 0 509.19348868404182 635.7800952268725 0 0 0 0 -319.63681222416926 2495.9457860792077 0 2495.9457860792077 690.50595074863463 0 0 0 0 -25.793238200480289 -13.982169168522475 0 -13.982169168522475 -8.5832621783618883 0 0 0 0 80.96396375112181 -2189.2485362238576 0 -2189.2485362238576 -1532.977884494084 0 0 0 0 -5469.4463790407754 1391.163914649039 0 1391.163914649039 51.245078512361118 0 0 0 0 -2646.4051809417142 -2967.1954653841753 0 -2967.1954653841753 -1666.4518402964752 0 0 0 0 -2261.8938979926925 -1212.085366683456 0 -1212.085366683456 -273.7992310449813 0 0 0 0 -4190.9518661328539 -2293.1777580819739 0 -2293.1777580819739 471.2772281394229 0 0 0 0 -5485.6405254304409 -2837.8036534004127 0 -2837.8036534004127 242.20682692953673 0 0 0 0 48.614569996876526 589.59004148618169 0 589.59004148618169 547.89813487180277 0 0 0 0 -1827.5403558935723 -335.90564009788159 0 -335.90564009788159 430.76584425819203 0 0 0 0 -33.349686554386835 23.411671879666301 0 23.411671879666301 -4.4139415934079089 0 0 0 0 -2365.4456890460206 -1420.6736590720409 0 -1420.6736590720409 -477.10500836281113 0 0 0 0 -2058.3536013349367 -174.24934255403628 0 -174.24934255403628 850.48438667563823 0 0 0 0 -83.588997671784455 -13.106583397390807 0 -13.106583397390807 456.6605178662835 0 0 0 0 -14.635362543300516 10.339884460289923 0 10.339884460289923 -1.8998264027186398 0 0 0 0 -2956.7137877950408 -846.01690739697653 0 -846.01690739697653 -421.62821490446663 0 0 0 0 914.12270509989321 1921.6238278915712 0 1921.6238278915712 1095.7093435810807 0 0 0 0 -2300.9748633719137 -206.70561383738234 0 -206.70561383738234 1652.9013024088108 0 0 0 0 -57.023753586415921 -29.960810727746718 0 -29.960810727746718 -8.7743524051379325 0 0 0 0 -337.13981034755125 -388.42301029400414 0 -388.42301029400414 1192.8825643569944 0 0 0 0 -312.01810905968887 549.05692294349046 0 549.05692294349046 1141.8192924567838 0 0 0 0 -672.41417261297465 919.93121347225792 0 919.93121347225792 833.12108427709018 0 0 0 0 433.48587841731205 254.47095346978244 0 254.47095346978244 -226.13591805260603 0 0 0 0 -1880.2268468256807 -424.98722312136465 0 -424.98722312136465 669.87110580092303 0 0 0 0 -542.45388569780334 708.00937304048125 0 708.00937304048125 125.54747949005377 0 0 0 0 -1867.1878353256907 390.23008097754791 0 390.23008097754791 136.79352086153449 0 0 0 0 -1995.9587196853099 -1113.6542387050069 0 -1113.6542387050069 -513.8918862307255 0 0 0 0 -1862.0811780148651 -292.52620128207343 0 -292.52620128207343 228.53008903256205 0 0 0 0 -1997.9820335402183 -118.82707421662963 0 -118.82707421662963 598.52626184500105 0 0 0 0 -2713.4250545430841 -1383.4634322203549 0 -1383.4634322203549 6.3324566664521171 0 0 0 0 -2564.0951229416387 -1547.8527583771784 0 -1547.8527583771784 -15.242136690234588 0 0 0 0 -2376.8265947086038 -221.03447108063915 0 -221.03447108063915 288.83956719125399 0 0 0 0 -1595.4607442059278 92.95942559473815 0 92.95942559473815 950.82603960000347 0 0 0 0 -1318.6727701052951 -52.152554385099165 0 -52.152554385099165 383.07455564776046 0 0 0 0 -1317.8961082837488 -121.11510112488723 0 -121.11510112488723 127.6186615674801 0 0 0 0 -1264.7701605007151 -466.09766364700783 0 -466.09766364700783 248.26893582538378 0 0 0 0 -1594.6165870281184 -248.4614842588087 0 -248.4614842588087 513.00594412458736 0 0 0 0 -779.98301555628859 -60.138316217121314 0 -60.138316217121314 -360.52351391214586 0 0 0 0 -782.12843545321084 -199.83907052047834 0 -199.83907052047834 -363.74433205048638 0 0 0 0 -1609.5833631292189 -327.46227484837243 0 -327.46227484837243 101.0363765430717 0 0 0 0 -1155.2257655649519 -537.74764961048311 0 -537.74764961048311 -188.68073797277179 0 0 0 0 -603.1006750828783 -578.07953602362443 0 -578.07953602362443 -588.85247802667027 0 0 0 0 -517.75711351771315 -767.11680123965789 0 -767.11680123965789 -186.55239376806344 0 0 0 0 -1855.1885368095718 -1593.9470447341007 0 -1593.9470447341007 -420.65864037994152 0 0 0 0 -13.201394426711886 -7.9414135198316202 0 -7.9414135198316202 -3.72855509200103 0 0 0 0 -1970.3755880251992 -239.87510128641043 0 -239.87510128641043 623.70736472294323 0 0 0 0 95.135128677706234 -1354.0181143161449 0 -1354.0181143161449 -802.10633870626907 0 0 0 0 486.28503492562959 -83.841768561350193 0 -83.841768561350193 -424.72986228176433 0 0 0 0 -28.983086744053423 -15.723310398096416 0 -15.723310398096416 -5.8867334274003671 0 0 0 0 297.25048035559666 -386.53697580703903 0 -386.53697580703903 463.84503840137768 0 0 0 0 -79.489214679939323 129.26036081312381 0 129.26036081312381 195.73975715696571 0 0 0 0 -105.99738850571157 128.45555393376469 0 128.45555393376469 221.50099202448621 0 0 0 0 -100.82623442218755 279.5201210126321 0 279.5201210126321 -105.7003426205639 0 0 0 0 68.6290976175369 309.57758472631946 0 309.57758472631946 -53.888497358952918 0 0 0 0 -1135.6560763554153 -445.77766902330325 0 -445.77766902330325 -248.90151206049654 0 0 0 0 -2072.7243298191606 -1702.869752451749 0 -1702.869752451749 -898.12228498588343 0 0 0 0 -1267.6964778566471 -508.12516819891107 0 -508.12516819891107 191.0536011703561 0 0 0 0 -7076.3581936505216 -901.98962143722622 0 -901.98962143722622 50.301555859393034 0 0 0 0 -3302.6518190268689 -1649.8842575702147 0 -1649.8842575702147 28.107698350463302 0 0 0 0 -2953.8664937403082 -874.73852368054327 0 -874.73852368054327 9.7196834642320908 0 0 0 0 -3035.5305850435252 -3015.0292058039145 0 -3015.0292058039145 -2149.7452559557159 0 0 0 0 293.52641686639981 -729.01932093749974 0 -729.01932093749974 -1967.5099839891845 0 0 0 0 -1059.2800606452074 -760.46488173207956 0 -760.46488173207956 -621.93291499108807 0 0 0 0 -1001.2661175808244 -756.07012252626885 0 -756.07012252626885 -707.07228914406846 0 0 0 0 -86.52149821867971 -7.9664017680315204 0 -7.9664017680315204 1.1426420409475639 0 0 0 0 -209.81676081640762 975.91083877332585 0 975.91083877332585 160.42000973910888 0 0 0 0 -38.136277092449461 -6.6565153084561182 0 -6.6565153084561182 -0.99282912075259722 0 0 0 0 -3719.1358838762389 -2846.2907206539821 0 -2846.2907206539821 61.545274011110905 0 0 0 0 -364.84578964776301 197.86464133765514 0 197.86464133765514 -573.88786449018153 0 0 0 0 -2956.8492763551421 1286.5651446470558 0 1286.5651446470558 -487.56425235095503 0 0 0 0 -477.44647207255184 91.904976336430082 0 91.904976336430082 41.627811499410029 0 0 0 0 -34.641041073842644 86.623256968167624 0 86.623256968167624 -259.36695762471277 0 0 0 0 -332.69024794916913 -277.04957290304446 0 -277.04957290304446 -113.1088685434587 0 0 0 0 -96.7851561598996 -6.6890541041597977 0 -6.6890541041597977 1.6686892927061607 0 0 0 0 -624.62299063497449 -196.51486499727673 0 -196.51486499727673 -95.702092437208421 0 0 0 0 -358.0489613357131 349.22775985027579 0 349.22775985027579 545.12726272602822 0 0 0 0 -42.753205191009329 381.63921982500528 0 381.63921982500528 236.68818725035413 0 0 0 0 -508.87859052262502 -35.33976612538936 0 -35.33976612538936 1731.795271557965 0 0 0 0 169.04020172267337 -402.17483770645708 0 -402.17483770645708 183.78636104908082 0 0 0 0 234.56363821498235 -427.38742974235106 0 -427.38742974235106 180.22361529007003 0 0 0 0 -622.16630675249326 -135.3424158204632 0 -135.3424158204632 364.28055100161123 0 0 0 0 -100.38788888414109 -8.2219039415658699 0 -8.2219039415658699 8.8363727534963381 0 0 0 0 -607.92617191023601 -117.02186738690625 0 -117.02186738690625 -393.52483128239572 0 0 0 0 -497.69844182272209 38.806380397685871 0 38.806380397685871 -76.104266917208861 0 0 0 0 -767.85395256493575 -124.50611326738508 0 -124.50611326738508 -77.209619578893125 0 0 0 0 -76.313885459065716 3.0447445571671565 0 3.0447445571671565 9.9205556915410327 0 0 0 0 -204.42246393152891 -732.96733849726616 0 -732.96733849726616 117.785635513138 0 0 0 0 -720.78286891803145 54.039586889832208 0 54.039586889832208 -104.51708007185971 0 0 0 0 -447.82579708099365 194.45821216325635 0 194.45821216325635 -233.01474340064829 0 0 0 0 -74.160309726139531 -67.402483414196467 0 -67.402483414196467 206.73317718621138 0 0 0 0 -31.444310973100642 -29.798512597044272 0 -29.798512597044272 -3.0173067368107747 0 0 0 0 65.186170473316452 -44.052098881084021 0 -44.052098881084021 178.49796790733217 0 0 0 0 -444.2251263091166 -663.14265735751405 0 -663.14265735751405 1117.8731653741302 0 0 0 0 -36.700158489187288 -14.644214029803369 0 -14.644214029803369 -2.3068517438589575 0 0 0 0 76.826541972826817 -328.62255063707994 0 -328.62255063707994 597.85783732790617 0 0 0 0 388.11719734239887 -422.17379342041403 0 -422.17379342041403 306.351923609967 0 0 0 0 -1124.0923972034434 218.8963265757385 0 218.8963265757385 211.37662514134342 0 0 0 0 -320.06691566292284 -707.95612425959757 0 -707.95612425959757 240.15812566512068 0 0 0 0 -11.396438346769429 -4.4023811982697936 0 -4.4023811982697936 -1.1236549363340926 0 0 0 0 -964.78201618049934 614.07053817050701 0 614.07053817050701 211.7938384929007 0 0 0 0 170.12494021079328 -567.57122325253147 0 -567.57122325253147 56.507819203318334 0 0 0 0 -1157.0459890360253 -92.326054904475313 0 -92.326054904475313 272.72084132616851 0 0 0 0 -159.64716182237316 108.08497908414336 0 108.08497908414336 236.30245422769065 0 0 0 0 -421.75477363597747 452.7601551224941 0 452.7601551224941 230.49590347529238 0 0 0 0 -672.74568523815833 -444.67802212649303 0 -444.67802212649303 1064.1881190390222 0 0 0 0 -26.771112116654365 -12.521880124993871 0 -12.521880124993871 -3.4207333801742958 0 0 0 0 28.257917173643364 -425.12255044318397 0 -425.12255044318397 707.28352797934281 0 0 0 0 -220.82789301872253 -262.89573111865576 0 -262.89573111865576 650.73438046967544 0 0 0 0 1.57052762627427 -32.88507652367673 0 -32.88507652367673 353.58048160766992 0 0 0 0 188.74614675696648 -184.45944324171927 0 -184.45944324171927 439.19777042833317 0 0 0 0 -239.95579756960069 -831.26873680364656 0 -831.26873680364656 1037.5714806943113 0 0 0 0 31.030388103485166 192.81206772957148 0 192.81206772957148 136.51616772223156 0 0 0 0 -1394.1612102507388 -490.18344561637747 0 -490.18344561637747 -137.79894820029722 0 0 0 0 -610.34099323584087 325.17642707683126 0 325.17642707683126 -697.71853294787024 0 0 0 0 -263.89510443748441 -280.6322843541659 0 -280.6322843541659 -541.89001075249871 0 0 0 0 -783.74137803084159 -148.40684776569583 0 -148.40684776569583 -562.31959062090039 0 0 0 0 -930.08890809572767 -98.371845228604002 0 -98.371845228604002 -268.19943982276158 0 0 0 0 -1306.2104271499993 26.443010861746188 0 26.443010861746188 -309.55094297289861 0 0 0 0 -1101.9556196439371 -136.31873352392961 0 -136.31873352392961 -389.70571994042712 0 0 0 0 -1059.4642513962608 -232.07872177521665 0 -232.07872177521665 -371.09891035131454 0 0 0 0 -704.55189225170398 -150.21648698699622 0 -150.21648698699622 -445.59553751611406 0 0 0 0 -846.80496426072932 -174.18028778808281 0 -174.18028778808281 -436.602297657691 0 0 0 0 -1150.75859609076 634.16290369763283 0 634.16290369763283 -422.85235843137207 0 0 0 0 -1543.0292102999374 438.22274765416034 0 438.22274765416034 -308.5452025585605 0 0 0 0 -1213.2822091862763 -1.6752214043740423 0 -1.6752214043740423 -319.59712140536635 0 0 0 0 -1231.8825946293946 -30.713578705657028 0 -30.713578705657028 -364.63805571470311 0 0 0 0 -1199.5627243060735 -284.40772715971656 0 -284.40772715971656 -86.385742569610557 0 0 0 0 -695.40549698269751 -131.75885653235127 0 -131.75885653235127 -346.2538706712694 0 0 0 0 -925.69221364380064 324.90223969766657 0 324.90223969766657 -445.27584089727497 0 0 0 0 -979.96947653733514 354.81689674679433 0 354.81689674679433 -320.47233355098933 0 0 0 0 128.80907124617806 159.36445845782464 0 159.36445845782464 -431.09804902989924 0 0 0 0 -501.22550195699296 593.23249815782901 0 593.23249815782901 -123.88337771346596 0 0 0 0 -358.4542648935676 -719.01551411032597 0 -719.01551411032597 129.25111378691008 0 0 0 0 -10.992241713354161 -2.7292990960433059 0 -2.7292990960433059 -0.5190075929245257 0 0 0 0 -602.05385435526841 331.11953445744484 0 331.11953445744484 150.53679645993043 0 0 0 0 -1009.4400793594614 1165.0986917076198 0 1165.0986917076198 -607.63954108046983 0 0 0 0 -640.15709829805382 213.25889674590513 0 213.25889674590513 290.74041268693099 0 0 0 0 -27.23599102060399 -6.7778934889532394 0 -6.7778934889532394 1.1477100258424162 0 0 0 0 -109.06148986628978 -698.42745294789802 0 -698.42745294789802 387.68288716843972 0 0 0 0 -166.37867378778969 822.36873068918408 0 822.36873068918408 -262.29309889813157 0 0 0 0 -1768.0033976123232 -277.17039883621692 0 -277.17039883621692 -1013.2499081893475 0 0 0 0 -807.61228848791507 1018.3960643231585 0 1018.3960643231585 -258.42162734728754 0 0 0 0 -2151.8833300984406 1971.3365592794144 0 1971.3365592794144 -920.51822835629173 0 0 0 0 147.25890802434333 161.29612192570258 0 161.29612192570258 -446.45180424786849 0 0 0 0 -210.15818997353199 -339.41053824425035 0 -339.41053824425035 -626.60431699899709 0 0 0 0 80.668901447209464 1100.9612452618621 0 1100.9612452618621 -2410.3261433664939 0 0 0 0 -3.5004819005282286 2.3493485243889864 0 2.3493485243889864 0.4262586876400043 0 0 0 0 -1.71714318466789 4.2671385381360807 0 4.2671385381360807 -11.474012311591483 0 0 0 0 -2995.640604326305 640.01642723486998 0 640.01642723486998 -88.150438297432629 0 0 0 0 203.64549528739008 -24.345632725991891 0 -24.345632725991891 -36.013399677936832 0 0 0 0 -415.51033952359285 575.20802268265106 0 575.20802268265106 -581.00483046098634 0 0 0 0 -1353.0794087768154 1553.1947583416036 0 1553.1947583416036 -1233.4814075844045 0 0 0 0 -1342.5219322375924 824.23076550827955 0 824.23076550827955 -342.45421097989106 0 0 0 0 -1002.1869968274095 680.17631685258209 0 680.17631685258209 -356.2956917628303 0 0 0 0 -16.32367791307297 13.124633214825593 0 13.124633214825593 -20.123007019417855 0 0 0 0 -2.0796613810334321 3.1138909434295243 0 3.1138909434295243 -10.356267824649963 0 0 0 0 -16.56930106305299 16.500411721556759 0 16.500411721556759 -21.724099132778065 0 0 0 0 -1283.864378549908 566.13568986198175 0 566.13568986198175 -135.83333540430795 0 0 0 0 -17.744915935502235 9.9309499204657854 0 9.9309499204657854 -1.8054712100470391 0 0 0 0 -22.712405520331231 15.333129854452409 0 15.333129854452409 -19.716696822772064 0 0 0 0 -20.300391232813126 18.996279347966265 0 18.996279347966265 -22.80439930497505 0 0 0 0 -1127.4768049252743 595.86044894593044 0 595.86044894593044 -388.47744819525315 0 0 0 0 0.89982483116818912 3.1787033755083627 0 3.1787033755083627 -13.533523142092289 0 0 0 0 -29.980847517392249 23.324589592818029 0 23.324589592818029 -25.763086155168821 0 0 0 0 -49.901260815007845 53.102048623719156 0 53.102048623719156 -37.583475361959245 0 0 0 0 -21.78925325376639 29.708548266811817 0 29.708548266811817 11.046346033415649 0 0 0 0 -54.446356110056513 51.695053812409469 0 51.695053812409469 -24.006936447866792 0 0 0 0 -46.921867079159711 52.948929141402914 0 52.948929141402914 -29.615469418595239 0 0 0 0 -39.54425389682001 34.25288509978418 0 34.25288509978418 -1.2448555654691518 0 0 0 0 -30.516415851432726 23.158606027655523 0 23.158606027655523 -1.148994444455945 0 0 0 0 -42.767387383075402 -0.43501856092484559 0 -0.43501856092484559 34.652518263217644 0 0 0 0 -9.520760305113015 10.639479426119898 0 10.639479426119898 -7.5235101627802798 0 0 0 0 -46.547887876566648 40.998284869503877 0 40.998284869503877 1.2916314407574383 0 0 0 0 -103.69180127378786 114.59885486782878 0 114.59885486782878 -96.93315923344926 0 0 0 0 -26.684223321489839 25.533509146072966 0 25.533509146072966 -5.7645298085680263 0 0 0 0 -33.733259511609361 22.133242304188244 0 22.133242304188244 -7.1787739446583601 0 0 0 0 -42.941536368947709 32.321606122979119 0 32.321606122979119 -26.243324709834205 0 0 0 0 -35.044441917998483 16.732524317211755 0 16.732524317211755 8.7431720893655438 0 0 0 0 29.100688951381017 -34.935812921199613 0 -34.935812921199613 47.555606970243389 0 0 0 0 -2.1782624063478693 -3.0246834652690779 0 -3.0246834652690779 6.4682183257453776 0 0 0 0 -39.846963314831015 33.412773454212221 0 33.412773454212221 -9.1851879122812932 0 0 0 0 -34.557833432758343 21.53255522629297 0 21.53255522629297 -65.706268758058286 0 0 0 0 -35.698685542272869 53.477606773843945 0 53.477606773843945 -8.3554067855038738 0 0 0 0 -11.826198379392736 47.112679135083454 0 47.112679135083454 -48.404249624698423 0 0 0 0 -11.644900156157632 16.22883254121281 0 16.22883254121281 -23.594791172438697 0 0 0 0 -22.076162895216839 13.094887803297752 0 13.094887803297752 -91.189535954112216 0 0 0 0 -49.371344711864367 -18.333704198321357 0 -18.333704198321357 8.9763906671432778 0 0 0 0 -30.927615931548644 0.71196769119160308 0 0.71196769119160308 -10.191650313514401 0 0 0 0 -5.2566745882671739 8.7067123324095519 0 8.7067123324095519 -0.40495568904077217 0 0 0 0 -54.945135141024366 55.993650622094719 0 55.993650622094719 -28.665280261415319 0 0 0 0 -48.316249512397917 -25.069993769457142 0 -25.069993769457142 38.598844447213196 0 0 0 0 75.6622850636777 -47.415049620232821 0 -47.415049620232821 -99.468781597455745 0 0 0 0 -21.486195452542916 62.345136673686412 0 62.345136673686412 -123.08776099959505 0 0 0 0 8.0758924757465138 41.415402826385161 0 41.415402826385161 -130.82191372953821 0 0 0 0 -60.481062666491198 28.90190151240472 0 28.90190151240472 -84.291644659962913 0 0 0 0 -67.031579902322846 53.247830529214298 0 53.247830529214298 38.396940672646451 0 0 0 0 -96.590274433197919 -58.949962112389585 0 -58.949962112389585 257.42166301563248 0 0 0 0 370.96945936579868 232.6676932657092 0 232.6676932657092 101.29509665113801 0 0 0 0 213.09134180819092 -53.577586912097104 0 -53.577586912097104 38.03291792984237 0 0 0 0 -129.11208572908072 98.286141086151474 0 98.286141086151474 -26.709717295158043 0 0 0 0 -69.736053765562247 2.3171221830243667 0 2.3171221830243667 82.827199976760312 0 0 0 0 -250.16273444780381 172.40229109345546 0 172.40229109345546 10.95033891304638 0 0 0 0 -115.58449549121724 270.57223826680365 0 270.57223826680365 -282.28179928000918 0 0 0 0 -139.05302098506945 770.64382641920952 0 770.64382641920952 -578.51559456950235 0 0 0 0 -461.57661472843029 1122.9811249931568 0 1122.9811249931568 -908.37633391100599 0 0 0 0 210.94214456677582 221.07961871923771 0 221.07961871923771 -444.01554375661613 0 0 0 0 -407.80040666538116 760.58251060062867 0 760.58251060062867 171.33391035359057 0 0 0 0 -506.41048077294545 166.75509204847828 0 166.75509204847828 -548.28856966460762 0 0 0 0 -209.95970757465693 458.25109284400139 0 458.25109284400139 -553.03115343848447 0 0 0 0 -12.29151289575907 -0.53596356980317239 0 -0.53596356980317239 2.0379037291900337 0 0 0 0 -974.66704138113346 1300.0976940193948 0 1300.0976940193948 -763.55974988090929 0 0 0 0 -539.92632563332154 815.85661736250074 0 815.85661736250074 -486.97839706769707 0 0 0 0 -1322.2999781928665 30.327029578972883 0 30.327029578972883 447.09416846684974 0 0 0 0 -568.68664062261814 802.0788291651661 0 802.0788291651661 -288.55431473574674 0 0 0 0 -27.569213983773324 -5.2527503437019192 0 -5.2527503437019192 2.7814137622707249 0 0 0 0 -267.98139870996238 -336.04623321987754 0 -336.04623321987754 584.95533392108428 0 0 0 0 -335.86644526179589 -18.886960809169977 0 -18.886960809169977 589.89298150639456 0 0 0 0 -286.35199445893522 66.533711354355887 0 66.533711354355887 -401.10281377872076 0 0 0 0 127.325933694985 -318.11637898965967 0 -318.11637898965967 518.23781875647273 0 0 0 0 93.900733091504662 -100.31226121196556 0 -100.31226121196556 249.78184490080201 0 0 0 0 -558.85533481234597 -21.048773858566506 0 -21.048773858566506 49.491576452491358 0 0 0 0 -932.29981250823766 570.31954763474744 0 570.31954763474744 408.63187417745712 0 0 0 0 0.79428715397750693 1.3433994331100365 0 1.3433994331100365 2.5967132960195687 0 0 0 0 -86.580610513468855 609.76523748242334 0 609.76523748242334 -274.76207053745736 0 0 0 0 -415.01048816795083 794.32767062724315 0 794.32767062724315 -49.182652163615671 0 0 0 0 -30.503316448877968 -9.4379599222289308 0 -9.4379599222289308 -1.2147457105658157 0 0 0 0 -539.95799680761775 47.24858029229938 0 47.24858029229938 1417.9382797184137 0 0 0 0 -295.37097937268845 -700.82639950677014 0 -700.82639950677014 -529.13091183560016 0 0 0 0 -207.7145411769452 1339.6057759275664 0 1339.6057759275664 5.1919949053847176 0 0 0 0 -70.002263945178129 -23.682094479642728 0 -23.682094479642728 3.734858830001599 0 0 0 0 -106.52391261652519 972.16663798063382 0 972.16663798063382 -625.41940082293149 0 0 0 0 -18.838152991989091 -0.28146767267660522 0 -0.28146767267660522 2.7627771100156564 0 0 0 0 -3.6234178540555604 8.8573081658015553 0 8.8573081658015553 9.5599595269213911 0 0 0 0 -572.82002138954704 284.31274301319127 0 284.31274301319127 -145.33317573797876 0 0 0 0 -23.780923039332265 9.9555173728076625 0 9.9555173728076625 9.2879252558409462 0 0 0 0 -17.330494800959059 4.3761659066077527 0 4.3761659066077527 6.5462349338170966 0 0 0 0 -19.055991937862359 -0.33140144694293383 0 -0.33140144694293383 8.1844669788819733 0 0 0 0 -170.36588757429854 31.815335036266106 0 31.815335036266106 454.45255604518479 0 0 0 0 -41.413432282882582 -38.03698553300039 0 -38.03698553300039 408.67696679308438 0 0 0 0 -525.28982589486986 525.57468141925551 0 525.57468141925551 107.01914362282264 0 0 0 0 -617.69583867931942 55.565086107091858 0 55.565086107091858 651.15808792626285 0 0 0 0 -19.125871446245583 -614.72744577759772 0 -614.72744577759772 823.74120047993347 0 0 0 0 -36.370741119830086 -483.30633345913236 0 -483.30633345913236 734.78445140854478 0 0 0 0 -1033.0757869233639 -441.2946612468163 0 -441.2946612468163 763.53202294917628 0 0 0 0 -187.46695108932909 -55.678227883997579 0 -55.678227883997579 99.881455752008932 0 0 0 0 -110.76333919570897 -0.71422543842264474 0 -0.71422543842264474 7.434771504974834 0 0 0 0 -0.62043908750416676 -14.552942472311825 0 -14.552942472311825 3.7225387211192564 0 0 0 0 -194.83431868147454 125.24183042851303 0 125.24183042851303 438.87900169853407 0 0 0 0 -10.36955534387107 12.627781368212723 0 12.627781368212723 0.50342177044957437 0 0 0 0 -193.63280346542888 -308.32140562356193 0 -308.32140562356193 276.71793915759565 0 0 0 0 -120.13461819836084 459.03394799024284 0 459.03394799024284 -326.77415581163723 0 0 0 0 -285.79700905984646 -412.64829888236869 0 -412.64829888236869 -410.24980300061407 0 0 0 0 -634.33227751249797 711.75627577495254 0 711.75627577495254 593.13391429146668 0 0 0 0 -13.365025968101236 -0.40959062885723085 0 -0.40959062885723085 0.19827085185165894 0 0 0 0 -381.01036860379099 -456.75914104290928 0 -456.75914104290928 452.54976598161511 0 0 0 0 561.33118281519273 52.867907993786048 0 52.867907993786048 -633.25190814956591 0 0 0 0 -102.36267124209525 -8.0961553248892244 0 -8.0961553248892244 8.5147191162610607 0 0 0 0 341.90323333733249 16.776347043967689 0 16.776347043967689 -95.884151159514431 0 0 0 0 -111.1365809696581 82.78279849651426 0 82.78279849651426 -11.931923241191953 0 0 0 0 -136.08854406271712 63.996687681290183 0 63.996687681290183 -9.7034274313316473 0 0 0 0 -97.140900972262898 81.158476752354687 0 81.158476752354687 -10.093483035710278 0 0 0 0 -140.54431222955463 66.705248787835785 0 66.705248787835785 6.0555074433397778 0 0 0 0 -115.41369559679879 107.88529556960731 0 107.88529556960731 53.162263267767571 0 0 0 0 -126.1620606371871 13.967579731856304 0 13.967579731856304 172.12798770703068 0 0 0 0 -127.85064981346841 101.34281076126938 0 101.34281076126938 56.204025270083093 0 0 0 0 -130.63826992514441 123.64415278681791 0 123.64415278681791 -8.9807221296707667 0 0 0 0 -97.446142791508464 109.1208310394195 0 109.1208310394195 47.57629070937989 0 0 0 0 -69.037065094744321 86.793769450878017 0 86.793769450878017 6.7191056670369562 0 0 0 0 -67.858336136408752 24.470478485402094 0 24.470478485402094 99.948345507438489 0 0 0 0 -64.908344484785289 4.2637431726578221 0 4.2637431726578221 -0.66205362585801897 0 0 0 0 -66.755676452099578 -49.272980936997442 0 -49.272980936997442 37.6404268793423 0 0 0 0 -124.74228905666678 98.443999582359993 0 98.443999582359993 21.760765195941758 0 0 0 0 -17.541748358544169 -19.204017406608585 0 -19.204017406608585 8.9021951761571323 0 0 0 0 -190.5903437914676 331.20346452085312 0 331.20346452085312 -406.48443453232312 0 0 0 0 -831.31034322321648 39.486221070179454 0 39.486221070179454 77.359966951901242 0 0 0 0 -164.78898195992224 69.546002457687223 0 69.546002457687223 4.0638720890920013 0 0 0 0 -220.87163571898418 -1.6112358636524604 0 -1.6112358636524604 211.50097221821466 0 0 0 0 -234.89108660556667 137.0399705526678 0 137.0399705526678 88.237841673109074 0 0 0 0 -321.58112772437744 126.50069546165219 0 126.50069546165219 90.298205358313908 0 0 0 0 -320.29029452551185 -267.54811702217114 0 -267.54811702217114 263.63012551741417 0 0 0 0 -230.81678345092223 -122.70434078472158 0 -122.70434078472158 139.87635828371765 0 0 0 0 -0.38650346046779305 -191.22260337192034 0 -191.22260337192034 159.87631346467515 0 0 0 0 -344.26177306780846 -250.01160887079524 0 -250.01160887079524 32.501037990727582 0 0 0 0 -245.46573398984037 -161.51342655947519 0 -161.51342655947519 -46.656831384607813 0 0 0 0 -101.05262724276764 1.7049207776935731 0 1.7049207776935731 0.81719159731786895 0 0 0 0 -1056.1047454436775 -9.1573623901290375 0 -9.1573623901290375 -74.381086810977649 0 0 0 0 -205.44888028438436 -198.34219268426273 0 -198.34219268426273 -109.9881034834566 0 0 0 0 -532.98633398860693 -362.09062033328848 0 -362.09062033328848 -185.07450998001104 0 0 0 0 -156.58348355660564 -185.24791946548476 0 -185.24791946548476 -409.89932157368185 0 0 0 0 -112.02903206564224 -15.845992328509482 0 -15.845992328509482 -93.100060283533821 0 0 0 0 -323.61918696657085 -25.85132813515137 0 -25.85132813515137 25.268818649795897 0 0 0 0 -322.33981062183739 -8.689730145129996 0 -8.689730145129996 -32.256528028221879 0 0 0 0 -341.15181295311777 -1.2457542326358944 0 -1.2457542326358944 53.968333046259687 0 0 0 0 -331.47584504992119 -13.552783868638155 0 -13.552783868638155 36.898883555865126 0 0 0 0 -251.29619997809641 -58.354232689486231 0 -58.354232689486231 40.676926640892489 0 0 0 0 -348.49796234765745 -50.998324973030485 0 -50.998324973030485 11.226333055187903 0 0 0 0 -474.77071949091624 -60.007780937623004 0 -60.007780937623004 48.309510949655476 0 0 0 0 -341.24079175942461 5.3235899812088228 0 5.3235899812088228 5.2398154430864352 0 0 0 0 -254.17739112122217 -69.091858840564115 0 -69.091858840564115 14.612149674488213 0 0 0 0 -233.0964628643269 -45.584600460290083 0 -45.584600460290083 16.718633806160042 0 0 0 0 -243.87390642917308 -35.596074565629479 0 -35.596074565629479 0.039010895687136594 0 0 0 0 -172.5666060642252 -83.364583372970628 0 -83.364583372970628 6.3086280770479206 0 0 0 0 -248.66485189658124 -35.19479811640786 0 -35.19479811640786 9.5424639790295185 0 0 0 0 -140.70053334074328 -39.186735598663546 0 -39.186735598663546 -0.054891302003169475 0 0 0 0 -94.185497071623104 -48.118601211661428 0 -48.118601211661428 8.2974402305010955 0 0 0 0 -69.72817519462842 -67.801666438152452 0 -67.801666438152452 -14.763595574879815 0 0 0 0 -0.0023808604455552995 -167.24200535225708 0 -167.24200535225708 145.41255430072158 0 0 0 0 -138.82871420327865 -106.94248442173296 0 -106.94248442173296 31.048604855964356 0 0 0 0 -249.52967413325678 -50.927734560212855 0 -50.927734560212855 69.589918108031782 0 0 0 0 -260.34149042489298 -87.772610837342725 0 -87.772610837342725 50.294525181691043 0 0 0 0 -52.641669144687057 1.5904377033690338 0 1.5904377033690338 0.51389424848942 0 0 0 0 -85.299982151947916 -75.480734038339477 0 -75.480734038339477 26.663931181360887 0 0 0 0 -42.472690692741025 9.8454957732089952 0 9.8454957732089952 -0.87633013107698288 0 0 0 0 -28.442191353533417 -13.948899105188424 0 -13.948899105188424 -95.559847140038841 0 0 0 0 -64.161942102808098 22.385819053262029 0 22.385819053262029 279.91314927581237 0 0 0 0 -24.370772357084206 11.675084315182062 0 11.675084315182062 -92.031700028136356 0 0 0 0 -5.9682527847762685 -111.17071384937788 0 -111.17071384937788 -167.59881667652292 0 0 0 0 -87.900437493590289 -16.013901150073252 0 -16.013901150073252 130.33521031623786 0 0 0 0 71.276020432880614 268.86903100286321 0 268.86903100286321 -100.37552097724921 0 0 0 0 -35.653200459816503 8.4076670813599748 0 8.4076670813599748 -0.80875853044598212 0 0 0 0 -1980.0409465856501 -124.86032366738573 0 -124.86032366738573 1481.9588006531785 0 0 0 0 232.2274987907731 -80.514158729711141 0 -80.514158729711141 -75.092221181601786 0 0 0 0 -111.1741082003573 37.248591020642003 0 37.248591020642003 -56.277014870666321 0 0 0 0 -544.07591531422804 309.16799687322953 0 309.16799687322953 -10.22365269453687 0 0 0 0 -768.10036943346495 -48.346444395724674 0 -48.346444395724674 157.09614487601704 0 0 0 0 -75.320007534421165 113.33155054979888 0 113.33155054979888 -1.6229027480302705 0 0 0 0 -303.71992244399735 95.453759040089835 0 95.453759040089835 7.2755074448411019 0 0 0 0 -345.52625669174449 -32.347670095643331 0 -32.347670095643331 111.64265519714424 0 0 0 0 -163.01064641826088 -6.6621036437013306 0 -6.6621036437013306 -0.054252233013029956 0 0 0 0 -68.976976958026739 20.254639930666915 0 20.254639930666915 -55.816357222923955 0 0 0 0 -153.33416254204349 -198.20459018711909 0 -198.20459018711909 86.769487120392554 0 0 0 0 -20.726647306873929 -110.21865302588023 0 -110.21865302588023 -0.01750116480377048 0 0 0 0 -279.27181296114577 -60.682702869698318 0 -60.682702869698318 0.20125702278722679 0 0 0 0 -355.11781346664065 -184.01129485710072 0 -184.01129485710072 84.971072963236395 0 0 0 0 -320.46138750281534 -199.44634384720413 0 -199.44634384720413 -37.399437781573369 0 0 0 0 -349.26101072345045 -172.42711746575719 0 -172.42711746575719 68.268104229907379 0 0 0 0 -593.96770271362038 -8.1297440620812154 0 -8.1297440620812154 122.86726323994434 0 0 0 0 -678.0290406729473 -146.24441275881935 0 -146.24441275881935 67.293137419424284 0 0 0 0 -120.06517748016631 -128.71683285548363 0 -128.71683285548363 67.25059897043424 0 0 0 0 -23.823635349865071 -119.89508292053867 0 -119.89508292053867 -16.427493571200255 0 0 0 0 -61.884741637273692 -176.87445212366489 0 -176.87445212366489 88.730334844496042 0 0 0 0 -35.539826571759477 -56.348328238252165 0 -56.348328238252165 257.12088075350738 0 0 0 0 69.631822925846791 89.858899158116515 0 89.858899158116515 212.17349764567427 0 0 0 0 105.44383217464201 -9.0969475754009181 0 -9.0969475754009181 50.245837984427752 0 0 0 0 -292.49943543056725 -203.61502277451626 0 -203.61502277451626 -326.40143176686587 0 0 0 0 3952.3146009147458 242.15797039137124 0 242.15797039137124 26.931190628495813 0 0 0 0 -13.651004558887735 5.7951437675011306 0 5.7951437675011306 -2.1436776471764816 0 0 0 0 -733.75771575054387 16.413057219713664 0 16.413057219713664 -89.117937684502294 0 0 0 0 -286.94884828209251 74.292679350651497 0 74.292679350651497 -93.404928717113421 0 0 0 0 -63.676702948170714 -89.472907878906767 0 -89.472907878906767 -291.03183993603784 0 0 0 0 -16.373686353482299 4.3684074662652392 0 4.3684074662652392 -0.67719024910526193 0 0 0 0 1098.8957219516742 849.7869495196062 0 849.7869495196062 32.463238998867382 0 0 0 0 -63.736621391755762 -47.396672432600354 0 -47.396672432600354 -145.00491100187776 0 0 0 0 -94.822069406262017 -25.161876951686452 0 -25.161876951686452 -84.724487110474684 0 0 0 0 -29.511116678477265 -159.26548600196463 0 -159.26548600196463 -85.221726194656014 0 0 0 0 -140.41826529610989 115.42846186464928 0 115.42846186464928 -5.6731720760384405 0 0 0 0 -311.49118073511636 -105.65664064541716 0 -105.65664064541716 -113.44049943828918 0 0 0 0 -99.536548685453567 -3.5272576681355829 0 -3.5272576681355829 0.7426784716487439 0 0 0 0 -512.15644338168204 -322.33903806035926 0 -322.33903806035926 184.48472132747486 0 0 0 0 11.555924407861312 -144.57073830078943 0 -144.57073830078943 9.3859442306367864 0 0 0 0 -214.89842251938535 53.108311851476557 0 53.108311851476557 383.47074672424867 0 0 0 0 -94.217454805916248 -2.874491957625839 0 -2.874491957625839 0.81422993127849141 0 0 0 0 4.4398031270829961 -127.66127326971275 0 -127.66127326971275 -4.9521720911500324 0 0 0 0 -131.36076365144982 -162.16965090925333 0 -162.16965090925333 280.84953874617213 0 0 0 0 -131.13418589127832 56.45481235449472 0 56.45481235449472 251.75709235708868 0 0 0 0 -97.130521438535652 -70.180076781417483 0 -70.180076781417483 72.229254627367595 0 0 0 0 -80.681692256559415 -2.5066807117958909 0 -2.5066807117958909 0.76635507130857383 0 0 0 0 -81.536628244197345 103.5053854520354 0 103.5053854520354 101.86424441492301 0 0 0 0 -69.336915445476734 -2.0789002082859351 0 -2.0789002082859351 57.832890559667348 0 0 0 0 -218.26010050380864 60.489410209516919 0 60.489410209516919 38.236737676534901 0 0 0 0 -87.209433781594271 81.450987217026579 0 81.450987217026579 -132.282887216669 0 0 0 0 -73.042740091914311 54.435585021597149 0 54.435585021597149 -18.369336046658646 0 0 0 0 -96.302788566594245 74.897171742526552 0 74.897171742526552 -26.032085345751341 0 0 0 0 -240.79769948638568 -175.71759624342167 0 -175.71759624342167 230.89768179940222 0 0 0 0 -96.252169967519876 23.202716701756572 0 23.202716701756572 -118.55497625935141 0 0 0 0 -68.816814096906455 53.914797981650736 0 53.914797981650736 -143.43490050127184 0 0 0 0 -89.135242945434868 -5.4256049202246786 0 -5.4256049202246786 7.7503398932297554 0 0 0 0 -78.582590508522117 49.511853245848783 0 49.511853245848783 -132.55364268639732 0 0 0 0 -128.76318430814717 131.63190511762923 0 131.63190511762923 -222.86557855974252 0 0 0 0 -405.96495767339366 51.092134809309414 0 51.092134809309414 -72.670811688396725 0 0 0 0 -454.75744057053817 95.856566528066651 0 95.856566528066651 -98.799260957446677 0 0 0 0 -535.50640676819057 -223.37753234466288 0 -223.37753234466288 -43.136610996294394 0 0 0 0 -551.29738124168944 -78.757358650206925 0 -78.757358650206925 -20.880893815806985 0 0 0 0 -554.61521800240735 -130.29915386588294 0 -130.29915386588294 -82.045156152137679 0 0 0 0 -500.34950689981633 -138.1333906602504 0 -138.1333906602504 51.834380275610194 0 0 0 0 -228.9527149550122 102.80788834908438 0 102.80788834908438 -65.196162969653329 0 0 0 0 -337.06091541488422 -156.71385496605458 0 -156.71385496605458 -7.031359954914242 0 0 0 0 -675.43508972129348 131.86784698550275 0 131.86784698550275 143.651745926422 0 0 0 0 -733.01840213251853 24.395487493309531 0 24.395487493309531 -52.232396300291612 0 0 0 0 -472.29311226892241 -203.50736873462921 0 -203.50736873462921 58.990309239969747 0 0 0 0 -570.94366683377302 -154.65895123623579 0 -154.65895123623579 36.604678452913163 0 0 0 0 -458.98949143744539 -202.02151104924781 0 -202.02151104924781 -102.0386971202812 0 0 0 0 -335.62331356130017 -18.473654739966349 0 -18.473654739966349 -53.931426812250038 0 0 0 0 -510.85860226837394 171.17325196514491 0 171.17325196514491 -256.73626716464719 0 0 0 0 -641.18430455015914 234.50431669110651 0 234.50431669110651 -30.943533842141449 0 0 0 0 -664.09612309017393 404.50647780540271 0 404.50647780540271 -69.199376561920303 0 0 0 0 -1199.1884266181733 865.99487337930589 0 865.99487337930589 -466.15819661946711 0 0 0 0 -935.53324612956931 830.0362521672962 0 830.0362521672962 404.50060437423213 0 0 0 0 -1161.8972350790427 116.71754882950253 0 116.71754882950253 150.11284410132839 0 0 0 0 -100.60793952251396 -0.92713296920990373 0 -0.92713296920990373 2.3473390376103977 0 0 0 0 -1139.2592684110014 339.67718361606603 0 339.67718361606603 1139.9799756890047 0 0 0 0 -923.69411484924785 -63.2714340088163 0 -63.2714340088163 690.19463556315077 0 0 0 0 -1720.8480068046483 442.87935698205519 0 442.87935698205519 370.59241557916937 0 0 0 0 -1283.4270429940079 -395.405845445343 0 -395.405845445343 291.23070151775732 0 0 0 0 -100.41259199077678 -2.0077492570032689 0 -2.0077492570032689 1.273559834002604 0 0 0 0 -1388.0122490913491 -326.24726880347077 0 -326.24726880347077 669.74960771294138 0 0 0 0 -866.41992496595776 38.03339732563461 0 38.03339732563461 109.67293605320879 0 0 0 0 -969.2151723850111 -141.12026918481115 0 -141.12026918481115 182.81261776515021 0 0 0 0 -721.72468075599318 -314.38710908487133 0 -314.38710908487133 -95.740500497684252 0 0 0 0 -557.91836906404933 -8.2086705142088476 0 -8.2086705142088476 343.13460295277525 0 0 0 0 -401.1485996847623 -46.782365988131517 0 -46.782365988131517 -381.29218516414403 0 0 0 0 -377.15605217407574 63.179712797569834 0 63.179712797569834 -16.259132837707114 0 0 0 0 -481.21671247974155 -171.56926935571062 0 -171.56926935571062 -77.147512456504103 0 0 0 0 -1361.4896236931017 -1158.7213965046149 0 -1158.7213965046149 -705.42560168920556 0 0 0 0 318.59405311683076 -414.81233172096887 0 -414.81233172096887 -1068.5548663594082 0 0 0 0 -475.91710717896785 403.59047641736504 0 403.59047641736504 472.07224308545881 0 0 0 0 51.996053524082527 520.91241281672012 0 520.91241281672012 -158.80385312129766 0 0 0 0 -4349.5215784923639 -206.18162188693844 0 -206.18162188693844 900.12470534397619 0 0 0 0 -61.280996386049083 15.362008049125166 0 15.362008049125166 456.69898979395549 0 0 0 0 7.3488391542632598 -181.89057643075003 0 -181.89057643075003 303.12673957578477 0 0 0 0 -35.447747934685651 4.492616044920382 0 4.492616044920382 0.47355771400260827 0 0 0 0 -806.76190970014432 -154.21657276759731 0 -154.21657276759731 -0.73951476752286061 0 0 0 0 229.36503430461744 102.25324733495518 0 102.25324733495518 -174.29361355807367 0 0 0 0 38.230028900390607 -180.6238534793263 0 -180.6238534793263 73.181936285964767 0 0 0 0 -2472.704527462156 -385.12946706522899 0 -385.12946706522899 2.3931566726500573 0 0 0 0 -1791.5649296008778 583.72327129819541 0 583.72327129819541 485.30424476521819 0 0 0 0 -18.842905342408358 0.80420651217600181 0 0.80420651217600181 0.52794078175271164 0 0 0 0 -958.92100212235528 622.37522473686033 0 622.37522473686033 298.44599613623956 0 0 0 0 -2425.6967073335254 -956.56512019782019 0 -956.56512019782019 132.13429020508721 0 0 0 0 -2930.5689336778742 -473.37592494351048 0 -473.37592494351048 383.66473015510422 0 0 0 0 -18.608758305461379 -688.8479149940473 0 -688.8479149940473 317.76366554670221 0 0 0 0 -3108.8181685950985 -275.63222198467054 0 -275.63222198467054 290.35221561844935 0 0 0 0 -2137.295431593222 1242.2465941141836 0 1242.2465941141836 -771.36458255804428 0 0 0 0 -15.924851152189603 -5.4272739094322731 0 -5.4272739094322731 -2.3033567640152599 0 0 0 0 -427.44164796720725 288.34396607692179 0 288.34396607692179 -240.52646236731755 0 0 0 0 -407.20008769162632 181.88146296266297 0 181.88146296266297 -136.02097618646656 0 0 0 0 -46.623251515079119 -11.835850950765149 0 -11.835850950765149 -0.4152551800167994 0 0 0 0 -91.528211602941155 -4.2185508802272125 0 -4.2185508802272125 680.21981929001629 0 0 0 0 -628.12567711272277 130.74621030142498 0 130.74621030142498 680.97897130508602 0 0 0 0 -225.36575249594171 201.49141904027249 0 201.49141904027249 -237.28166055007546 0 0 0 0 51.826210086379433 379.09530416377345 0 379.09530416377345 664.83774534589111 0 0 0 0 -35.032116483766004 51.151209037046314 0 51.151209037046314 -12.910627204868412 0 0 0 0 -54.399060038757625 21.102609893564903 0 21.102609893564903 6.957199034294578 0 0 0 0 -54.160106817973428 30.933602008325494 0 30.933602008325494 194.30795888511238 0 0 0 0 333.33821795298718 370.61488302596263 0 370.61488302596263 -19.062659633463909 0 0 0 0 127.36460197894485 150.36118067149692 0 150.36118067149692 496.94417430118017 0 0 0 0 218.02848103552242 271.89168102015594 0 271.89168102015594 276.99862407574653 0 0 0 0 -142.79013749992009 449.62882829315959 0 449.62882829315959 1387.0975938480692 0 0 0 0 -8.0115496590409521 15.020019693146722 0 15.020019693146722 5.6720643816203236 0 0 0 0 -128.87418840205646 -173.04287292405272 0 -173.04287292405272 65.361289486057004 0 0 0 0 -802.46223045123043 72.014821436380601 0 72.014821436380601 780.10002273265798 0 0 0 0 -647.68812090379652 346.15079222503766 0 346.15079222503766 704.2204881047486 0 0 0 0 -127.2795667523169 -33.631025718363617 0 -33.631025718363617 -460.57028671947023 0 0 0 0 -213.09437228746538 98.829837317033565 0 98.829837317033565 -108.81211045596433 0 0 0 0 -56.022652828134596 23.805975392430213 0 23.805975392430213 -85.75626284832839 0 0 0 0 -111.43437426527089 363.0066153096223 0 363.0066153096223 316.93168528263925 0 0 0 0 -0.28592304055268869 -0.24008140987672277 0 -0.24008140987672277 -1.4106090960187827 0 0 0 0 -1438.5032572471828 -902.3630820296496 0 -902.3630820296496 -307.59437708980494 0 0 0 0 -1.3782261231764608 -0.67448350168191951 0 -0.67448350168191951 -0.83853149348153555 0 0 0 0 -482.32346458893153 145.42809672643233 0 145.42809672643233 -1.1585551181252074 0 0 0 0 -5449.3371107336779 1490.8993139394884 0 1490.8993139394884 175.67267052103441 0 0 0 0 -307.91493355452258 206.44342529864724 0 206.44342529864724 660.99281858966856 0 0 0 0 669.04391498741461 830.84883825703014 0 830.84883825703014 246.36274019473126 0 0 0 0 -15.298857482492053 6.4240498608122039 0 6.4240498608122039 -0.67708655221978986 0 0 0 0 -5494.2871980112395 -1365.9548563323831 0 -1365.9548563323831 175.81743943471864 0 0 0 0 -1549.0481189097191 -469.11031153409431 0 -469.11031153409431 324.42905641357441 0 0 0 0 -5493.1015421592601 507.09163100872632 0 507.09163100872632 591.96416615194369 0 0 0 0 -29.829578156443063 13.664879880744138 0 13.664879880744138 0.84089377321134151 0 0 0 0 77.842346907911633 621.73658612386305 0 621.73658612386305 677.16064326870048 0 0 0 0 -769.07311851502163 494.55327017476759 0 494.55327017476759 -372.1227444705371 0 0 0 0 -34.693344479919404 4.1307443162173456 0 4.1307443162173456 2.8744333009509782 0 0 0 0 -473.19872777932324 -407.77975189290532 0 -407.77975189290532 66.991954301545718 0 0 0 0 53.184043057030067 255.94070029101516 0 255.94070029101516 445.41228772468173 0 0 0 0 -36.662008356157457 738.32530442658162 0 738.32530442658162 -237.24895788379018 0 0 0 0 -14.369020893442098 -1.4979067934635282 0 -1.4979067934635282 -0.77421222188108241 0 0 0 0 -2413.0550548596584 2129.4732225854923 0 2129.4732225854923 -969.00536393379718 0 0 0 0 -1444.1670869552181 -1255.7602437722662 0 -1255.7602437722662 186.04089865331167 0 0 0 0 -5474.2553832592093 -520.9108625784329 0 -520.9108625784329 754.57248019926203 0 0 0 0 -2893.13108339459 1138.5010556770092 0 1138.5010556770092 -595.04037359384392 0 0 0 0 -34.493889136713904 -2.2855737610931328 0 -2.2855737610931328 -1.3174778793060402 0 0 0 0 -4.3880280290744622 -2.0978998698629994 0 -2.0978998698629994 -2.2629407518541926 0 0 0 0 -44.730040158960037 30.408946041799027 0 30.408946041799027 12.786915001708309 0 0 0 0 -2052.8902279805625 -3349.5660679067169 0 -3349.5660679067169 -2309.3159397870572 0 0 0 0 37.069333207269665 -15.476502558577863 0 -15.476502558577863 -53.393626371396294 0 0 0 0 305.74021528533194 14.488859521879533 0 14.488859521879533 -9.3331830050031179 0 0 0 0 403.70276562657091 146.28533061248825 0 146.28533061248825 -787.15228238229713 0 0 0 0 -48.31465017789742 77.921112141433923 0 77.921112141433923 -46.091888420031637 0 0 0 0 -4.104208726377351 5.8541076360160105 0 5.8541076360160105 1.60121327106219 0 0 0 0 -28.239803591306554 53.013920749567077 0 53.013920749567077 -251.84318386183557 0 0 0 0 -132.41736686383956 108.58473416585275 0 108.58473416585275 -126.88474725627682 0 0 0 0 -270.03270776235149 174.25634059785 0 174.25634059785 104.80322516162892 0 0 0 0 -8.6117942039230115 -1.9044632478103267 0 -1.9044632478103267 3.0587031547164449 0 0 0 0 -84.678641766508122 -3.3758323373798298 0 -3.3758323373798298 1.662887215976816 0 0 0 0 -195.77196641289629 48.041134130761066 0 48.041134130761066 203.93954613112237 0 0 0 0 -1251.2598134964792 -525.61434885025346 0 -525.61434885025346 1720.6663069325998 0 0 0 0 -2400.2648578559601 -1724.8569484960865 0 -1724.8569484960865 -627.55658835636427 0 0 0 0 -313.51917326926923 11.141017857869713 0 11.141017857869713 47.197830564747164 0 0 0 0 -1997.9772515945733 -37.810102267639451 0 -37.810102267639451 134.40901687961184 0 0 0 0 -1077.9179305542712 -692.26902761606482 0 -692.26902761606482 -692.64849587396338 0 0 0 0 -3122.4469576897682 -1500.1467437910289 0 -1500.1467437910289 -361.1383072888907 0 0 0 0 -3215.8540489525913 -2334.5038500793221 0 -2334.5038500793221 -66.407145517917868 0 0 0 0 -5504.5310899609003 -2934.0913253809736 0 -2934.0913253809736 -119.22175731361658 0 0 0 0 48.833924195278087 -313.68451958646176 0 -313.68451958646176 -503.193964236157 0 0 0 0 -866.54911540886678 -389.63696280422465 0 -389.63696280422465 -623.11750442376831 0 0 0 0 -962.37803760183306 -558.31617423352736 0 -558.31617423352736 -662.18275234431576 0 0 0 0 -501.7025423165469 -381.38499291483686 0 -381.38499291483686 -659.05333654967967 0 0 0 0 -1342.2902183281694 -323.91623611832892 0 -323.91623611832892 -431.26084392797975 0 0 0 0 -1241.038796557852 413.05365919828728 0 413.05365919828728 -503.29012482790131 0 0 0 0 -1358.4802034650857 134.47625207594371 0 134.47625207594371 -160.35763280526317 0 0 0 0 -1204.1578507137892 358.54829972607342 0 358.54829972607342 -578.34059768669078 0 0 0 0 -677.14586059634166 540.75636831445047 0 540.75636831445047 -1587.3671151018571 0 0 0 0 -2177.3209894110551 658.05207270593382 0 658.05207270593382 -595.18303621738687 0 0 0 0 -272.14913035079371 -258.93650908125596 0 -258.93650908125596 -673.93976446887484 0 0 0 0 -986.96350733151485 -42.407788862146276 0 -42.407788862146276 -681.83070011991947 0 0 0 0 -331.64035657927889 -205.36574296741713 0 -205.36574296741713 -478.52809909668917 0 0 0 0 -147.34198928785918 -50.694852911642784 0 -50.694852911642784 -947.6611726632309 0 0 0 0 -706.65041722515889 -553.69130581272157 0 -553.69130581272157 -366.95048906116909 0 0 0 0 -208.28066949851927 495.5856941956248 0 495.5856941956248 -323.62075911388285 0 0 0 0 -2691.7132769912714 750.24451066404231 0 750.24451066404231 392.13766168272502 0 0 0 0 -1801.1427577653958 -652.36819706980054 0 -652.36819706980054 -1144.9268520085063 0 0 0 0 -2701.6209731174968 -992.43706465672085 0 -992.43706465672085 -794.53530380753205 0 0 0 0 -17.892176073096437 9.9758582005775338 0 9.9758582005775338 -6.6098077393138972 0 0 0 0 -36.956065498132375 915.26442492224203 0 915.26442492224203 -283.82983588954079 0 0 0 0 -2061.2573110672092 1338.3609879012884 0 1338.3609879012884 -110.5241550494635 0 0 0 0 -128.04216899035964 -342.41939764197309 0 -342.41939764197309 60.898904579970775 0 0 0 0 -1069.4739362374821 -148.32261842717571 0 -148.32261842717571 52.858211872033976 0 0 0 0 433.34732949007775 -897.01714414353796 0 -897.01714414353796 -14.158212630575008 0 0 0 0 357.66919964383123 -45.911931803413609 0 -45.911931803413609 -372.31104558910101 0 0 0 0 7.6154438523881254 -197.72893583094992 0 -197.72893583094992 199.84799905227192 0 0 0 0 -538.33255661666408 -255.35027168802577 0 -255.35027168802577 395.61725981851305 0 0 0 0 -66.85269441602037 -59.853025921764925 0 -59.853025921764925 -30.785181006032087 0 0 0 0 -1230.1642798829998 -127.11194432302364 0 -127.11194432302364 -75.411497609985872 0 0 0 0 -619.99914544183412 287.8381273786681 0 287.8381273786681 90.334283436078067 0 0 0 0 -1225.6349885259106 -192.6804840924016 0 -192.6804840924016 -117.15757494019454 0 0 0 0 78.786892812451697 -27.674798872038878 0 -27.674798872038878 -21.860594086227568 0 0 0 0 -61.223509601399286 -48.863749941014007 0 -48.863749941014007 -16.350250099426795 0 0 0 0 -201.81989097456972 -297.16978696230808 0 -297.16978696230808 -72.753112843920462 0 0 0 0 106.48057419904944 -336.93187324020346 0 -336.93187324020346 -14.961415094619724 0 0 0 0 -1183.5265838833584 -46.487306876755156 0 -46.487306876755156 141.83031232477424 0 0 0 0 -941.54540725486004 -198.35613886914962 0 -198.35613886914962 -141.95714502994451 0 0 0 0 -567.92282340209204 -3.8827855864166168 0 -3.8827855864166168 -276.87055276432966 0 0 0 0 -557.81238251410105 -112.65974597035796 0 -112.65974597035796 11.792856833307724 0 0 0 0 -46.561652601434616 97.010374566837299 0 97.010374566837299 -53.280398240763262 0 0 0 0 -567.166525929817 134.23945002984851 0 134.23945002984851 50.97030862213046 0 0 0 0 6.3792497564868427 -78.225370955626673 0 -78.225370955626673 -176.94240174700155 0 0 0 0 -1264.5937570531605 -269.77614964508302 0 -269.77614964508302 -48.104399590145476 0 0 0 0 -612.65122879622413 -91.429612932135086 0 -91.429612932135086 -433.73263380373214 0 0 0 0 -136.23650148561865 43.433470291503909 0 43.433470291503909 523.43815533312386 0 0 0 0 -742.14207679755054 -792.98001226505471 0 -792.98001226505471 -996.37881149840973 0 0 0 0 -52.164900479257142 26.059472682625767 0 26.059472682625767 -12.433346666016313 0 0 0 0 51.460074293438083 -155.34906685878306 0 -155.34906685878306 -67.14794024135017 0 0 0 0 -54.591953279554957 -31.92061568661191 0 -31.92061568661191 -1.236753122208901 0 0 0 0 -84.030545421046554 -113.14696388603852 0 -113.14696388603852 170.52813939588691 0 0 0 0 -623.51213149836985 -844.10871769479536 0 -844.10871769479536 -850.60462350289254 0 0 0 0 -716.96298614132684 -713.14498604859818 0 -713.14498604859818 -761.16466323560417 0 0 0 0 12.508746254157813 57.143042183962578 0 57.143042183962578 17.314769468559916 0 0 0 0 -15.104881775942431 -4.8988752415281311 0 -4.8988752415281311 0.046885334492767772 0 0 0 0 -496.60149993649975 -621.7079711124602 0 -621.7079711124602 -901.06400970007462 0 0 0 0 -522.12415937639889 -669.42731926379383 0 -669.42731926379383 -791.10546829985697 0 0 0 0 -517.05781316457433 -541.85604322982272 0 -541.85604322982272 -752.7457596539524 0 0 0 0 -671.25651347986422 -598.14410742012785 0 -598.14410742012785 -739.79486897252718 0 0 0 0 -635.42692594169057 -573.73566825490173 0 -573.73566825490173 -530.03771393578154 0 0 0 0 -373.08958396318485 -517.19067792542955 0 -517.19067792542955 -336.08942055371153 0 0 0 0 -505.06183903721103 -414.92808913564568 0 -414.92808913564568 -268.47278079434 0 0 0 0 -496.99289699379005 -511.71558823442592 0 -511.71558823442592 -128.69513339862169 0 0 0 0 -390.41237658093451 -410.49932559099034 0 -410.49932559099034 -483.97814587265384 0 0 0 0 -433.50535085020238 -593.88056565412626 0 -593.88056565412626 -583.92744568940861 0 0 0 0 -581.60611512172909 -624.62523982043854 0 -624.62523982043854 -534.2649713538076 0 0 0 0 -619.16548030274862 -414.65822410865303 0 -414.65822410865303 -113.90471866600001 0 0 0 0 -405.85206021669728 -607.74159710257845 0 -607.74159710257845 14.003265708195613 0 0 0 0 -825.44816810644988 -416.68474453302588 0 -416.68474453302588 334.83013997697981 0 0 0 0 -189.93592277067364 -270.62805138212366 0 -270.62805138212366 -76.35688049217606 0 0 0 0 -479.95243964678957 -200.79472518653665 0 -200.79472518653665 536.54080355956285 0 0 0 0 -846.26057859542925 -64.436999901889294 0 -64.436999901889294 -413.02018243160683 0 0 0 0 -602.22620756996912 -694.91175726401946 0 -694.91175726401946 -724.46375154551788 0 0 0 0 -564.39321807621309 -405.92119266925113 0 -405.92119266925113 -734.55965659174035 0 0 0 0 -2.411339467231727 0.26794748684440606 0 0.26794748684440606 -0.067569894479731829 0 0 0 0 -830.55510950252938 -467.58438119713355 0 -467.58438119713355 323.50635195741506 0 0 0 0 -831.58128708014556 -119.8518038446291 0 -119.8518038446291 -2.6570344480242056 0 0 0 0 -880.00015210440324 -20.056573488533104 0 -20.056573488533104 103.5087471335064 0 0 0 0 -817.42331832817581 -181.01977272208728 0 -181.01977272208728 -275.96426492360843 0 0 0 0 -1290.6835051968374 282.29154400539392 0 282.29154400539392 664.30476739181358 0 0 0 0 -285.80929646831646 64.582738547390363 0 64.582738547390363 104.96341266162017 0 0 0 0 -1604.502285150018 -275.81374811301816 0 -275.81374811301816 589.68240911014982 0 0 0 0 21.229626678214117 413.34076138221553 0 413.34076138221553 485.05424695912734 0 0 0 0 -284.73572820570735 95.27501024937078 0 95.27501024937078 1488.2635884214051 0 0 0 0 -928.41145817630604 -723.09667327239913 0 -723.09667327239913 680.34834468752888 0 0 0 0 31.056217392339022 -449.92257537747173 0 -449.92257537747173 272.68279491614703 0 0 0 0 -82.496752999235468 492.04500861020369 0 492.04500861020369 295.82661355195705 0 0 0 0 -20.389871984555441 -0.83393556219274245 0 -0.83393556219274245 1.111490382053316 0 0 0 0 -144.95531932769518 549.77617202770489 0 549.77617202770489 1504.1332688294515 0 0 0 0 -52.153513030725151 1.5131847061975563 0 1.5131847061975563 3.0073234530356414 0 0 0 0 16.034058183096931 94.495952890960325 0 94.495952890960325 512.59553386492007 0 0 0 0 320.55779144620465 938.11178826240393 0 938.11178826240393 18.499421038477522 0 0 0 0 -858.2447547875563 -70.610893800448594 0 -70.610893800448594 2489.0403840459139 0 0 0 0 -60.738154677564467 0.37089660755830955 0 0.37089660755830955 4.0471289899259766 0 0 0 0 -1770.5258743763843 1767.0412574578445 0 1767.0412574578445 -14.28024755903084 0 0 0 0 -489.80372381213238 75.857675357436619 0 75.857675357436619 1858.1398312352776 0 0 0 0 19.993403479544213 -334.14463132630863 0 -334.14463132630863 562.50603859506919 0 0 0 0 31.680786213211832 363.82617311908871 0 363.82617311908871 855.17225223333662 0 0 0 0 -256.62148990073183 -403.43796331107842 0 -403.43796331107842 -20.821012261711076 0 0 0 0 -361.76551294098317 119.07443590990897 0 119.07443590990897 79.745518643916967 0 0 0 0 -291.25186580633454 -231.86585119219581 0 -231.86585119219581 478.42530485099451 0 0 0 0 -650.05255775073601 -35.155996937787677 0 -35.155996937787677 -311.01229763389483 0 0 0 0 -762.43893358296646 -185.24463353133783 0 -185.24463353133783 -112.7528828677423 0 0 0 0 -684.22609236763674 -446.46018408603413 0 -446.46018408603413 -361.66301061069225 0 0 0 0 -459.34751712256366 -189.14395624302432 0 -189.14395624302432 -175.9674895001408 0 0 0 0 -1598.4299134817629 393.73729921469635 0 393.73729921469635 317.61679717914467 0 0 0 0 -1205.3409036523808 69.286796695109388 0 69.286796695109388 -285.14794083818515 0 0 0 0 -860.52604032284762 475.94686793049402 0 475.94686793049402 107.42035361800572 0 0 0 0 -1154.6619136927475 320.06717919668063 0 320.06717919668063 285.87529278677903 0 0 0 0 -534.3372476839304 650.11965701115787 0 650.11965701115787 443.18097180861423 0 0 0 0 -1068.191980462856 639.38301259077389 0 639.38301259077389 374.31790341126305 0 0 0 0 -1235.7854834421669 602.04731635933513 0 602.04731635933513 719.43215063040134 0 0 0 0 -29.078180817349846 -3.0130600250538713 0 -3.0130600250538713 1.6951601723055925 0 0 0 0 -2344.8148477914947 368.59924556310534 0 368.59924556310534 729.71111211008429 0 0 0 0 -1076.6997037104593 1046.4892996527165 0 1046.4892996527165 696.22723395115372 0 0 0 0 269.59698470652802 128.72077676804383 0 128.72077676804383 575.53314053978465 0 0 0 0 -390.86441328130604 -1969.6386792970898 0 -1969.6386792970898 -83.096972680389399 0 0 0 0 -668.78128655803448 -1664.4809343829597 0 -1664.4809343829597 551.45490777138912 0 0 0 0 -2054.50765050277 1146.361105633147 0 1146.361105633147 1848.2701283561655 0 0 0 0 -90.486240346193114 13.359298318513755 0 13.359298318513755 1.5530418705956937 0 0 0 0 -82.136258976242971 63.580777601391674 0 63.580777601391674 -395.87766479570064 0 0 0 0 -1221.9696933696832 -550.84242920744418 0 -550.84242920744418 -182.69899776899797 0 0 0 0 -424.19599325902527 151.86478953941651 0 151.86478953941651 148.48520128135533 0 0 0 0 -176.14018958948145 49.60918654485522 0 49.60918654485522 -64.924715923682697 0 0 0 0 205.19337356463075 657.42861582383193 0 657.42861582383193 95.475456084918278 0 0 0 0 -2175.7916168422962 -40.169078110854571 0 -40.169078110854571 2429.4475043602879 0 0 0 0 -178.52247094101767 678.20328819464521 0 678.20328819464521 927.20855561626104 0 0 0 0 -98.923447561230773 11.604386733037995 0 11.604386733037995 2.2413481148576793 0 0 0 0 -564.86492799714324 -139.37054278663709 0 -139.37054278663709 508.22921716156725 0 0 0 0 -202.70165493115201 63.596538698944187 0 63.596538698944187 539.44734146775318 0 0 0 0 -70.187016948569237 2.9580846053117344 0 2.9580846053117344 1.8725545548298248 0 0 0 0 -260.49060943048971 153.03633167232874 0 153.03633167232874 408.49760870421596 0 0 0 0 -126.30836075956177 92.918871098884665 0 92.918871098884665 339.94638442217683 0 0 0 0 -126.36043314721428 94.20948556439447 0 94.20948556439447 317.60182903378882 0 0 0 0 -9.308060921204742 346.19439496564246 0 346.19439496564246 255.91076061576496 0 0 0 0 -212.25167936859361 282.61873336574763 0 282.61873336574763 429.73578369300776 0 0 0 0 -10.995655956812698 148.33369527095806 0 148.33369527095806 113.28370428789549 0 0 0 0 -40.255252414764982 112.18784848810026 0 112.18784848810026 288.99730937143977 0 0 0 0 -75.456125912143762 -23.342883456633558 0 -23.342883456633558 367.04976975480531 0 0 0 0 -53.144507096585585 97.991394866695828 0 97.991394866695828 277.09634495783484 0 0 0 0 -270.12261734364438 -92.066530673710758 0 -92.066530673710758 898.72772835510295 0 0 0 0 -119.2263829530275 109.21358835319984 0 109.21358835319984 589.91656986960879 0 0 0 0 113.54052920464892 -97.148711554286365 0 -97.148711554286365 353.01954583608858 0 0 0 0 -201.88803178496892 -90.224609224154619 0 -90.224609224154619 259.6022775016105 0 0 0 0 -223.45532745233504 360.64419157372822 0 360.64419157372822 114.81525157078454 0 0 0 0 -1269.9058363599033 466.6651937512986 0 466.6651937512986 261.10790687959161 0 0 0 0 -242.28529872388754 240.62154676469254 0 240.62154676469254 219.64442888396968 0 0 0 0 -480.31100566359237 14.856050403793233 0 14.856050403793233 138.6772410503354 0 0 0 0 60.460683317942312 269.54206833621902 0 269.54206833621902 205.75889763027226 0 0 0 0 -2.8392080502065369 3.2594824836334553 0 3.2594824836334553 4.2864742104718374 0 0 0 0 -3.409531576995505 109.72340211495975 0 109.72340211495975 -129.31941680180898 0 0 0 0 94.505466643156979 198.92027193363015 0 198.92027193363015 -15.461041361144453 0 0 0 0 95.38284123554331 207.67842710441209 0 207.67842710441209 -41.744610368928988 0 0 0 0 57.698477473713865 294.38437668806 0 294.38437668806 -46.882439819288265 0 0 0 0 -13.558354462123248 11.652295138393953 0 11.652295138393953 -8.7259544769015918 0 0 0 0 -101.08073264293489 70.104202779286425 0 70.104202779286425 -26.557086268625426 0 0 0 0 -74.375416063645389 92.027408036065026 0 92.027408036065026 -104.73217674535044 0 0 0 0 -117.00830562645569 94.066824312139943 0 94.066824312139943 -57.203293444399606 0 0 0 0 -182.4626562489575 115.50669625466617 0 115.50669625466617 -20.558702533595351 0 0 0 0 -65.56505281709542 56.029872089156925 0 56.029872089156925 21.582779644430047 0 0 0 0 -62.125431228138041 50.336375686536485 0 50.336375686536485 30.703490153481653 0 0 0 0 -83.20052607107209 76.336961278488161 0 76.336961278488161 49.768049498487471 0 0 0 0 -56.039123316845917 56.760448791970425 0 56.760448791970425 -2.8296017509482621 0 0 0 0 -16.219331627786502 6.6679843615349057 0 6.6679843615349057 -2.6958204657107672 0 0 0 0 -96.705784025994944 37.337273242519586 0 37.337273242519586 -57.380024412810599 0 0 0 0 -17.445556921389652 40.091381545127661 0 40.091381545127661 -80.308211949028191 0 0 0 0 -1287.8101829286752 661.68336989843374 0 661.68336989843374 1782.0989964484779 0 0 0 0 -98.018277803084459 5.9735209543487215 0 5.9735209543487215 24.247281013473838 0 0 0 0 -93.631584251044842 23.071394981443746 0 23.071394981443746 77.514029404733265 0 0 0 0 -95.911619880615035 24.491242367803352 0 24.491242367803352 85.038069586216807 0 0 0 0 74.098857220815262 -847.27305281568579 0 -847.27305281568579 -1807.4081801103985 0 0 0 0 -175.55090714930975 320.4885726793292 0 320.4885726793292 51.496987380956853 0 0 0 0 -6.8202559711493933 39.092053471866507 0 39.092053471866507 77.827992122911198 0 0 0 0 -42.080498815194005 278.09754444164173 0 278.09754444164173 353.7624406066825 0 0 0 0 -100.86847571906401 88.26647226222849 0 88.26647226222849 -222.29236351468535 0 0 0 0 -613.53472968078131 764.43927670931612 0 764.43927670931612 780.89488815392542 0 0 0 0 -156.71117330883862 412.55705684519489 0 412.55705684519489 -121.91897611307058 0 0 0 0 -501.61058140953537 656.2387737979484 0 656.2387737979484 157.52718934078439 0 0 0 0 -364.33824098302284 354.46300008835124 0 354.46300008835124 558.99613306174706 0 0 0 0 -328.62502658041194 -326.4982934110285 0 -326.4982934110285 61.458112439151591 0 0 0 0 -165.21737840203605 -1191.3714967714727 0 -1191.3714967714727 -802.36800707464772 0 0 0 0 -25.828472035913762 -2.4424588880886535 0 -2.4424588880886535 0.75347526712225843 0 0 0 0 -170.30649197283492 -146.42683997893346 0 -146.42683997893346 -337.80158480315004 0 0 0 0 -137.90020101003756 99.052788884345773 0 99.052788884345773 340.73129528119352 0 0 0 0 -40.309247998346109 -22.339986992436025 0 -22.339986992436025 376.64628072460164 0 0 0 0 36.475051043365966 149.50619957697836 0 149.50619957697836 234.83169122315303 0 0 0 0 -369.12578551782644 293.30267655497028 0 293.30267655497028 258.24060776393856 0 0 0 0 -367.20264589610451 130.66957901737851 0 130.66957901737851 344.37275050093194 0 0 0 0 -456.77075601097022 230.81032911066654 0 230.81032911066654 553.02527999398103 0 0 0 0 -529.58474735704112 495.92821907925907 0 495.92821907925907 24.860790333530531 0 0 0 0 8.0479872065188829 403.14597489267362 0 403.14597489267362 -287.84836888991094 0 0 0 0 0.42910940461712244 4.5312823793009898 0 4.5312823793009898 17.519697969349039 0 0 0 0 -571.82210508202843 148.08493555478617 0 148.08493555478617 675.28200962488836 0 0 0 0 -570.42208724061493 145.12511044780717 0 145.12511044780717 423.18295666583367 0 0 0 0 -364.09056347142177 100.47788353739531 0 100.47788353739531 197.61694947698879 0 0 0 0 -359.75015725374396 42.471986713515435 0 42.471986713515435 279.94750026992551 0 0 0 0 6.0683958718803979 15.048073042050873 0 15.048073042050873 49.247425340629491 0 0 0 0 -335.72392678531469 -16.520182409531117 0 -16.520182409531117 255.66357475322548 0 0 0 0 -244.30585053258983 95.167366225514343 0 95.167366225514343 290.76710369739703 0 0 0 0 -333.10833277102211 -22.912771834721298 0 -22.912771834721298 180.66563264339447 0 0 0 0 -499.46284061105689 -99.075459461798673 0 -99.075459461798673 258.45685288718585 0 0 0 0 -24.868676126599894 0.99683911198226838 0 0.99683911198226838 118.14605144316749 0 0 0 0 -330.01405595687538 23.538170595351403 0 23.538170595351403 329.3984350044484 0 0 0 0 -0.30750002006803356 4.9432272313818828 0 4.9432272313818828 9.8305178335243415 0 0 0 0 -434.13443613929849 211.04060629230759 0 211.04060629230759 372.47923716354592 0 0 0 0 119.21494063816499 419.55943290445975 0 419.55943290445975 332.03579493271218 0 0 0 0 -86.402784601726125 269.8533228261191 0 269.8533228261191 225.66969889756001 0 0 0 0 -95.717093583836686 30.030908043937416 0 30.030908043937416 95.597979775170643 0 0 0 0 -175.01735115311021 516.07039789885596 0 516.07039789885596 -472.24279120712526 0 0 0 0 -180.10552163089596 365.23399893712497 0 365.23399893712497 -433.43517974266899 0 0 0 0 -271.37098736716143 393.33775310907788 0 393.33775310907788 -399.20807900836462 0 0 0 0 -277.76404943609668 -206.93611243709273 0 -206.93611243709273 13.579072596485844 0 0 0 0 -651.64410549215972 912.24410542592841 0 912.24410542592841 -256.94561910636241 0 0 0 0 6.9334458309556339 13.104346125056821 0 13.104346125056821 15.826562311049129 0 0 0 0 406.38056919536029 34.494956671431282 0 34.494956671431282 -790.88530861635263 0 0 0 0 -870.39058170501812 425.46030639374612 0 425.46030639374612 1403.0110520561823 0 0 0 0 222.2654809278647 -452.49436233306727 0 -452.49436233306727 40.650716533044033 0 0 0 0 -883.26720819092588 826.12178263719318 0 826.12178263719318 983.32856037273541 0 0 0 0 -520.98710994660905 365.86690080354902 0 365.86690080354902 -298.60091632607964 0 0 0 0 -152.2360777965223 -339.01075825656926 0 -339.01075825656926 884.25313130776476 0 0 0 0 -243.69927987399569 418.46121001878805 0 418.46121001878805 -300.38004932175249 0 0 0 0 -572.0194862648641 450.74594341180182 0 450.74594341180182 -416.76802048163927 0 0 0 0 -433.01029129402013 446.52511255428294 0 446.52511255428294 -445.40308864330405 0 0 0 0 -402.20804625992605 526.78716109758443 0 526.78716109758443 -629.31494581475454 0 0 0 0 -29.478991496085655 267.31163185597416 0 267.31163185597416 -456.7884435816386 0 0 0 0 -477.74762961731176 431.60872930973096 0 431.60872930973096 -336.88950030373235 0 0 0 0 -64.787079768822878 803.02958908052869 0 803.02958908052869 -987.04990299397389 0 0 0 0 7.3798147043170559 11.240097136551256 0 11.240097136551256 10.651666731854801 0 0 0 0 -545.01602948186337 587.58198504549114 0 587.58198504549114 -379.58155359305692 0 0 0 0 -536.02015397524565 400.8760478575698 0 400.8760478575698 -209.88334553821505 0 0 0 0 -243.75473802708439 305.68409304071974 0 305.68409304071974 -301.54860632307668 0 0 0 0 -3.0118780411620207 -2.2066866267415719 0 -2.2066866267415719 1.1213030172650029 0 0 0 0 -343.41425489983521 268.45798996123722 0 268.45798996123722 -231.95551484406406 0 0 0 0 -4.5748728702930634 3.6162251691416856 0 3.6162251691416856 2.100545486709315 0 0 0 0 -283.58554745171568 119.2064361095554 0 119.2064361095554 -21.533746036932826 0 0 0 0 -25.237409818044398 -4.0383853923849529 0 -4.0383853923849529 10.267865072569066 0 0 0 0 111.70036134551083 105.24567621579703 0 105.24567621579703 85.268619670715452 0 0 0 0 -21.065622205410762 3.3563538175060543 0 3.3563538175060543 5.4693840756549275 0 0 0 0 -34.907602189894533 256.16419798721518 0 256.16419798721518 -64.51866153743137 0 0 0 0 -245.81101641324494 509.78349504467616 0 509.78349504467616 -48.240006147845634 0 0 0 0 -407.99613375151239 -463.71612547846166 0 -463.71612547846166 -276.43486559752279 0 0 0 0 256.48917503244593 -114.89927346837158 0 -114.89927346837158 -312.99939517663296 0 0 0 0 -9.4282223090406205 -0.69011974740029913 0 -0.69011974740029913 0.18215569571722412 0 0 0 0 -993.26537473542339 888.22224086346353 0 888.22224086346353 -186.7919444694603 0 0 0 0 -564.09745210404799 -524.52578896475211 0 -524.52578896475211 374.47445170072115 0 0 0 0 -162.45090721129964 206.31877692737544 0 206.31877692737544 329.82686305928564 0 0 0 0 -17.867657808837691 0.11749484490314543 0 0.11749484490314543 1.4635517196188825 0 0 0 0 -23.415988868175191 57.827293031612044 0 57.827293031612044 164.47696140368407 0 0 0 0 -335.01518215001852 -161.76184659601427 0 -161.76184659601427 805.57867278317735 0 0 0 0 -525.36659450374282 758.88811613562177 0 758.88811613562177 -59.153385252048793 0 0 0 0 -348.48773951952171 447.79234397688833 0 447.79234397688833 231.17000779228465 0 0 0 0 -8.334929803691864 0.35276773669055927 0 0.35276773669055927 0.82637668230175043 0 0 0 0 -443.95197512651794 387.14066581351244 0 387.14066581351244 -144.64434171178254 0 0 0 0 -534.63895164089809 305.33895369318031 0 305.33895369318031 125.41150020583973 0 0 0 0 -273.78821731821517 -221.08942680968994 0 -221.08942680968994 -120.70668199668376 0 0 0 0 -708.8717264883453 236.50244640821074 0 236.50244640821074 120.22051891723538 0 0 0 0 -1224.3454703983371 -524.3561770401343 0 -524.3561770401343 -488.61884275652164 0 0 0 0 -673.01822627790534 96.195023966921099 0 96.195023966921099 -314.74150963201419 0 0 0 0 -957.43644739867887 423.0305367189444 0 423.0305367189444 -131.1846431366211 0 0 0 0 -431.86157527318574 723.44280355095782 0 723.44280355095782 -633.93077489381631 0 0 0 0 -623.04185207643604 135.75138874886352 0 135.75138874886352 -3380.3705361669236 0 0 0 0 0.12763852370520112 3.3980955869194815 0 3.3980955869194815 4.0848152977334298 0 0 0 0 -675.87019501927716 -165.74879830795862 0 -165.74879830795862 -586.62536867203426 0 0 0 0 -805.60904921220936 -1008.9402983250346 0 -1008.9402983250346 -1673.2656647105996 0 0 0 0 -2369.668514984689 -172.86785706469163 0 -172.86785706469163 -355.36231933513329 0 0 0 0 12.014880228030961 -180.10957633786251 0 -180.10957633786251 -581.11829467847349 0 0 0 0 -9.1442218083975604 -324.37601248010998 0 -324.37601248010998 -1119.6577433803736 0 0 0 0 -223.98683290978079 -56.130248195527201 0 -56.130248195527201 -270.05186014491267 0 0 0 0 -292.23705720106227 -310.79727438231521 0 -310.79727438231521 -806.48127017659044 0 0 0 0 -58.53556517920515 -335.84229730409504 0 -335.84229730409504 -804.46771878576703 0 0 0 0 -198.90023029733129 -310.47905007545933 0 -310.47905007545933 -132.15358467237041 0 0 0 0 -344.56382530598785 -103.27454574208775 0 -103.27454574208775 205.34653864989832 0 0 0 0 -65.254383552317165 -15.724855249793123 0 -15.724855249793123 -4.1484794147876167 0 0 0 0 -52.24137538827199 2.9339586231176327 0 2.9339586231176327 -45.374507845412836 0 0 0 0 -1147.7397321198805 375.88837095382041 0 375.88837095382041 51.568677945154377 0 0 0 0 -213.72774290804227 216.11413935939595 0 216.11413935939595 -143.52039378603331 0 0 0 0 -895.7410869190644 641.70611247336637 0 641.70611247336637 -244.96053643362029 0 0 0 0 -24.849087888269082 -4.7143960828532983 0 -4.7143960828532983 -2.0912235684685552 0 0 0 0 -1807.1863470943936 1083.1661513994068 0 1083.1661513994068 -425.98764783993192 0 0 0 0 -1293.233591873257 -94.329615196631494 0 -94.329615196631494 257.90588757159867 0 0 0 0 -2604.5972719774581 49.923850332933853 0 49.923850332933853 435.70771573391903 0 0 0 0 -846.03824259796238 -297.36503425387764 0 -297.36503425387764 -931.7102356010264 0 0 0 0 -555.99018681213784 481.98636830926762 0 481.98636830926762 -982.39227373280755 0 0 0 0 -1317.7528083140933 -294.01763897950445 0 -294.01763897950445 -287.13625052302086 0 0 0 0 -1182.5510830289422 -76.432784672385424 0 -76.432784672385424 -3.7366464282913512 0 0 0 0 -857.46572610823932 -10.383014022165753 0 -10.383014022165753 0.72990595728879271 0 0 0 0 -1066.1704606810817 231.48082110708674 0 231.48082110708674 134.49082983032895 0 0 0 0 -1761.130555525262 229.45773262028797 0 229.45773262028797 179.19110328094757 0 0 0 0 -1090.2335467448866 162.18516594036191 0 162.18516594036191 205.68371227135867 0 0 0 0 -1157.6559247380355 210.22549801748301 0 210.22549801748301 187.37612704094136 0 0 0 0 -721.29097816762805 151.30818933166847 0 151.30818933166847 -25.646424230075354 0 0 0 0 -1316.0640779051319 65.946020742234396 0 65.946020742234396 89.51137380793125 0 0 0 0 -1076.7520432316232 162.38339855807999 0 162.38339855807999 78.984498929759866 0 0 0 0 -717.10849313277868 118.90654413362608 0 118.90654413362608 -179.69308329677733 0 0 0 0 -652.26081008962137 -114.8783353508843 0 -114.8783353508843 -74.453675858487259 0 0 0 0 -566.90942763660132 5.3076827218360449 0 5.3076827218360449 -5.0987139173357718 0 0 0 0 -854.47834917885484 287.91008119525577 0 287.91008119525577 64.687506087960173 0 0 0 0 -633.1912060636314 -58.508468805584471 0 -58.508468805584471 -0.99045848368405132 0 0 0 0 -510.77272951422492 53.114216581029382 0 53.114216581029382 100.9341037726614 0 0 0 0 -234.34061389649287 35.453217963742645 0 35.453217963742645 207.98229388683285 0 0 0 0 -92.84974146168679 293.31081849743214 0 293.31081849743214 143.61973586533713 0 0 0 0 -99.541354532987327 9.5439060390557273 0 9.5439060390557273 5.71286020163235 0 0 0 0 -38.863974526830134 6.7853042326014474 0 6.7853042326014474 2.3263854712186003 0 0 0 0 -18.932489990693057 -0.7691570082193806 0 -0.7691570082193806 8.2648644330505618 0 0 0 0 -15.495362173985274 -9.7429509771461937 0 -9.7429509771461937 6.3481292694108404 0 0 0 0 -9.3419595563900657 -21.543829415216351 0 -21.543829415216351 -5.9975709478985664 0 0 0 0 8.1639008700585691 -7.8395110414912779 0 -7.8395110414912779 -5.6833730210646536 0 0 0 0 12.780436224413279 -42.957326060142577 0 -42.957326060142577 -68.45057768429615 0 0 0 0 23.073194427939598 -4.3211154200580495 0 -4.3211154200580495 -43.728960230274879 0 0 0 0 121.59572680329438 -10.503516902081174 0 -10.503516902081174 13.491976226259794 0 0 0 0 -43.273695184820099 -55.805908994901074 0 -55.805908994901074 164.89675347945558 0 0 0 0 -0.28515293299938094 -6.9930434102920938 0 -6.9930434102920938 5.712515364863437 0 0 0 0 -11.960696169117 -18.279313687668036 0 -18.279313687668036 18.00153984312783 0 0 0 0 8.2899923540135205 -52.226903084618016 0 -52.226903084618016 47.397027921761037 0 0 0 0 -82.744740010995883 -2.6948088411190838 0 -2.6948088411190838 -9.3583679560599649 0 0 0 0 -29.240752645517205 -13.898638093398617 0 -13.898638093398617 7.1315418245270799 0 0 0 0 -46.135910999717396 -34.613625937048532 0 -34.613625937048532 22.612651759275035 0 0 0 0 -11.700923502445221 -21.112782727323065 0 -21.112782727323065 14.907747855002526 0 0 0 0 -86.066533857023671 10.773100584176319 0 10.773100584176319 7.5451576097685908 0 0 0 0 -89.015824755471755 -1.8403529901531499 0 -1.8403529901531499 12.987777819076452 0 0 0 0 -134.93114940158557 -11.85773664653243 0 -11.85773664653243 73.168272564958897 0 0 0 0 -22.372410927045991 8.1774810240702891 0 8.1774810240702891 8.8541522756277828 0 0 0 0 -52.799583318672376 -30.287496945236853 0 -30.287496945236853 80.516064131325038 0 0 0 0 256.27716750410764 -48.288464300508167 0 -48.288464300508167 23.744241276901448 0 0 0 0 10.304975091901724 -180.01955669194194 0 -180.01955669194194 -125.55033106606788 0 0 0 0 -17.146049087343272 -121.50086414653379 0 -121.50086414653379 103.03844340770593 0 0 0 0 23.630477964782131 27.570087681869175 0 27.570087681869175 -120.48908894912711 0 0 0 0 -2.9921284207733834 3.6995861025526082 0 3.6995861025526082 1.2698800200234572 0 0 0 0 -118.14673977092025 1.0030494254360747 0 1.0030494254360747 -10.395492898422162 0 0 0 0 -571.67745574870787 465.82924288062304 0 465.82924288062304 -483.04611347562604 0 0 0 0 -460.84475444794225 489.34842102276093 0 489.34842102276093 -483.72048718225778 0 0 0 0 -599.38961810269393 -75.792005587743915 0 -75.792005587743915 -190.48418227299635 0 0 0 0 -127.02294627099764 -222.85161355766286 0 -222.85161355766286 -271.61705838039074 0 0 0 0 -224.63508564682343 243.91431692378819 0 243.91431692378819 70.70085099654716 0 0 0 0 -589.10691260495514 40.722738061767814 0 40.722738061767814 -545.13640733048669 0 0 0 0 -0.19879775515369147 6.1044744025791591 0 6.1044744025791591 -0.58820479659866232 0 0 0 0 -893.77517808339326 -45.246383500883894 0 -45.246383500883894 26.695464506115968 0 0 0 0 -127.34458317740064 109.53385206988241 0 109.53385206988241 28.801431929607133 0 0 0 0 -87.602396004448451 0.59786508147914219 0 0.59786508147914219 32.182679168785455 0 0 0 0 -41.403989515190915 -14.519861813112982 0 -14.519861813112982 21.826437413425083 0 0 0 0 -711.84556775420788 -37.080607630217855 0 -37.080607630217855 218.06651375318415 0 0 0 0 -215.86767005203001 69.966797809857894 0 69.966797809857894 23.749440986522586 0 0 0 0 -47.272975599800702 -33.282650435813139 0 -33.282650435813139 31.330754211930071 0 0 0 0 -89.969655466076802 63.35488173832789 0 63.35488173832789 -21.314484415604056 0 0 0 0 -17.298040328122227 6.6978689355970289 0 6.6978689355970289 -2.1774074808369797 0 0 0 0 -88.417866504878305 -28.909416527005163 0 -28.909416527005163 31.114792591889106 0 0 0 0 -166.44935114542022 -38.789035607327605 0 -38.789035607327605 55.311107885998354 0 0 0 0 -50.779479092612746 -340.60717919478884 0 -340.60717919478884 -12.506710355820815 0 0 0 0 -27.3533860818793 -16.026712222713655 0 -16.026712222713655 13.436834547940542 0 0 0 0 -39.617626421007913 24.73370125107607 0 24.73370125107607 3.5648193611927752 0 0 0 0 -83.523831807504394 -14.72416109596886 0 -14.72416109596886 -32.067108969180936 0 0 0 0 -126.63764045118296 -1.8524385195751165 0 -1.8524385195751165 9.9801257813112443 0 0 0 0 -84.409962005622219 6.5875092440510343 0 6.5875092440510343 -44.499615390267536 0 0 0 0 -149.13545962174248 -20.496577389936192 0 -20.496577389936192 17.9997657586473 0 0 0 0 -108.10309379096725 -14.377252473467706 0 -14.377252473467706 64.131518198259073 0 0 0 0 -162.22943590773502 -29.269104260208678 0 -29.269104260208678 61.472094219948758 0 0 0 0 -47.110265036583314 -1.402262401825169 0 -1.402262401825169 10.205526617495888 0 0 0 0 -52.240322962436039 -29.362779171012619 0 -29.362779171012619 45.397801565533882 0 0 0 0 -106.38833297666861 -1.5563650664580564 0 -1.5563650664580564 25.798745918721579 0 0 0 0 -6.7530352439103041 -3.9072451384307954 0 -3.9072451384307954 0.46111202137826268 0 0 0 0 -231.54697071172995 -64.999391115703588 0 -64.999391115703588 22.817653873049139 0 0 0 0 -98.358093585595157 1.1270976565784316 0 1.1270976565784316 0.87169055860423317 0 0 0 0 -158.32698450435419 -33.646337579746387 0 -33.646337579746387 -26.930885933405534 0 0 0 0 -100.19004605981172 16.79336863171784 0 16.79336863171784 15.660144467107528 0 0 0 0 -198.34477475393214 -122.0133408564667 0 -122.0133408564667 64.079462921627055 0 0 0 0 -226.19403223929112 93.193709867244081 0 93.193709867244081 5.6890748098203403 0 0 0 0 -434.33984929107828 -116.87612208202108 0 -116.87612208202108 69.868537538839973 0 0 0 0 -63.035597654437879 -11.566830873504621 0 -11.566830873504621 8.3955238465886985 0 0 0 0 -21.024372748339005 -0.59093299806124833 0 -0.59093299806124833 0.63419054240655814 0 0 0 0 -255.78403567745409 32.163759859065969 0 32.163759859065969 -1.5911281113870075 0 0 0 0 -87.181358863418211 5.3694867494385932 0 5.3694867494385932 3.5052527740794708 0 0 0 0 -79.013047766522504 20.81434822775746 0 20.81434822775746 6.9753799657456934 0 0 0 0 -81.069410087948199 19.008109596313155 0 19.008109596313155 6.1768011659875413 0 0 0 0 -71.371429132763296 3.9044531701883898 0 3.9044531701883898 18.912567745954924 0 0 0 0 -69.19508618384134 -7.0039402616636224 0 -7.0039402616636224 4.3854196949447299 0 0 0 0 -74.47475873278745 16.012160349549852 0 16.012160349549852 -21.982083734377198 0 0 0 0 -70.890890245384071 2.4673578075481224 0 2.4673578075481224 -23.254244724344904 0 0 0 0 -183.74785608105594 -47.217427800488807 0 -47.217427800488807 -47.80562247524476 0 0 0 0 -146.01358731929213 -13.240286117121421 0 -13.240286117121421 -17.603347722172444 0 0 0 0 -120.88090279797325 57.709037089173059 0 57.709037089173059 -40.666205077256393 0 0 0 0 -95.333680350973736 -14.478076430626061 0 -14.478076430626061 -124.97311425045963 0 0 0 0 -82.308635108929593 39.169346054257005 0 39.169346054257005 -33.843530980119297 0 0 0 0 -96.818397501669097 6.5917651515821536 0 6.5917651515821536 -12.274815527603522 0 0 0 0 -86.488627820957447 4.2839667564062864 0 4.2839667564062864 0.6484048605286028 0 0 0 0 -80.399124218820361 21.956002283791804 0 21.956002283791804 6.840031989356774 0 0 0 0 -107.35960940373479 18.006035175516804 0 18.006035175516804 77.056758372660326 0 0 0 0 -81.69447222846793 28.396925677763903 0 28.396925677763903 4.2119402417918614 0 0 0 0 -110.46219771838514 18.775437428674635 0 18.775437428674635 18.580830761752438 0 0 0 0 -91.755427479511127 46.574928930793661 0 46.574928930793661 29.365959378998411 0 0 0 0 -39.355547133080108 -50.928154091791654 0 -50.928154091791654 -31.097920597865084 0 0 0 0 -20.999856455217184 -3.4815935583532678 0 -3.4815935583532678 -6.7382091263809585 0 0 0 0 -114.89690133486874 16.175385429117114 0 16.175385429117114 -89.390179739801056 0 0 0 0 -67.826566345834294 -4.5402538663257808 0 -4.5402538663257808 6.8199401440720031 0 0 0 0 -145.95239685056731 99.365393038581828 0 99.365393038581828 26.829959353380445 0 0 0 0 -0.96787495732735351 -0.46611887923742756 0 -0.46611887923742756 -0.327832048641095 0 0 0 0 -152.56345910616074 22.217068187509348 0 22.217068187509348 -12.327028770262288 0 0 0 0 -107.51073055126017 -76.808623377603567 0 -76.808623377603567 -29.8503728704286 0 0 0 0 2.5129668171866797 8.1272697008748196 0 8.1272697008748196 16.843878047749172 0 0 0 0 -117.20561105183151 35.353822167922615 0 35.353822167922615 -7.4463006562472245 0 0 0 0 -53.947111652494641 39.00268771762925 0 39.00268771762925 -7.7147474006096814 0 0 0 0 -149.08451258274727 -19.126687813430841 0 -19.126687813430841 -2.8594943114934495 0 0 0 0 -122.89060940034688 8.5625420661741707 0 8.5625420661741707 8.6700243133735384 0 0 0 0 -61.374724585533841 14.907583100254232 0 14.907583100254232 5.854233773606289 0 0 0 0 7.9461046413343865 16.853280838282167 0 16.853280838282167 -19.803052106868151 0 0 0 0 -57.194487034605118 -3.5303708805830896 0 -3.5303708805830896 0.014453514957217851 0 0 0 0 -60.468281192755967 9.830161144397989 0 9.830161144397989 -6.6132695068308855 0 0 0 0 -94.120634149905527 8.7550261741622943 0 8.7550261741622943 11.888556625664773 0 0 0 0 -71.225559823971707 -8.674679556217658 0 -8.674679556217658 -0.0069713019220327202 0 0 0 0 -87.468284281960223 -19.738504879035506 0 -19.738504879035506 -0.61106431335998579 0 0 0 0 -133.10203890983394 -36.517210214412167 0 -36.517210214412167 -3.5162596249863398 0 0 0 0 -0.21497353912650397 0.00242509191647855 0 0.00242509191647855 0.045622772841599379 0 0 0 0 -156.21035067534831 -33.243493621852139 0 -33.243493621852139 0.074787307835148198 0 0 0 0 -109.47184222293436 -3.3746004233972577 0 -3.3746004233972577 0.36043666429137033 0 0 0 0 -68.684139599616174 -5.6009801907840036 0 -5.6009801907840036 8.0336691533544524 0 0 0 0 -148.35861155301973 -43.781718871041441 0 -43.781718871041441 -6.2590009210691431 0 0 0 0 -0.27293620701766486 -0.018531728331993236 0 -0.018531728331993236 0.039659587624346293 0 0 0 0 -122.87111462956818 31.657449241501894 0 31.657449241501894 6.3450252243339946 0 0 0 0 -250.9767629148846 -30.234284756405863 0 -30.234284756405863 0.027427357456460945 0 0 0 0 -11.852494014019612 39.883456948133656 0 39.883456948133656 -6.4425532952825364 0 0 0 0 1.6858604553723637 0.17123731622575633 0 0.17123731622575633 -0.73416830767864227 0 0 0 0 -3594.2113860643876 223.20200438118241 0 223.20200438118241 326.52506443811365 0 0 0 0 -1893.3498384650156 198.09699756706652 0 198.09699756706652 -1227.659072773354 0 0 0 0 -2014.2906354303414 -238.33614060527998 0 -238.33614060527998 1.8815478519463795 0 0 0 0 -371.3616643177229 -495.40927098700377 0 -495.40927098700377 -756.78123044029667 0 0 0 0 -356.90952500113053 -62.469512816415318 0 -62.469512816415318 -1.7375388739477557 0 0 0 0 -465.58585550990574 -531.78701098642773 0 -531.78701098642773 753.90909376997433 0 0 0 0 -882.22272709646495 -88.948924898425503 0 -88.948924898425503 -434.00594653738153 0 0 0 0 -110.1420499287039 53.715467871304334 0 53.715467871304334 10.799701010336891 0 0 0 0 -2140.5352901165461 -326.1041563702338 0 -326.1041563702338 1906.384061005187 0 0 0 0 -1477.1418784376583 617.043057744826 0 617.043057744826 674.91176794466321 0 0 0 0 -1036.8048103012188 314.35431965196403 0 314.35431965196403 -75.928441271909833 0 0 0 0 -1133.5431714546576 -580.2388732946315 0 -580.2388732946315 -82.200080456736941 0 0 0 0 -1033.8285644909874 1343.3745337603125 0 1343.3745337603125 -1054.9756650566142 0 0 0 0 -109.70874939187382 50.91013671794169 0 50.91013671794169 17.84418531435697 0 0 0 0 -53.362735539826531 -1.4563027922577589 0 -1.4563027922577589 -18.545149665279023 0 0 0 0 -118.33619387611543 16.000355592955117 0 16.000355592955117 127.86777459104337 0 0 0 0 -143.96059259817412 123.30433449386598 0 123.30433449386598 184.32752101910569 0 0 0 0 -149.15424722319585 276.50633855127046 0 276.50633855127046 -69.60413021611248 0 0 0 0 -2853.9284392177942 2202.8610159966192 0 2202.8610159966192 -863.38074929835261 0 0 0 0 -13.374939625754052 -4.8692623152715555 0 -4.8692623152715555 -0.59069474129212995 0 0 0 0 -383.2313724992855 -671.99249189890429 0 -671.99249189890429 140.51385827691661 0 0 0 0 -2632.690784486098 553.12592152650927 0 553.12592152650927 -95.58397948737047 0 0 0 0 -2052.407205447962 -380.77677270337875 0 -380.77677270337875 112.36296678736471 0 0 0 0 -691.71335890487535 -91.836678168250046 0 -91.836678168250046 -417.79096745964034 0 0 0 0 -1446.242309732188 575.09993310084155 0 575.09993310084155 169.92113800332959 0 0 0 0 -2455.8597333992948 59.920677568117981 0 59.920677568117981 188.91302486777522 0 0 0 0 -684.36873503963579 -30.756674012997024 0 -30.756674012997024 -196.1256209917924 0 0 0 0 -0.73413420656436301 -2.0944080579546096 0 -2.0944080579546096 -1.6109653468395462 0 0 0 0 -6.7006119885387534 -5.7700930949433484 0 -5.7700930949433484 -0.99405095909945884 0 0 0 0 0.79047292457471485 -14.739045932390836 0 -14.739045932390836 -4.7178783474852972 0 0 0 0 9.9594367685313046 -13.367333629332762 0 -13.367333629332762 -5.3375843138915116 0 0 0 0 -21.06194949059136 0.2366844059101193 0 0.2366844059101193 2.978012724471375 0 0 0 0 -15.839289576251758 8.7772166644075593 0 8.7772166644075593 -9.0861203045490075 0 0 0 0 -2.7517491526086815 -5.6601834358183796 0 -5.6601834358183796 -0.012243970552811633 0 0 0 0 -2818.5808812431642 998.09437095669114 0 998.09437095669114 83.993732210702433 0 0 0 0 -1.9971830561649995 -0.31673988919860108 0 -0.31673988919860108 1.3248832841601383 0 0 0 0 2.9990105725592002 -6.2546180902844419 0 -6.2546180902844419 -1.291499779720219 0 0 0 0 -6.831006383163583 -1.4669105396177997 0 -1.4669105396177997 0.32013137065924296 0 0 0 0 -6.8702072200248949 -6.1054954176234615 0 -6.1054954176234615 1.9689060576266411 0 0 0 0 -2638.7248110123255 197.58275108335837 0 197.58275108335837 415.64197548433793 0 0 0 0 -1261.3634935665177 -184.2962781767053 0 -184.2962781767053 -1.2328363636402884 0 0 0 0 -2196.867128021855 -74.245026508997512 0 -74.245026508997512 399.72110446840747 0 0 0 0 -2471.3939071292407 718.14393868245702 0 718.14393868245702 -628.82071448660713 0 0 0 0 -2396.0124780765327 294.6925715665534 0 294.6925715665534 -282.80728826431687 0 0 0 0 -1305.4016934813408 520.12694411450138 0 520.12694411450138 320.81563761548023 0 0 0 0 237.82889429636998 -42.741914569440254 0 -42.741914569440254 -46.128100849470229 0 0 0 0 -6.4972861141621934 -0.8552879874799082 0 -0.8552879874799082 -0.26487331308525824 0 0 0 0 -901.59742077324336 248.70243228105818 0 248.70243228105818 40.834891558554119 0 0 0 0 -35.848181708628545 -158.18051811207778 0 -158.18051811207778 0.13118790821717935 0 0 0 0 83.272938560563489 -112.91289724822239 0 -112.91289724822239 -0.021274265660335301 0 0 0 0 25.325795825454406 -97.666554136771381 0 -97.666554136771381 56.452431183875703 0 0 0 0 35.954818360842182 -117.19002003863916 0 -117.19002003863916 141.00798558325803 0 0 0 0 -14.878229976734929 -11.504719485503102 0 -11.504719485503102 6.0423252987219547 0 0 0 0 86.290857368556317 -113.29793318010255 0 -113.29793318010255 54.874574894125857 0 0 0 0 -184.2968210716208 -180.43911461027869 0 -180.43911461027869 488.8006213497103 0 0 0 0 -14.168704106197197 -2.1555276757036594 0 -2.1555276757036594 -0.40863756277685337 0 0 0 0 -1808.0880217252707 -291.21107691983258 0 -291.21107691983258 -0.07803042595552484 0 0 0 0 -2393.163018081912 -9.2182195863825385 0 -9.2182195863825385 123.1376140727624 0 0 0 0 -13.562933681752924 -0.5436391082395744 0 -0.5436391082395744 -1.8075111339717711 0 0 0 0 61.546685959241586 -88.236557809156665 0 -88.236557809156665 56.965168131950605 0 0 0 0 -105.10038104812105 27.33480217096669 0 27.33480217096669 20.34809745228911 0 0 0 0 -2764.683693673127 -602.45864122508465 0 -602.45864122508465 979.84271446571074 0 0 0 0 -993.23923145180015 -901.13193397952205 0 -901.13193397952205 -694.49570802887138 0 0 0 0 -30.480133835197194 -58.778058780618039 0 -58.778058780618039 41.193363565173016 0 0 0 0 -42.33639042074411 -31.217245594428107 0 -31.217245594428107 81.166418539564788 0 0 0 0 -25.884155237663265 -12.198467671964366 0 -12.198467671964366 6.3733840087324296 0 0 0 0 -1514.1417302033515 1093.5285995034947 0 1093.5285995034947 -633.16178195169459 0 0 0 0 -2975.9039473318844 527.44112994943498 0 527.44112994943498 350.36727777273518 0 0 0 0 64.607092885184102 -30.04118893348209 0 -30.04118893348209 -80.033519707727152 0 0 0 0 -22.578202240641986 21.715926715181638 0 21.715926715181638 9.6714977469305268 0 0 0 0 -10.878971348545747 -132.8934929294262 0 -132.8934929294262 213.21520330703333 0 0 0 0 24.542212030850351 -29.421116895896375 0 -29.421116895896375 -98.634669797345623 0 0 0 0 -69.248740000981229 33.570830094361213 0 33.570830094361213 18.139745711319058 0 0 0 0 -168.47618276484718 -173.83541214865727 0 -173.83541214865727 -351.60350401645428 0 0 0 0 -94.740903605927258 50.735954022909723 0 50.735954022909723 9.0789586644195097 0 0 0 0 -164.93133309215773 1.1805177650585392 0 1.1805177650585392 -124.17676597739683 0 0 0 0 5.9171844772790791 -125.56003203671389 0 -125.56003203671389 -51.549285954940387 0 0 0 0 -149.29575874601232 -152.68257769963952 0 -152.68257769963952 -17.176298420610692 0 0 0 0 -24.939116449842416 -58.543319995567799 0 -58.543319995567799 -21.526237755690648 0 0 0 0 -98.41405030723763 58.408438281383042 0 58.408438281383042 -117.94980841752476 0 0 0 0 -1769.876270450608 -44.475002889822008 0 -44.475002889822008 265.55788809869318 0 0 0 0 -25.755504088472563 -51.752391509057503 0 -51.752391509057503 -19.855181628622006 0 0 0 0 -253.16210328257148 100.76382847486593 0 100.76382847486593 -464.21717081808856 0 0 0 0 -2089.0783049532984 425.15137443333288 0 425.15137443333288 346.26395901302749 0 0 0 0 -645.0292597252992 31.085079150066804 0 31.085079150066804 -270.01072798091809 0 0 0 0 -937.72417360523832 353.05479302525146 0 353.05479302525146 -121.65928698839161 0 0 0 0 -1120.5657300899038 -37.189312385610265 0 -37.189312385610265 308.63477324849737 0 0 0 0 -1666.9872148389259 306.09012320606621 0 306.09012320606621 -8.3103627949972179 0 0 0 0 -1058.4533499062672 -61.57726098502701 0 -61.57726098502701 -126.38790819590758 0 0 0 0 -1111.4535232998605 389.84024573787974 0 389.84024573787974 -229.52535094854295 0 0 0 0 -1619.9771393335686 1115.3306413395126 0 1115.3306413395126 -890.70460103722417 0 0 0 0 -1916.2214414550181 -279.33515372235843 0 -279.33515372235843 -963.67396070952645 0 0 0 0 -1791.5249056793255 816.98223473034852 0 816.98223473034852 -182.12497675972122 0 0 0 0 -1335.8339420109769 1032.287638688867 0 1032.287638688867 -88.648175938155191 0 0 0 0 -1810.927120792885 578.50080830944444 0 578.50080830944444 245.30894730006867 0 0 0 0 -1879.2736213700555 588.76686476518978 0 588.76686476518978 255.81396259850305 0 0 0 0 -1497.3559181402452 -278.61345295202659 0 -278.61345295202659 492.1787727282624 0 0 0 0 -164.26016937347595 11.68729265303898 0 11.68729265303898 215.29741601653706 0 0 0 0 -446.63130898700911 -143.20534491960098 0 -143.20534491960098 -47.286845708144028 0 0 0 0 -21.587266852692665 -5.3942632206873213 0 -5.3942632206873213 8.083701326930024 0 0 0 0 -319.99843335669721 68.144847760660241 0 68.144847760660241 195.17902849846016 0 0 0 0 -79.60293554016971 -304.68214993031643 0 -304.68214993031643 -503.27010781490156 0 0 0 0 -181.82923446483619 -182.11655001332815 0 -182.11655001332815 131.92426496176449 0 0 0 0 -90.752526677435128 -29.756503328478921 0 -29.756503328478921 -4.6117210046147852 0 0 0 0 -1110.1856118685537 342.0627959351678 0 342.0627959351678 110.7646265940748 0 0 0 0 10.3134620785425 -16.055099790290178 0 -16.055099790290178 -10.232554756921839 0 0 0 0 261.7772589380329 -217.44924128401567 0 -217.44924128401567 -685.45065459997568 0 0 0 0 -849.96851907484233 -981.10090900251316 0 -981.10090900251316 -783.63422135132146 0 0 0 0 -1660.0018722063542 -717.80339340643661 0 -717.80339340643661 -140.98245008657869 0 0 0 0 -78.473668506092508 -608.75788760034072 0 -608.75788760034072 -605.92537205644419 0 0 0 0 245.22981038503349 -189.98604853166609 0 -189.98604853166609 -1203.1378056867024 0 0 0 0 -25.28565569115608 -4.2702622149477918 0 -4.2702622149477918 3.7782696390672355 0 0 0 0 21.923384853690379 -18.766633297880713 0 -18.766633297880713 -13.601542144065817 0 0 0 0 310.41179865798767 -179.11653312108052 0 -179.11653312108052 -673.26898729374784 0 0 0 0 144.46720111639297 -198.76325324215526 0 -198.76325324215526 -137.17359513878478 0 0 0 0 61.478879657413927 -402.85643691372866 0 -402.85643691372866 3.2806742899265373 0 0 0 0 5.1637795300341622 3.5730150170322155 0 3.5730150170322155 0.53128303696436541 0 0 0 0 435.81609488159302 228.6510360598154 0 228.6510360598154 -68.802730731559109 0 0 0 0 186.56776845129207 -835.47193350584553 0 -835.47193350584553 722.54126956469133 0 0 0 0 -1507.4572720772012 -1066.7300340384854 0 -1066.7300340384854 -743.9092549326333 0 0 0 0 -1015.4404132423624 12.710541320803856 0 12.710541320803856 402.78734711747575 0 0 0 0 -2448.9810324827122 834.94632573918238 0 834.94632573918238 29.670510719510048 0 0 0 0 -9.9834065365597269 -11.284189348021187 0 -11.284189348021187 -13.561846644819216 0 0 0 0 313.17344957824389 138.1181857871976 0 138.1181857871976 -1016.0137336907071 0 0 0 0 344.91125732240471 -37.767323233201935 0 -37.767323233201935 -298.22597766709816 0 0 0 0 96.798892522143433 -222.87322120526812 0 -222.87322120526812 -67.829156350887729 0 0 0 0 -2439.2372155764024 90.912269037276928 0 90.912269037276928 196.62053906298138 0 0 0 0 -3439.0812658699724 167.47403589403029 0 167.47403589403029 213.0412572292098 0 0 0 0 -1339.3919410461094 -282.06142836966683 0 -282.06142836966683 81.705348705027063 0 0 0 0 242.11250492847466 -285.02843029422462 0 -285.02843029422462 -133.92358988912034 0 0 0 0 -19.860399086605383 -29.696715036423086 0 -29.696715036423086 -40.777816969447059 0 0 0 0 81.047306455700891 -83.489338464331126 0 -83.489338464331126 34.880219070238894 0 0 0 0 -218.87182872372796 -272.59315752391785 0 -272.59315752391785 -38.618627181596281 0 0 0 0 -30.23624925439799 -286.40503712616635 0 -286.40503712616635 -252.93905287688574 0 0 0 0 92.678037050238345 -184.92624272284996 0 -184.92624272284996 -180.99067509661438 0 0 0 0 -407.70873319607927 -199.30826110064518 0 -199.30826110064518 52.653276429212525 0 0 0 0 -852.59592399564281 -224.46778697446655 0 -224.46778697446655 141.58403522793679 0 0 0 0 -237.31388195297313 -102.59697852195544 0 -102.59697852195544 106.87223769454869 0 0 0 0 -308.32124228606699 -72.071577910812181 0 -72.071577910812181 105.1780727872933 0 0 0 0 -158.96832494583214 -86.916678544283911 0 -86.916678544283911 98.345596347744987 0 0 0 0 -97.186227374018927 -57.147356018910727 0 -57.147356018910727 4.1104121788622479 0 0 0 0 -24.588693502713312 -40.784983011178241 0 -40.784983011178241 -60.823251048130878 0 0 0 0 -14.902401024657593 -177.91336660877414 0 -177.91336660877414 56.850250765994275 0 0 0 0 -35.896474317384673 -37.777869225679694 0 -37.777869225679694 -77.485527294021779 0 0 0 0 -93.417590783632477 -57.33960900656399 0 -57.33960900656399 3.9843782117195872 0 0 0 0 -129.92068165603268 -20.994990285816584 0 -20.994990285816584 -3.8174872196758542 0 0 0 0 -621.74680078100937 285.32375776636036 0 285.32375776636036 -1199.1385188455206 0 0 0 0 -2784.0385746451311 -516.47035166594037 0 -516.47035166594037 69.15423553941946 0 0 0 0 -309.00555915197037 -302.92750535781852 0 -302.92750535781852 -183.32647288669978 0 0 0 0 -814.94319911228376 552.05122420745101 0 552.05122420745101 -324.66540924722472 0 0 0 0 -2404.515085714389 1016.0927547655901 0 1016.0927547655901 -80.33856185465811 0 0 0 0 -1273.5574424727965 102.55304508206791 0 102.55304508206791 625.9689898437282 0 0 0 0 -107.15009324040989 40.763014490265505 0 40.763014490265505 7.1866885318115443 0 0 0 0 -887.17977996556147 -206.96589598359796 0 -206.96589598359796 0.14128246237042419 0 0 0 0 -1607.4835432836699 141.3108721352842 0 141.3108721352842 153.67164040092212 0 0 0 0 -74.052755372627928 10.512699242114984 0 10.512699242114984 -7.8948449791829516 0 0 0 0 -86.243618533223525 2.5412620129895984 0 2.5412620129895984 2.6038734933473235 0 0 0 0 -68.419470447981439 5.3538813747970835 0 5.3538813747970835 -11.976327091559597 0 0 0 0 -101.54423721712675 39.123719957045054 0 39.123719957045054 0.0096215333713932094 0 0 0 0 -119.0555013580888 -20.642927460305145 0 -20.642927460305145 -176.17065204183746 0 0 0 0 -94.745696778176352 47.549533409517608 0 47.549533409517608 -195.86911621028139 0 0 0 0 -95.376615124513904 14.208620929964297 0 14.208620929964297 -53.56970008660781 0 0 0 0 -64.305235199746676 -119.74050298306518 0 -119.74050298306518 -0.15354780439767296 0 0 0 0 -651.75583200703841 158.13895346611969 0 158.13895346611969 143.66666633589358 0 0 0 0 -154.80002171240631 41.040818272548719 0 41.040818272548719 -6.8856990619869922 0 0 0 0 -129.14712964641512 38.803198461359052 0 38.803198461359052 -22.438836134727566 0 0 0 0 -22.653429223529344 11.114719989334247 0 11.114719989334247 -4.9521941341706937 0 0 0 0 -133.00343382899882 20.868013942691885 0 20.868013942691885 -0.064457470770355657 0 0 0 0 -18.730901921850737 0.59575090975079092 0 0.59575090975079092 0.11553856738820512 0 0 0 0 -59.437623414298287 5.3995594310430732 0 5.3995594310430732 -6.8676358642175481 0 0 0 0 -100.04945308057358 26.098579147536746 0 26.098579147536746 -20.234966613330101 0 0 0 0 -73.484011067368556 10.9892878053397 0 10.9892878053397 -15.997040616437857 0 0 0 0 -255.7512102173896 89.93221515214789 0 89.93221515214789 -134.42068969819184 0 0 0 0 -56.600666849647354 12.148965138719007 0 12.148965138719007 -21.321369439735633 0 0 0 0 61.817190694302553 269.61991996789402 0 269.61991996789402 -214.89853008632758 0 0 0 0 -280.04097254792578 208.46612776243296 0 208.46612776243296 -192.98860595561109 0 0 0 0 -22.297345085098641 214.09925641888231 0 214.09925641888231 -322.47998705850262 0 0 0 0 -240.16006592303165 303.35595915685144 0 303.35595915685144 140.11662163388564 0 0 0 0 -39.971955889264166 4.0234294255388612 0 4.0234294255388612 -1.0562751421012013 0 0 0 0 -64.598324262304232 1.8128742492436101 0 1.8128742492436101 -9.3256719939326835 0 0 0 0 -68.503678063949337 3.8353296938248107 0 3.8353296938248107 -1.046972223510342 0 0 0 0 -74.242064650490647 0.31949694619929137 0 0.31949694619929137 -3.2009676185903273 0 0 0 0 -133.81234878534087 -236.87290609334465 0 -236.87290609334465 -374.57027826442396 0 0 0 0 -13.355169841204543 2.1776232356100529 0 2.1776232356100529 -0.59371596443599151 0 0 0 0 0.48174723657484719 -4.9518044741651011 0 -4.9518044741651011 -1.8395385737875136 0 0 0 0 -41.039627361853491 350.90769011032313 0 350.90769011032313 -1447.7534230458991 0 0 0 0 -774.48603204562096 -308.62160934775375 0 -308.62160934775375 2.2397239970487837 0 0 0 0 -1049.5800910351263 114.42625213511761 0 114.42625213511761 346.07112834460304 0 0 0 0 -298.69534856989048 -520.06143384070674 0 -520.06143384070674 703.73316761709248 0 0 0 0 -939.74348363413264 873.07521313302527 0 873.07521313302527 -56.866677075593998 0 0 0 0 -254.97332319431007 465.8208041019825 0 465.8208041019825 10.226121687717409 0 0 0 0 -146.33998640091158 -323.70487944656088 0 -323.70487944656088 492.96882317848576 0 0 0 0 -25.717700773559045 556.79827436288679 0 556.79827436288679 -1354.4898816782393 0 0 0 0 -82.253440934731486 48.205094600553991 0 48.205094600553991 -17.216190066368924 0 0 0 0 -244.84668578873971 204.83193443536857 0 204.83193443536857 -50.225624334928852 0 0 0 0 -223.63207571273961 116.22520776366446 0 116.22520776366446 197.58061157412703 0 0 0 0 -616.43777680941275 396.26745206240821 0 396.26745206240821 732.67093227721489 0 0 0 0 -97.065194097551284 82.533907649603862 0 82.533907649603862 95.119283601183724 0 0 0 0 -78.753246036329074 -202.72579062926161 0 -202.72579062926161 518.56934689003174 0 0 0 0 -76.399688818128141 42.951399253541823 0 42.951399253541823 -13.313675673768547 0 0 0 0 -361.27521918763523 -239.81778404008583 0 -239.81778404008583 557.23256495765054 0 0 0 0 -39.18076279219531 124.03312191553732 0 124.03312191553732 -206.82524331791683 0 0 0 0 -49.889355376799358 140.1484638357565 0 140.1484638357565 -73.520152060686087 0 0 0 0 -8.0205477601557504 -31.90350250497886 0 -31.90350250497886 -336.54276332633526 0 0 0 0 -405.31748504005373 214.33999009053969 0 214.33999009053969 -48.703971017395816 0 0 0 0 -30.403496176644694 190.37840231695236 0 190.37840231695236 -258.45877131591146 0 0 0 0 -53.577630981148104 256.00436549575306 0 256.00436549575306 -292.14435906046992 0 0 0 0 -464.50247670023236 269.09707228519983 0 269.09707228519983 -11.819106192173422 0 0 0 0 -457.39950819054502 103.10721841307168 0 103.10721841307168 1.8520955684812179 0 0 0 0 -666.01788294001017 4.069127573442529 0 4.069127573442529 -26.907968631141102 0 0 0 0 -190.32439525976952 -16.439892826545126 0 -16.439892826545126 17.02344743650076 0 0 0 0 -218.84971511829644 30.818627391292182 0 30.818627391292182 85.117979192772481 0 0 0 0 -191.92893586214632 -30.971991976769516 0 -30.971991976769516 33.020707186053187 0 0 0 0 -548.17728365898802 76.3680071630979 0 76.3680071630979 159.32832080182561 0 0 0 0 -23.147880043075897 12.4488691727706 0 12.4488691727706 46.213881260245465 0 0 0 0 -374.88902226002392 2.7786373203330186 0 2.7786373203330186 119.00138584493834 0 0 0 0 -509.75146479299292 35.225863234685676 0 35.225863234685676 201.72466082227584 0 0 0 0 -80.744112431459826 51.821357517259415 0 51.821357517259415 -14.394625907078165 0 0 0 0 -2927.9662645044882 164.68499389587791 0 164.68499389587791 260.59954197517243 0 0 0 0 -2995.3277355284663 232.66693788784073 0 232.66693788784073 215.50399056891956 0 0 0 0 -3047.8929309136729 1399.4014858779904 0 1399.4014858779904 -564.48126434950996 0 0 0 0 -4233.480735753692 188.14016021737862 0 188.14016021737862 308.54844322389738 0 0 0 0 -20.295232817938086 -9.6420343294025557 0 -9.6420343294025557 0.026841726203100949 0 0 0 0 -15.861294072002863 -1.1379673961577197 0 -1.1379673961577197 -0.070695686600156654 0 0 0 0 21.731070773632382 -32.177175632357375 0 -32.177175632357375 -371.54617215965459 0 0 0 0 -1281.4515777823981 1039.0420777605168 0 1039.0420777605168 -494.19203647414565 0 0 0 0 -29.561572361349135 -9.9921144317851116 0 -9.9921144317851116 1.1018927931670732 0 0 0 0 -223.33064805642789 -204.23596043291559 0 -204.23596043291559 80.800286678047541 0 0 0 0 16.728779627475888 121.97846919612925 0 121.97846919612925 6.5538531276331469 0 0 0 0 -29.447546517825685 -9.8905876548068807 0 -9.8905876548068807 6.3961640418092696 0 0 0 0 -20.31103752207855 -9.670047362688047 0 -9.670047362688047 -0.0096406434443131045 0 0 0 0 -5.8004407799932665 -0.92698131560081265 0 -0.92698131560081265 3.6758829763015459 0 0 0 0 -32.202223828528076 -14.778419684049357 0 -14.778419684049357 0.008977437294633947 0 0 0 0 -36.510935226164293 -18.292721931273718 0 -18.292721931273718 -4.5780073110254307 0 0 0 0 2.6283200768086203 -1.9264975204279011 0 -1.9264975204279011 -1.9185198982648544 0 0 0 0 -4.7065456478719625 -18.233919493748459 0 -18.233919493748459 6.5207919075868404 0 0 0 0 -10.324894444254198 -11.817840960436598 0 -11.817840960436598 21.96332837795266 0 0 0 0 -11.856768104393268 -25.777769002309469 0 -25.777769002309469 22.287502370576931 0 0 0 0 355.66232470353134 70.822138135261071 0 70.822138135261071 -180.58072693436588 0 0 0 0 -38.055136166047305 -4.1039015969199681 0 -4.1039015969199681 -0.31118134326607105 0 0 0 0 -37.767771803599317 -5.4066970787819173 0 -5.4066970787819173 3.0195062232601231 0 0 0 0 -11.966277111652175 1.4164858617424443 0 1.4164858617424443 -5.1330747213683701 0 0 0 0 74.249484053900233 -216.69182598206226 0 -216.69182598206226 445.10428362326093 0 0 0 0 -31.876497461935514 11.077887417689844 0 11.077887417689844 -11.009714278216418 0 0 0 0 -69.120007574994816 61.331574133148933 0 61.331574133148933 -87.148402693891967 0 0 0 0 63.366183722187998 76.895288011161028 0 76.895288011161028 -117.47855959191111 0 0 0 0 -77.85015181262861 -31.56623658731678 0 -31.56623658731678 59.04320746330859 0 0 0 0 -15.982652255045423 5.1203172976709652 0 5.1203172976709652 4.8293631091917533 0 0 0 0 -10.562872479029465 208.93628462532592 0 208.93628462532592 -72.967600716223387 0 0 0 0 -58.398729588021524 369.27983748206452 0 369.27983748206452 -129.57584568224138 0 0 0 0 -7.3761039559954042 15.789993017163795 0 15.789993017163795 -38.597673702155447 0 0 0 0 -268.70046667486895 315.38425506166368 0 315.38425506166368 186.57397947560912 0 0 0 0 -196.66417326626834 -19.754676835692408 0 -19.754676835692408 120.37854102635447 0 0 0 0 -63.821599693038479 203.47178348634071 0 203.47178348634071 -156.06892006139788 0 0 0 0 -595.85600957932184 83.221796866346267 0 83.221796866346267 -25.235377903608423 0 0 0 0 -889.30915526094032 91.852854388796459 0 91.852854388796459 69.890433710429534 0 0 0 0 -305.4644443106954 198.1855340832326 0 198.1855340832326 -181.38212998265317 0 0 0 0 -583.92286009230884 335.78708792276075 0 335.78708792276075 -102.95043155057965 0 0 0 0 -281.25652000060654 211.04772044958804 0 211.04772044958804 -216.7938064855316 0 0 0 0 -695.42441482571303 220.21065293087599 0 220.21065293087599 23.829607628339545 0 0 0 0 -15.939531253126916 -105.16711403062027 0 -105.16711403062027 89.885344350836135 0 0 0 0 -253.21900623952388 -136.07274565882562 0 -136.07274565882562 -169.67724893717013 0 0 0 0 -1520.7890584703091 189.833435186288 0 189.833435186288 -146.38905784841154 0 0 0 0 -656.51370120141655 387.40631956743619 0 387.40631956743619 -366.24706631787143 0 0 0 0 -1519.6041899932316 199.72081290486585 0 199.72081290486585 -65.233129612436187 0 0 0 0 -689.92828619207103 268.24418191483608 0 268.24418191483608 -352.55126876946952 0 0 0 0 -1280.3928292292112 502.71335973786199 0 502.71335973786199 -2.0011774327135754 0 0 0 0 -483.51627501993789 694.17643664868729 0 694.17643664868729 -638.97065606408705 0 0 0 0 -1313.7115752108657 312.62664936933663 0 312.62664936933663 -811.71601717375688 0 0 0 0 -1038.1378787891881 -223.57220869159744 0 -223.57220869159744 -958.63252359364606 0 0 0 0 -2815.3839863073954 -540.2913896632158 0 -540.2913896632158 -330.9294254826882 0 0 0 0 -2161.9591061134997 398.39088037706711 0 398.39088037706711 245.06278683496873 0 0 0 0 -1934.3023761882978 19.230281131614419 0 19.230281131614419 -9.1102419189624015 0 0 0 0 -1895.0306489566574 201.0807461501613 0 201.0807461501613 -17.956128008388077 0 0 0 0 -2859.8622161669191 -229.60312037199765 0 -229.60312037199765 99.974646000934626 0 0 0 0 702.00895911719272 82.09292716963887 0 82.09292716963887 -1188.5938299631487 0 0 0 0 -2.0038795428570211 -3.3985977803130822 0 -3.3985977803130822 -0.61834180988723197 0 0 0 0 -1233.5027886059834 1385.442574895749 0 1385.442574895749 -1266.75299653868 0 0 0 0 -468.25255054533773 257.50203846267397 0 257.50203846267397 -1945.6160787721985 0 0 0 0 -1425.1317375502986 -488.71059128584579 0 -488.71059128584579 -121.48307977257264 0 0 0 0 8.4630610348540358 -818.06196577636365 0 -818.06196577636365 199.48220622830206 0 0 0 0 -375.09038353682263 752.06621241454513 0 752.06621241454513 -130.06631764330768 0 0 0 0 -1687.3360244970972 881.65584367685528 0 881.65584367685528 -230.29944694283404 0 0 0 0 -930.84199191545486 1263.881710942584 0 1263.881710942584 -1231.053929164088 0 0 0 0 -2380.1178163753939 728.42851928025925 0 728.42851928025925 -74.769447467443456 0 0 0 0 -2.0258566122284094 4.5323206247309997 0 4.5323206247309997 -16.002343469962902 0 0 0 0 -49.020032557833474 -437.46268546454394 0 -437.46268546454394 -1196.7395164753343 0 0 0 0 62.6301281368942 476.85078508956417 0 476.85078508956417 -2109.7065096046026 0 0 0 0 -5.4178449167229701 144.52127078944795 0 144.52127078944795 -763.41914259197472 0 0 0 0 64.915518952824641 107.3110965149217 0 107.3110965149217 -843.28739897512173 0 0 0 0 -139.53577795116507 -239.12907011929474 0 -239.12907011929474 -487.61058408676763 0 0 0 0 86.162236486721667 17.823608103226206 0 17.823608103226206 -574.80332201160854 0 0 0 0 47.341593270408339 234.16212507755694 0 234.16212507755694 -599.69329757477692 0 0 0 0 62.092266364437819 268.39717340063044 0 268.39717340063044 -1022.0710257351481 0 0 0 0 -304.24202839541249 684.69697746629481 0 684.69697746629481 -732.07232858782686 0 0 0 0 -387.25843169703148 613.80285634204847 0 613.80285634204847 -472.30934935118603 0 0 0 0 -155.28948658112495 437.01652362869459 0 437.01652362869459 -334.84595393380823 0 0 0 0 -445.41670911121764 601.67113707406679 0 601.67113707406679 -90.298133658586266 0 0 0 0 20.81813900009729 397.8871881695095 0 397.8871881695095 -326.41369991001011 0 0 0 0 -546.66284915257711 552.95193491914358 0 552.95193491914358 105.0084399253974 0 0 0 0 -521.04857323422038 612.75422463203347 0 612.75422463203347 -45.253857708778014 0 0 0 0 -717.96733419084921 823.55313338577525 0 823.55313338577525 -270.39597895345878 0 0 0 0 -468.14132777173654 961.19222880139569 0 961.19222880139569 -526.69239891620873 0 0 0 0 -26.209801884112721 10.431135084633326 0 10.431135084633326 4.9301963545876806 0 0 0 0 -29.692333027691348 204.41269391846527 0 204.41269391846527 751.29576658799044 0 0 0 0 -565.95524004531762 76.331547277511845 0 76.331547277511845 578.14688128099897 0 0 0 0 -291.87483316916041 302.97911101252464 0 302.97911101252464 -44.144167499305695 0 0 0 0 -901.55539830644557 365.42032931405004 0 365.42032931405004 108.67136708110502 0 0 0 0 -298.24545234328252 222.16898605137203 0 222.16898605137203 -140.8954896225132 0 0 0 0 184.29055369949492 183.17450832268105 0 183.17450832268105 120.92144211692599 0 0 0 0 -10.730176505620989 5.264566766940078 0 5.264566766940078 6.6533977047710238 0 0 0 0 -50.618510936724249 4.8337533838979851 0 4.8337533838979851 11.803474743412572 0 0 0 0 -731.10376000098768 72.834846002148495 0 72.834846002148495 27.401057568650316 0 0 0 0 -42.042237205229753 -7.6777101993067021 0 -7.6777101993067021 6.0993988891598327 0 0 0 0 -610.50157332370873 312.0126713806149 0 312.0126713806149 32.061627149586187 0 0 0 0 10.097731772191764 -31.435351980447848 0 -31.435351980447848 -919.35925026462724 0 0 0 0 -66.014772858805372 39.879660051447615 0 39.879660051447615 49.092538142558169 0 0 0 0 -14.861976510028285 0.87476245657526874 0 0.87476245657526874 16.527990700501398 0 0 0 0 -3.4939744891265363 3.775752025620676 0 3.775752025620676 -11.800202046225039 0 0 0 0 1256.4545067043218 529.49341903642198 0 529.49341903642198 -639.91846202823763 0 0 0 0 -4698.7026723245799 180.868086576927 0 180.868086576927 1125.8234042145123 0 0 0 0 -814.38465413692757 1947.0619541749857 0 1947.0619541749857 -1142.7073738841766 0 0 0 0 295.59528083144687 1208.8789208030848 0 1208.8789208030848 -1018.595611328272 0 0 0 0 -579.36809528633603 923.99973500365422 0 923.99973500365422 -453.77346606666015 0 0 0 0 230.8880197336257 439.00121868822737 0 439.00121868822737 -478.25563447749141 0 0 0 0 66.459707474379684 839.94780034707173 0 839.94780034707173 -916.89028429330597 0 0 0 0 537.27188213513 363.44378244530026 0 363.44378244530026 -564.74603578441065 0 0 0 0 188.13113476801664 449.44254530058743 0 449.44254530058743 -224.48634461208076 0 0 0 0 345.84443710226333 336.04537085693937 0 336.04537085693937 -163.72668861340662 0 0 0 0 248.24298123759218 490.7358985923147 0 490.7358985923147 -177.18412815609554 0 0 0 0 1116.2447619688464 685.6215082228473 0 685.6215082228473 -735.08505928981322 0 0 0 0 321.12394587653398 311.03174781072687 0 311.03174781072687 -312.17431998106065 0 0 0 0 -5283.7739566684031 1713.7582909223427 0 1713.7582909223427 -1035.7808232535076 0 0 0 0 -4.050279970193845 5.7584477978581106 0 5.7584477978581106 1.8515244852981341 0 0 0 0 -538.72437361185439 1.0420950480464057 0 1.0420950480464057 229.70084219387712 0 0 0 0 -0.51892537804664585 9.5056130566479169 0 9.5056130566479169 18.013451055360346 0 0 0 0 -203.29711758759186 54.877274056446517 0 54.877274056446517 116.47230805627235 0 0 0 0 -757.77300174891207 -10.416979576681456 0 -10.416979576681456 111.10981722728138 0 0 0 0 -259.71235061465995 66.730751395689637 0 66.730751395689637 198.49166141153165 0 0 0 0 -299.1135034113413 25.143727106742073 0 25.143727106742073 154.91457299482079 0 0 0 0 -909.33388149633538 -30.681081621395379 0 -30.681081621395379 467.67006503043467 0 0 0 0 -242.32892504092888 690.83080443357949 0 690.83080443357949 -332.66394116678111 0 0 0 0 -329.38787675750791 647.57732819091234 0 647.57732819091234 -331.67777310090969 0 0 0 0 -1045.5755148162134 342.88068881529398 0 342.88068881529398 -2.4508461759905913 0 0 0 0 -231.59243781818077 372.86473575475975 0 372.86473575475975 -362.07717047867891 0 0 0 0 128.69799085796694 347.45235678682639 0 347.45235678682639 -454.32676348013251 0 0 0 0 29.326914413308259 377.23363857109825 0 377.23363857109825 -434.26682307516842 0 0 0 0 136.69171932895551 357.21455868139924 0 357.21455868139924 -443.49242757454977 0 0 0 0 84.243753482762258 102.47815951718894 0 102.47815951718894 -451.15023253948038 0 0 0 0 71.324441270320676 129.67432916060034 0 129.67432916060034 -480.45079143842122 0 0 0 0 172.39003027614672 215.15085580826803 0 215.15085580826803 -486.56948386501472 0 0 0 0 145.52063213000656 234.44307551642743 0 234.44307551642743 -498.98476991964003 0 0 0 0 143.12420162680792 184.98029623528822 0 184.98029623528822 -710.18407330695493 0 0 0 0 138.736127028591 179.93160703245053 0 179.93160703245053 -523.02913399892554 0 0 0 0 128.49095952123753 347.6003838362376 0 347.6003838362376 -407.10198055801493 0 0 0 0 130.06933799854596 346.83558694044677 0 346.83558694044677 -713.20154537544977 0 0 0 0 230.06854541588109 241.51350540261205 0 241.51350540261205 -586.66939742810177 0 0 0 0 233.25260531866115 314.18149210168269 0 314.18149210168269 -443.33528859049011 0 0 0 0 252.91405015302007 296.56512057127429 0 296.56512057127429 -387.19153713125706 0 0 0 0 291.38862904417329 453.68248966276133 0 453.68248966276133 -268.35365188712331 0 0 0 0 217.04525813192595 323.20229801458163 0 323.20229801458163 -381.99441039704607 0 0 0 0 150.48582891066326 468.51737292705138 0 468.51737292705138 -389.46102333386352 0 0 0 0 -28.263446087483317 656.81957429631143 0 656.81957429631143 -592.19450115518259 0 0 0 0 189.15438397432445 424.36338720321476 0 424.36338720321476 -453.54155750457357 0 0 0 0 228.00665733963251 282.2192925294471 0 282.2192925294471 -393.80382385533858 0 0 0 0 192.39245695131831 314.97127169702082 0 314.97127169702082 -438.00180049525136 0 0 0 0 261.78917400393402 381.31182518946889 0 381.31182518946889 -383.89327154307603 0 0 0 0 167.3147324078891 358.26645912884965 0 358.26645912884965 -216.12485279418343 0 0 0 0 257.87819149211282 394.74792511343912 0 394.74792511343912 -216.2248705508344 0 0 0 0 178.69658964184055 366.84369079962653 0 366.84369079962653 12.181784596744365 0 0 0 0 145.86224244529149 382.10355009201271 0 382.10355009201271 71.606078607621384 0 0 0 0 233.30162599935284 300.57383524062703 0 300.57383524062703 -245.20994743166648 0 0 0 0 190.56914814386982 405.35428057566514 0 405.35428057566514 -154.16059055941241 0 0 0 0 139.25766717005172 428.51347160213959 0 428.51347160213959 220.85763343926192 0 0 0 0 157.4331055728253 395.65596134162297 0 395.65596134162297 67.729063271629457 0 0 0 0 169.86785870947642 540.91296254146482 0 540.91296254146482 374.50472840291513 0 0 0 0 303.09231538484164 440.21564755620375 0 440.21564755620375 16.318753431505684 0 0 0 0 42.956428649602458 257.32917144172461 0 257.32917144172461 584.15069583525292 0 0 0 0 59.30246911571885 280.94980410790868 0 280.94980410790868 313.05018225353706 0 0 0 0 24.393608463424243 463.32912677622784 0 463.32912677622784 -118.32340994339211 0 0 0 0 320.99094725650502 357.11362056185317 0 357.11362056185317 -87.693192390630429 0 0 0 0 184.65316742681898 538.0516552708259 0 538.0516552708259 549.56014765028158 0 0 0 0 270.78225229674717 972.68174951342189 0 972.68174951342189 720.1065150284262 0 0 0 0 444.34949233051157 807.76493768299588 0 807.76493768299588 246.18445275323847 0 0 0 0 122.22807201236719 327.65332215443232 0 327.65332215443232 60.117855194188451 0 0 0 0 -6.060493526913433 4.7715114157191962 0 4.7715114157191962 1.2476991244135367 0 0 0 0 744.86057993021677 1295.2893549095515 0 1295.2893549095515 -3317.3112332917626 0 0 0 0 -170.39397092757281 628.15172369605079 0 628.15172369605079 -1193.4394043968714 0 0 0 0 11.149615539396336 1.2722170750025743 0 1.2722170750025743 0.15116137023554543 0 0 0 0 -1052.9680592384248 635.96238369315142 0 635.96238369315142 437.74989790484415 0 0 0 0 1217.6484950066078 377.52334874123426 0 377.52334874123426 -2940.0693140046351 0 0 0 0 -120.10706043793471 387.359083395173 0 387.359083395173 1597.4591700986784 0 0 0 0 -219.88269360209233 257.23205692963938 0 257.23205692963938 -110.07292406451609 0 0 0 0 -664.11604007711867 1525.4505005360743 0 1525.4505005360743 -1852.7854061053622 0 0 0 0 -279.20952838441735 130.87384298751545 0 130.87384298751545 -352.98169972073629 0 0 0 0 146.90493289922597 280.39346191551067 0 280.39346191551067 262.62766202311241 0 0 0 0 30.657770522464261 36.058159425761922 0 36.058159425761922 -3.7778907232957151 0 0 0 0 -5907.7067044512587 -69.1496299467386 0 -69.1496299467386 436.05116430016386 0 0 0 0 -22.286590378809521 13.125109150586098 0 13.125109150586098 -28.44532822214882 0 0 0 0 -1900.9442184898289 378.5323153776792 0 378.5323153776792 -459.36524342298236 0 0 0 0 146.04072818681016 289.78471180742645 0 289.78471180742645 301.89230836904244 0 0 0 0 838.62346304117818 42.999850022460578 0 42.999850022460578 133.48553196079229 0 0 0 0 178.64989232513472 332.01833800847453 0 332.01833800847453 334.53371460284689 0 0 0 0 189.15470726511558 251.72615211781522 0 251.72615211781522 335.136377147438 0 0 0 0 203.68127165487385 272.65395282947247 0 272.65395282947247 127.76496641878293 0 0 0 0 -1314.8963818016928 1063.6224203162703 0 1063.6224203162703 -202.99749844653439 0 0 0 0 -1509.7897239994199 190.67318475489432 0 190.67318475489432 -810.00724975936134 0 0 0 0 -2683.8272818599362 -352.45081406360424 0 -352.45081406360424 -215.80757914141054 0 0 0 0 -97.41086659004452 -17.699888080756914 0 -17.699888080756914 -5.8737525674658366 0 0 0 0 -1619.1135119673563 -105.15969832563314 0 -105.15969832563314 -91.483677916115084 0 0 0 0 -1709.4550944442453 -359.6321616491 0 -359.6321616491 -44.345131316274092 0 0 0 0 -1537.0814083979494 -55.087546630684301 0 -55.087546630684301 27.656069421102075 0 0 0 0 -279.81135171593633 280.79301889190742 0 280.79301889190742 -93.17356841504261 0 0 0 0 -36.233725618453036 100.50984397444878 0 100.50984397444878 19.818584347151997 0 0 0 0 -2207.8009314725205 -215.53995727945812 0 -215.53995727945812 107.25700917006043 0 0 0 0 -1293.0479626694432 -344.58896041167918 0 -344.58896041167918 -175.00609016040653 0 0 0 0 -1784.7809467504121 -70.038785344471307 0 -70.038785344471307 -118.6988758911948 0 0 0 0 -1943.3546963197587 -336.37757934081242 0 -336.37757934081242 -33.225315791456865 0 0 0 0 -1346.0808991031008 -135.9558028817271 0 -135.9558028817271 -229.51246625215106 0 0 0 0 -37.410141948232102 110.38588575723196 0 110.38588575723196 15.239375495170867 0 0 0 0 -2301.7006115948461 -199.82815029119479 0 -199.82815029119479 104.79154371301001 0 0 0 0 -267.22573192171694 54.576654403889698 0 54.576654403889698 -74.376812699856117 0 0 0 0 -277.7796541267744 40.655940962422278 0 40.655940962422278 -74.113420990294117 0 0 0 0 -218.97794878810237 34.239967395759493 0 34.239967395759493 -81.797037880669222 0 0 0 0 -468.62455018565379 -12.998086003860038 0 -12.998086003860038 158.24515417085377 0 0 0 0 -87.361931330931839 -14.110529354759365 0 -14.110529354759365 54.624032859170711 0 0 0 0 -240.19635008964906 97.941709359958807 0 97.941709359958807 -20.561962171243948 0 0 0 0 -236.95231727403007 145.25762106775187 0 145.25762106775187 430.12587168988603 0 0 0 0 -171.74222804652527 -67.499665923317252 0 -67.499665923317252 38.040867802507364 0 0 0 0 -272.85685996178654 384.24125687467267 0 384.24125687467267 347.48736697595177 0 0 0 0 -161.53791525971292 673.5839453081162 0 673.5839453081162 1071.3892394578206 0 0 0 0 -150.69078796618214 437.32262384929322 0 437.32262384929322 -172.76259195540661 0 0 0 0 68.208083917939803 58.620865145644984 0 58.620865145644984 452.78428370855249 0 0 0 0 -328.22468364346423 -11.556363425374002 0 -11.556363425374002 1992.8873823676038 0 0 0 0 -162.09805547642463 241.79063711882225 0 241.79063711882225 1010.7946184431967 0 0 0 0 88.185797023499617 -56.345137402333876 0 -56.345137402333876 899.60651932327073 0 0 0 0 -35.957322704271064 308.35955664352525 0 308.35955664352525 673.8716165740102 0 0 0 0 -217.31311019149143 181.92841399595045 0 181.92841399595045 843.58783549379496 0 0 0 0 -130.3088352533814 276.89182423536454 0 276.89182423536454 809.98109902376143 0 0 0 0 101.54804350114136 108.39922940499605 0 108.39922940499605 352.6394277074462 0 0 0 0 -241.73083756920823 211.95392809285576 0 211.95392809285576 811.27499259972979 0 0 0 0 -151.91358674364164 76.766787657392342 0 76.766787657392342 449.90760835321316 0 0 0 0 -181.27225595312848 248.99046734520766 0 248.99046734520766 353.07914259706604 0 0 0 0 -861.42450277155876 6.2771879089174121 0 6.2771879089174121 581.78600312167896 0 0 0 0 -193.43448536073993 -193.38037204704165 0 -193.38037204704165 248.93475504622188 0 0 0 0 -194.07377851486672 647.77338540325889 0 647.77338540325889 733.00265622839697 0 0 0 0 -86.627028793540376 -103.60501822315481 0 -103.60501822315481 546.22585339266948 0 0 0 0 -4.1528917980600681 -0.53369221476341977 0 -0.53369221476341977 1.985704375403099 0 0 0 0 -74.586871399267693 73.400011783617998 0 73.400011783617998 24.442945062085087 0 0 0 0 -78.20322973576549 78.13077870426244 0 78.13077870426244 26.011234358047417 0 0 0 0 -778.37931339793431 269.67404587495065 0 269.67404587495065 11.523022725004012 0 0 0 0 -94.578145024686819 61.065258846102751 0 61.065258846102751 -109.21955188322471 0 0 0 0 -33.921393964526942 115.2430078084341 0 115.2430078084341 -0.92933596522455275 0 0 0 0 -192.55638817793806 353.90437089028364 0 353.90437089028364 253.32657523754233 0 0 0 0 89.130857622876647 27.076264689577183 0 27.076264689577183 -19.92682867843682 0 0 0 0 0.60675544174429774 0.059209840088243482 0 0.059209840088243482 -2.1922807777694238 0 0 0 0 -485.65429914546257 298.01513695662055 0 298.01513695662055 -41.52229692659111 0 0 0 0 -239.98749685950315 142.51077068630681 0 142.51077068630681 -130.75110405818373 0 0 0 0 -380.10741860425333 222.34735906065725 0 222.34735906065725 -130.9998454276647 0 0 0 0 -410.58707819454139 202.0167590730764 0 202.0167590730764 -119.14682472466797 0 0 0 0 -6.9684877665341105 5.1986884496585049 0 5.1986884496585049 -9.6350311813355418 0 0 0 0 5.4281198005337501 8.7054680663083843 0 8.7054680663083843 -44.773782934811948 0 0 0 0 -11.199956360529882 3.2845284765599843 0 3.2845284765599843 7.2636606519188156 0 0 0 0 -24.746770381287206 17.861868121295743 0 17.861868121295743 -19.19868072394695 0 0 0 0 -25.364132081434946 54.646427944322234 0 54.646427944322234 -56.515693402808523 0 0 0 0 -17.750722449651221 41.495026282595745 0 41.495026282595745 -2.2022918286694733 0 0 0 0 -37.442800662407535 12.501465200912236 0 12.501465200912236 -44.200243802721985 0 0 0 0 -9.9087143416370509 2.1354290542807064 0 2.1354290542807064 0.50540700165611474 0 0 0 0 -105.15128117175846 -50.563136497595679 0 -50.563136497595679 -31.11542627064955 0 0 0 0 -45.806432298413711 62.864510773259212 0 62.864510773259212 -42.312878362596507 0 0 0 0 -138.08869725903787 91.210491583399744 0 91.210491583399744 51.94267374741321 0 0 0 0 -21.043379637863751 30.825642543550174 0 30.825642543550174 -42.218969939205969 0 0 0 0 -46.864235904737143 37.926869963814852 0 37.926869963814852 -30.938880017567271 0 0 0 0 -113.56227952914196 59.150939088796804 0 59.150939088796804 46.07239820495306 0 0 0 0 -51.510167316213483 50.178358278285941 0 50.178358278285941 -35.547480455179766 0 0 0 0 -142.41857324247758 114.32514203374524 0 114.32514203374524 54.529417882953567 0 0 0 0 -33.035745027475059 25.412186416249028 0 25.412186416249028 -20.249052286363394 0 0 0 0 -13.580710464651929 30.788787713131313 0 30.788787713131313 -32.181669636366223 0 0 0 0 -34.270583025994711 45.657576388771531 0 45.657576388771531 -41.642611979333878 0 0 0 0 -549.20487337515078 3.1188869486483668 0 3.1188869486483668 12.948834733537524 0 0 0 0 -6.391516366688677 -2.7102252291625462 0 -2.7102252291625462 4.7887620729320171 0 0 0 0 -133.06528658122988 35.599007897389129 0 35.599007897389129 -105.81389715166119 0 0 0 0 -529.70254949884838 146.38574742054379 0 146.38574742054379 2.1928025758837606 0 0 0 0 -585.09569074847968 -29.188329507449453 0 -29.188329507449453 -2.5776927408858228 0 0 0 0 -242.53426677410971 5.4597083182413826 0 5.4597083182413826 -94.409617672457898 0 0 0 0 -229.62820982999983 -34.480987147525298 0 -34.480987147525298 23.006455899104367 0 0 0 0 -503.29215691346326 -57.646440603537258 0 -57.646440603537258 -178.5865547908943 0 0 0 0 -489.11139631438709 29.857371412214889 0 29.857371412214889 28.737129497613751 0 0 0 0 -112.97799700159521 129.84077762535048 0 129.84077762535048 42.332114369110059 0 0 0 0 156.62444169915398 117.14909173261367 0 117.14909173261367 16.863581980600429 0 0 0 0 38.889577230991563 34.090301253274902 0 34.090301253274902 38.705417236255016 0 0 0 0 -90.059453173491647 112.95463662661616 0 112.95463662661616 7.0082253791406401 0 0 0 0 -113.04304681980284 55.940892523376533 0 55.940892523376533 94.562036692235779 0 0 0 0 -102.91701505699893 21.802324703202885 0 21.802324703202885 -26.794117613007984 0 0 0 0 -89.726926171847936 94.594024104186161 0 94.594024104186161 62.080708618879726 0 0 0 0 14.97840566461673 146.81426632454532 0 146.81426632454532 67.04312986509558 0 0 0 0 -124.6163749616826 82.14749784945343 0 82.14749784945343 57.8248355676551 0 0 0 0 -39.913469388091471 114.64252340001985 0 114.64252340001985 54.360249442601344 0 0 0 0 -57.636263386637438 34.720787014000962 0 34.720787014000962 54.699230283120414 0 0 0 0 -57.636263387161307 34.720787013997324 0 34.720787013997324 54.699230283120414 0 0 0 0 -57.636263386870269 34.720787014142843 0 34.720787014142843 54.699230283047655 0 0 0 0 29.340329006226966 70.346215277998908 0 70.346215277998908 -82.189663681858519 0 0 0 0 -15.707402110334044 21.115847826003403 0 21.115847826003403 -28.969599452485955 0 0 0 0 182.84822805022122 289.60855266206818 0 289.60855266206818 88.897869062282552 0 0 0 0 -67.120576252229512 219.09586269162537 0 219.09586269162537 272.48455802257286 0 0 0 0 -41.319348527555121 135.11293596452379 0 135.11293596452379 158.17864078834828 0 0 0 0 -158.200969050813 15.187448352708998 0 15.187448352708998 77.058397002816491 0 0 0 0 -133.90135222062236 12.855779830423671 0 12.855779830423671 28.314971841387887 0 0 0 0 -52.869531089459869 -10.625025088853761 0 -10.625025088853761 14.71419557516337 0 0 0 0 -184.03004945973953 -1.3069509063220721 0 -1.3069509063220721 -14.970785293757217 0 0 0 0 -177.02677935559768 -21.578257099594339 0 -21.578257099594339 42.051645333019223 0 0 0 0 -397.37160028242283 134.02463625768362 0 134.02463625768362 -23.377901393074353 0 0 0 0 -348.04370788609958 89.702235336976173 0 89.702235336976173 -28.599832810018654 0 0 0 0 -12.857582194892302 -11.580766851512578 0 -11.580766851512578 30.487839381222379 0 0 0 0 -5221.1339045509667 1052.8417240969957 0 1052.8417240969957 328.58197831324765 0 0 0 0 -438.46464334885241 113.59864751657005 0 113.59864751657005 -31.743626078320688 0 0 0 0 -2817.2996375965886 182.66351309796846 0 182.66351309796846 -685.38832230915432 0 0 0 0 -2873.0289831964292 95.371867598551944 0 95.371867598551944 -549.68668852257542 0 0 0 0 -8666.4343147804029 -2059.6143128836939 0 -2059.6143128836939 995.42866770962246 0 0 0 0 -39.50185636479803 138.29467009227 0 138.29467009227 -33.764910303117055 0 0 0 0 -2809.7494382968471 270.99109643842348 0 270.99109643842348 -309.36457326999516 0 0 0 0 374.97805805924872 -2788.0094692536177 0 -2788.0094692536177 1884.5379375019947 0 0 0 0 -4758.1170742692339 2793.6120971452465 0 2793.6120971452465 -819.2382470681514 0 0 0 0 -4198.8328819728413 242.94324834202416 0 242.94324834202416 -151.91294740841658 0 0 0 0 -3380.9739542386233 2139.1277567788802 0 2139.1277567788802 -1252.94355886844 0 0 0 0 -35.68402609533436 -13.757600647924662 0 -13.757600647924662 -2.155105753516132 0 0 0 0 1400.467112938044 -690.00570300692198 0 -690.00570300692198 296.45666308658838 0 0 0 0 -49.950653197673091 -695.82388286698779 0 -695.82388286698779 104.8495244139649 0 0 0 0 -733.4657269584568 -298.65838376085867 0 -298.65838376085867 377.76332698758074 0 0 0 0 -2642.3428283902176 -1537.0223461561372 0 -1537.0223461561372 1602.6166533658095 0 0 0 0 -2230.5584062099879 -4.2409444403538146 0 -4.2409444403538146 -297.18495789907593 0 0 0 0 -1362.488792494245 -658.81933726511033 0 -658.81933726511033 107.35169886361109 0 0 0 0 -465.14537131806719 -299.8277268939828 0 -299.8277268939828 -338.09501853333495 0 0 0 0 -1382.2705713658506 -410.05156499242344 0 -410.05156499242344 -301.91427714428596 0 0 0 0 -2520.9603098682928 -470.33308407412164 0 -470.33308407412164 -92.512899482167541 0 0 0 0 -1342.8026012950031 -448.31128998351289 0 -448.31128998351289 -449.48525651619002 0 0 0 0 -39.93472688324465 118.41536069268035 0 118.41536069268035 1.0826018749081125 0 0 0 0 -277.22317643494171 46.211114787801989 0 46.211114787801989 -55.189128989915844 0 0 0 0 -346.21832453290699 119.29413289496733 0 119.29413289496733 1.5733809863781971 0 0 0 0 -302.28290667181136 103.00718338959791 0 103.00718338959791 -110.02008198340263 0 0 0 0 -347.42105428362993 89.265472815106818 0 89.265472815106818 -72.066498934554147 0 0 0 0 -370.06884685886325 164.87735478934019 0 164.87735478934019 -111.86538101350607 0 0 0 0 -397.35924942538259 136.92371256688921 0 136.92371256688921 -16.771037366115706 0 0 0 0 -346.63894674346375 114.4100793854841 0 114.4100793854841 -25.128118365640148 0 0 0 0 -529.55474034186045 111.57903427151041 0 111.57903427151041 -1.5542091582183275 0 0 0 0 -333.10639555752277 137.22721630535489 0 137.22721630535489 -50.864864131726335 0 0 0 0 -3319.6870436366589 -222.413739070568 0 -222.413739070568 941.25582977112754 0 0 0 0 -301.93864411873074 134.09667109444945 0 134.09667109444945 -52.263738034247581 0 0 0 0 -44.856288632765711 131.37126870946292 0 131.37126870946292 -23.148132955490496 0 0 0 0 -332.82678469535313 140.32622923548524 0 140.32622923548524 -16.974599733787727 0 0 0 0 -1390.4891395562736 -123.4488120755625 0 -123.4488120755625 75.247798034796574 0 0 0 0 -1547.6814890685928 -21.336600134956143 0 -21.336600134956143 12.893624833967351 0 0 0 0 -1536.3484124615031 -363.01702302652257 0 -363.01702302652257 -22.989026658813827 0 0 0 0 -1911.506840246584 -190.59209481843192 0 -190.59209481843192 136.98786540195556 0 0 0 0 -2.3410983624065977 -1.3636908354225739 0 -1.3636908354225739 0.21814139162410839 0 0 0 0 -560.59744121269614 -141.95823659121925 0 -141.95823659121925 65.864037934746861 0 0 0 0 -940.52106999579701 71.02738943069869 0 71.02738943069869 112.86909895177041 0 0 0 0 -842.69974702430773 193.92054093782781 0 193.92054093782781 -13.816409781984248 0 0 0 0 -733.4838494824362 74.140380597265334 0 74.140380597265334 91.821866919409786 0 0 0 0 -918.19802419680491 177.77917065326642 0 177.77917065326642 5.5418942484061517 0 0 0 0 -792.92700149671873 292.42549498928838 0 292.42549498928838 -39.851951430712688 0 0 0 0 -1218.692192862145 489.43672524344311 0 489.43672524344311 -14.440937439660502 0 0 0 0 -566.38032452871266 378.24741111905348 0 378.24741111905348 -228.45035565578837 0 0 0 0 -283.07981614686287 -92.969907427972714 0 -92.969907427972714 -54.776832967017071 0 0 0 0 127.32307979502366 -136.46033067815813 0 -136.46033067815813 -819.97708636550806 0 0 0 0 -366.22535934118787 -652.68566440705536 0 -652.68566440705536 -787.63855755350346 0 0 0 0 -13.531477395292711 -6.260135532633285 0 -6.260135532633285 -4.093283427742108 0 0 0 0 -1781.8495987097849 728.75728248718713 0 728.75728248718713 -252.76715235282904 0 0 0 0 -1506.2512803291538 -299.77970548375902 0 -299.77970548375902 -685.83914034893451 0 0 0 0 -2027.4832177404769 -343.95213589396405 0 -343.95213589396405 -114.56688607976366 0 0 0 0 -1554.7656525952043 -113.25324884605914 0 -113.25324884605914 -142.10963276064103 0 0 0 0 -1448.0704484202724 -95.177122699949905 0 -95.177122699949905 -231.02562382886777 0 0 0 0 -1397.5959832792578 -245.02899536396137 0 -245.02899536396137 -150.64413906180471 0 0 0 0 -1479.1191993069078 -158.95069624900225 0 -158.95069624900225 8.5717821989233016 0 0 0 0 -1414.0643382313629 -313.07259017976719 0 -313.07259017976719 -25.083954108719809 0 0 0 0 -1167.8305913947261 -143.25203600875363 0 -143.25203600875363 35.067378985304913 0 0 0 0 -840.81477273155178 -82.356184308108595 0 -82.356184308108595 31.235537212702411 0 0 0 0 -891.27306611540553 -261.00256025919111 0 -261.00256025919111 -122.41869511632979 0 0 0 0 -576.94678983077392 -42.787551068017024 0 -42.787551068017024 -34.043717733462472 0 0 0 0 -1214.5037298861134 -302.05369779302089 0 -302.05369779302089 3.2031280955766874 0 0 0 0 -842.11505219330138 -144.71656387986241 0 -144.71656387986241 37.876428631517911 0 0 0 0 -1000.6386958320072 -39.191123743915796 0 -39.191123743915796 104.50318290195491 0 0 0 0 -1216.0862498611823 -158.24208694418803 0 -158.24208694418803 90.574431286529148 0 0 0 0 -1450.4638222934736 -271.68455381981914 0 -271.68455381981914 149.45834700916646 0 0 0 0 -1455.4981505900578 -300.32341221587757 0 -300.32341221587757 22.20864428300888 0 0 0 0 -1389.9212646444066 -288.10731160470158 0 -288.10731160470158 112.37150097125152 0 0 0 0 -1509.7377859090775 -359.77335059302129 0 -359.77335059302129 196.32846503789506 0 0 0 0 -1741.4324580536195 -326.93215118109663 0 -326.93215118109663 316.16517468902816 0 0 0 0 -1440.67195368998 -468.95167389338815 0 -468.95167389338815 254.80881113176019 0 0 0 0 -1371.8779678060382 -96.345730478012911 0 -96.345730478012911 137.39682394933789 0 0 0 0 -1686.74547580324 -166.50924211913463 0 -166.50924211913463 530.20118958194018 0 0 0 0 -1702.7339834824816 -44.586134980710412 0 -44.586134980710412 279.45335254687228 0 0 0 0 -1744.0261679450196 551.44885364612901 0 551.44885364612901 -70.698536813760867 0 0 0 0 -2023.2516190611932 -265.27658426401882 0 -265.27658426401882 524.11507324484023 0 0 0 0 -1855.6484690750513 565.38056118691941 0 565.38056118691941 635.0215579216017 0 0 0 0 -1858.4102037996636 -176.04032053030963 0 -176.04032053030963 498.31254501141734 0 0 0 0 -956.49985178283532 -569.00183278280053 0 -569.00183278280053 217.48606873930828 0 0 0 0 -1573.9442846527745 -456.27181216027088 0 -456.27181216027088 285.07923198848584 0 0 0 0 -1944.5173597142784 -563.29291560123863 0 -563.29291560123863 418.94101661835271 0 0 0 0 -1574.5938237362716 -456.08172069435381 0 -456.08172069435381 415.8397265258576 0 0 0 0 -1589.6629631384712 -568.04804657132763 0 -568.04804657132763 229.61722019219457 0 0 0 0 -1614.5495173245436 -650.27015907378325 0 -650.27015907378325 294.28812314623951 0 0 0 0 623.97654584029806 -731.50958714382728 0 -731.50958714382728 212.44682063331936 0 0 0 0 259.70491611064062 -751.70295703530996 0 -751.70295703530996 220.92896981287674 0 0 0 0 -1041.1032361873804 92.502230668647258 0 92.502230668647258 94.349860727017131 0 0 0 0 81.897569708431547 -492.55218962876188 0 -492.55218962876188 329.75288575375589 0 0 0 0 -1.2604036862081642 -1.434762485737707 0 -1.434762485737707 0.11314409002881476 0 0 0 0 -901.37075115081097 -212.71592026437179 0 -212.71592026437179 192.36581845870228 0 0 0 0 -749.22890524971808 55.054149672932425 0 55.054149672932425 31.850471562079747 0 0 0 0 -2.8862209474241638 -3.1723805865595125 0 -3.1723805865595125 0.44909903448446098 0 0 0 0 -945.54007144270872 -369.06658040083971 0 -369.06658040083971 136.64275545927489 0 0 0 0 -1162.0659750906998 -198.49677052338819 0 -198.49677052338819 89.023917723851582 0 0 0 0 -803.62104318052297 166.33348001129582 0 166.33348001129582 85.028514435686247 0 0 0 0 -861.36433810798917 113.44980942139711 0 113.44980942139711 67.460611806025099 0 0 0 0 -842.31949727944448 82.77141329271285 0 82.77141329271285 100.67001306654345 0 0 0 0 -789.36071688252559 120.19481833973441 0 120.19481833973441 -37.687622593486594 0 0 0 0 -819.53301655640826 128.84259388022951 0 128.84259388022951 63.554878889814489 0 0 0 0 -766.5900444361032 112.11613813572399 0 112.11613813572399 -141.85644799408283 0 0 0 0 -929.44469517969992 147.94160315557883 0 147.94160315557883 -41.69591432748939 0 0 0 0 -789.96004806744168 123.78952333617451 0 123.78952333617451 -69.850095704481191 0 0 0 0 -816.37798490910791 131.42755918517082 0 131.42755918517082 -68.713325509155027 0 0 0 0 -779.63796566230303 98.812664517285157 0 98.812664517285157 -39.807282246682007 0 0 0 0 -600.14368786892737 129.5450613174803 0 129.5450613174803 -51.266174169604255 0 0 0 0 -874.4088450751733 -153.68900445805514 0 -153.68900445805514 289.05784808488488 0 0 0 0 -1113.9979828331561 222.39149938092828 0 222.39149938092828 62.543553841409903 0 0 0 0 -914.82064834522316 68.642952210409476 0 68.642952210409476 37.910530881153477 0 0 0 0 -625.69073658260459 328.67524304683241 0 328.67524304683241 173.00798203437944 0 0 0 0 -1613.0649963309552 782.97159052952395 0 782.97159052952395 576.57804897453661 0 0 0 0 -534.47549537122541 -100.86020879113011 0 -100.86020879113011 226.85944327674952 0 0 0 0 483.30405942967627 427.76326454119317 0 427.76326454119317 397.47926075977443 0 0 0 0 -530.63681662303861 183.24242291395831 0 183.24242291395831 344.20572518408608 0 0 0 0 289.95760684562993 1165.4690996636903 0 1165.4690996636903 543.68339929572085 0 0 0 0 -626.5833156424269 1135.4197932347704 0 1135.4197932347704 631.89816366048217 0 0 0 0 -46.300509785243776 -110.95139943440483 0 -110.95139943440483 410.1843805007702 0 0 0 0 -88.767803074850235 51.618927421775538 0 51.618927421775538 254.81728774311097 0 0 0 0 -87.870674330901238 38.686644180386452 0 38.686644180386452 437.95294910710095 0 0 0 0 -147.53513004275737 -148.9640826006538 0 -148.9640826006538 323.79639566748529 0 0 0 0 -101.08736621496791 -74.244548923441357 0 -74.244548923441357 443.89202256259659 0 0 0 0 -513.52346350249718 -3.5832745375332706 0 -3.5832745375332706 431.78890951536022 0 0 0 0 -201.23350440214563 -350.40573807499072 0 -350.40573807499072 318.71841105090334 0 0 0 0 -187.52005002407532 -293.18821759734021 0 -293.18821759734021 476.10119300412271 0 0 0 0 144.99846423065173 -424.05701530752594 0 -424.05701530752594 404.04245178514702 0 0 0 0 573.99500629617251 -367.37997865750293 0 -367.37997865750293 323.61954590729943 0 0 0 0 -1.6753183815657735 -1.1027598913513827 0 -1.1027598913513827 0.85743267809251256 0 0 0 0 -1315.3021496269066 -83.796935789986208 0 -83.796935789986208 57.965466966311226 0 0 0 0 -133.90684660430998 106.60653762828332 0 106.60653762828332 -61.604674860622481 0 0 0 0 -102.24469686916564 -29.571276294659583 0 -29.571276294659583 -240.16974641642128 0 0 0 0 -599.54718421684811 -35.581694006916564 0 -35.581694006916564 -24.769825022442205 0 0 0 0 -0.58590419189374643 -0.61480415564417967 0 -0.61480415564417967 3.9136648469980617 0 0 0 0 -13.400977987970691 111.97933159802483 0 111.97933159802483 -31.12742071472519 0 0 0 0 -100.19113172244397 -138.89600951925331 0 -138.89600951925331 -137.64851559680369 0 0 0 0 -94.632788051079842 103.90241299310037 0 103.90241299310037 136.57903172708075 0 0 0 0 -260.99753960847011 -304.13135014191027 0 -304.13135014191027 -39.945364673520999 0 0 0 0 25.899001421435969 218.80223811638371 0 218.80223811638371 -57.601029174025598 0 0 0 0 -22.610907982084768 6.3196046426924113 0 6.3196046426924113 5.0467533330806553 0 0 0 0 -226.83616285241442 348.35631615779766 0 348.35631615779766 146.25768620617328 0 0 0 0 68.21113514919125 79.000459115437479 0 79.000459115437479 5.0933720439934405 0 0 0 0 53.916052815533476 184.33431606008253 0 184.33431606008253 30.16703718462486 0 0 0 0 -96.343150010536192 -16.836309922062355 0 -16.836309922062355 63.322530448175257 0 0 0 0 -66.808339418535184 34.290838787374696 0 34.290838787374696 11.216619253677642 0 0 0 0 -154.69681942698662 -1.6757581305652138 0 -1.6757581305652138 20.741996907141925 0 0 0 0 -117.70796450489433 -13.45549844117204 0 -13.45549844117204 -2.012705831693097 0 0 0 0 -73.58002357994684 37.510584199379764 0 37.510584199379764 4.8229015753392961 0 0 0 0 -126.98537357739406 -5.1953341469525185 0 -5.1953341469525185 -4.8276764407131623 0 0 0 0 -127.69399314833572 7.7672111288234191 0 7.7672111288234191 -12.940618295480988 0 0 0 0 -108.16374703065958 -0.74728717220818908 0 -0.74728717220818908 -15.0459862910011 0 0 0 0 -194.16412692336598 618.98970100339011 0 618.98970100339011 -89.245511481347421 0 0 0 0 476.36777471692767 -230.96460815517639 0 -230.96460815517639 54.330037570111017 0 0 0 0 41.07564877072582 -48.951849342914102 0 -48.951849342914102 12.657635195682815 0 0 0 0 549.05994884681422 -86.796308822024002 0 -86.796308822024002 -49.136482466165035 0 0 0 0 -6.5844449524892639 -3.4728849016358652 0 -3.4728849016358652 4.6129833759350447 0 0 0 0 10.934301110567503 2.3652211264365235 0 2.3652211264365235 -8.2930462144535397 0 0 0 0 801.70859841740457 -166.59772205632362 0 -166.59772205632362 -32.191393892404449 0 0 0 0 -115.23777281133107 5.3582283297785835 0 5.3582283297785835 -39.688405910500478 0 0 0 0 136.07796977378894 -7.2655961633145125 0 -7.2655961633145125 -23.316017586072121 0 0 0 0 -108.90932121857895 164.02960187167588 0 164.02960187167588 -42.892865285644802 0 0 0 0 -106.02801249589538 185.82695608449558 0 185.82695608449558 -91.584829271287617 0 0 0 0 -53.985536496434918 36.939329780274164 0 36.939329780274164 -16.537517908494223 0 0 0 0 -91.435916939579329 283.27659876450991 0 283.27659876450991 48.164922987883983 0 0 0 0 -21.006218689847714 12.540376109815782 0 12.540376109815782 8.6340750134701914 0 0 0 0 -92.003701243142132 81.399152755847581 0 81.399152755847581 0.82476564536727892 0 0 0 0 -2.4126234452269273 91.538625820866173 0 91.538625820866173 1.6183828731709582 0 0 0 0 -41.392560253480553 -8.1045558159467248 0 -8.1045558159467248 -16.593373576617253 0 0 0 0 -4345.7459939077671 -575.8318085985477 0 -575.8318085985477 625.84163123680628 0 0 0 0 -4321.7463057683926 416.0501832990451 0 416.0501832990451 -167.47911086777162 0 0 0 0 -16.591587594103089 -3.5454815419326451 0 -3.5454815419326451 -0.90500995973908438 0 0 0 0 -1725.2123176865134 -1498.1674544893049 0 -1498.1674544893049 -197.13281325458024 0 0 0 0 -3608.8831954217894 -722.00045539400958 0 -722.00045539400958 238.31052413533712 0 0 0 0 -2983.7160317211528 1647.042162532548 0 1647.042162532548 -417.18318929338119 0 0 0 0 -3095.4116505905113 -255.94329642974742 0 -255.94329642974742 661.18571080691186 0 0 0 0 -2199.9570252831472 -564.89940662751474 0 -564.89940662751474 -307.32616221362088 0 0 0 0 -2921.1423385238159 -603.21750886968323 0 -603.21750886968323 -90.820837793419045 0 0 0 0 -2311.1484089615114 -799.67616898120355 0 -799.67616898120355 -535.19662368796935 0 0 0 0 -2883.1354587073147 -683.44117342066363 0 -683.44117342066363 -1545.3335482633279 0 0 0 0 -2916.0080826098274 -177.73697592187614 0 -177.73697592187614 -562.56189033198416 0 0 0 0 -1458.4219419373258 -441.63276614417555 0 -441.63276614417555 -516.93730030913548 0 0 0 0 -1785.4059498364732 -847.51063569138387 0 -847.51063569138387 -193.54310200343585 0 0 0 0 -1961.5512406929774 -520.17494486661849 0 -520.17494486661849 -414.00188732509423 0 0 0 0 -1379.3507331613946 -654.03537234098587 0 -654.03537234098587 -283.94396841015953 0 0 0 0 -1957.3115062163852 -605.92297693707087 0 -605.92297693707087 232.25924931895565 0 0 0 0 -2225.0018805016043 -838.36324849193704 0 -838.36324849193704 57.112727337144406 0 0 0 0 -1377.4888945632119 -554.27591752289686 0 -554.27591752289686 32.643046131431873 0 0 0 0 -1191.1269105400643 -470.78006520382701 0 -470.78006520382701 58.755466901148679 0 0 0 0 -940.31534430233296 -299.52901519948955 0 -299.52901519948955 -153.01636654832146 0 0 0 0 -690.10023985177031 -419.63697588046057 0 -419.63697588046057 -343.9133689250441 0 0 0 0 -1197.0675677827021 -729.13466535989915 0 -729.13466535989915 -406.77250346320989 0 0 0 0 -386.87718321848661 -92.174200145647774 0 -92.174200145647774 -379.48272168415519 0 0 0 0 -794.23281695319747 -283.21579655214589 0 -283.21579655214589 -475.18005515042478 0 0 0 0 -735.92164372887055 -409.07576910028388 0 -409.07576910028388 -205.05470896446604 0 0 0 0 -290.40271977391967 28.283097834532327 0 28.283097834532327 -176.5819352007602 0 0 0 0 -389.31858650509093 192.51628799633818 0 192.51628799633818 221.03812996374108 0 0 0 0 -200.60910715628415 28.238358128935943 0 28.238358128935943 -307.87325512060261 0 0 0 0 -715.83630392616033 -174.54571270379938 0 -174.54571270379938 -217.80133782574558 0 0 0 0 -377.04475765925599 126.19396013086043 0 126.19396013086043 -283.49560059301962 0 0 0 0 -480.43857665749965 -359.08731360568606 0 -359.08731360568606 -711.19996012329102 0 0 0 0 66.759076789254323 -290.59699343391367 0 -290.59699343391367 -693.89222695266471 0 0 0 0 -250.27679947350407 223.98987785332656 0 223.98987785332656 308.6669659551153 0 0 0 0 41.767924409912666 -1292.2077893300811 0 -1292.2077893300811 -935.148049971202 0 0 0 0 -1041.1739117232501 -476.76427399259546 0 -476.76427399259546 -460.67928905760505 0 0 0 0 -1979.1289507980546 -599.12487269241694 0 -599.12487269241694 -325.69898937743528 0 0 0 0 -1491.8640361456492 -936.09747469453146 0 -936.09747469453146 -581.40221384500319 0 0 0 0 -2058.5776987536228 -869.33355445473728 0 -869.33355445473728 -329.28372657324235 0 0 0 0 -3528.7306695136358 -309.16657533512512 0 -309.16657533512512 319.49656636811233 0 0 0 0 -3958.8410365931049 -393.22504425177794 0 -393.22504425177794 393.9744499732451 0 0 0 0 -2912.5897125975025 -1506.8632482570356 0 -1506.8632482570356 -29.225615299549645 0 0 0 0 -4910.6109243325045 -509.70905028309318 0 -509.70905028309318 456.86126717000298 0 0 0 0 -1556.8420369464402 -2223.4973053021859 0 -2223.4973053021859 -1141.212981220202 0 0 0 0 -4587.6329797926301 -1719.19637339362 0 -1719.19637339362 -20.22830398884139 0 0 0 0 -3270.7949817393455 8.2642662552235606 0 8.2642662552235606 -1862.7287251992366 0 0 0 0 -3070.9273550535436 -613.25754163700844 0 -613.25754163700844 20.300038900353613 0 0 0 0 -2085.5872901753901 465.11350272075401 0 465.11350272075401 -3.2628020109928002 0 0 0 0 -3166.5702730587218 -219.04433036101273 0 -219.04433036101273 459.23817058512441 0 0 0 0 -3443.3325794965494 -474.13666854526434 0 -474.13666854526434 270.84763067538506 0 0 0 0 -4637.3761425044213 -1221.6936376735041 0 -1221.6936376735041 -590.76580793173753 0 0 0 0 -2777.5872522371556 -270.5273672591963 0 -270.5273672591963 -105.38619573242613 0 0 0 0 -5432.1300378193846 917.19769848495901 0 917.19769848495901 97.89777573390711 0 0 0 0 -22.076834656894675 -11.10274713234719 0 -11.10274713234719 -6.807375976218923 0 0 0 0 -4288.9912159507949 2076.4016265494861 0 2076.4016265494861 -973.32578975384331 0 0 0 0 -4157.6457518229145 297.34118000201261 0 297.34118000201261 289.2206493093372 0 0 0 0 -3465.0287597749348 170.90212870169509 0 170.90212870169509 508.92840396186284 0 0 0 0 -2545.0745776983968 409.81796961925852 0 409.81796961925852 284.71026037132293 0 0 0 0 -2248.7590737989522 -15.311933585693623 0 -15.311933585693623 368.8075474332253 0 0 0 0 -2200.4634217779385 188.18558447059252 0 188.18558447059252 144.73332840284831 0 0 0 0 -921.87799765283125 393.88361202326621 0 393.88361202326621 40.06381114650685 0 0 0 0 -1053.1558037193172 178.19053316086013 0 178.19053316086013 -21.121773031851717 0 0 0 0 -2525.0769404394377 615.54657414510734 0 615.54657414510734 31.820478025897728 0 0 0 0 -2124.5533588149701 1745.5087314554721 0 1745.5087314554721 -935.22066676363011 0 0 0 0 -292.11120028948062 550.11521875590915 0 550.11521875590915 -586.23338602964122 0 0 0 0 469.48630413202045 354.74746472969514 0 354.74746472969514 77.165581327200925 0 0 0 0 -154.86141371497069 75.413907307276077 0 75.413907307276077 306.7028149828875 0 0 0 0 -210.3044112182688 85.828028389983956 0 85.828028389983956 1412.9406217919168 0 0 0 0 -732.88928603305249 -192.63710479150353 0 -192.63710479150353 77.123096156307383 0 0 0 0 -37.583173185412306 -474.764022409885 0 -474.764022409885 1030.9023571572179 0 0 0 0 -47.830465770308592 -31.246806125699123 0 -31.246806125699123 -18.008515326326297 0 0 0 0 -32.954975023923907 -276.93114819828406 0 -276.93114819828406 593.60622608928804 0 0 0 0 -14.303597806369623 3.1059955811998918 0 3.1059955811998918 6.3564644164667641 0 0 0 0 -159.08898339829466 118.86569616984707 0 118.86569616984707 227.52679816615091 0 0 0 0 -374.03360399941448 96.922209011516316 0 96.922209011516316 592.49446089198875 0 0 0 0 -204.95105602015974 100.30703115778215 0 100.30703115778215 318.53562786552175 0 0 0 0 -115.72060699434223 -34.113528894164574 0 -34.113528894164574 164.61801656738862 0 0 0 0 -51.680628936075891 -21.666285400865803 0 -21.666285400865803 -3.1519231439072115 0 0 0 0 -110.56654905725736 1.5296661339471029 0 1.5296661339471029 139.1243360979206 0 0 0 0 65.667994106726837 -179.18170148709191 0 -179.18170148709191 -80.532615542301301 0 0 0 0 -42.296211808274847 -11.581895130642948 0 -11.581895130642948 1.6839310902760793 0 0 0 0 -32.094112299149856 3.852033586224934 0 3.852033586224934 5.2233384520677646 0 0 0 0 -64.742243390801207 -23.504583282295044 0 -23.504583282295044 -9.7458621559511993 0 0 0 0 -26.842408907744357 -12.121688699331111 0 -12.121688699331111 -4.9317545269454239 0 0 0 0 -10.386675640382578 -0.57969471163337971 0 -0.57969471163337971 0.75343666273060017 0 0 0 0 -550.10866753710434 198.77430811677516 0 198.77430811677516 -83.210759143687284 0 0 0 0 -20.017932969567482 -4.6784823497581796 0 -4.6784823497581796 0.0039190855739493838 0 0 0 0 -21.085346871463116 -3.7967998011701654 0 -3.7967998011701654 -0.47703034782263032 0 0 0 0 -21.550529342872323 -4.4369343585855727 0 -4.4369343585855727 -0.007556592092253238 0 0 0 0 -4.4496112411544573 1.0810482997942472 0 1.0810482997942472 0.46593669109706837 0 0 0 0 -2779.4351175501943 -354.40731109381858 0 -354.40731109381858 73.073020752991113 0 0 0 0 -1978.3369508953183 -448.87803939092134 0 -448.87803939092134 83.689059176148248 0 0 0 0 -657.19235255901731 -95.405264140809948 0 -95.405264140809948 -120.25716905154673 0 0 0 0 -2961.2635039782908 43.492260209542934 0 43.492260209542934 489.00495223553457 0 0 0 0 -3048.6592879658347 -146.68200510215544 0 -146.68200510215544 337.40514296179208 0 0 0 0 -2687.1613453210448 -294.33849070795219 0 -294.33849070795219 0.44401173503769092 0 0 0 0 -3016.3217223068204 -58.976821648949993 0 -58.976821648949993 185.67735020427148 0 0 0 0 -3365.5242251958698 -394.86211753467171 0 -394.86211753467171 -3.9144102591832621 0 0 0 0 -3218.8733962994011 -284.8718099875357 0 -284.8718099875357 226.85089594763812 0 0 0 0 -3298.4674822640081 -38.756276427111629 0 -38.756276427111629 394.40317911446755 0 0 0 0 -3042.1567343786883 -63.875127056420297 0 -63.875127056420297 393.06565676234868 0 0 0 0 -172.49517438170733 -27.86615350021134 0 -27.86615350021134 -5.4296448645690134 0 0 0 0 -137.64140748677892 5.9087104845204124 0 5.9087104845204124 -52.543981064465697 0 0 0 0 -135.12294146654312 24.23018538073589 0 24.23018538073589 8.3434575653485865 0 0 0 0 31.974219769705087 -169.99015860311903 0 -169.99015860311903 59.967876954050894 0 0 0 0 -18.433030346437505 -23.127685496144551 0 -23.127685496144551 -21.255671697505257 0 0 0 0 -106.21192129305564 -52.112464760804755 0 -52.112464760804755 41.285112538602789 0 0 0 0 -44.350362720928388 -49.301210096781062 0 -49.301210096781062 0.29505667467105923 0 0 0 0 -170.04319039452821 -9.78255435980941 0 -9.78255435980941 55.414331800653144 0 0 0 0 371.23747032471874 -510.61405906295067 0 -510.61405906295067 -685.78068714340588 0 0 0 0 -224.91108436541981 43.703787704553093 0 43.703787704553093 21.826857172853352 0 0 0 0 -120.97453782445518 34.055764435459821 0 34.055764435459821 8.8926195273049871 0 0 0 0 -112.00399020346231 12.970235295690145 0 12.970235295690145 97.1301872752083 0 0 0 0 -67.468040435989565 23.54111418325283 0 23.54111418325283 21.519416800685338 0 0 0 0 -48.079937545000575 87.106059375308178 0 87.106059375308178 7.7796427775956545 0 0 0 0 -154.55424795954605 161.66380209642921 0 161.66380209642921 33.67095564365809 0 0 0 0 -98.562959681992652 21.230515325746751 0 21.230515325746751 -12.551397673463271 0 0 0 0 -20.776603785208721 1.9465168187949757 0 1.9465168187949757 6.4920832696807844 0 0 0 0 -86.592790483802673 -29.756023898340175 0 -29.756023898340175 69.505853352647364 0 0 0 0 -176.75103386770934 81.126028728111123 0 81.126028728111123 94.607201337796084 0 0 0 0 -42.057754075736739 117.44100818648522 0 117.44100818648522 25.121775842312161 0 0 0 0 -178.72786377434386 88.072436812187448 0 88.072436812187448 107.06910795646411 0 0 0 0 -69.534965057391673 62.182491321226905 0 62.182491321226905 -74.565649961020142 0 0 0 0 -117.4716159785894 -4.1719284612179734 0 -4.1719284612179734 -128.44082054871876 0 0 0 0 -162.58165757369716 -28.390847463386933 0 -28.390847463386933 52.699068589190006 0 0 0 0 -32.660479499740177 33.348665450526283 0 33.348665450526283 -17.079553551336289 0 0 0 0 -9.9194851604326004 4.543193784538829 0 4.543193784538829 4.1614253998370234 0 0 0 0 -26.420463410182037 -2.8267212390933318 0 -2.8267212390933318 2.5375649167717924 0 0 0 0 -9.4511730319644016 -2.0175536534165417 0 -2.0175536534165417 -0.15055743054025028 0 0 0 0 -145.29048820288153 119.92202211588847 0 119.92202211588847 -0.49981552086197922 0 0 0 0 -9.1073202266707085 1.1941680817572906 0 1.1941680817572906 -1.4023931565411516 0 0 0 0 -368.6531779061479 278.11923681350294 0 278.11923681350294 -64.214214143223927 0 0 0 0 -1.5005008210303572 -0.88124876401852248 0 -0.88124876401852248 -0.58193999358438275 0 0 0 0 -5.6607131919881795 -5.4536047664995708 0 -5.4536047664995708 0.00201608594404008 0 0 0 0 -455.83613703702576 -98.422270393568098 0 -98.422270393568098 236.75322159814789 0 0 0 0 -221.74597678179271 -15.047373810348414 0 -15.047373810348414 -0.51550296535999485 0 0 0 0 76.994677721348125 -227.81857251995424 0 -227.81857251995424 -5.3178378183487851 0 0 0 0 -493.73002014658414 159.53001890237005 0 159.53001890237005 61.714383670748362 0 0 0 0 1.9450136744135875 -0.53678668956789011 0 -0.53678668956789011 0.74234985245304497 0 0 0 0 -295.26419053829159 -130.15867735300091 0 -130.15867735300091 116.15812261183979 0 0 0 0 -179.45028856937279 6.1385735220964222 0 6.1385735220964222 87.187206873580607 0 0 0 0 -248.88235958153382 -30.228864843758327 0 -30.228864843758327 -7.940801377297519 0 0 0 0 -256.79860169434323 -89.292406733733586 0 -89.292406733733586 74.810423627329584 0 0 0 0 39.597193048859481 -250.35818442227483 0 -250.35818442227483 39.684475896766088 0 0 0 0 -2599.5837643889245 100.61370229510891 0 100.61370229510891 0.1754137862125284 0 0 0 0 281.10410530661466 -268.0921206012502 0 -268.0921206012502 -44.244557065837782 0 0 0 0 -3354.901648703235 -10.16859393651967 0 -10.16859393651967 -85.958709702817941 0 0 0 0 -2820.4479767340235 -432.02801644818072 0 -432.02801644818072 -1251.2354717196772 0 0 0 0 -3981.6942141083418 -1017.4409060291991 0 -1017.4409060291991 -306.35852072930902 0 0 0 0 -3878.2933766780698 -593.64947575283406 0 -593.64947575283406 127.04295304663094 0 0 0 0 -2350.582054266386 -165.32666277003329 0 -165.32666277003329 21.16758171198569 0 0 0 0 -5273.7418772190285 544.16861685350716 0 544.16861685350716 843.29427074764681 0 0 0 0 -3572.2590748680632 -341.11028559688771 0 -341.11028559688771 670.35697712990805 0 0 0 0 -3653.6288652927396 820.91773603293257 0 820.91773603293257 237.91113370241419 0 0 0 0 -2614.071571670589 165.99239162079539 0 165.99239162079539 665.12152932547951 0 0 0 0 -10.959719011154164 -9.3502689016916065 0 -9.3502689016916065 -4.7011976012078929 0 0 0 0 179.95335930114379 -78.000192961910201 0 -78.000192961910201 17.464270548086461 0 0 0 0 -2133.2246945223305 341.72796544623725 0 341.72796544623725 355.77845035024029 0 0 0 0 -17.543721623432049 -22.304765186089469 0 -22.304765186089469 -16.167971322855479 0 0 0 0 -1232.3154730888346 -953.21627992985282 0 -953.21627992985282 -663.78017961050682 0 0 0 0 -3107.6948501106963 -190.9636637731337 0 -190.9636637731337 700.81551520779703 0 0 0 0 -3321.8524194162455 -13.013861348147657 0 -13.013861348147657 713.34099228657578 0 0 0 0 -4316.5791020667821 -284.92802516325082 0 -284.92802516325082 697.51688963284641 0 0 0 0 -1716.7217557649419 -1045.207611951527 0 -1045.207611951527 -2021.3622949774062 0 0 0 0 -999.25927146585309 476.4763351761876 0 476.4763351761876 553.12859376433926 0 0 0 0 198.19217512891919 94.879773387479872 0 94.879773387479872 -301.71819853772286 0 0 0 0 -639.07121837140585 -133.54670439651045 0 -133.54670439651045 62.233296358381722 0 0 0 0 -369.9214479562379 63.051195436585743 0 63.051195436585743 -54.664207814646943 0 0 0 0 -76.310257833421929 -869.86566950258566 0 -869.86566950258566 -795.02187114606704 0 0 0 0 -26.364449724061728 -18.46186248723734 0 -18.46186248723734 -14.779148975216497 0 0 0 0 -3372.8911566369716 894.37218719513726 0 894.37218719513726 343.51652091114192 0 0 0 0 -1838.4393659541965 889.76743243380497 0 889.76743243380497 300.05623542766261 0 0 0 0 -2994.1440373182995 599.84894643206462 0 599.84894643206462 629.58057537247805 0 0 0 0 -913.91456145315897 932.58514892835683 0 932.58514892835683 114.95235159501271 0 0 0 0 -211.42181834421353 -192.81127306473718 0 -192.81127306473718 427.91112281154346 0 0 0 0 -169.67070559441345 -78.209081693133157 0 -78.209081693133157 -16.590055383487652 0 0 0 0 -1184.5545182841888 729.45371554153462 0 729.45371554153462 387.22051254864527 0 0 0 0 -405.1159515636391 988.15459697115512 0 988.15459697115512 -535.45572215520951 0 0 0 0 -7.1333398198310647 3.3442952049244923 0 3.3442952049244923 8.7306020335058676 0 0 0 0 238.57476841572316 -1098.3424391110568 0 -1098.3424391110568 318.86268710276488 0 0 0 0 -65.202724599182602 -44.365333670412738 0 -44.365333670412738 -23.950914093182654 0 0 0 0 490.88258592886268 29.156850962354497 0 29.156850962354497 -384.75370216281954 0 0 0 0 -2607.6595159197459 139.03230090055058 0 139.03230090055058 576.60189383677198 0 0 0 0 -1552.0410449492629 209.16068334782085 0 209.16068334782085 482.05524875927586 0 0 0 0 -1341.2255255977216 -423.45199533078767 0 -423.45199533078767 113.37522665053893 0 0 0 0 -2287.941107216815 110.61604957341746 0 110.61604957341746 360.30802109315016 0 0 0 0 -1463.4431015379523 -50.401446981270738 0 -50.401446981270738 162.05293338695265 0 0 0 0 -599.57599117411883 106.31424609206186 0 106.31424609206186 -158.51080427438018 0 0 0 0 -2166.4202869260625 -500.11837954621836 0 -500.11837954621836 -0.108122235441016 0 0 0 0 -1170.3859680216847 -577.23702813230091 0 -577.23702813230091 -464.57374357586571 0 0 0 0 -545.86088750640374 -277.85384594861796 0 -277.85384594861796 461.37101782475361 0 0 0 0 806.75207756465534 -551.25235645272596 0 -551.25235645272596 -0.53448718340493528 0 0 0 0 -10.942177864020096 -3.0254158574931012 0 -3.0254158574931012 3.1204364600638814 0 0 0 0 -6.5694368931245322 0.36885504123839041 0 0.36885504123839041 3.3213645529375402 0 0 0 0 -54.645218794001266 -43.01983889785631 0 -43.01983889785631 0.17585834786474072 0 0 0 0 -685.36814126322133 250.08503826677304 0 250.08503826677304 -17.705489690705434 0 0 0 0 -390.2369488797558 235.82734365183316 0 235.82734365183316 -25.991240888923279 0 0 0 0 -333.80680663639214 -97.120200251358256 0 -97.120200251358256 22.652544927746618 0 0 0 0 -176.05673050585392 9.6406514296859278 0 9.6406514296859278 184.2281472315467 0 0 0 0 -9.0661496886582142 37.85823597756081 0 37.85823597756081 59.922648019889266 0 0 0 0 154.06629765196703 -43.062176919453726 0 -43.062176919453726 -0.054134376490619897 0 0 0 0 -3.2972938109073198 0.36645124486719283 0 0.36645124486719283 -0.96738008960465638 0 0 0 0 -889.42995467720903 -88.374738961190545 0 -88.374738961190545 32.926691544432742 0 0 0 0 -1474.0291294830677 -1012.8366393847468 0 -1012.8366393847468 -527.10612825656551 0 0 0 0 -890.44232733230456 -78.148317346264591 0 -78.148317346264591 -6.4824200747339287 0 0 0 0 -91.522157806933308 -28.137837400936206 0 -28.137837400936206 -8.3606011473248607 0 0 0 0 -926.60887216572883 -401.66242831264248 0 -401.66242831264248 599.38988870158698 0 0 0 0 -92.276029602638346 -26.854290128481516 0 -26.854290128481516 -7.3136309836480189 0 0 0 0 -762.32250407220999 -570.81350125190306 0 -570.81350125190306 44.614546558771551 0 0 0 0 -350.97453354473691 -208.69795662993445 0 -208.69795662993445 -195.59408280197275 0 0 0 0 -610.44135318174631 -293.97138048958766 0 -293.97138048958766 347.47714530527082 0 0 0 0 -551.71330659634259 -248.81961640704048 0 -248.81961640704048 377.60606935703527 0 0 0 0 -587.68978435045028 -184.8641792880037 0 -184.8641792880037 371.31083761232003 0 0 0 0 -351.89633751002839 -302.35972536881309 0 -302.35972536881309 387.3654810888579 0 0 0 0 -498.32156480617414 -181.14534755748764 0 -181.14534755748764 403.86936258977789 0 0 0 0 -603.85468631902768 -244.86088210561911 0 -244.86088210561911 380.58594184142396 0 0 0 0 -89.875666703217121 -22.328466555074016 0 -22.328466555074016 4.9695709798184824 0 0 0 0 -221.80507747796946 -121.02638913656756 0 -121.02638913656756 273.953070741499 0 0 0 0 7.0971107354853302 -261.91700143213211 0 -261.91700143213211 263.42413599021393 0 0 0 0 152.19860129903827 -275.9406162596556 0 -275.9406162596556 254.10217894388279 0 0 0 0 -13.502886258722327 3.32046885748818 0 3.32046885748818 20.132677891208445 0 0 0 0 1002.3902786404215 -780.742997606171 0 -780.742997606171 348.66996741775347 0 0 0 0 -254.63342422663118 -668.88380890852045 0 -668.88380890852045 671.83418434722898 0 0 0 0 -250.19396631733252 -443.11007663949317 0 -443.11007663949317 536.82477010722687 0 0 0 0 -365.38835627789376 -151.93398344275192 0 -151.93398344275192 416.76939626733997 0 0 0 0 -629.92838818853488 -321.55564913218223 0 -321.55564913218223 310.98844255590166 0 0 0 0 -5.4405571233073715 -319.24514586385294 0 -319.24514586385294 208.23776975015016 0 0 0 0 -560.6827029052838 -661.35316483788461 0 -661.35316483788461 47.369680390834674 0 0 0 0 -570.17619317460776 -142.8794560482954 0 -142.8794560482954 170.81427001312386 0 0 0 0 -563.86611821092083 -207.07186799404531 0 -207.07186799404531 437.88288754428095 0 0 0 0 -749.63267553236801 -28.0221709274972 0 -28.0221709274972 352.72177898602251 0 0 0 0 -499.95570567267714 -28.291988938554596 0 -28.291988938554596 266.71251916972528 0 0 0 0 -602.20436957154743 46.606896236317993 0 46.606896236317993 238.96919538690736 0 0 0 0 -1206.5237829977486 -90.960887123866996 0 -90.960887123866996 231.13407557942469 0 0 0 0 -730.27819858729345 -309.23945540069826 0 -309.23945540069826 -282.36263187254394 0 0 0 0 -870.85585695199552 -409.72422327084814 0 -409.72422327084814 -53.609334052800932 0 0 0 0 -402.12946611273219 -171.27152954507051 0 -171.27152954507051 39.498463913542764 0 0 0 0 -668.32111511657422 -577.47461695061065 0 -577.47461695061065 -171.62347560242551 0 0 0 0 -713.41776490295888 -415.7571552187577 0 -415.7571552187577 -375.27062856882196 0 0 0 0 -552.69418302034319 -403.56959544482572 0 -403.56959544482572 -374.46056714968927 0 0 0 0 -830.63877477833012 -386.74080772682044 0 -386.74080772682044 -348.12174527191229 0 0 0 0 -896.39169632422272 -538.00237491879636 0 -538.00237491879636 -163.90509081763108 0 0 0 0 -680.33323189163639 -716.74903783394211 0 -716.74903783394211 -5.0779171804147154 0 0 0 0 -744.62429797294317 -495.48139481718908 0 -495.48139481718908 -81.613957435625707 0 0 0 0 -1101.980209866786 -798.05536599789434 0 -798.05536599789434 317.74436318494281 0 0 0 0 -1334.337261518318 -613.17572386715756 0 -613.17572386715756 189.10992863436377 0 0 0 0 -1081.6318487538847 -669.95981443730341 0 -669.95981443730341 174.03204135224723 0 0 0 0 -1155.8109122532478 -529.60324551309304 0 -529.60324551309304 -24.263125431743845 0 0 0 0 -1035.2794694136537 -504.12531497163707 0 -504.12531497163707 -130.77167708659795 0 0 0 0 -1264.2171560634742 -609.22422353889999 0 -609.22422353889999 -38.912838171737178 0 0 0 0 -967.37207648353069 -642.86136376620266 0 -642.86136376620266 -328.00621448188929 0 0 0 0 -1090.5545125971548 -601.0948102732641 0 -601.0948102732641 -163.18983048531302 0 0 0 0 -1099.5923115925762 -639.40000839618642 0 -639.40000839618642 -281.4744582398173 0 0 0 0 -1016.1226637488289 -490.93736635152027 0 -490.93736635152027 -112.50096802720213 0 0 0 0 -1012.7782873968245 -442.63968955094219 0 -442.63968955094219 -68.566956744886738 0 0 0 0 -1160.9366919290333 -545.99686884414768 0 -545.99686884414768 81.001981457792681 0 0 0 0 -40.561023498571672 29.843279334322233 0 29.843279334322233 -11.107794759454569 0 0 0 0 -762.44331869622692 1506.6030383289017 0 1506.6030383289017 1546.4896875003978 0 0 0 0 -686.70419577264693 -513.72228479617797 0 -513.72228479617797 -355.38617797863037 0 0 0 0 2597.9393761904794 1039.7937773051012 0 1039.7937773051012 705.2886529740008 0 0 0 0 -732.90970003997791 -263.8164914095928 0 -263.8164914095928 45.512801793256585 0 0 0 0 -470.42364743936923 -335.8224315838022 0 -335.8224315838022 -219.55185372907954 0 0 0 0 -510.38593546982156 -38.291285321739451 0 -38.291285321739451 1.5770614447601474 0 0 0 0 -1132.8717256506789 -310.05040283961307 0 -310.05040283961307 125.88809319300981 0 0 0 0 -773.06643980529043 -98.170758837803987 0 -98.170758837803987 238.00149463813159 0 0 0 0 -766.49510435573757 -124.45207738209547 0 -124.45207738209547 89.773485237753903 0 0 0 0 -1143.6755578156153 -454.37168865047306 0 -454.37168865047306 167.50290365364117 0 0 0 0 -1293.4034289719712 -504.9230755624917 0 -504.9230755624917 345.91629722363541 0 0 0 0 -1574.0943917405084 -491.27851704728096 0 -491.27851704728096 399.30214138267911 0 0 0 0 -1433.655257516657 -644.83927543946402 0 -644.83927543946402 564.37825330573276 0 0 0 0 -1592.405211233533 -68.141100006877878 0 -68.141100006877878 316.82850514847632 0 0 0 0 -829.15276381248259 126.61209952122317 0 126.61209952122317 83.672823751778196 0 0 0 0 -869.79636991166626 218.0319442669429 0 218.0319442669429 152.87632578279045 0 0 0 0 -979.70157896765159 392.07333462555926 0 392.07333462555926 160.69879769402542 0 0 0 0 -1088.1089354794531 77.213229962541845 0 77.213229962541845 152.44803101248698 0 0 0 0 -3189.577689516369 -764.69185529568153 0 -764.69185529568153 567.42349110926898 0 0 0 0 -2402.776278534162 951.24803681830872 0 951.24803681830872 -35.348067526394516 0 0 0 0 -1574.3071146524744 -1523.6296821313442 0 -1523.6296821313442 -518.65213019354928 0 0 0 0 -1052.8487048740208 -584.34102824878801 0 -584.34102824878801 465.54336933417017 0 0 0 0 -468.06265113689005 -266.97417473102314 0 -266.97417473102314 -456.41243465280468 0 0 0 0 1.2564084780594698 2.2348243479805205 0 2.2348243479805205 5.6974705562443155 0 0 0 0 -718.44177093254984 -1163.5365085206802 0 -1163.5365085206802 297.92426426055033 0 0 0 0 -1525.6398822243646 -804.00059714859253 0 -804.00059714859253 318.33342493160217 0 0 0 0 -3532.9722776602284 546.02181589539464 0 546.02181589539464 277.91690156094148 0 0 0 0 -5506.3098418361042 -72.592941927768365 0 -72.592941927768365 1196.6168645534415 0 0 0 0 -310.17852675085305 -52.461730585917394 0 -52.461730585917394 -204.5568126146452 0 0 0 0 -1648.5638219531684 -301.3076377416624 0 -301.3076377416624 66.399334358970577 0 0 0 0 2.6791216835070415 20.269538954381204 0 20.269538954381204 12.614936054512448 0 0 0 0 -2247.8885590224963 514.33665865317403 0 514.33665865317403 268.59130207654846 0 0 0 0 -17.921382226723441 22.333041461150856 0 22.333041461150856 11.912868713015863 0 0 0 0 -463.952633423929 79.34790812046478 0 79.34790812046478 100.58298826722103 0 0 0 0 -5483.0294511678703 2356.5051058246358 0 2356.5051058246358 -560.74430183607717 0 0 0 0 -25.772294353412065 0.50319644767692751 0 0.50319644767692751 -1.0562918935004255 0 0 0 0 -2207.7381109326816 -1668.4717871277344 0 -1668.4717871277344 -1150.0131256639283 0 0 0 0 -5481.1096650681275 -1096.4512256317548 0 -1096.4512256317548 289.02315150384754 0 0 0 0 -2932.298863558477 -167.71935785735795 0 -167.71935785735795 0.25666742605425474 0 0 0 0 -579.93683122185939 -64.36514458035316 0 -64.36514458035316 5.3652184288594853 0 0 0 0 -16.187942327423936 1.9158602965175078 0 1.9158602965175078 3.4940027100590934 0 0 0 0 79.398141573779867 -609.93607848573401 0 -609.93607848573401 -1468.4259214427047 0 0 0 0 -99.121930500695328 -10.58661502500868 0 -10.58661502500868 1.2688029647805386 0 0 0 0 -1003.9699878190004 -28.866811229243012 0 -28.866811229243012 319.37313729233779 0 0 0 0 -461.98887066513998 -63.603541832763099 0 -63.603541832763099 -36.18233241880629 0 0 0 0 -483.16801516173291 -28.303074262428989 0 -28.303074262428989 -0.0255638519336936 0 0 0 0 -441.60241776901239 -66.268146786845179 0 -66.268146786845179 -18.60551823137293 0 0 0 0 -364.2146907911083 -15.33984674068633 0 -15.33984674068633 0.0043912428896828101 0 0 0 0 -410.59102635490126 -26.634750884208458 0 -26.634750884208458 -21.609258484199827 0 0 0 0 -356.51008537360758 -63.833034321975859 0 -63.833034321975859 -63.87599738013359 0 0 0 0 -5.525759512394643 3.031742636441308 0 3.031742636441308 -0.19303985133418777 0 0 0 0 -66.735743193014059 -129.96135329695039 0 -129.96135329695039 -195.28764312623662 0 0 0 0 -1036.4087337708334 -604.23299760300279 0 -604.23299760300279 -318.60612443133778 0 0 0 0 -1154.375197596295 282.58826452595349 0 282.58826452595349 85.459213899192946 0 0 0 0 -581.27191651810426 560.44246182419511 0 560.44246182419511 612.55514740435683 0 0 0 0 -772.97636880777281 128.81605428733144 0 128.81605428733144 190.78321075245094 0 0 0 0 -105.13124754457385 1001.0970867344595 0 1001.0970867344595 871.80423188012401 0 0 0 0 -19.815304016461596 611.13887258447198 0 611.13887258447198 -106.8050980742828 0 0 0 0 -200.08407475773129 483.93999704435737 0 483.93999704435737 380.20114369168414 0 0 0 0 461.07821809891902 479.78993751438088 0 479.78993751438088 376.58833330446487 0 0 0 0 -111.04092151654186 140.0175804592709 0 140.0175804592709 563.25320996076152 0 0 0 0 -269.56027664515568 775.19741769223333 0 775.19741769223333 -186.12606312237131 0 0 0 0 -414.07746395727736 234.3145641218789 0 234.3145641218789 544.93616670003348 0 0 0 0 -754.58248419468873 -21.73821880303467 0 -21.73821880303467 371.13694882975915 0 0 0 0 -593.78515700897333 -383.53540221192804 0 -383.53540221192804 290.26575002639493 0 0 0 0 -755.86220763556776 -100.65370964582462 0 -100.65370964582462 681.57394881327491 0 0 0 0 -96.416359217095305 -69.175924832849887 0 -69.175924832849887 612.4546507802952 0 0 0 0 -573.93894475945854 -187.41154729826758 0 -187.41154729826758 794.48867800686821 0 0 0 0 -551.10853959758242 -234.4638026896472 0 -234.4638026896472 613.68368341106725 0 0 0 0 -909.46407668909524 -146.4078199911487 0 -146.4078199911487 753.65424273806093 0 0 0 0 -249.33661508464138 -322.79043950407004 0 -322.79043950407004 495.41203615971062 0 0 0 0 310.68525441805832 -22.585645265648054 0 -22.585645265648054 534.01419899440771 0 0 0 0 313.39891982558765 593.03403076791255 0 593.03403076791255 1000.3898063865392 0 0 0 0 -116.84951274689746 6.6056670266597877 0 6.6056670266597877 15.92852477384867 0 0 0 0 -168.53552464494715 744.61866758804808 0 744.61866758804808 1434.9239091211048 0 0 0 0 310.28683294088114 445.82935828598784 0 445.82935828598784 1337.5248875237739 0 0 0 0 -27.381817697327392 -10.551151480626103 0 -10.551151480626103 1.838032035477192 0 0 0 0 -247.94527929522155 -160.90033728188621 0 -160.90033728188621 97.354968282512345 0 0 0 0 -297.75559198053088 57.574717880848766 0 57.574717880848766 929.17511850168194 0 0 0 0 -244.08164744902751 157.91843839627859 0 157.91843839627859 1418.5940922769414 0 0 0 0 -98.980482770245885 -11.303844106940062 0 -11.303844106940062 -0.79202320367344159 0 0 0 0 -280.9384720439557 -10.52647455545582 0 -10.52647455545582 -80.438211335006159 0 0 0 0 -227.63122566614766 22.335529130810897 0 22.335529130810897 -60.92993306537852 0 0 0 0 -220.16871206299402 38.817173485183531 0 38.817173485183531 -28.53279199395547 0 0 0 0 -218.66532462951727 16.878677000367048 0 16.878677000367048 -47.881286960409994 0 0 0 0 -244.9627298861742 -21.867278980662128 0 -21.867278980662128 -61.37480611851003 0 0 0 0 -245.87714935160329 -10.097858515770477 0 -10.097858515770477 -14.469579995995701 0 0 0 0 -313.32246095134178 -10.343227193263663 0 -10.343227193263663 -17.858678368189672 0 0 0 0 -270.39430036105477 -17.833710992679563 0 -17.833710992679563 14.383439810861987 0 0 0 0 -280.0978900436603 -46.577747406898169 0 -46.577747406898169 -34.784695284665546 0 0 0 0 -202.23230564614641 -5.3699809018557341 0 -5.3699809018557341 -0.061625809358750921 0 0 0 0 -136.39499977268861 -29.324081491587208 0 -29.324081491587208 -8.5229677280073926 0 0 0 0 -194.96030638320372 -26.42504848773341 0 -26.42504848773341 -12.807936302838456 0 0 0 0 -187.83124786255939 -8.3980283181638029 0 -8.3980283181638029 2.2214716881742156 0 0 0 0 -190.12769537387067 -3.1686005248472542 0 -3.1686005248472542 66.550845474955565 0 0 0 0 -191.6637279256538 33.074991869440829 0 33.074991869440829 54.569776067109409 0 0 0 0 -106.43032165284865 8.7948459458753376 0 8.7948459458753376 11.167272420483826 0 0 0 0 -1263.9104561924178 82.133509580398822 0 82.133509580398822 702.62700400584708 0 0 0 0 -190.15905838517938 0.89487390047051463 0 0.89487390047051463 -4.958077944609542 0 0 0 0 -225.26503269583918 11.956903331039754 0 11.956903331039754 -4.0142754990004015 0 0 0 0 -217.32766750559676 24.694281522536443 0 24.694281522536443 -11.069784782086799 0 0 0 0 -203.64246901049046 39.132371055416471 0 39.132371055416471 4.0552897824967715 0 0 0 0 -183.8279041870137 53.508495244508438 0 53.508495244508438 -12.507262055469369 0 0 0 0 -218.65866784409081 9.9243124133683018 0 9.9243124133683018 -47.95125893581303 0 0 0 0 -183.57924770459067 43.48617439416256 0 43.48617439416256 -31.266358796919917 0 0 0 0 -20.488386816071511 -11.274120055211966 0 -11.274120055211966 -3.6678043802222664 0 0 0 0 -454.33962840033928 86.955749791612106 0 86.955749791612106 568.22329192148391 0 0 0 0 170.89186562216491 -474.36851414174271 0 -474.36851414174271 -403.84840294811511 0 0 0 0 -116.38717541686492 2.002252958031395 0 2.002252958031395 166.25425776103179 0 0 0 0 -430.92887381464243 -171.32314049010165 0 -171.32314049010165 -483.47833803621688 0 0 0 0 -102.95776460465953 -0.66626634836150345 0 -0.66626634836150345 7.5001063510073545 0 0 0 0 -124.25446744740475 -54.633427344210538 0 -54.633427344210538 35.677715570295049 0 0 0 0 -155.23755541755236 20.293863038155216 0 20.293863038155216 0.075371686122390147 0 0 0 0 -60.985305230788072 -13.716383204416999 0 -13.716383204416999 -26.308467057515106 0 0 0 0 -131.02559606841533 8.0374494543915471 0 8.0374494543915471 -32.246559910392008 0 0 0 0 -940.08938742033206 -555.05237412024769 0 -555.05237412024769 204.03507972696082 0 0 0 0 -564.42938299631351 182.6881783784159 0 182.6881783784159 -5.6582489959590774 0 0 0 0 -74.58697420426688 138.74597114267667 0 138.74597114267667 -50.235809478203329 0 0 0 0 -1535.3501570896478 25.485781705314366 0 25.485781705314366 -190.64363805957976 0 0 0 0 -26.198664492276293 -13.340035340466557 0 -13.340035340466557 -3.9185828529045943 0 0 0 0 -438.2397787408263 -205.42943568595001 0 -205.42943568595001 229.68002553203451 0 0 0 0 135.65760538633913 -397.62581347234573 0 -397.62581347234573 -601.26881127713352 0 0 0 0 -15.614066090959966 -13.364989511377615 0 -13.364989511377615 -1.5450818101485064 0 0 0 0 -101.68679451242195 -12.038761420814552 0 -12.038761420814552 3.1115782034800246 0 0 0 0 -325.67645389559038 -79.787158259287025 0 -79.787158259287025 349.22971922345096 0 0 0 0 -589.68916068944964 -216.70164322407663 0 -216.70164322407663 399.77063854225526 0 0 0 0 -503.09323780018894 -107.58676098235151 0 -107.58676098235151 497.15695571781816 0 0 0 0 -718.83577083249111 -53.490793767219657 0 -53.490793767219657 545.10120645250458 0 0 0 0 -677.61301989547792 -256.34894259269413 0 -256.34894259269413 434.51943046155452 0 0 0 0 -664.21540950232884 -200.70438528273553 0 -200.70438528273553 603.62061920252108 0 0 0 0 -570.35875537608808 -192.53133216946048 0 -192.53133216946048 281.22770344023547 0 0 0 0 -612.45759100503346 -189.36035291911003 0 -189.36035291911003 193.48711625947885 0 0 0 0 -606.83178181559197 -309.96692179203501 0 -309.96692179203501 159.88523142038412 0 0 0 0 -362.31118698812497 139.54247168622703 0 139.54247168622703 12.641702729719327 0 0 0 0 -496.17975967540406 -19.442334486206846 0 -19.442334486206846 -157.90255213824628 0 0 0 0 -0.88756002691661706 64.629833936819921 0 64.629833936819921 27.792362933396817 0 0 0 0 -8.7114008689778757 -2.9530139984971151 0 -2.9530139984971151 0.095235399916395957 0 0 0 0 -600.87219770842057 538.23431011141156 0 538.23431011141156 440.82414443019297 0 0 0 0 -627.87310633653397 -100.25650279489359 0 -100.25650279489359 964.78511352647558 0 0 0 0 -18.688262580855167 -5.5798249154940383 0 -5.5798249154940383 0.9610424519766656 0 0 0 0 -1618.6988422990253 -103.15367797936642 0 -103.15367797936642 349.39040471346561 0 0 0 0 -24.092596351496468 -369.50449238563561 0 -369.50449238563561 384.25374603935597 0 0 0 0 -9.9209495712059947 -3.8154202373117538 0 -3.8154202373117538 0.50700582376843295 0 0 0 0 -699.70872376107582 -1068.4226761783943 0 -1068.4226761783943 -319.55070782337145 0 0 0 0 -1381.8864307574258 249.18176366755432 0 249.18176366755432 1022.4822262451358 0 0 0 0 -556.73607115799678 897.31565877390653 0 897.31565877390653 -1304.723020889377 0 0 0 0 -15.904093799142515 3.2848738143685523 0 3.2848738143685523 -0.1522309894484708 0 0 0 0 -1303.0216217343768 -734.27524397832963 0 -734.27524397832963 1605.8039448679838 0 0 0 0 -265.60840094463492 -59.930434191366373 0 -59.930434191366373 -734.63810339024894 0 0 0 0 -1110.9427389943448 -672.62845382462501 0 -672.62845382462501 -273.95096210987731 0 0 0 0 -1433.9065133410113 317.40659535324778 0 317.40659535324778 204.37586774771808 0 0 0 0 -107.97728823844227 238.27374866797709 0 238.27374866797709 -419.34331441484642 0 0 0 0 -171.66171231291082 379.60897740025939 0 379.60897740025939 -86.276230534502872 0 0 0 0 -264.21361662170966 282.97177100440558 0 282.97177100440558 -97.26468878648393 0 0 0 0 -245.03646769236366 191.32769561815326 0 191.32769561815326 175.43984254748102 0 0 0 0 -124.77704964971053 186.39312499586549 0 186.39312499586549 -249.5559849671763 0 0 0 0 -999.51332783699763 112.41582800571064 0 112.41582800571064 2963.9815285459904 0 0 0 0 -35.334292048697478 18.640518753583414 0 18.640518753583414 1.3093220794144562 0 0 0 0 -2311.4963804036161 -317.79888415686588 0 -317.79888415686588 695.38549607049799 0 0 0 0 390.52238426278927 -342.61145483122698 0 -342.61145483122698 687.84419607547022 0 0 0 0 -208.83183441696747 213.13056829609769 0 213.13056829609769 -321.45360041668312 0 0 0 0 -1629.1028888448491 618.94495072598124 0 618.94495072598124 366.26557966805717 0 0 0 0 409.79990282890503 -433.07043075835657 0 -433.07043075835657 358.53985872660195 0 0 0 0 631.64620258790092 1803.0867416403914 0 1803.0867416403914 -1050.0794668871695 0 0 0 0 -1750.614136705597 1455.8645188901883 0 1455.8645188901883 144.65657809737093 0 0 0 0 -3323.2889554036519 1411.9516787091184 0 1411.9516787091184 233.68018221775515 0 0 0 0 -1643.7158652919429 1841.9430861661888 0 1841.9430861661888 -126.7003442297455 0 0 0 0 -3586.1758012237988 2225.3476235066914 0 2225.3476235066914 855.56853228203556 0 0 0 0 -5487.3699812194391 2635.4676932317061 0 2635.4676932317061 808.3868560000443 0 0 0 0 -3160.9280467461867 3396.1757245875765 0 3396.1757245875765 -411.83501446320776 0 0 0 0 -5486.7666381333675 -1437.5715996051006 0 -1437.5715996051006 641.91814111401845 0 0 0 0 -2636.6381209496176 -1970.0892643443995 0 -1970.0892643443995 -1583.6231373809844 0 0 0 0 -40.244212548132225 3.3922630207469311 0 3.3922630207469311 2.7478892274680473 0 0 0 0 -10.566752456258666 21.591164081707262 0 21.591164081707262 24.604250680129958 0 0 0 0 -1469.233268846292 2733.3765127075521 0 2733.3765127075521 -875.50418043547722 0 0 0 0 -127.14830177153635 121.46409704165512 0 121.46409704165512 -78.242955628221353 0 0 0 0 -3536.4932932105439 -425.48204007271488 0 -425.48204007271488 789.45290091644301 0 0 0 0 -24.222679555832656 -474.66341643276843 0 -474.66341643276843 -934.4521839187089 0 0 0 0 -3543.431586745588 -597.49731790116869 0 -597.49731790116869 901.90012503730532 0 0 0 0 -3203.3143726421258 -1619.9644978938979 0 -1619.9644978938979 -664.05547402153775 0 0 0 0 -3405.6592910735635 -250.97305162930346 0 -250.97305162930346 -409.40902234544774 0 0 0 0 -1436.9930622596657 -228.8859548289881 0 -228.8859548289881 -604.05296524047401 0 0 0 0 -5484.994069117849 -975.15012777087134 0 -975.15012777087134 323.76350596422736 0 0 0 0 -3371.0373272201105 -440.72972946213258 0 -440.72972946213258 428.28738825773883 0 0 0 0 -5500.8861955273032 275.51164015802902 0 275.51164015802902 661.71502860342025 0 0 0 0 -5501.3544795642592 1442.2977668503172 0 1442.2977668503172 984.44815310264426 0 0 0 0 -3654.6381210250256 744.85898611340008 0 744.85898611340008 757.25841791204721 0 0 0 0 -2202.4315066259987 279.57733005697139 0 279.57733005697139 -349.78391385879775 0 0 0 0 -3102.1598532700446 1416.2745184929588 0 1416.2745184929588 191.18923861098858 0 0 0 0 -2172.7358462190459 353.91609478576538 0 353.91609478576538 -393.41865299993668 0 0 0 0 -2223.9701092121541 279.94342205279992 0 279.94342205279992 -322.13208822343626 0 0 0 0 -1650.3080392743432 -285.60986287917444 0 -285.60986287917444 120.62550617126789 0 0 0 0 -2610.294288046658 446.38175434024822 0 446.38175434024822 23.093957691882508 0 0 0 0 -2070.848010429545 288.04734925159738 0 288.04734925159738 -745.18424941191029 0 0 0 0 -2055.4753092740648 148.55525724347328 0 148.55525724347328 -44.933646654143445 0 0 0 0 -1867.6595176276605 201.57485417898602 0 201.57485417898602 -709.08872755840662 0 0 0 0 -1922.8933911469212 374.24518282065219 0 374.24518282065219 -101.93171094385957 0 0 0 0 -1919.4938909263656 368.17625285202837 0 368.17625285202837 -96.797326679728144 0 0 0 0 -1905.074575600127 569.33204310777251 0 569.33204310777251 -10.560974228872666 0 0 0 0 -1740.5275082084554 390.65490807051441 0 390.65490807051441 -231.32542395183503 0 0 0 0 -1365.0754864530463 -363.15123754687681 0 -363.15123754687681 -530.64027329517899 0 0 0 0 -585.90900377016806 -84.39256228523584 0 -84.39256228523584 -498.40928224113986 0 0 0 0 -312.85486752753059 -365.19774849997947 0 -365.19774849997947 -216.49835447776309 0 0 0 0 -603.7805956873417 530.06755749587296 0 530.06755749587296 -224.04125899026997 0 0 0 0 -1873.6332063863611 948.22809057643337 0 948.22809057643337 261.54327596312112 0 0 0 0 -741.10047357367148 -654.48106633423185 0 -654.48106633423185 -727.83114487447483 0 0 0 0 -13.095200959950716 -2.0507846819807498 0 -2.0507846819807498 -0.22168727827459345 0 0 0 0 334.29616465215076 -393.22283049408787 0 -393.22283049408787 -192.11758566708727 0 0 0 0 -65.21743217385665 -32.718841489387813 0 -32.718841489387813 -178.83085546121617 0 0 0 0 -28.516573902445771 -6.3531189246188671 0 -6.3531189246188671 0.53079538596836562 0 0 0 0 177.33750484111806 -264.32385124129752 0 -264.32385124129752 1.3023728908581234 0 0 0 0 46.762077111387043 -293.91193188540558 0 -293.91193188540558 417.49298358718931 0 0 0 0 -753.85418404550001 -627.38095334290392 0 -627.38095334290392 -355.78155435578731 0 0 0 0 23.422121606417932 -85.093443110668531 0 -85.093443110668531 -104.52175545391711 0 0 0 0 222.40139667074254 -297.0719795976716 0 -297.0719795976716 -129.98579407496163 0 0 0 0 -375.89303970397168 -2008.8307839769657 0 -2008.8307839769657 -1996.7295588404299 0 0 0 0 -843.54325661854818 -162.0751142765198 0 -162.0751142765198 965.21574626842676 0 0 0 0 -267.22623205045966 217.05164567453363 0 217.05164567453363 -271.70249713036833 0 0 0 0 -569.62162742493092 -831.2426685235173 0 -831.2426685235173 -932.52850011434009 0 0 0 0 -3496.0161182720185 -1937.8467489490611 0 -1937.8467489490611 -202.50503890491382 0 0 0 0 -1859.3593964726751 -650.56494014249495 0 -650.56494014249495 -548.46833866664826 0 0 0 0 133.61223384163895 -387.13373308209896 0 -387.13373308209896 -303.7711721651176 0 0 0 0 -1431.9785687381955 -810.55927282245352 0 -810.55927282245352 -277.85968094900568 0 0 0 0 3.5449209077281836 -12.447573777812067 0 -12.447573777812067 -19.510248201995942 0 0 0 0 -1203.8654510111373 -571.96528559323519 0 -571.96528559323519 -276.24898132820135 0 0 0 0 -1238.1549825715483 -681.64981749500225 0 -681.64981749500225 -592.96796644339088 0 0 0 0 -1280.9005947953556 -264.41909249564492 0 -264.41909249564492 548.95454279005912 0 0 0 0 -1395.2726541144402 -657.97490034637156 0 -657.97490034637156 -237.01305271889032 0 0 0 0 -1690.0473863589577 -459.47182961463818 0 -459.47182961463818 -211.45930047382467 0 0 0 0 -734.5207815611866 -342.02827107907024 0 -342.02827107907024 -53.627125929549948 0 0 0 0 1016.0619383862359 -1454.5431077012486 0 -1454.5431077012486 -2146.4098864438783 0 0 0 0 -147.44788058717677 -8.4308211108445903 0 -8.4308211108445903 -610.78980203740957 0 0 0 0 4.8270251444618424 -11.633316570578785 0 -11.633316570578785 -20.46224427181869 0 0 0 0 -734.60058479614963 -328.97686105438947 0 -328.97686105438947 25.742307025873743 0 0 0 0 -749.25132345100428 -450.96267814334669 0 -450.96267814334669 -175.88661657722332 0 0 0 0 -814.5179284394253 -207.50251360748553 0 -207.50251360748553 -251.87750757333561 0 0 0 0 -1346.2789856805466 -89.536154941564746 0 -89.536154941564746 -178.47018034557914 0 0 0 0 -1624.4233406032727 -213.37146101808867 0 -213.37146101808867 -20.252303949720954 0 0 0 0 -1487.5523048299947 -434.8401853290834 0 -434.8401853290834 -101.62527908037737 0 0 0 0 -1047.3931063321361 -207.77736530664151 0 -207.77736530664151 -222.82646776428737 0 0 0 0 -920.91223743309092 -422.56824848986344 0 -422.56824848986344 -241.0317508834305 0 0 0 0 3.2404418157272943 -1.8178502934822234 0 -1.8178502934822234 -6.7728652039210324 0 0 0 0 -2282.2860578905093 -1176.5961148043957 0 -1176.5961148043957 -418.91258162458325 0 0 0 0 2755.6199390995826 1441.0069633023909 0 1441.0069633023909 1730.2984512805979 0 0 0 0 -1836.7118299269932 -1155.5887053322031 0 -1155.5887053322031 -899.0373852445764 0 0 0 0 -1732.9285931843624 -538.26919883123219 0 -538.26919883123219 -609.72903975131248 0 0 0 0 -2008.5713525293977 -592.5427054405701 0 -592.5427054405701 -539.02807345505425 0 0 0 0 -1684.034673376329 -464.16796722303343 0 -464.16796722303343 -504.37271235492153 0 0 0 0 -974.655334634881 -949.76470934821464 0 -949.76470934821464 -918.76252867279163 0 0 0 0 -480.04586268533603 -741.72053887478387 0 -741.72053887478387 -883.75073618860233 0 0 0 0 -895.40827574388823 -302.01683024214799 0 -302.01683024214799 -472.7367980712811 0 0 0 0 -1691.7848032847978 -383.02008429683531 0 -383.02008429683531 -15.263753941868345 0 0 0 0 -1749.9312159668189 -539.7097492017017 0 -539.7097492017017 -434.71843004334403 0 0 0 0 -2107.0112940594699 -313.36202459707079 0 -313.36202459707079 -208.34004282868636 0 0 0 0 -2172.1108936330238 4.0836760005748829 0 4.0836760005748829 -762.49388507979438 0 0 0 0 -2043.4646328042145 -248.09354306343948 0 -248.09354306343948 -420.47356375887989 0 0 0 0 -2084.6443693357869 -244.8038529443711 0 -244.8038529443711 -328.49433542670067 0 0 0 0 -2802.1965902177617 -100.30034281844746 0 -100.30034281844746 -350.44154027422246 0 0 0 0 -2522.4662899626856 -771.54105316778669 0 -771.54105316778669 -266.10833852480027 0 0 0 0 -2354.4915752238885 399.43234277199872 0 399.43234277199872 -579.61078522731941 0 0 0 0 -2268.2679437229235 134.56405643291828 0 134.56405643291828 -449.77317351547993 0 0 0 0 -1969.0662944774194 -632.20410162473354 0 -632.20410162473354 -2267.0476067974755 0 0 0 0 -2256.8256123597967 -546.56970377729169 0 -546.56970377729169 -571.27004048750791 0 0 0 0 -2562.8402994609132 -116.76863582249496 0 -116.76863582249496 -123.18568127404751 0 0 0 0 -3193.1964597873739 -737.20388623575832 0 -737.20388623575832 -611.15598008263441 0 0 0 0 -2055.5460400162283 102.1146489418673 0 102.1146489418673 109.90755746316609 0 0 0 0 -2660.4048205219151 -245.35799685569623 0 -245.35799685569623 -52.587642181803631 0 0 0 0 -1686.7464886171219 -460.93184950897182 0 -460.93184950897182 -284.70183666591083 0 0 0 0 -2105.5177328339487 -231.96592077844798 0 -231.96592077844798 -163.20541478069504 0 0 0 0 -1262.2099378934799 -137.36517352707432 0 -137.36517352707432 -154.01669178859402 0 0 0 0 -2023.2338132067089 203.73471468702729 0 203.73471468702729 25.028765819774662 0 0 0 0 -2087.6715464750687 536.73918814995102 0 536.73918814995102 217.76234620308105 0 0 0 0 -2116.19179808833 505.89421487327922 0 505.89421487327922 188.78575398439239 0 0 0 0 -1407.3639145048801 610.34832586819982 0 610.34832586819982 4.9566078669804483 0 0 0 0 -2089.8394503885356 670.84919787646049 0 670.84919787646049 481.88968166444306 0 0 0 0 -719.44408540408767 530.34626152132637 0 530.34626152132637 -202.87239650740958 0 0 0 0 -2170.0455855181317 1456.7634974520095 0 1456.7634974520095 -403.41112835438025 0 0 0 0 -2781.1313008853176 229.37648918403602 0 229.37648918403602 121.89616440049281 0 0 0 0 -2646.3462869998621 495.70102745650502 0 495.70102745650502 405.17039579144898 0 0 0 0 -4030.728588453152 1490.5364494551411 0 1490.5364494551411 -386.38542680755199 0 0 0 0 -4917.7786661488062 46.926265778468633 0 46.926265778468633 -145.94890949271235 0 0 0 0 -24.483171438125311 -16.730533390337584 0 -16.730533390337584 -7.9076695043726488 0 0 0 0 -3482.1814972246939 574.08676182858835 0 574.08676182858835 -46.829155553253941 0 0 0 0 -4385.1537156705745 -959.1328240169164 0 -959.1328240169164 -639.30427968507092 0 0 0 0 35.247148348978953 1370.9117140295489 0 1370.9117140295489 -983.21911243409249 0 0 0 0 1996.1808785771136 -3749.6789283857779 0 -3749.6789283857779 287.59090986064439 0 0 0 0 -13.591137296949768 -18.47719646900029 0 -18.47719646900029 -16.515906474275585 0 0 0 0 -5662.4213098464788 -306.8357955254026 0 -306.8357955254026 445.46692720191845 0 0 0 0 -4640.5547385288228 -2108.8878158737953 0 -2108.8878158737953 -973.81612775399537 0 0 0 0 -689.72730998801126 -4830.0967753405184 0 -4830.0967753405184 -147.00772148700571 0 0 0 0 1540.0222020891524 -1306.8893920113701 0 -1306.8893920113701 -3295.233799549811 0 0 0 0 -1020.5228010127903 1504.9688810196753 0 1504.9688810196753 250.37595801351597 0 0 0 0 -3239.993488168082 1030.4995509356172 0 1030.4995509356172 1870.6875180520105 0 0 0 0 -3428.4694593681925 -701.77639994657295 0 -701.77639994657295 86.455395174341902 0 0 0 0 -3606.4751243697683 -246.93134098555549 0 -246.93134098555549 -875.99949690508936 0 0 0 0 -3521.859714477323 422.53508570585564 0 422.53508570585564 961.76734793626861 0 0 0 0 -5499.5734744052534 821.10273806200223 0 821.10273806200223 992.84861806518495 0 0 0 0 -3328.6356692158297 1817.37117662941 0 1817.37117662941 710.02864078316611 0 0 0 0 -2375.4942880667077 917.93509758629079 0 917.93509758629079 231.87141135360957 0 0 0 0 -898.92508607070886 -359.76534282617581 0 -359.76534282617581 699.38896510676159 0 0 0 0 -50.706733246146314 -27.872076509901234 0 -27.872076509901234 -6.4736000429077354 0 0 0 0 -2565.8091693517199 201.4438622867757 0 201.4438622867757 1473.4701386201898 0 0 0 0 345.80554540094454 -1048.8107544126676 0 -1048.8107544126676 -636.3564817109683 0 0 0 0 -1574.1887229205604 566.67517324515802 0 566.67517324515802 636.46733105163776 0 0 0 0 -24.87572629237718 -9.364961799063579 0 -9.364961799063579 -3.4984885916856667 0 0 0 0 -5494.749786809396 2915.8676640883905 0 2915.8676640883905 -1020.8257108049517 0 0 0 0 -511.85334777631215 -245.51748905064346 0 -245.51748905064346 -203.68962570122221 0 0 0 0 -594.24036604927824 -339.4358439677992 0 -339.4358439677992 -322.94710804118131 0 0 0 0 -224.05920068192063 -224.31776819083802 0 -224.31776819083802 -307.12031164252767 0 0 0 0 -494.42173654387443 -13.501477830883005 0 -13.501477830883005 290.36735761831824 0 0 0 0 441.9492894532741 363.20841127042877 0 363.20841127042877 85.556102561383341 0 0 0 0 -7.063133170263157 18.659683318500157 0 18.659683318500157 12.151725809626079 0 0 0 0 -622.19072282464185 -1.7781918770817811 0 -1.7781918770817811 83.796424208451754 0 0 0 0 -298.37705801382253 163.25934705543841 0 163.25934705543841 -21.855819786132543 0 0 0 0 -869.95526967747719 67.356600405811605 0 67.356600405811605 78.94207221198559 0 0 0 0 1099.2628678697074 612.05552062575282 0 612.05552062575282 -119.41991737163562 0 0 0 0 -546.11652955751924 416.67609387752532 0 416.67609387752532 385.43875291366066 0 0 0 0 -9.0582564597373789 5.0687938633419662 0 5.0687938633419662 -0.93341028013210181 0 0 0 0 904.89250979342796 387.96328179725162 0 387.96328179725162 -58.16454570413589 0 0 0 0 1147.9254306512739 695.61707009043005 0 695.61707009043005 -6.8704130427281598 0 0 0 0 920.92005607354804 528.63540381987286 0 528.63540381987286 339.27830070039636 0 0 0 0 -5.9773972763106258 15.348725028110721 0 15.348725028110721 6.5947008992908192 0 0 0 0 -801.11783784460567 93.484632588554746 0 93.484632588554746 -36.979995376357692 0 0 0 0 -860.67025113289856 -8.1219373907405839 0 -8.1219373907405839 -193.86763562242504 0 0 0 0 2620.6191417914524 1041.7091300426807 0 1041.7091300426807 470.14450981788286 0 0 0 0 -2124.0770932855303 9.6608119450283425 0 9.6608119450283425 456.24009366035489 0 0 0 0 2641.0515953727736 1062.1412532085849 0 1062.1412532085849 498.44779590972939 0 0 0 0 -1.839025774364174 6.080022511117221 0 6.080022511117221 2.8138008637288303 0 0 0 0 -1257.4718834231244 -201.70915809234967 0 -201.70915809234967 -162.44616826746733 0 0 0 0 2640.0007567991706 1054.518818387 0 1054.518818387 445.19246533212936 0 0 0 0 -24.944879160345977 17.606307053626693 0 17.606307053626693 -4.7095562078029474 0 0 0 0 -1026.1752215049637 -553.35642541714878 0 -553.35642541714878 -270.34992295456732 0 0 0 0 -1035.6694524590275 -579.26564308775642 0 -579.26564308775642 -334.53400064611947 0 0 0 0 -1539.5314100086543 -1007.789557416728 0 -1007.789557416728 -656.14624276717836 0 0 0 0 -1058.7835741435629 -388.16219161115077 0 -388.16219161115077 -293.9019717604931 0 0 0 0 -1648.6317917274519 -467.30117575433366 0 -467.30117575433366 -280.06318015292959 0 0 0 0 -985.72329628653824 -33.648659894239074 0 -33.648659894239074 -526.21113687503657 0 0 0 0 -417.11731268675067 -83.067617885797972 0 -83.067617885797972 -575.37438564886634 0 0 0 0 -734.85373118201096 -420.48942755476446 0 -420.48942755476446 -549.99268194705269 0 0 0 0 -649.92580789390195 -475.14396156230225 0 -475.14396156230225 -527.40663154107256 0 0 0 0 -830.51472627417388 -561.77777043592391 0 -561.77777043592391 -555.71398535702849 0 0 0 0 -707.20673885793076 -451.58108762239351 0 -451.58108762239351 -592.13831080472062 0 0 0 0 -434.99356580222957 -363.83608551318912 0 -363.83608551318912 -594.46332184194841 0 0 0 0 -641.6173122877517 -515.29104833610336 0 -515.29104833610336 -578.91978482657396 0 0 0 0 -585.48992163469666 -387.57622512023545 0 -387.57622512023545 -581.98116556319837 0 0 0 0 -1496.1692184725325 -170.67806673068699 0 -170.67806673068699 167.07184897001309 0 0 0 0 -1251.839366895234 -188.96255788602247 0 -188.96255788602247 -305.51307180674701 0 0 0 0 -959.39009552107018 -529.6100905754929 0 -529.6100905754929 -520.91901364860178 0 0 0 0 -971.19938233855646 -777.41868404859656 0 -777.41868404859656 -1364.9830900048155 0 0 0 0 -1156.5050754419644 -1386.6010045008229 0 -1386.6010045008229 -1234.3978797067675 0 0 0 0 -1075.8792100427672 42.68285187884959 0 42.68285187884959 713.6774109870812 0 0 0 0 -2049.5765074318915 -794.1912897332403 0 -794.1912897332403 77.003375036197511 0 0 0 0 -15.382781683321753 -6.413832136863169 0 -6.413832136863169 -0.31808344674469041 0 0 0 0 -1652.0685620920558 -1689.7164018831825 0 -1689.7164018831825 -680.63992389401665 0 0 0 0 -1146.9617835570825 -90.871274556756362 0 -90.871274556756362 -522.84163165782002 0 0 0 0 -1135.3285972360754 -293.2561007533327 0 -293.2561007533327 63.550566558690662 0 0 0 0 -522.01623580348678 -252.74802638041729 0 -252.74802638041729 -646.11494881922954 0 0 0 0 -1215.8387937334192 -454.85582847586011 0 -454.85582847586011 94.856870035414317 0 0 0 0 -0.49435989108198441 -4.2234887901588536 0 -4.2234887901588536 -6.9284987194081413 0 0 0 0 1331.4654015556953 -336.64939081695576 0 -336.64939081695576 -719.01698739309177 0 0 0 0 -508.13533682117122 -407.12528704429997 0 -407.12528704429997 314.11597928903575 0 0 0 0 -474.57004054469871 -495.60257416978493 0 -495.60257416978493 -593.38928414606642 0 0 0 0 -691.97360946130357 -402.90120954468375 0 -402.90120954468375 -682.62439415826498 0 0 0 0 -695.50397188062198 -429.60290728277118 0 -429.60290728277118 -340.72271612233453 0 0 0 0 -1007.7496242090274 -657.96859467250488 0 -657.96859467250488 98.596288263432143 0 0 0 0 -231.98733789549442 -506.99044851179542 0 -506.99044851179542 -335.93757736300267 0 0 0 0 -443.76955185458064 -360.52632829999538 0 -360.52632829999538 -47.773037506489345 0 0 0 0 198.70969989272999 -55.4570135547674 0 -55.4570135547674 31.450296298756484 0 0 0 0 -8.4499925491260797 -3.867222522073817 0 -3.867222522073817 -1.626544891472621 0 0 0 0 -736.88081849287846 376.25996932405178 0 376.25996932405178 -303.38707468069015 0 0 0 0 -197.3777545577359 -816.97260567584431 0 -816.97260567584431 117.03064650572833 0 0 0 0 -27.45166652512853 98.836456943722624 0 98.836456943722624 -199.75415640442588 0 0 0 0 -595.47990287558059 -1.9370934497219423 0 -1.9370934497219423 292.36057707479722 0 0 0 0 -50.453703040075197 102.86979834902672 0 102.86979834902672 63.731832477973512 0 0 0 0 -51.759241073072189 71.291235083705033 0 71.291235083705033 -66.277783605151853 0 0 0 0 -1021.8002448221378 -675.12521570037461 0 -675.12521570037461 121.91546860605649 0 0 0 0 -1291.0608261444359 -72.443474041763238 0 -72.443474041763238 156.32144710359535 0 0 0 0 -486.18325044054654 -213.8619798648524 0 -213.8619798648524 145.94768011307042 0 0 0 0 -469.62849107582588 -458.90702790021078 0 -458.90702790021078 40.127813807505845 0 0 0 0 -507.76378732541343 -316.5811966852998 0 -316.5811966852998 18.164552842255944 0 0 0 0 -548.95736254859366 -405.87710238922591 0 -405.87710238922591 -64.541992908079919 0 0 0 0 -536.8777132325049 -380.68337356115626 0 -380.68337356115626 -13.662033462544059 0 0 0 0 -260.07503625945537 -188.5541728693288 0 -188.5541728693288 -43.246920396664791 0 0 0 0 -603.94725411780382 -321.72306852859219 0 -321.72306852859219 104.34677420333901 0 0 0 0 -139.47422668579384 -11.635673387874704 0 -11.635673387874704 18.794073338368435 0 0 0 0 -147.36863156943582 -173.79492612808099 0 -173.79492612808099 -198.87330617658336 0 0 0 0 -418.29960432121879 -234.39476043968079 0 -234.39476043968079 -31.043175995489946 0 0 0 0 -666.65077842693427 -338.91502117573509 0 -338.91502117573509 -31.417460072249014 0 0 0 0 -421.223278745892 -332.41577445708253 0 -332.41577445708253 -224.05008017239379 0 0 0 0 -606.36802510291454 -361.08925244313832 0 -361.08925244313832 -179.72037800583348 0 0 0 0 -652.90460750920465 -261.94000129202868 0 -261.94000129202868 -257.0734386060476 0 0 0 0 -148.6662601608914 -45.84885964962632 0 -45.84885964962632 29.416073779118051 0 0 0 0 -93.757993174440344 -11.850935073214487 0 -11.850935073214487 24.147108590461357 0 0 0 0 -101.92361970199272 -1.6784187880093668 0 -1.6784187880093668 52.545645470985619 0 0 0 0 -70.030530684176483 26.44227398748717 0 26.44227398748717 31.468488169645752 0 0 0 0 0.51865756401421947 0.4639863765758605 0 0.4639863765758605 3.237191959366907 0 0 0 0 -279.2811648461502 -178.54918831446048 0 -178.54918831446048 0.55874652388047252 0 0 0 0 -101.71584528384847 9.322863292339207 0 9.322863292339207 3.4063706767651638 0 0 0 0 -74.175124078639783 -31.452332216752438 0 -31.452332216752438 -16.372541874352464 0 0 0 0 -85.40806866078492 -11.981833284644154 0 -11.981833284644154 24.131263764516916 0 0 0 0 -27.563804171513766 -0.83028061566710676 0 -0.83028061566710676 3.0821286635809884 0 0 0 0 -44.157786568510687 4.3044254424459467 0 4.3044254424459467 16.580216963188033 0 0 0 0 -46.959785867657047 26.847537374429521 0 26.847537374429521 38.281803193197447 0 0 0 0 -73.363990597878001 52.850715455831335 0 52.850715455831335 56.064603681940298 0 0 0 0 -61.151646385464119 33.188425763429223 0 33.188425763429223 75.937993155017921 0 0 0 0 -60.329139482520986 -2.8501361952257867 0 -2.8501361952257867 38.917044034253905 0 0 0 0 -65.577051013053278 -40.592293371349001 0 -40.592293371349001 40.787584253290447 0 0 0 0 -69.476651210658019 23.822672665695563 0 23.822672665695563 120.55044719571242 0 0 0 0 -44.504485938550374 3.7137832335978942 0 3.7137832335978942 20.106783300263526 0 0 0 0 -40.359545389161212 27.383226864350036 0 27.383226864350036 31.380116033757076 0 0 0 0 -22.114516751375049 -4.9974299086679821 0 -4.9974299086679821 26.617130745878967 0 0 0 0 -66.065226289472776 3.6327770056004738 0 3.6327770056004738 20.932089109665412 0 0 0 0 -55.509231225267285 -2.0712629837735221 0 -2.0712629837735221 13.733604578477753 0 0 0 0 -26.436012452453724 12.126130871626174 0 12.126130871626174 18.022430160543081 0 0 0 0 -61.328233504595119 -2.2677679810335576 0 -2.2677679810335576 9.7068528674089976 0 0 0 0 -21.679726934265773 -7.9948664503261284 0 -7.9948664503261284 -2.6199847963382634 0 0 0 0 -58.124039394926513 52.216917135085168 0 52.216917135085168 283.03711485878557 0 0 0 0 -43.145945048920112 20.404594652438846 0 20.404594652438846 13.26574857511514 0 0 0 0 -32.71010062898398 -7.5747479710603471 0 -7.5747479710603471 3.7807261576186875 0 0 0 0 -147.2549958176678 114.40430097297303 0 114.40430097297303 251.60217682900657 0 0 0 0 -261.7491099140243 -110.02446333028593 0 -110.02446333028593 704.68689657449158 0 0 0 0 -81.835499253473245 27.844156205718264 0 27.844156205718264 283.70172360893798 0 0 0 0 -648.00347161134414 201.10777742466178 0 201.10777742466178 41.357778892501756 0 0 0 0 -92.874435852754686 213.69045477925192 0 213.69045477925192 123.56967018585601 0 0 0 0 20.302658112297649 120.13242965698964 0 120.13242965698964 200.29918939274103 0 0 0 0 -88.456682543175702 40.73605102003512 0 40.73605102003512 14.728965731703966 0 0 0 0 -13.936162032373346 16.448845491550998 0 16.448845491550998 22.465419457289201 0 0 0 0 -8.8347297167247802 -2.2934558095065682 0 -2.2934558095065682 -1.0137856864620707 0 0 0 0 22.310728012118489 77.804501040603782 0 77.804501040603782 -165.68409289155511 0 0 0 0 -0.5593124914351506 1.0824616882655391 0 1.0824616882655391 -1.6094444586442567 0 0 0 0 -178.27403674754896 -84.712383464913358 0 -84.712383464913358 214.19081326090819 0 0 0 0 -36.166018323432979 -12.954794335964436 0 -12.954794335964436 -3.5767871245892504 0 0 0 0 -141.44356874085497 35.903614556854336 0 35.903614556854336 -27.842757317378982 0 0 0 0 6.2696374951483449 73.944490872893567 0 73.944490872893567 67.418097300764401 0 0 0 0 -20.289420011686161 18.696808658834925 0 18.696808658834925 21.016019124936975 0 0 0 0 -33.102767794688191 14.794234471054992 0 14.794234471054992 24.970405228631371 0 0 0 0 -38.277469476666226 1.9916775626665242 0 1.9916775626665242 12.467522463887931 0 0 0 0 -35.029988216701895 2.1308677970218923 0 2.1308677970218923 17.413840975359562 0 0 0 0 -57.97966480653696 -8.0294665186530096 0 -8.0294665186530096 20.330557707027921 0 0 0 0 -13.565184712675517 -3.9227946309936783 0 -3.9227946309936783 1.9267019711092004 0 0 0 0 75.338311027197051 69.117201215807199 0 69.117201215807199 -12.744396007644127 0 0 0 0 -389.44199400105572 -35.633072222740111 0 -35.633072222740111 229.95864615648566 0 0 0 0 -98.911616470737499 58.024355673218224 0 58.024355673218224 137.37160254222647 0 0 0 0 -43.782852120697498 -180.51685758269832 0 -180.51685758269832 -890.73712656685757 0 0 0 0 -162.75750883801811 -305.15265994994229 0 -305.15265994994229 -754.76689014653834 0 0 0 0 -30.368984542896214 -212.14752301410499 0 -212.14752301410499 -851.67148842851839 0 0 0 0 -398.38433775475278 -373.0457813900764 0 -373.0457813900764 -671.7919711731497 0 0 0 0 -80.455904919319437 -149.79838786425717 0 -149.79838786425717 -867.99264119823897 0 0 0 0 -68.456716033768316 -177.40317971935349 0 -177.40317971935349 -839.55644556088373 0 0 0 0 -67.069184265317745 -113.50428175880836 0 -113.50428175880836 -314.24280894632284 0 0 0 0 -59.731225045499741 -234.85274339795706 0 -234.85274339795706 -653.64057443969318 0 0 0 0 31.277952561795246 -448.98133602795042 0 -448.98133602795042 -430.26702589550678 0 0 0 0 58.909166212659329 -305.59928855014323 0 -305.59928855014323 -663.85612497849843 0 0 0 0 322.33874631224899 -211.12940725220733 0 -211.12940725220733 -288.68205414860859 0 0 0 0 114.86727204838098 -646.64645095968285 0 -646.64645095968285 -137.00772883439186 0 0 0 0 170.10599367409304 -250.16451724033686 0 -250.16451724033686 -315.0074314293488 0 0 0 0 50.744099294272019 -255.18444810918481 0 -255.18444810918481 197.37139890305627 0 0 0 0 -22.432854963335558 -368.18885768192013 0 -368.18885768192013 106.78043504524248 0 0 0 0 -222.60691799518463 -784.04163574949803 0 -784.04163574949803 -350.75887323789266 0 0 0 0 -601.0456771623285 -312.70125261951853 0 -312.70125261951853 -309.34015409363883 0 0 0 0 614.82348222665314 -236.23739171270154 0 -236.23739171270154 81.875594631060267 0 0 0 0 -81.756565363844857 -465.49830493714944 0 -465.49830493714944 -283.84702362115331 0 0 0 0 -66.934597901228699 -632.10447662917136 0 -632.10447662917136 -490.21451813721069 0 0 0 0 -13.312116722598148 -544.2979098097444 0 -544.2979098097444 -424.37954803433786 0 0 0 0 -195.38159590048599 -581.64831792279483 0 -581.64831792279483 -329.51160659505808 0 0 0 0 -683.15683673215972 -621.08644279915552 0 -621.08644279915552 -226.53568033056462 0 0 0 0 -217.30695348037989 -419.15269766467509 0 -419.15269766467509 -220.50116548112055 0 0 0 0 -139.01821499843936 -421.36420078988834 0 -421.36420078988834 -338.97022293979126 0 0 0 0 -118.3934288914752 -308.1480442395341 0 -308.1480442395341 -516.54819966727985 0 0 0 0 -120.94653483830916 -388.77107716740142 0 -388.77107716740142 -647.53783141328699 0 0 0 0 -5.4598461832647445 -507.04101720726857 0 -507.04101720726857 -1292.8092669965683 0 0 0 0 -5.8627880751482166 -2.5609815041412558 0 -2.5609815041412558 -0.70414795202956759 0 0 0 0 80.436878979322501 89.384352948340734 0 89.384352948340734 -270.09953221992373 0 0 0 0 -62.524536636912671 90.912204085159061 0 90.912204085159061 28.567322784679163 0 0 0 0 -65.258305798619404 77.668281616427294 0 77.668281616427294 96.915938989241567 0 0 0 0 -27.047925171777024 52.633397674257481 0 52.633397674257481 -76.619955885243144 0 0 0 0 -18.309656785944981 -5.3460990693820669 0 -5.3460990693820669 -0.41250655310948303 0 0 0 0 -29.540135181625374 -8.2182387053508137 0 -8.2182387053508137 41.295274952593616 0 0 0 0 -99.219273461523699 8.1005298228074025 0 8.1005298228074025 29.45954672193534 0 0 0 0 -29.65376924451715 3.4348134607146861 0 3.4348134607146861 6.2320487145630175 0 0 0 0 -13.851684393963296 36.986673434631683 0 36.986673434631683 32.515870828186735 0 0 0 0 -51.921418342807215 -0.89252279341148721 0 -0.89252279341148721 15.462403327531518 0 0 0 0 -77.585544045170536 -17.707043553656149 0 -17.707043553656149 33.275956038094591 0 0 0 0 -13.25883456338488 -16.037767856151277 0 -16.037767856151277 -88.847375572189776 0 0 0 0 -123.66098297341523 -10.472315116133814 0 -10.472315116133814 25.145385656323924 0 0 0 0 -8.3540958359809991 -2.8693775531597225 0 -2.8693775531597225 8.7889605915287135 0 0 0 0 -72.748202671704348 -22.99193199898582 0 -22.99193199898582 -5.1122454017240671 0 0 0 0 -48.947630822292922 -32.349226089308843 0 -32.349226089308843 -38.206420365102531 0 0 0 0 -45.214865226199265 1.8389187163353 0 1.8389187163353 9.4530429497190198 0 0 0 0 -32.847583940485492 4.1070047314824478 0 4.1070047314824478 19.231918016478176 0 0 0 0 -32.522693933453411 78.528930548979588 0 78.528930548979588 83.446272243698786 0 0 0 0 -82.296901328192831 -2.61221845991534 0 -2.61221845991534 22.786189489739957 0 0 0 0 -45.510030204268617 10.835453769975654 0 10.835453769975654 27.508785000624965 0 0 0 0 -60.741127740649972 -33.338767348761394 0 -33.338767348761394 -7.4321226056658816 0 0 0 0 -204.91605801720289 -48.13008857623754 0 -48.13008857623754 48.025433208614857 0 0 0 0 -207.35700734646525 -89.026798770174992 0 -89.026798770174992 -22.938291707669009 0 0 0 0 -462.04154244420351 -276.62781812110597 0 -276.62781812110597 -117.61803471370243 0 0 0 0 -8.0687556749398937 -85.339926636573978 0 -85.339926636573978 -107.14596367372133 0 0 0 0 -479.19359076618275 -293.40713798761408 0 -293.40713798761408 -340.09591188018749 0 0 0 0 -304.15658132924 -86.181416910101689 0 -86.181416910101689 -242.15388909493049 0 0 0 0 -585.5447507700901 -290.02448161148135 0 -290.02448161148135 -196.50195626994901 0 0 0 0 -295.92806448263582 -213.05174397883275 0 -213.05174397883275 -277.60450388972276 0 0 0 0 -309.11134269184549 -134.76059591754893 0 -134.76059591754893 7.7136221318905882 0 0 0 0 13.507323370256927 -68.477321059614042 0 -68.477321059614042 -166.17741863949595 0 0 0 0 -323.70404412532662 -180.67518576127668 0 -180.67518576127668 -114.19246883608139 0 0 0 0 -102.52853934372251 5.7502857133895304 0 5.7502857133895304 121.67295475251012 0 0 0 0 -66.401944743964123 97.704629137480879 0 97.704629137480879 94.878738343357327 0 0 0 0 -81.491567044897181 10.612271604411092 0 10.612271604411092 35.968383997550362 0 0 0 0 28.372520491480827 25.385195926965025 0 25.385195926965025 10.717755918383773 0 0 0 0 1.5511496917936825 6.8820639533157877 0 6.8820639533157877 6.8378299539105267 0 0 0 0 -92.695272912256769 158.85492435090964 0 158.85492435090964 -44.079965406551764 0 0 0 0 -170.29828979838203 -90.769435571015265 0 -90.769435571015265 -100.70378774155324 0 0 0 0 -388.81790973598254 15.028880301815661 0 15.028880301815661 -138.13130766940958 0 0 0 0 -94.315442864215584 -45.759666775890423 0 -45.759666775890423 -39.942112784258427 0 0 0 0 -16.352350716623548 -9.0266665316135004 0 -9.0266665316135004 -12.684962079726791 0 0 0 0 0.27813607038115151 -3.2393148117753299 0 -3.2393148117753299 -13.279150597008993 0 0 0 0 -143.13732017652364 -35.459927062066072 0 -35.459927062066072 -11.298110418703175 0 0 0 0 34.949776542460313 -78.829727036832537 0 -78.829727036832537 -23.005550835836402 0 0 0 0 -6.4218122949205849 -4.0408293490105507 0 -4.0408293490105507 -2.3113899384522636 0 0 0 0 -162.26027537675691 -59.279234193500088 0 -59.279234193500088 -18.738470722030172 0 0 0 0 -173.98947665294691 -61.305656032442755 0 -61.305656032442755 -6.2609948529070607 0 0 0 0 -60.782138938055141 -58.62257241730822 0 -58.62257241730822 -34.949961057294786 0 0 0 0 -15.870298075785342 10.381333577562543 0 10.381333577562543 -2.5337633490212434 0 0 0 0 7.1652321798718361 -14.266272186709898 0 -14.266272186709898 -23.068008055617558 0 0 0 0 -102.89916019618249 -18.898449628274939 0 -18.898449628274939 -6.1946207697956766 0 0 0 0 -773.15002371535229 -199.96379671755676 0 -199.96379671755676 1.4434220515136076 0 0 0 0 -203.36611889269261 -79.741145288184043 0 -79.741145288184043 -84.906590361107192 0 0 0 0 -63.806420738896122 -22.272893402802765 0 -22.272893402802765 -143.75455705542845 0 0 0 0 -5.1670164313763962 17.177953932025048 0 17.177953932025048 -82.61082004070704 0 0 0 0 -110.60622777137905 32.051257973309475 0 32.051257973309475 -86.602339204519012 0 0 0 0 -81.904849880491383 13.850953977456811 0 13.850953977456811 -16.902602348847722 0 0 0 0 -162.3396079246595 -106.26998198386445 0 -106.26998198386445 -58.07377688194174 0 0 0 0 -84.750187557641766 -73.377030818862295 0 -73.377030818862295 -28.823254890197859 0 0 0 0 -78.685735148959793 40.402616147208391 0 40.402616147208391 -32.354506984762565 0 0 0 0 -64.976111813040916 -66.952473826179812 0 -66.952473826179812 -51.488826320343833 0 0 0 0 -96.947586716327351 -41.978084673174635 0 -41.978084673174635 -31.172167527508464 0 0 0 0 -309.7330987996902 70.160927337280555 0 70.160927337280555 -31.423826928869858 0 0 0 0 -8.8657092461168077 3.7852212239357499 0 3.7852212239357499 2.3704251555651155 0 0 0 0 -1355.9189922802243 -520.81746568577751 0 -520.81746568577751 122.53227339712794 0 0 0 0 -981.82750968507025 -497.36550658075203 0 -497.36550658075203 -216.46314862113832 0 0 0 0 -1318.9046670281778 -960.92685993924715 0 -960.92685993924715 -244.78477735164233 0 0 0 0 -1168.1020359991235 -504.51429108984121 0 -504.51429108984121 180.85873497044304 0 0 0 0 -1137.2261792618374 -434.0287075264705 0 -434.0287075264705 205.35879748728257 0 0 0 0 -644.39241542195668 -304.28694698117488 0 -304.28694698117488 -166.54863675717024 0 0 0 0 -29.977213139791957 -0.67974370787079863 0 -0.67974370787079863 -12.217167865507655 0 0 0 0 -78.957748087075885 -47.581768930285278 0 -47.581768930285278 -7.7650172515787093 0 0 0 0 -310.65681357735593 -293.40112195189431 0 -293.40112195189431 -111.76257902393854 0 0 0 0 -617.87895515139735 -29.312935462911639 0 -29.312935462911639 -72.119476878780915 0 0 0 0 -2075.8736051009037 -385.88992465265619 0 -385.88992465265619 -27.966322016191043 0 0 0 0 -83.869674423811574 -65.142055698156199 0 -65.142055698156199 -6.9188168748944534 0 0 0 0 -889.28510382132663 -198.80432812397794 0 -198.80432812397794 -157.58346521338854 0 0 0 0 551.68997299301554 -312.17435157310865 0 -312.17435157310865 -368.79982900275718 0 0 0 0 -27.322206000033844 -14.592346299575809 0 -14.592346299575809 31.827068925406607 0 0 0 0 -1264.2361168688803 -769.62309372437448 0 -769.62309372437448 148.65738290244917 0 0 0 0 -1499.6430028011964 -294.32889233485366 0 -294.32889233485366 191.5854466665478 0 0 0 0 -1075.5252939341153 -135.21491225843056 0 -135.21491225843056 -59.225697855785256 0 0 0 0 -136.5172776540785 -61.066937760735641 0 -61.066937760735641 -23.621313985950621 0 0 0 0 -32.893556276041124 3.5794227777015379 0 3.5794227777015379 -3.1475836754606745 0 0 0 0 -106.52023139854282 -33.790789895103387 0 -33.790789895103387 -71.655499385450781 0 0 0 0 -103.12460001619183 -31.605290396166282 0 -31.605290396166282 -34.449378794225709 0 0 0 0 -56.626177894939332 -47.582825384277697 0 -47.582825384277697 -28.396664584403815 0 0 0 0 -90.916610351385316 -34.289521207570942 0 -34.289521207570942 -19.11437047127049 0 0 0 0 -77.527485078637255 -62.842230515764641 0 -62.842230515764641 -15.311037016398586 0 0 0 0 -1.5230663091529664 -14.436649212780708 0 -14.436649212780708 -34.887808292793309 0 0 0 0 -67.479842057364294 114.87631929243253 0 114.87631929243253 21.884258663461878 0 0 0 0 -49.266584111435805 -37.092332562421689 0 -37.092332562421689 -28.613279542257004 0 0 0 0 -52.598395578215616 -21.275508442966853 0 -21.275508442966853 -2.9269750386713929 0 0 0 0 -56.046674725960997 -20.020447546957278 0 -20.020447546957278 -5.2030353354939063 0 0 0 0 -90.89236848631117 -36.473492990153318 0 -36.473492990153318 -31.587528362932062 0 0 0 0 -26.597050064731093 -6.1939143404388943 0 -6.1939143404388943 15.532390928290397 0 0 0 0 -145.7043388907623 -36.486857741205782 0 -36.486857741205782 -23.523139127343001 0 0 0 0 -55.641366473952189 -43.931641832465957 0 -43.931641832465957 -27.886027967659263 0 0 0 0 -91.302448653877946 -26.770861481032625 0 -26.770861481032625 -32.552696247345011 0 0 0 0 -50.52455063264938 -17.86118174663352 0 -17.86118174663352 -11.113277283943544 0 0 0 0 -101.09196313022403 -71.848865493865446 0 -71.848865493865446 -25.104031148121464 0 0 0 0 -8.0432118793770826 -3.6600677848174428 0 -3.6600677848174428 1.1034701846388195 0 0 0 0 -160.64074060488565 -106.57474413163914 0 -106.57474413163914 -48.226792443630984 0 0 0 0 -198.59263457632915 -68.343959819390875 0 -68.343959819390875 -77.176145931996871 0 0 0 0 -38.595249901787611 -9.3930497200226455 0 -9.3930497200226455 30.232788378216355 0 0 0 0 -59.478603434120188 -20.898717914843814 0 -20.898717914843814 0.44965244646931524 0 0 0 0 -84.352092582681507 -41.875615972094238 0 -41.875615972094238 57.714196331300627 0 0 0 0 -9.1639578081168196 -2.1589582732495103 0 -2.1589582732495103 4.2314434906266669 0 0 0 0 -207.06948469592317 -105.10361892465335 0 -105.10361892465335 -50.953234877483283 0 0 0 0 -16.922828104687113 -5.2284021204671944 0 -5.2284021204671944 -3.6382063003144793 0 0 0 0 -25.691317087519565 -42.965394841898615 0 -42.965394841898615 -11.506837285905931 0 0 0 0 -329.16755407908204 32.213582081457844 0 32.213582081457844 12.364034658437959 0 0 0 0 1.2797937129986963 -0.8815025570990116 0 -0.8815025570990116 -6.5847350235155844 0 0 0 0 -1324.2072419539327 -61.759473082137447 0 -61.759473082137447 52.906100930317507 0 0 0 0 58.293333918667486 -160.0716567247232 0 -160.0716567247232 -371.48549814605576 0 0 0 0 -121.55159503893083 15.416555289383723 0 15.416555289383723 27.30131177244948 0 0 0 0 -59.669898114872922 -29.755299237370764 0 -29.755299237370764 -141.06352655205319 0 0 0 0 -1.505539486996156 1.8725961887110714 0 1.8725961887110714 2.6041910589484338 0 0 0 0 34.343117136377259 -103.33810511356933 0 -103.33810511356933 -2.2992466137347947 0 0 0 0 -153.10601042996859 -41.331511460023648 0 -41.331511460023648 31.315338345404655 0 0 0 0 -1012.161544271763 -81.63179357375725 0 -81.63179357375725 -33.440489881293615 0 0 0 0 -936.95750819607929 -269.24379389827027 0 -269.24379389827027 88.246883179675024 0 0 0 0 -817.93662196544756 -275.17410213528638 0 -275.17410213528638 -35.356792200150778 0 0 0 0 -956.06903456818691 -216.47004592226585 0 -216.47004592226585 -41.133468513471598 0 0 0 0 -977.49856650943912 -497.57801588548841 0 -497.57801588548841 -332.11212670680834 0 0 0 0 -812.25078993907664 -38.771032872836258 0 -38.771032872836258 -422.54289526043135 0 0 0 0 -549.73936665084329 22.766121818249758 0 22.766121818249758 -112.80144388732276 0 0 0 0 -860.18146106215863 -205.65977041083192 0 -205.65977041083192 -148.96190645670049 0 0 0 0 -167.53794598289096 -70.328703006299065 0 -70.328703006299065 -122.88167438917799 0 0 0 0 -585.90367968599458 61.850438462853162 0 61.850438462853162 11.62777570808521 0 0 0 0 115.62987873717793 -121.57853831550528 0 -121.57853831550528 -13.534726268049781 0 0 0 0 29.674203843256691 -124.21988365025663 0 -124.21988365025663 16.005214793027335 0 0 0 0 -74.430851048374223 -56.507744741507892 0 -56.507744741507892 -3.9321993946017599 0 0 0 0 74.761084534780821 -28.705045186511597 0 -28.705045186511597 -131.3853410159677 0 0 0 0 21.606552359997295 -10.35354793380975 0 -10.35354793380975 -67.11079115832581 0 0 0 0 19.005059428687673 -78.241855230405235 0 -78.241855230405235 17.631562489843418 0 0 0 0 70.51883993903175 -81.560680459195282 0 -81.560680459195282 -12.136460133795481 0 0 0 0 69.639057953451356 -33.071630764228303 0 -33.071630764228303 -59.864628312609057 0 0 0 0 -70.641369784315941 -56.691049262829964 0 -56.691049262829964 -18.236990307853716 0 0 0 0 175.09001869552594 -219.22932021584882 0 -219.22932021584882 53.33660497626812 0 0 0 0 173.52640946526662 -73.054197702942488 0 -73.054197702942488 -56.963984428441634 0 0 0 0 71.187918856012402 -85.619088119790447 0 -85.619088119790447 -113.78963195276157 0 0 0 0 -421.89092004789563 -61.317445786227154 0 -61.317445786227154 45.265450422146387 0 0 0 0 -92.777783440593339 -73.57403058047646 0 -73.57403058047646 -38.844187211446297 0 0 0 0 -14.342220289283432 -227.23292804325956 0 -227.23292804325956 -54.278370478166835 0 0 0 0 3.1155220623519426 -6.2636072498446183 0 -6.2636072498446183 -2.1495774588741203 0 0 0 0 -176.54263837516191 -150.10608898944793 0 -150.10608898944793 112.56889563759069 0 0 0 0 -5.1983377018768806 -77.525485714331353 0 -77.525485714331353 -37.118833342554353 0 0 0 0 -5.1113597435345355 -20.601265697347543 0 -20.601265697347543 -27.507069378566314 0 0 0 0 -26.601390594165423 27.231528195166447 0 27.231528195166447 -15.64825097382527 0 0 0 0 1.1900461324548814 -60.647011257381564 0 -60.647011257381564 6.2636817339443951 0 0 0 0 38.885498545918381 -75.846857952277787 0 -75.846857952277787 -105.74222714324605 0 0 0 0 8.573917831706467 0.8145724693336831 0 0.8145724693336831 6.4608288601652575 0 0 0 0 -21.172531824850012 -16.809489249335456 0 -16.809489249335456 22.274342478308427 0 0 0 0 549.89082544438861 -758.20760645531573 0 -758.20760645531573 857.59281774272677 0 0 0 0 -7.0425366132521106 -17.00970392202106 0 -17.00970392202106 45.760897851972985 0 0 0 0 355.95502397281234 -475.53672717467089 0 -475.53672717467089 895.89666009845496 0 0 0 0 24.427123905242411 -7.4640509800918977 0 -7.4640509800918977 2.2016813338121715 0 0 0 0 132.31452765758149 -169.3846737631211 0 -169.3846737631211 -138.83529321883998 0 0 0 0 169.82050074599101 -516.50818685499144 0 -516.50818685499144 984.88094960366107 0 0 0 0 275.71219218542683 -512.21614738936114 0 -512.21614738936114 884.20733976055635 0 0 0 0 203.21623223510687 -527.48294962496584 0 -527.48294962496584 529.95570280749598 0 0 0 0 126.3004207143822 -586.78088653803889 0 -586.78088653803889 851.41480118181425 0 0 0 0 63.137603554845555 -384.36197144100697 0 -384.36197144100697 840.61808663106012 0 0 0 0 225.81404312685481 -442.42865300897301 0 -442.42865300897301 221.96641917252623 0 0 0 0 82.877423475314572 -193.90369513477958 0 -193.90369513477958 247.88087830196309 0 0 0 0 147.01180851456593 -268.0112348964667 0 -268.0112348964667 606.324458241108 0 0 0 0 128.70573253448038 -526.39772175316784 0 -526.39772175316784 1021.3236317356823 0 0 0 0 -51.315764491235313 -831.79019364887381 0 -831.79019364887381 592.76130418285175 0 0 0 0 -228.49580455714022 45.615927714838108 0 45.615927714838108 740.0988250984974 0 0 0 0 -373.58842241915409 -184.81434192191409 0 -184.81434192191409 414.075186318325 0 0 0 0 -759.86727268125469 -410.72648704008475 0 -410.72648704008475 381.50050810392713 0 0 0 0 -140.87308949040016 -564.03190049077784 0 -564.03190049077784 -189.70748184413424 0 0 0 0 -725.18583395206952 -539.42394700945624 0 -539.42394700945624 9.1000380994737498 0 0 0 0 -338.46971123432741 -214.58404493202033 0 -214.58404493202033 211.90725696708432 0 0 0 0 2.7821302153984107 -4.4462019962857298 0 -4.4462019962857298 -1.1677802271106472 0 0 0 0 -250.65811279087211 -131.44865855350145 0 -131.44865855350145 166.62919790641172 0 0 0 0 69.880370252591092 -123.49078239055962 0 -123.49078239055962 215.56211507066473 0 0 0 0 19.613698888931253 -55.13288804013095 0 -55.13288804013095 -21.918223524144693 0 0 0 0 -295.69203939399449 -178.12559478300682 0 -178.12559478300682 272.78365194956859 0 0 0 0 -549.11873668225599 -186.12626265076869 0 -186.12626265076869 307.52284718551709 0 0 0 0 -421.57174398764619 -479.92848063691781 0 -479.92848063691781 38.413048011803767 0 0 0 0 -2.114863744158356 -47.651404311387978 0 -47.651404311387978 178.65716571055782 0 0 0 0 5.9135761813118393 -7.8118752112872727 0 -7.8118752112872727 7.3454760023928145 0 0 0 0 5.252670053018619 -46.505098753463258 0 -46.505098753463258 -11.827053225964947 0 0 0 0 81.653158079978311 29.988857390873818 0 29.988857390873818 70.988156395447731 0 0 0 0 9.2891769819543697 23.270636994278902 0 23.270636994278902 151.44571178041042 0 0 0 0 200.94203766387363 203.94474790025652 0 203.94474790025652 265.5632755974184 0 0 0 0 51.543399999151006 111.02193187341436 0 111.02193187341436 330.83325057715092 0 0 0 0 -4459.8565737024692 -1221.1554263485104 0 -1221.1554263485104 992.07217901435433 0 0 0 0 -4018.3487589877841 -1742.4306875200336 0 -1742.4306875200336 149.31275645312485 0 0 0 0 -4245.9279844528992 -1070.0891151661815 0 -1070.0891151661815 1244.8258124325762 0 0 0 0 -5499.4971339965587 -864.78349520760605 0 -864.78349520760605 1483.3431935452306 0 0 0 0 -4316.155482237642 -1329.3335013030637 0 -1329.3335013030637 1014.741071869105 0 0 0 0 -4273.885820046562 -922.29866430947118 0 -922.29866430947118 1326.0394066020956 0 0 0 0 -5498.4293812973146 -175.57715240577161 0 -175.57715240577161 920.64609466843081 0 0 0 0 -4288.151025991001 -750.7668756767066 0 -750.7668756767066 1168.5977415872349 0 0 0 0 -2624.9953916661034 -958.56282523008622 0 -958.56282523008622 980.97384430975308 0 0 0 0 -3415.6748569124902 247.30970441280317 0 247.30970441280317 464.48005090739525 0 0 0 0 -3788.3079280385573 -1121.999874867998 0 -1121.999874867998 295.68320051649926 0 0 0 0 -30.345772844351657 -39.141329037565029 0 -39.141329037565029 -28.215147489621124 0 0 0 0 -109.35216765065707 -1032.8119360495734 0 -1032.8119360495734 505.7417817457856 0 0 0 0 -2621.4727019333563 -920.85603971526609 0 -920.85603971526609 1353.6475198213984 0 0 0 0 -145.47958172554354 -171.90790624249644 0 -171.90790624249644 854.55866607916482 0 0 0 0 -2674.0061156554402 -1437.1708989215738 0 -1437.1708989215738 463.66313593920677 0 0 0 0 -2800.4234404168819 -959.39436918317642 0 -959.39436918317642 628.95714338814787 0 0 0 0 -388.14269068800786 -1092.0910487339311 0 -1092.0910487339311 -526.48556718458349 0 0 0 0 -1427.7708259586652 -2626.1068219775975 0 -2626.1068219775975 -283.88726802078213 0 0 0 0 -1487.5165225236997 -1601.1602836776717 0 -1601.1602836776717 -2139.7291539153948 0 0 0 0 -460.84448967197386 166.49293266346285 0 166.49293266346285 -1032.4076626686792 0 0 0 0 -2.3463972334749883 1.8816699820609983 0 1.8816699820609983 2.3083002442078904 0 0 0 0 -4758.3160678861022 -2711.6188053077021 0 -2711.6188053077021 -89.822787963291375 0 0 0 0 -1971.8555526559066 -403.34343448940945 0 -403.34343448940945 0.98476985649475068 0 0 0 0 -4151.4873712984117 -1136.0850766760782 0 -1136.0850766760782 675.11035361839606 0 0 0 0 -6557.6616935346319 -189.7039372544383 0 -189.7039372544383 690.00121199869363 0 0 0 0 2329.340837757336 -2526.6389167665975 0 -2526.6389167665975 -520.87211985909244 0 0 0 0 -15.891112043216907 -18.704810995503692 0 -18.704810995503692 -13.844351354659402 0 0 0 0 -2983.4448952204693 249.07021247004059 0 249.07021247004059 648.70017706281078 0 0 0 0 -113.26173091630335 -1140.8436213047366 0 -1140.8436213047366 -409.13675267393955 0 0 0 0 -2309.750147538798 -343.68146436466486 0 -343.68146436466486 1378.0182057867496 0 0 0 0 -2061.1996767176024 1113.0695379253293 0 1113.0695379253293 1124.597467907226 0 0 0 0 -2143.0148146437587 219.46158706657502 0 219.46158706657502 -1153.6383108353675 0 0 0 0 -2547.2103441011568 285.56426600703685 0 285.56426600703685 228.88595369139421 0 0 0 0 -4350.9268682654947 446.67843803167989 0 446.67843803167989 249.11670877151369 0 0 0 0 -4047.178878048333 -1720.5243201014964 0 -1720.5243201014964 202.57512839866467 0 0 0 0 -4632.7633292183527 -1467.3549636604762 0 -1467.3549636604762 -219.31734164959289 0 0 0 0 -5342.2166299088676 -49.253695347878306 0 -49.253695347878306 159.2353152040987 0 0 0 0 -3.7992629241339273 -10.854972825136002 0 -10.854972825136002 -16.244321895698487 0 0 0 0 -3.2457163040272974 -13.455634868169369 0 -13.455634868169369 -16.760484222999679 0 0 0 0 -640.13894237556087 -1414.3807606289729 0 -1414.3807606289729 -1511.5157269485817 0 0 0 0 2002.0622054741107 -862.01114634802798 0 -862.01114634802798 -811.37604517502405 0 0 0 0 -276.40968953174888 -138.52461234326529 0 -138.52461234326529 -951.16987870792491 0 0 0 0 360.39932593965932 245.84456718736419 0 245.84456718736419 -40.891898008299904 0 0 0 0 -2737.0673514227674 -989.738815202154 0 -989.738815202154 531.25116872164472 0 0 0 0 3323.9959707625676 1220.7706806076944 0 1220.7706806076944 -103.70948608590697 0 0 0 0 -2376.5071739479317 -1176.1029143918777 0 -1176.1029143918777 147.52309754035014 0 0 0 0 -2829.7808185858594 -709.98332337761849 0 -709.98332337761849 132.87012363949361 0 0 0 0 -2451.8205744736479 -997.91603646697695 0 -997.91603646697695 10.811025323424474 0 0 0 0 2.5774306125753412 -3.0549443257708901 0 -3.0549443257708901 -7.8104789371710197 0 0 0 0 -1819.6808647210419 -748.97407213588758 0 -748.97407213588758 -43.176705156467506 0 0 0 0 -592.37539713271144 -386.30072517473786 0 -386.30072517473786 -378.44461159867569 0 0 0 0 -974.56016022746917 -299.82718772188855 0 -299.82718772188855 -212.35361274529214 0 0 0 0 -1093.0581154310639 -552.4223931772176 0 -552.4223931772176 -249.65224809775827 0 0 0 0 -1166.3889554299531 -506.54990464726689 0 -506.54990464726689 -191.72771126282532 0 0 0 0 -1318.719269671943 -1099.5540898312393 0 -1099.5540898312393 -538.28129702751176 0 0 0 0 -648.32698160977452 -239.52077910924345 0 -239.52077910924345 -249.9115491519151 0 0 0 0 -608.4851044411771 -317.3164484829249 0 -317.3164484829249 -354.536688003167 0 0 0 0 -759.8894952982082 -586.23091716277304 0 -586.23091716277304 -574.35411967735854 0 0 0 0 -392.69460257145693 -261.80753728988566 0 -261.80753728988566 -523.27351502203237 0 0 0 0 131.7034620080376 -237.98263867499372 0 -237.98263867499372 -910.20973370199408 0 0 0 0 -560.35219109943137 -926.70452600718636 0 -926.70452600718636 -1131.3630043706144 0 0 0 0 -433.79024080112868 -20.563654236133516 0 -20.563654236133516 -53.873250416283554 0 0 0 0 -159.10785047811805 -141.99454995021551 0 -141.99454995021551 -16.587193889211449 0 0 0 0 -85.404766258682969 -12.646034085844803 0 -12.646034085844803 29.444723149243913 0 0 0 0 -361.38432609007577 -56.025119714326138 0 -56.025119714326138 156.67699569714932 0 0 0 0 -139.78949313562771 -76.412890676472671 0 -76.412890676472671 154.21783224614478 0 0 0 0 -113.40977271090378 -230.54486323248238 0 -230.54486323248238 214.83601093775997 0 0 0 0 -54.615980323260544 -51.182167203481526 0 -51.182167203481526 -51.431396803793682 0 0 0 0 -20.910393954904563 -14.249060620127722 0 -14.249060620127722 4.7042492505692497 0 0 0 0 -164.95600389243918 -88.755223835674769 0 -88.755223835674769 300.75052349178077 0 0 0 0 -46.829374577922863 -122.08837512929655 0 -122.08837512929655 -5.4693374046819088 0 0 0 0 -108.32778136304694 1.2952487194658175 0 1.2952487194658175 16.680740363467478 0 0 0 0 -189.49631129999761 -81.988947678767431 0 -81.988947678767431 30.949713423797277 0 0 0 0 369.59180002915673 504.11584842179218 0 504.11584842179218 -630.2786742492608 0 0 0 0 -77.298298264184268 -58.561566588885057 0 -58.561566588885057 -9.4283173046349944 0 0 0 0 -83.895684247272939 -54.38726619981108 0 -54.38726619981108 -23.5054629141062 0 0 0 0 -190.42906669494914 -25.402065441900049 0 -25.402065441900049 -18.824570028824382 0 0 0 0 -153.33964072476374 -22.799483335672903 0 -22.799483335672903 -28.077728382806526 0 0 0 0 -170.04862034277721 -93.849587533529984 0 -93.849587533529984 -61.385766385787065 0 0 0 0 -3.1063470522187799 1.4651402592909051 0 1.4651402592909051 3.0131037854208316 0 0 0 0 -107.28631128424968 21.303523689720805 0 21.303523689720805 0.78537732667246019 0 0 0 0 -244.26666181529072 -108.15368682375072 0 -108.15368682375072 -8.9600934776885879 0 0 0 0 -108.07215615552559 -29.498747936511791 0 -29.498747936511791 -38.438784872450015 0 0 0 0 -131.14855403586989 -66.409678756248695 0 -66.409678756248695 -8.9527100597679237 0 0 0 0 -145.8812072384917 -95.59566537579974 0 -95.59566537579974 -37.964083250519252 0 0 0 0 -5.9937576438023257 1.7107312153019194 0 1.7107312153019194 23.467993237098149 0 0 0 0 -209.78023313101858 -125.16129546723306 0 -125.16129546723306 62.036956345698854 0 0 0 0 -142.56216428121297 -155.85168709317472 0 -155.85168709317472 35.956933321320321 0 0 0 0 -169.0729963068261 -63.136799756879057 0 -63.136799756879057 -5.7588351756519387 0 0 0 0 -153.3561662170614 -50.671013160843074 0 -50.671013160843074 -14.423105787966279 0 0 0 0 -135.27212726719881 -38.642042553903593 0 -38.642042553903593 1.3916345267105044 0 0 0 0 -164.71798978016886 -48.562241628533798 0 -48.562241628533798 9.9122595349181211 0 0 0 0 -3.7324346077735981 1.6694665622348026 0 1.6694665622348026 3.811340046236591 0 0 0 0 -132.92583646070489 -54.376348088041937 0 -54.376348088041937 -52.495395624988419 0 0 0 0 -137.42465616572758 -18.95546161800317 0 -18.95546161800317 29.478472592059006 0 0 0 0 -130.42466486338526 -56.949758998722245 0 -56.949758998722245 -20.537627294148024 0 0 0 0 -2105.1161364594882 -673.20695276098695 0 -673.20695276098695 -120.1959494550174 0 0 0 0 -92.266765202584821 13.184629412856196 0 13.184629412856196 28.659745684299168 0 0 0 0 -574.40435512180557 -1202.2550647404596 0 -1202.2550647404596 -43.382457960101874 0 0 0 0 -2644.0571573041088 -394.14178442996445 0 -394.14178442996445 -347.49401341253429 0 0 0 0 -2898.3829243830742 -1925.311837635749 0 -1925.311837635749 -572.24096358769589 0 0 0 0 -1067.6353701944536 -1486.3385286836647 0 -1486.3385286836647 -468.66995541035851 0 0 0 0 -2200.7477307231457 -1668.3252414482947 0 -1668.3252414482947 -701.67255558151669 0 0 0 0 -960.17003079443748 -1682.3999450857518 0 -1682.3999450857518 -1707.1900875174699 0 0 0 0 -2594.5541108369289 -2246.7304004548046 0 -2246.7304004548046 -1481.3403398553992 0 0 0 0 -1777.9479948068151 -1693.8256198755855 0 -1693.8256198755855 -1891.8096190664803 0 0 0 0 -1795.4722423455605 -1845.8257136866882 0 -1845.8257136866882 -1739.043694035307 0 0 0 0 -80.352827222641821 5.953531946975346 0 5.953531946975346 25.775280981679764 0 0 0 0 -90.634712400566059 -38.913426579987885 0 -38.913426579987885 8.5095954159255456 0 0 0 0 -144.57157776567328 -39.27208201142173 0 -39.27208201142173 40.443797601360302 0 0 0 0 -93.204426521113874 -37.471861500300498 0 -37.471861500300498 203.1132932958335 0 0 0 0 58.526700252652518 -218.54403737648647 0 -218.54403737648647 -29.495038405265291 0 0 0 0 -2727.2306982921509 -2480.1843146679207 0 -2480.1843146679207 -2490.896369155485 0 0 0 0 -61.064520832660989 2.534043123530644 0 2.534043123530644 18.744510791762451 0 0 0 0 -2731.1671831281274 -2541.6613105492288 0 -2541.6613105492288 -2674.3357009780261 0 0 0 0 -5014.0826599805659 -4225.0517124745038 0 -4225.0517124745038 -3804.9159120351937 0 0 0 0 -28.732162476868311 -1.7588576110848848 0 -1.7588576110848848 7.3755882176063317 0 0 0 0 -289.31260425601795 525.90607175754371 0 525.90607175754371 567.81995444902577 0 0 0 0 -7782.7896091658768 -2968.0206053614293 0 -2968.0206053614293 -3084.5439583342013 0 0 0 0 -6671.8388219941335 -4646.645648560906 0 -4646.645648560906 -3844.6751943363342 0 0 0 0 -5499.2691039732381 -2767.2247040585275 0 -2767.2247040585275 -1473.8158388578779 0 0 0 0 -5123.5563181177349 -2235.7520329021072 0 -2235.7520329021072 -2903.5197441215255 0 0 0 0 -5423.883986290919 -2481.7330910373589 0 -2481.7330910373589 -815.76066977682615 0 0 0 0 -3638.6540197668073 -1407.743004497424 0 -1407.743004497424 -74.937265466328313 0 0 0 0 -4007.4413130650064 -1914.8022275801018 0 -1914.8022275801018 -665.43060984162207 0 0 0 0 -5499.4810500765525 -1983.8866600623965 0 -1983.8866600623965 454.24382121741502 0 0 0 0 -5499.3063672434582 -700.79121124286155 0 -700.79121124286155 1193.5771222783592 0 0 0 0 -3111.6873592936045 191.35219210496345 0 191.35219210496345 795.38095867300854 0 0 0 0 -2676.1517215357708 -360.17092225400586 0 -360.17092225400586 311.00938988772941 0 0 0 0 -1234.182616286369 -444.73246638620014 0 -444.73246638620014 107.26583004478618 0 0 0 0 -4800.6063309181663 341.81352823481291 0 341.81352823481291 783.7437498046321 0 0 0 0 -5499.4105227646905 977.82799954556765 0 977.82799954556765 339.95264409371555 0 0 0 0 -6318.5081606103558 -530.86316205605397 0 -530.86316205605397 -1436.5548170757697 0 0 0 0 -5503.3576257253853 -267.42791237012977 0 -267.42791237012977 -4311.4605376465524 0 0 0 0 -8048.3683879256896 -756.16474326872515 0 -756.16474326872515 572.03182565519433 0 0 0 0 -7093.24394353971 653.57579394254299 0 653.57579394254299 -2996.6467355542363 0 0 0 0 -114.39513834121317 -136.65226006564558 0 -136.65226006564558 -139.45286532140608 0 0 0 0 -29.818244539088312 -6.8451271536546763 0 -6.8451271536546763 -2.5188055757683352 0 0 0 0 -1489.9036257883163 1697.3112213034856 0 1697.3112213034856 -885.68486101110784 0 0 0 0 -4723.6543836096989 1915.5104094927315 0 1915.5104094927315 -744.93518279279078 0 0 0 0 20.506548505894898 -22.98037154868075 0 -22.98037154868075 -119.36531127587625 0 0 0 0 -24.509983336396544 -22.990933852199305 0 -22.990933852199305 28.115209026514094 0 0 0 0 -105.64311295350126 -99.86407360516904 0 -99.86407360516904 11.12206447348035 0 0 0 0 -453.59863735958061 36.584675687554864 0 36.584675687554864 341.03903008163843 0 0 0 0 -68.200678391381643 -22.752118920718541 0 -22.752118920718541 -7.531015989112305 0 0 0 0 -112.84606257985433 -68.293514502784546 0 -68.293514502784546 23.111768745234258 0 0 0 0 -112.47881659373525 -62.950660180306386 0 -62.950660180306386 49.666268086168657 0 0 0 0 45.310211613534193 -303.4784486600513 0 -303.4784486600513 -107.92519212711795 0 0 0 0 -636.55502135651477 -175.18318687408089 0 -175.18318687408089 96.004441989929774 0 0 0 0 -396.1780802999956 141.35492314608518 0 141.35492314608518 -538.61966103535428 0 0 0 0 -1700.3926238847889 603.31659268058411 0 603.31659268058411 -37.564182544215782 0 0 0 0 -683.32638524669164 175.24684864358687 0 175.24684864358687 -247.00052911923763 0 0 0 0 -1148.9765675193121 252.39154147377326 0 252.39154147377326 -9.9286031568485669 0 0 0 0 -574.91362768204908 508.81175455665169 0 508.81175455665169 25.566654999201091 0 0 0 0 -957.19556443072725 610.65841181668964 0 610.65841181668964 205.43923642764912 0 0 0 0 -1758.4793018474447 77.206712442949993 0 77.206712442949993 339.80607685968869 0 0 0 0 -399.24844213141114 -76.127491298497432 0 -76.127491298497432 323.13758589611189 0 0 0 0 -442.63149516232079 -221.73485966962312 0 -221.73485966962312 -10.082269662208546 0 0 0 0 -507.53511039629666 345.30455492064334 0 345.30455492064334 -240.43294619434675 0 0 0 0 510.2964501419774 -216.81721211789943 0 -216.81721211789943 -27.768719582359608 0 0 0 0 -201.60261269377224 -610.26952343856419 0 -610.26952343856419 -55.169754206492712 0 0 0 0 -1000.6797786406642 -1499.8580333595328 0 -1499.8580333595328 222.1639482965661 0 0 0 0 928.04174361556943 -598.47346357180845 0 -598.47346357180845 -125.45942822262771 0 0 0 0 715.66932271369296 26.629823847635407 0 26.629823847635407 -72.887212149307402 0 0 0 0 -9.1834605555976339 4.8316427958264541 0 4.8316427958264541 -2.2790231321090393 0 0 0 0 -168.00898633636461 -171.79267245468449 0 -171.79267245468449 -81.72873044957214 0 0 0 0 497.62560641259188 -46.152735965237071 0 -46.152735965237071 238.18257595963576 0 0 0 0 -156.78606737536393 -55.605484102341393 0 -55.605484102341393 -99.135603267676743 0 0 0 0 -15.447961763154368 2.961894175688581 0 2.961894175688581 6.8263172966326948 0 0 0 0 -74.242997575434856 43.852887970688244 0 43.852887970688244 13.776734579834738 0 0 0 0 -99.185696353455967 29.529211307671233 0 29.529211307671233 -5.8050032089367889 0 0 0 0 19.191925089267443 -473.08341799060713 0 -473.08341799060713 -122.02593241050431 0 0 0 0 -322.74918426370095 143.60447672962275 0 143.60447672962275 9.8216352180745616 0 0 0 0 -253.75310157556669 1799.6793279923108 0 1799.6793279923108 -484.19419208659247 0 0 0 0 232.06039927985694 -55.138052972479841 0 -55.138052972479841 -10.885846176765881 0 0 0 0 -207.85519858803309 -64.947682993679791 0 -64.947682993679791 32.152575951624385 0 0 0 0 -329.74770086499484 -65.946209377969808 0 -65.946209377969808 46.134467084879248 0 0 0 0 -32.769833693393714 -5.6973368403299816 0 -5.6973368403299816 4.9439238975961413 0 0 0 0 -165.62877540636691 -56.128147422964503 0 -56.128147422964503 8.1355535173679527 0 0 0 0 -87.410561718136748 -34.616071399357494 0 -34.616071399357494 -8.0939386413120662 0 0 0 0 39.960919466953783 -276.0255032415115 0 -276.0255032415115 148.36424032358673 0 0 0 0 -30.642046696746547 -414.90584403630123 0 -414.90584403630123 -63.060666685995784 0 0 0 0 -110.2999427542527 -66.582164345471483 0 -66.582164345471483 9.4750938627785217 0 0 0 0 -160.13422125503712 -86.804480768399117 0 -86.804480768399117 41.463099461841921 0 0 0 0 -3.0860685993261256 1.4372519390712029 0 1.4372519390712029 3.0774848807902799 0 0 0 0 -223.83793472358957 -135.91928960082333 0 -135.91928960082333 6.8562032466602432 0 0 0 0 -191.06590603190853 -52.082244661644154 0 -52.082244661644154 55.445242324854235 0 0 0 0 -145.0081794970356 -62.125087094002495 0 -62.125087094002495 -5.9644838337002852 0 0 0 0 -88.538047517497034 15.458043811897824 0 15.458043811897824 24.812486858113971 0 0 0 0 -240.7108430756889 -122.13745702992708 0 -122.13745702992708 10.538035194926124 0 0 0 0 -181.26766097817745 -34.275743319034518 0 -34.275743319034518 79.229001650724058 0 0 0 0 -147.77744113129302 -63.120176765539895 0 -63.120176765539895 -19.3204147689612 0 0 0 0 -89.037559057920589 -60.429010389614518 0 -60.429010389614518 -26.300955036693949 0 0 0 0 -211.04628822637096 -67.543945594277346 0 -67.543945594277346 17.269801374542794 0 0 0 0 -4.9603717401349456 -0.078874364949314213 0 -0.078874364949314213 26.044127945687897 0 0 0 0 -170.81669845385477 -42.287570896449779 0 -42.287570896449779 -31.226529363110103 0 0 0 0 -170.83804847594001 -33.635529204298109 0 -33.635529204298109 -6.7200437722513016 0 0 0 0 -164.47375089773232 -71.757863472821327 0 -71.757863472821327 79.465644090078058 0 0 0 0 -186.44635614941944 -48.637372952883197 0 -48.637372952883197 -11.935012941105924 0 0 0 0 -191.1018118991924 -41.380477282408492 0 -41.380477282408492 4.6311078929265932 0 0 0 0 -364.15227714907815 -90.660043755960032 0 -90.660043755960032 12.256509948469557 0 0 0 0 -343.95420958556497 -104.24343862450841 0 -104.24343862450841 13.916282975145805 0 0 0 0 -470.80333659789176 -8.98668945361959 0 -8.98668945361959 110.19692207843366 0 0 0 0 -184.7962025250381 31.684212738423895 0 31.684212738423895 28.307782831371583 0 0 0 0 -101.56471432873514 -62.767299911432872 0 -62.767299911432872 30.099979049632339 0 0 0 0 -79.718712093977956 -20.736177909849232 0 -20.736177909849232 28.864709832378566 0 0 0 0 -25.289456057161303 -8.9320179956930161 0 -8.9320179956930161 26.259060969538595 0 0 0 0 72.936461264558602 -45.422411247808498 0 -45.422411247808498 -5.608630381442282 0 0 0 0 -88.175838611251379 -27.783146732034488 0 -27.783146732034488 4.3434440890644659 0 0 0 0 -23.649513755566545 -12.523655474697037 0 -12.523655474697037 4.6742939320303778 0 0 0 0 59.867266581401054 -160.71653572047501 0 -160.71653572047501 46.200932006433959 0 0 0 0 -203.10625168335719 -53.902139435815116 0 -53.902139435815116 175.39450414599378 0 0 0 0 -98.155210010444748 -88.88438905439628 0 -88.88438905439628 6.5888744569598039 0 0 0 0 -7.5254972991242539 -184.02956683306866 0 -184.02956683306866 269.63239945202031 0 0 0 0 -117.10954410154326 -120.02998453198435 0 -120.02998453198435 43.680649548758829 0 0 0 0 -204.77606228565276 -38.842038224716021 0 -38.842038224716021 96.775362492601744 0 0 0 0 -356.6467696603795 28.357710805697479 0 28.357710805697479 -18.163897163720264 0 0 0 0 49.712059360164858 -238.73888955321081 0 -238.73888955321081 -265.50374890215721 0 0 0 0 7.7712636612535846 -12.048126130404476 0 -12.048126130404476 -6.9659009230466999 0 0 0 0 -589.38135172930197 -202.87116983633308 0 -202.87116983633308 44.684846889388893 0 0 0 0 -569.55027219304611 -46.550707372944544 0 -46.550707372944544 14.123797881200062 0 0 0 0 -489.40250068276509 -306.39898399693402 0 -306.39898399693402 45.953005502125052 0 0 0 0 -215.11885347056705 120.59634555142179 0 120.59634555142179 -22.332317212488306 0 0 0 0 -266.27059814893255 119.88710243838932 0 119.88710243838932 353.3806280552958 0 0 0 0 -277.71770864161863 19.304037497311583 0 19.304037497311583 -42.916782073564718 0 0 0 0 -109.32749827827502 -30.285963113776688 0 -30.285963113776688 -330.14777328567016 0 0 0 0 -97.295179819462575 -92.026638592087366 0 -92.026638592087366 -1.3494207508090401 0 0 0 0 -923.08355150251009 -1649.067224813658 0 -1649.067224813658 -575.78749797265482 0 0 0 0 378.56854923144419 -34.796545574076163 0 -34.796545574076163 -508.57512961175507 0 0 0 0 -476.82422820068496 -727.58279879902716 0 -727.58279879902716 -982.61062848609254 0 0 0 0 -0.57046778525330888 -5.5349449380222975 0 -5.5349449380222975 -7.7959732761076612 0 0 0 0 1417.2620176807047 80.861791401316395 0 80.861791401316395 -319.58644558988817 0 0 0 0 -1887.5262892714081 -435.81853352063115 0 -435.81853352063115 105.23814418766187 0 0 0 0 1445.7190573394323 -129.28646260409823 0 -129.28646260409823 47.160681666000528 0 0 0 0 -1397.2328658743063 -985.66186523520855 0 -985.66186523520855 -449.39799754970772 0 0 0 0 -329.32261800251763 4.9455655072289346 0 4.9455655072289346 -160.32305045533121 0 0 0 0 -799.86729525267947 85.126185655740755 0 85.126185655740755 0.53744299486379532 0 0 0 0 -938.4703962937183 -310.59803727034921 0 -310.59803727034921 -68.493435684197721 0 0 0 0 -1312.314322772947 -9.027609168719664 0 -9.027609168719664 14.254456318432858 0 0 0 0 -908.18178973735485 -413.14568409413573 0 -413.14568409413573 -21.697381176898489 0 0 0 0 -621.94510515124239 -186.50039619484915 0 -186.50039619484915 -20.804361576888368 0 0 0 0 -829.42968219238173 -343.15388623589888 0 -343.15388623589888 -127.4966124003513 0 0 0 0 -817.98526397582873 -298.58312582376806 0 -298.58312582376806 -9.1587502641768879 0 0 0 0 -562.80576274936175 -375.09260424270178 0 -375.09260424270178 -222.25876849544204 0 0 0 0 -1225.0157868957842 -544.1482932231113 0 -544.1482932231113 -125.96093726046183 0 0 0 0 -627.32113824203952 -555.58780258987281 0 -555.58780258987281 -671.62960316758245 0 0 0 0 -921.39031463501942 -372.56747102191571 0 -372.56747102191571 -166.56712410473574 0 0 0 0 -425.22514728588249 -72.469619443884881 0 -72.469619443884881 -93.562136413110238 0 0 0 0 32.480589073536066 -87.813520608667204 0 -87.813520608667204 -202.23020067492507 0 0 0 0 -411.77742260634932 -17.926799647808139 0 -17.926799647808139 60.576510642782523 0 0 0 0 -1.5386364934242707 -1.3973445417863726 0 -1.3973445417863726 -2.3970765344523715 0 0 0 0 -59.003210391791072 66.936043636040949 0 66.936043636040949 46.384479816027579 0 0 0 0 -11.457460954702583 -81.643576877048758 0 -81.643576877048758 18.704796612551036 0 0 0 0 -7.6846044219507679 -0.36060048322742055 0 -0.36060048322742055 -3.7351313546004592 0 0 0 0 -24.212580379955398 -0.36057348126325905 0 -0.36057348126325905 -2.0804080724755352 0 0 0 0 97.939444488979461 71.930373446538283 0 71.930373446538283 -59.241574045415746 0 0 0 0 -16.076787570890453 14.444552390128644 0 14.444552390128644 -1.5782979101751486 0 0 0 0 -223.98454656007652 25.425614653116099 0 25.425614653116099 103.78582666320744 0 0 0 0 -176.35575467044146 -42.20218132879836 0 -42.20218132879836 -336.29129948802029 0 0 0 0 -173.66321897555554 43.455505696240152 0 43.455505696240152 121.01466133919257 0 0 0 0 -29.921936879833083 169.41174983404426 0 169.41174983404426 -68.628546686312347 0 0 0 0 -26.879039179365229 15.508984468193965 0 15.508984468193965 -2.6988492024681499 0 0 0 0 -96.562484993737598 -53.618680199238042 0 -53.618680199238042 -99.088220652454311 0 0 0 0 -57.737805919558241 2.4325296926162991 0 2.4325296926162991 2.9627025243798926 0 0 0 0 -101.50014038294103 -52.387164200243888 0 -52.387164200243888 -70.282956824106805 0 0 0 0 -36.994144431848142 19.700437557888648 0 19.700437557888648 2.6234723387003154 0 0 0 0 -18.347070096259621 9.8171011440525575 0 9.8171011440525575 -5.7288021042096302 0 0 0 0 -3686.3770065376884 534.42139372887686 0 534.42139372887686 -654.41740835702331 0 0 0 0 -169.45253753154611 1072.1884552243607 0 1072.1884552243607 339.59292261915436 0 0 0 0 108.40714349195696 -1951.1297550735349 0 -1951.1297550735349 -1399.4509690020327 0 0 0 0 -18.348690830235711 3.4502720904538613 0 3.4502720904538613 1.016555608426005 0 0 0 0 -725.51732375764368 -745.40271562765383 0 -745.40271562765383 356.74681623191907 0 0 0 0 491.61838731362513 102.04991650086947 0 102.04991650086947 -182.99340476956252 0 0 0 0 -58.163391828013118 -29.020432113913557 0 -29.020432113913557 -44.100141124748916 0 0 0 0 -192.55329803381574 -862.59682028185216 0 -862.59682028185216 -1659.1003000840219 0 0 0 0 -17.113899054830583 5.5843400526267546 0 5.5843400526267546 -8.6468728034975921 0 0 0 0 -372.77495271830776 -563.91936552492143 0 -563.91936552492143 -1950.1535256436227 0 0 0 0 -2.756296637770145 1.2529705693904347 0 1.2529705693904347 -5.540161524484704 0 0 0 0 -29.094284622917499 -13.628427304255725 0 -13.628427304255725 -17.812165821689376 0 0 0 0 -66.369506140275917 -38.014891208205881 0 -38.014891208205881 -38.221934586636053 0 0 0 0 -43.907357013575165 -35.053657230972021 0 -35.053657230972021 -65.724420317889781 0 0 0 0 -36.197331475005036 2.6845440906473321 0 2.6845440906473321 9.4022463706403983 0 0 0 0 -59.573817415370286 -45.880532468156161 0 -45.880532468156161 -56.023110787913538 0 0 0 0 -31.529618054967273 8.253320920997453 0 8.253320920997453 -12.720554283087267 0 0 0 0 -46.165907285693891 -4.3898674860274696 0 -4.3898674860274696 -2.6644853289121784 0 0 0 0 -38.638960258208499 -72.945075580787261 0 -72.945075580787261 0.38596206391467547 0 0 0 0 -23.114724442752848 -6.9445752654239818 0 -6.9445752654239818 -2.7752757923062887 0 0 0 0 -26.881762224105842 -8.9601560433052327 0 -8.9601560433052327 -7.6103816857213928 0 0 0 0 -8.479858211476845 3.843823584468824 0 3.843823584468824 -2.9326401045122603 0 0 0 0 191.39995350114714 -38.30303506225755 0 -38.30303506225755 1.182357888934348 0 0 0 0 70.379291012197427 -195.81483072748972 0 -195.81483072748972 -78.232785774262425 0 0 0 0 -481.21903823970479 -144.33810275809344 0 -144.33810275809344 178.65111948260255 0 0 0 0 -45.648123091004436 -14.154979297298297 0 -14.154979297298297 -17.24886958754827 0 0 0 0 -36.543186462895392 -20.586374806879832 0 -20.586374806879832 -22.429246714605334 0 0 0 0 -41.808268790004114 34.04024070008613 0 34.04024070008613 221.20197939735567 0 0 0 0 -17.097973105773619 4.0083479364989154 0 4.0083479364989154 -6.6025141410631285 0 0 0 0 -25.559090146819585 -11.352484876473682 0 -11.352484876473682 -19.820372508263972 0 0 0 0 -24.425230435814228 -17.409412716486031 0 -17.409412716486031 -23.411219640915988 0 0 0 0 -12.614829940148192 0.014415418109594569 0 0.014415418109594569 -3.9943427188441802 0 0 0 0 -822.75524003017654 -2852.3671861160187 0 -2852.3671861160187 -435.66886250340985 0 0 0 0 -35.81301661036332 -3.9236323627400225 0 -3.9236323627400225 -14.42702766591492 0 0 0 0 -1189.0471756296442 -675.28791805240166 0 -675.28791805240166 -230.74489382221404 0 0 0 0 -48.570471038749019 -6.5155307602842925 0 -6.5155307602842925 -12.387455818875466 0 0 0 0 198.99993056551136 256.0600930597771 0 256.0600930597771 -182.83517665170834 0 0 0 0 -4237.3239535766661 299.06478512476832 0 299.06478512476832 -403.64141031056471 0 0 0 0 -6.0124047782137744 3.7127361542003041 0 3.7127361542003041 -2.7420523082082973 0 0 0 0 -4280.1666577854894 197.54665469014088 0 197.54665469014088 80.775377232292627 0 0 0 0 -5489.2472905977629 1117.741173633364 0 1117.741173633364 172.254441117607 0 0 0 0 -3991.8018090662149 1219.3753847729035 0 1219.3753847729035 -830.28338618252803 0 0 0 0 -25.300456507021877 3.6915546202461496 0 3.6915546202461496 -1.3018148081267897 0 0 0 0 -1107.9184161137741 1443.1066320974794 0 1443.1066320974794 -836.44407872717557 0 0 0 0 -3474.7015559483298 -3140.1856920349037 0 -3140.1856920349037 -2080.1354385300951 0 0 0 0 -5493.7063270908102 -1988.1795427170205 0 -1988.1795427170205 289.98957618003237 0 0 0 0 -42.138803678686592 8.9975583012863538 0 8.9975583012863538 1.8798498732280315 0 0 0 0 -1389.1204922621291 -62.086687365122089 0 -62.086687365122089 613.33849395589061 0 0 0 0 -2513.6246963416525 -205.22102473401264 0 -205.22102473401264 -1212.6414234373733 0 0 0 0 -3375.7733694547915 -637.05284166059062 0 -637.05284166059062 -599.62970480827175 0 0 0 0 -870.68759836670142 -757.53093171267437 0 -757.53093171267437 -301.65460942632649 0 0 0 0 -2907.3528704719211 -1215.9398430651861 0 -1215.9398430651861 400.77091141991286 0 0 0 0 -2018.2641134205405 -214.44836524605006 0 -214.44836524605006 352.99733170797401 0 0 0 0 -3148.6406661005267 -964.1045613393552 0 -964.1045613393552 719.14553382010001 0 0 0 0 -522.97232355660526 -114.84334232849778 0 -114.84334232849778 -9.6187829444675117 0 0 0 0 -521.55446852417663 371.38129837895576 0 371.38129837895576 -228.07857410605664 0 0 0 0 -361.84606003816589 -13.860118651778976 0 -13.860118651778976 -238.70107963093341 0 0 0 0 -30.664644302421948 224.12415801359339 0 224.12415801359339 82.975221951957565 0 0 0 0 -368.39767975124414 -95.676561476477218 0 -95.676561476477218 212.14670231775335 0 0 0 0 -116.04626182566426 -226.72782890595113 0 -226.72782890595113 -30.058919657549268 0 0 0 0 -123.00169319460838 -18.791828289264799 0 -18.791828289264799 -17.867465688794255 0 0 0 0 -34.337280421414178 -43.085109856059589 0 -43.085109856059589 -4.8742028903507642 0 0 0 0 -322.44288968713954 79.465942303371776 0 79.465942303371776 -132.61126052717918 0 0 0 0 -114.31469053973814 98.669926234330717 0 98.669926234330717 -104.05701955659788 0 0 0 0 -341.42086185643711 60.695001540395879 0 60.695001540395879 153.38595995011292 0 0 0 0 -609.08701748063322 217.68584306111768 0 217.68584306111768 55.255192723841901 0 0 0 0 -2.7987724033221895 -8.1901884891317138 0 -8.1901884891317138 -12.790532448444919 0 0 0 0 -77.028701732080663 81.119941578734142 0 81.119941578734142 82.606318065952451 0 0 0 0 -24.49834651328274 -92.233994129155064 0 -92.233994129155064 48.397806977537833 0 0 0 0 96.090897471862263 52.291919454491264 0 52.291919454491264 12.93355951508201 0 0 0 0 -71.681242415345963 -59.423228506518285 0 -59.423228506518285 0.63312235619943102 0 0 0 0 -35.775448432144913 -148.30076379155574 0 -148.30076379155574 12.470957219472439 0 0 0 0 -44.724380037121591 -189.85259745529819 0 -189.85259745529819 -46.824051864532308 0 0 0 0 -198.2965286954568 -83.049804775550882 0 -83.049804775550882 105.26913244556806 0 0 0 0 -74.001237759012071 -57.481415027611405 0 -57.481415027611405 -14.059182628809165 0 0 0 0 274.82133261515264 -471.56438846852774 0 -471.56438846852774 100.14511216605501 0 0 0 0 -353.50490667970735 -64.246450458103823 0 -64.246450458103823 260.34062073639279 0 0 0 0 -7.7793567818953306 -104.52737257978993 0 -104.52737257978993 90.511482826291058 0 0 0 0 -15.505653059255565 -38.86276769703295 0 -38.86276769703295 58.41912382118096 0 0 0 0 176.18086550205771 -103.26932040355774 0 -103.26932040355774 13.058774983106318 0 0 0 0 -657.20020631645457 -576.75044275348728 0 -576.75044275348728 174.99665439958414 0 0 0 0 246.71577543695457 17.017187228194587 0 17.017187228194587 -343.41829256766925 0 0 0 0 -3.4413608176730293 -4.2186653418556261 0 -4.2186653418556261 -11.253909252224895 0 0 0 0 -981.04188094999699 6.6285732248675231 0 6.6285732248675231 89.335974014392377 0 0 0 0 -98.932818391200271 164.60755175520416 0 164.60755175520416 -71.500332790533776 0 0 0 0 -73.997268062377373 -59.533790777619373 0 -59.533790777619373 -16.760565319819506 0 0 0 0 71.079180176566297 -47.067925965142592 0 -47.067925965142592 66.042021238973291 0 0 0 0 469.54246101253739 -351.5221736786126 0 -351.5221736786126 -55.394501072471343 0 0 0 0 213.93683050927939 -134.58059618168409 0 -134.58059618168409 -72.574644209636062 0 0 0 0 -638.87822533858707 236.10299255419113 0 236.10299255419113 -108.95851604045947 0 0 0 0 -1.7232097961369135 -1.6542434391723617 0 -1.6542434391723617 -3.984723976042714 0 0 0 0 227.96648857673426 -102.59445509058583 0 -102.59445509058583 -40.900978662245507 0 0 0 0 -1087.0703570717596 411.42587959577054 0 411.42587959577054 162.54204237287558 0 0 0 0 394.00262816563918 -313.96671880011081 0 -313.96671880011081 -75.883245098159023 0 0 0 0 -22.208689738144329 3.7306710359378883 0 3.7306710359378883 3.5847610818626947 0 0 0 0 -347.70613842300372 201.63175499475074 0 201.63175499475074 55.308005823639178 0 0 0 0 -508.95778578078443 1.2048925420048988 0 1.2048925420048988 132.8889533259935 0 0 0 0 -957.00217767776849 -114.92534008210441 0 -114.92534008210441 159.88448775104553 0 0 0 0 -366.26125934209267 15.168303116343168 0 15.168303116343168 101.6181126693582 0 0 0 0 -280.74255079525938 -346.18872165870437 0 -346.18872165870437 211.39880940617149 0 0 0 0 -445.30136708666396 9.3972968510038299 0 9.3972968510038299 -17.555465872629611 0 0 0 0 -415.2981335503282 -123.71077767407405 0 -123.71077767407405 -288.9130096655681 0 0 0 0 -446.00562837655161 -13.214307820308022 0 -13.214307820308022 -149.70962768122718 0 0 0 0 -538.7651820125393 -189.95643129455721 0 -189.95643129455721 78.112473432949628 0 0 0 0 -234.74181634861452 -14.077492124092714 0 -14.077492124092714 -155.04301649590218 0 0 0 0 -765.0287073152067 -194.51870301162103 0 -194.51870301162103 -73.359374438610757 0 0 0 0 -846.55915112146977 -311.92162027231791 0 -311.92162027231791 75.612747399260115 0 0 0 0 -655.58542477806623 -62.851702314831073 0 -62.851702314831073 -59.975680362642265 0 0 0 0 -659.64268474948767 -209.16452100123786 0 -209.16452100123786 66.673525882251852 0 0 0 0 -563.38687814837613 -86.38988735493524 0 -86.38988735493524 110.57451804882578 0 0 0 0 -490.41264350110214 -65.068208550980785 0 -65.068208550980785 -4.2874137388753297 0 0 0 0 -313.24805472456501 -203.20522218241467 0 -203.20522218241467 44.359777317554745 0 0 0 0 -192.0444519489829 -280.22222074502247 0 -280.22222074502247 -72.578474751587237 0 0 0 0 -75.618525186670013 -61.939021053618944 0 -61.939021053618944 -33.914902403060296 0 0 0 0 -1014.0985574538463 -231.31904326236872 0 -231.31904326236872 41.228729729740735 0 0 0 0 -475.63033399502456 -554.72982737029224 0 -554.72982737029224 -290.12346142765614 0 0 0 0 -564.80544560968337 -251.213668216325 0 -251.213668216325 50.776870509842411 0 0 0 0 -568.09968373794982 -253.04139946516079 0 -253.04139946516079 76.198648359815706 0 0 0 0 -454.39625545608578 -234.82997145823742 0 -234.82997145823742 33.025296104703557 0 0 0 0 -466.52857659153233 -313.37654965915453 0 -313.37654965915453 -30.960602178228328 0 0 0 0 -236.56154374482139 -177.37316863611272 0 -177.37316863611272 -13.199639444469994 0 0 0 0 -479.4289179808984 -188.93908295976985 0 -188.93908295976985 9.52479608628812 0 0 0 0 -277.18886360964098 -133.01813750124347 0 -133.01813750124347 -47.425896664446441 0 0 0 0 -522.25963653231156 -153.42719000168267 0 -153.42719000168267 44.677024718436769 0 0 0 0 -326.60749992874844 -136.61282551233398 0 -136.61282551233398 14.65973266149058 0 0 0 0 -470.24327867318789 -193.02377720116837 0 -193.02377720116837 -16.201922515345473 0 0 0 0 -541.20670057219104 -234.72403882798295 0 -234.72403882798295 36.989168763886568 0 0 0 0 -556.31166765026137 -213.6963114106446 0 -213.6963114106446 9.0784737189931093 0 0 0 0 -614.27916548494977 -151.2125073156426 0 -151.2125073156426 -121.35261863961284 0 0 0 0 -519.92964982904959 -193.01138630159062 0 -193.01138630159062 -87.266540333637977 0 0 0 0 -551.79478129983545 -224.41661427709994 0 -224.41661427709994 7.9356055040840374 0 0 0 0 -564.6443689824373 -210.53047766488771 0 -210.53047766488771 -93.120755196924165 0 0 0 0 -522.81723491418597 -205.60395500585435 0 -205.60395500585435 -101.10109201803607 0 0 0 0 -532.870296795576 -222.09829547396123 0 -222.09829547396123 -10.190209407807515 0 0 0 0 -543.93993402873457 -47.181192927670054 0 -47.181192927670054 -246.71161886094569 0 0 0 0 -493.61126632346713 -201.27680103403623 0 -201.27680103403623 -223.66883914938944 0 0 0 0 -56.31180581510155 30.1471329163749 0 30.1471329163749 15.050591506743569 0 0 0 0 -404.07522265094303 -74.926327519815914 0 -74.926327519815914 -9.1591514183108984 0 0 0 0 -461.65096786026697 -186.91975573251045 0 -186.91975573251045 -33.645262771680336 0 0 0 0 -563.8856584145251 -211.57416412643812 0 -211.57416412643812 58.744616237151234 0 0 0 0 -553.98637012844847 -225.2774346969727 0 -225.2774346969727 -81.928895216670526 0 0 0 0 -525.9910311280405 -243.21412896667593 0 -243.21412896667593 -78.611990332600044 0 0 0 0 -118.9113919196061 -26.991286915488445 0 -26.991286915488445 15.21101722767753 0 0 0 0 -100.5511171982904 -10.648503345947596 0 -10.648503345947596 0.97607334938732038 0 0 0 0 -552.95821435241669 -210.23525371533015 0 -210.23525371533015 -103.18351310392518 0 0 0 0 -76.74302835846521 18.653830633580881 0 18.653830633580881 16.598387658250875 0 0 0 0 -551.7714779128728 -186.65847659328057 0 -186.65847659328057 -142.16850546307614 0 0 0 0 -533.17826996511576 -215.01221164131437 0 -215.01221164131437 -136.67758363194844 0 0 0 0 -115.89946652187135 67.347722570694685 0 67.347722570694685 26.958478139776567 0 0 0 0 -183.84528228795716 -67.560606948205049 0 -67.560606948205049 -203.64779221412692 0 0 0 0 -122.6535336582765 61.07781478117704 0 61.07781478117704 -134.87254825588911 0 0 0 0 -139.07918475021188 34.062503700789136 0 34.062503700789136 -72.175981471299565 0 0 0 0 -560.01722788507323 -82.043892085565631 0 -82.043892085565631 -119.42834359318476 0 0 0 0 -568.61002806387842 -224.6454960606485 0 -224.6454960606485 -139.8814773182321 0 0 0 0 -539.30546379342559 -208.32714978264812 0 -208.32714978264812 -178.05992815240529 0 0 0 0 -722.44056550389359 -280.76722894868908 0 -280.76722894868908 -178.7723525119672 0 0 0 0 -599.71480948063254 -104.34103474188669 0 -104.34103474188669 -330.56106987605881 0 0 0 0 -514.2412216007815 -222.67852897406345 0 -222.67852897406345 -186.57104360317862 0 0 0 0 -1670.3754420293599 737.89614645943129 0 737.89614645943129 667.84732851893568 0 0 0 0 1261.2552887153779 -258.14263332287283 0 -258.14263332287283 -213.04981378797311 0 0 0 0 -753.50497650443867 -245.01574941380159 0 -245.01574941380159 -344.75630386628791 0 0 0 0 -107.41377122748258 -89.00567022216697 0 -89.00567022216697 -1.6601167958101257 0 0 0 0 -132.88720107102549 66.268941983280058 0 66.268941983280058 21.044403737976069 0 0 0 0 -386.95072349400107 -150.84852250955532 0 -150.84852250955532 16.532806159044412 0 0 0 0 69.229100969188039 -137.4887790806315 0 -137.4887790806315 0.14953108283225447 0 0 0 0 -7.5478975342535852 -1.4947383815325894 0 -1.4947383815325894 -3.8174864190946369 0 0 0 0 -1773.2065811246891 877.32471282444885 0 877.32471282444885 -438.8347369997 0 0 0 0 -1425.9695420522701 403.75498212452703 0 403.75498212452703 -1371.3526913947953 0 0 0 0 1.0292265141852113 -138.61396609007079 0 -138.61396609007079 116.91000813797655 0 0 0 0 -38.441933927015633 6.1364032176778558 0 6.1364032176778558 9.0738634126887785 0 0 0 0 -3317.7159122260473 -604.2482247728376 0 -604.2482247728376 -122.59415540207192 0 0 0 0 65.426617025239466 -709.31111387904821 0 -709.31111387904821 -14.039311418531724 0 0 0 0 674.01161024607973 107.68614490827895 0 107.68614490827895 189.06897961541154 0 0 0 0 -712.53687626056217 -1185.1160208420288 0 -1185.1160208420288 -619.97969207688402 0 0 0 0 -44.296892090759329 -3.6604626968780973 0 -3.6604626968780973 19.174726759982306 0 0 0 0 -4.674710219210283 56.257442589909942 0 56.257442589909942 -138.88284645871875 0 0 0 0 -150.39156479513986 76.768603871533969 0 76.768603871533969 -164.20948030197104 0 0 0 0 -190.42243898670904 44.3647624257801 0 44.3647624257801 159.47394181557274 0 0 0 0 -69.639107662945207 -50.753023340027767 0 -50.753023340027767 17.747751707629504 0 0 0 0 -51.177256937811961 2.1274367484583383 0 2.1274367484583383 -0.65025868036499679 0 0 0 0 -82.855280313149706 157.7485062667364 0 157.7485062667364 -134.96050022832787 0 0 0 0 -97.405889843235514 16.438937444040683 0 16.438937444040683 0.37168429999267838 0 0 0 0 -371.86292071606658 71.856054035345778 0 71.856054035345778 192.74379733832455 0 0 0 0 -189.32400963638793 -28.230107060736145 0 -28.230107060736145 90.029163112454626 0 0 0 0 117.81115781550943 152.12137135603814 0 152.12137135603814 -115.13822437363115 0 0 0 0 -376.27663344652683 5.745077936046755 0 5.745077936046755 7.9808113195604165 0 0 0 0 -258.8694396901551 28.424041280419374 0 28.424041280419374 -3.765522941571362 0 0 0 0 -39.543111902059536 30.911441677033054 0 30.911441677033054 35.546897451509722 0 0 0 0 -105.27261287789428 -12.611682418234517 0 -12.611682418234517 9.9832677274245967 0 0 0 0 -12.023616667023887 72.384595059503056 0 72.384595059503056 -3.2465939571335829 0 0 0 0 -50.43276782103203 30.533376068907728 0 30.533376068907728 1.5397288743504305 0 0 0 0 -56.910646144977321 45.827431367149096 0 45.827431367149096 -6.8528701113004793 0 0 0 0 -81.501476149892923 18.401040406388251 0 18.401040406388251 5.4535736745316132 0 0 0 0 -285.2486484267738 17.941915796628905 0 17.941915796628905 -7.6010381481464719 0 0 0 0 -173.89614169870765 -86.922767106921128 0 -86.922767106921128 -90.169089388223767 0 0 0 0 45.351938820835812 -13.004926681954259 0 -13.004926681954259 -107.5334309442901 0 0 0 0 -58.088368572058222 23.278798482619067 0 23.278798482619067 -5.2057385705857557 0 0 0 0 -70.52127073349655 40.445743378391668 0 40.445743378391668 -3.6685854706250254 0 0 0 0 -98.541505910837714 -12.95103296377971 0 -12.95103296377971 -9.7100138253863406 0 0 0 0 -34.027338303222429 14.10194491356863 0 14.10194491356863 -7.0261487913705674 0 0 0 0 0.31413272539055725 3.1384173903612584 0 3.1384173903612584 -0.40124355544910006 0 0 0 0 -255.02311798874143 -63.642864371191081 0 -63.642864371191081 -43.319955218088126 0 0 0 0 -296.96937346704181 76.027873249492359 0 76.027873249492359 -72.747919380702342 0 0 0 0 -166.21366834293622 -37.285591765909999 0 -37.285591765909999 -5.7512037724241054 0 0 0 0 -81.424630473620596 -23.933284132061345 0 -23.933284132061345 -6.7332934838470626 0 0 0 0 -105.2976610758551 0.65340459979285015 0 0.65340459979285015 -47.839974292901388 0 0 0 0 -20.68899218851584 -59.814020645965229 0 -59.814020645965229 -86.662779943980524 0 0 0 0 -113.93275321015972 -20.821876654647667 0 -20.821876654647667 -30.361954604372158 0 0 0 0 -40.904173689457821 -2.3810649800093415 0 -2.3810649800093415 -28.101199935284058 0 0 0 0 -161.07735781709198 -26.457224916147652 0 -26.457224916147652 14.476205947063136 0 0 0 0 -202.5801583093652 -42.080924247591234 0 -42.080924247591234 28.763629348267244 0 0 0 0 -127.44658327501165 -0.72641797170541622 0 -0.72641797170541622 -10.558949959691031 0 0 0 0 -97.531771822729127 -18.970022663980231 0 -18.970022663980231 16.993605991815585 0 0 0 0 -162.99098682744079 -26.67604459550148 0 -26.67604459550148 16.636990824194982 0 0 0 0 -232.92626279607066 -13.440847633384692 0 -13.440847633384692 54.184728184131018 0 0 0 0 -234.30862557494402 -39.294726735470931 0 -39.294726735470931 -38.160557196879381 0 0 0 0 -244.76695212013146 30.663820110687993 0 30.663820110687993 -33.752061816187052 0 0 0 0 -55.792142882221 -31.354475183677394 0 -31.354475183677394 3.8146857213990968 0 0 0 0 -98.889806024562859 -10.142869277910222 0 -10.142869277910222 -15.138729099141358 0 0 0 0 -103.24040923036955 -15.96058212284413 0 -15.96058212284413 7.4179868444414296 0 0 0 0 -72.094916576214018 51.483521845001178 0 51.483521845001178 50.300216760806961 0 0 0 0 3.6601368603149922 -59.950499261698255 0 -59.950499261698255 31.494960685752339 0 0 0 0 -2.808289610890256 -45.428837160611579 0 -45.428837160611579 75.115983616565245 0 0 0 0 -221.51527123656706 3.422281419765568 0 3.422281419765568 36.636973493375081 0 0 0 0 -3.5822751387458993 -89.511114067297513 0 -89.511114067297513 -48.53039247477107 0 0 0 0 -9.557282879330586 -3.1506756859422609 0 -3.1506756859422609 9.4811809672605492 0 0 0 0 -388.48474020251888 71.295369272109383 0 71.295369272109383 -5.3863717359618022 0 0 0 0 -35.370941893183044 -148.48689370959619 0 -148.48689370959619 -53.767564631161804 0 0 0 0 -27.215047409178439 -12.320873758673514 0 -12.320873758673514 -21.920326059974663 0 0 0 0 -402.07316931822425 27.736564303836758 0 27.736564303836758 -96.226659553220088 0 0 0 0 -195.03030863899039 -246.56441355674588 0 -246.56441355674588 -88.672211144860967 0 0 0 0 -220.17696257327043 49.909911063875597 0 49.909911063875597 -83.990545993577143 0 0 0 0 -109.03606210200734 -1.0504218270442678 0 -1.0504218270442678 -10.478451661399584 0 0 0 0 -446.83591947844252 94.194488333571826 0 94.194488333571826 107.38917506627604 0 0 0 0 -338.05676396936178 -161.15090327042708 0 -161.15090327042708 1.4753078577159613 0 0 0 0 -45.186721159058749 -4.4523185194185686 0 -4.4523185194185686 5.8722526105898964 0 0 0 0 -215.4357896685251 9.452632078181523 0 9.452632078181523 -49.836581673520413 0 0 0 0 -120.50227507965381 9.4103194414421836 0 9.4103194414421836 11.189000198780565 0 0 0 0 -122.15002612993612 -24.224553507856069 0 -24.224553507856069 19.717828591411696 0 0 0 0 -63.142719880474033 16.142486559735516 0 16.142486559735516 41.90773138671284 0 0 0 0 -113.66707461898163 26.461399319460643 0 26.461399319460643 -1.4149757517632149 0 0 0 0 -193.64457687963977 10.020229887533013 0 10.020229887533013 538.80355294041055 0 0 0 0 -216.42550210828267 190.65788088391878 0 190.65788088391878 444.85726992710244 0 0 0 0 -61.888474058418069 289.08446883252793 0 289.08446883252793 504.15414262933427 0 0 0 0 -104.81075037716556 -1.466512591594489 0 -1.466512591594489 0.22029130713885259 0 0 0 0 -109.88817488186838 2.2796797604562045 0 2.2796797604562045 7.0232262306218818 0 0 0 0 -97.040319246210856 -7.3680322881073153 0 -7.3680322881073153 18.244386792011483 0 0 0 0 -327.64891762156185 -92.256343741578576 0 -92.256343741578576 484.2815834465386 0 0 0 0 62.081534681261473 -378.39182809660883 0 -378.39182809660883 694.35456058473551 0 0 0 0 -116.35790571791586 -36.511441811843611 0 -36.511441811843611 -5.3918700085159799 0 0 0 0 -20.093796458628539 2.2952660583866447 0 2.2952660583866447 2.3069114253767111 0 0 0 0 -132.28200689016376 -24.473054189882987 0 -24.473054189882987 3.9987209610364971 0 0 0 0 -85.267347201656918 -2.839155861244457 0 -2.839155861244457 21.983612885774647 0 0 0 0 -76.409937210735691 -45.18952842363101 0 -45.18952842363101 14.036609802325742 0 0 0 0 31.785812955529764 -492.28650000307152 0 -492.28650000307152 -834.47288731974186 0 0 0 0 -91.65882071872403 -28.712254805501949 0 -28.712254805501949 -6.8748149007861459 0 0 0 0 -233.32480133735953 -211.32722074355934 0 -211.32722074355934 103.67593568410462 0 0 0 0 -160.33605675127183 69.458164036128437 0 69.458164036128437 565.50872025827539 0 0 0 0 177.40107280767552 -71.287894386987432 0 -71.287894386987432 8.8437287482411193 0 0 0 0 54.744811835720611 -410.84479044073851 0 -410.84479044073851 -92.923027948180788 0 0 0 0 -92.269400138997298 -367.91908041757779 0 -367.91908041757779 -103.01577687223562 0 0 0 0 46.118577406625263 -316.5490736871443 0 -316.5490736871443 -458.42058498730694 0 0 0 0 -100.66593616418322 -163.50154346484214 0 -163.50154346484214 -580.50550309964092 0 0 0 0 619.71801196295928 208.36544723142651 0 208.36544723142651 -2216.6220735953248 0 0 0 0 -82.352490174684121 -36.208135508822338 0 -36.208135508822338 -4.3552703228977663 0 0 0 0 -683.33088411627978 5.1798535005891608 0 5.1798535005891608 356.41493505865401 0 0 0 0 -322.24630660032199 227.39144512367602 0 227.39144512367602 491.2315807659129 0 0 0 0 -574.01033139538049 23.726572629335351 0 23.726572629335351 549.07997157270802 0 0 0 0 -600.09183105705597 -184.49368136924022 0 -184.49368136924022 305.39896900238625 0 0 0 0 -374.9410509104855 -103.40559906843237 0 -103.40559906843237 303.73287710617842 0 0 0 0 -376.28316556954815 -2.5562539016455048 0 -2.5562539016455048 675.7079717642514 0 0 0 0 -282.65377391683433 -368.50532791178193 0 -368.50532791178193 -26.553396111517941 0 0 0 0 -300.57345636249374 -672.96233210526043 0 -672.96233210526043 -523.07705982496873 0 0 0 0 -778.50544651181553 -413.64860255794338 0 -413.64860255794338 11.177268862378696 0 0 0 0 -260.73327341135882 -381.47863588642394 0 -381.47863588642394 -215.13192242904552 0 0 0 0 -659.21216383154751 -591.04682405726635 0 -591.04682405726635 -188.75655529177084 0 0 0 0 -18.139387150814031 -4.3014494803452568 0 -4.3014494803452568 1.2796714003980307 0 0 0 0 -208.21860815308901 -9.2006767194762631 0 -9.2006767194762631 1.3945707132165808 0 0 0 0 -991.90223150046586 1590.1285017694861 0 1590.1285017694861 560.14943223553473 0 0 0 0 -86.3554728821764 -204.102349256671 0 -204.102349256671 348.65189099299096 0 0 0 0 -109.53185031547841 -29.112780340630898 0 -29.112780340630898 3.5272553552214818 0 0 0 0 -106.49869466750063 -17.71014586630551 0 -17.71014586630551 2.8665588150271577 0 0 0 0 -156.82490067428716 3.3355183444641625 0 3.3355183444641625 -1.6153305557038493 0 0 0 0 -112.49687365533973 -7.8622215929521939 0 -7.8622215929521939 19.341132340440385 0 0 0 0 -168.45273260672184 -3.9549231970751109 0 -3.9549231970751109 40.804101441379942 0 0 0 0 -94.886018459113771 -10.789549815605865 0 -10.789549815605865 -0.026030699788092804 0 0 0 0 -256.51528897434036 -30.182584577365105 0 -30.182584577365105 24.060419765952247 0 0 0 0 -429.32237202557735 -67.960999507791712 0 -67.960999507791712 191.39104724204844 0 0 0 0 -106.81170116113105 0.6555428494620763 0 0.6555428494620763 18.573366199880471 0 0 0 0 -147.03390672045265 34.272706749021275 0 34.272706749021275 22.135232881440903 0 0 0 0 -327.73478272573993 16.281923560605037 0 16.281923560605037 102.27876382048771 0 0 0 0 -113.83413797389663 -38.985272002582249 0 -38.985272002582249 24.375424894345201 0 0 0 0 -133.53930290919243 -0.24215514107805802 0 -0.24215514107805802 -18.180678237748218 0 0 0 0 -126.20771031526237 16.641711332764316 0 16.641711332764316 112.82520126404052 0 0 0 0 -240.66325173434234 -79.014813289180665 0 -79.014813289180665 82.419326366771202 0 0 0 0 -56.162063269808144 -7.9541318904084406 0 -7.9541318904084406 2.2362522250218495 0 0 0 0 -55.792017814237624 -49.394664958152134 0 -49.394664958152134 -48.750864883587894 0 0 0 0 91.859412362367493 175.18263366202859 0 175.18263366202859 -31.946703162818267 0 0 0 0 35.552164173830533 -182.10635766097221 0 -182.10635766097221 -218.55855648960278 0 0 0 0 -70.998711972948513 24.277940554266024 0 24.277940554266024 255.80994051175276 0 0 0 0 -41.576793975188011 -23.396974213394323 0 -23.396974213394323 13.563958104756331 0 0 0 0 -238.35431886689173 -3.9438314130676915 0 -3.9438314130676915 87.739848958862879 0 0 0 0 -1026.3980564410631 315.62924472669056 0 315.62924472669056 -44.479355432149532 0 0 0 0 -423.50040658753642 48.917353628564342 0 48.917353628564342 -34.336664186082089 0 0 0 0 -145.219873622291 -36.648299443361367 0 -36.648299443361367 28.307811476322193 0 0 0 0 -472.14498658137836 62.762089664620589 0 62.762089664620589 -18.425288436760184 0 0 0 0 -361.77454378859693 7.4915188293718984 0 7.4915188293718984 122.38421131633049 0 0 0 0 -103.11957376516662 -3.780288981442411 0 -3.780288981442411 20.648603826829699 0 0 0 0 -341.51687770812714 -39.483394532659986 0 -39.483394532659986 140.39699497336733 0 0 0 0 -318.91123797322507 1.189885109433817 0 1.189885109433817 171.80555132612244 0 0 0 0 -111.62946773376163 -29.588160524069671 0 -29.588160524069671 48.702478089160564 0 0 0 0 -410.48407119215699 7.6383408030205828 0 7.6383408030205828 145.74417119895247 0 0 0 0 -137.09155698683318 63.164937105324746 0 63.164937105324746 36.7756116681592 0 0 0 0 -243.35134081251454 -66.152950257062912 0 -66.152950257062912 64.419932629327377 0 0 0 0 -106.91176286929976 -4.3396068472945419 0 -4.3396068472945419 63.053101326130722 0 0 0 0 -540.01072089508125 34.122506516394424 0 34.122506516394424 50.755736987601267 0 0 0 0 -122.92134543285027 -74.102909184497719 0 -74.102909184497719 87.13940715819345 0 0 0 0 -260.46473027201137 -0.57116812433378072 0 -0.57116812433378072 111.0635939342028 0 0 0 0 -220.41034880300867 5.7514393239980564 0 5.7514393239980564 181.73058823225256 0 0 0 0 -8.3849736838035369 -25.07218621655953 0 -25.07218621655953 30.288565035252539 0 0 0 0 131.84630433231359 -2.8512091741722543 0 -2.8512091741722543 171.05127556005027 0 0 0 0 -112.72819035637167 -3.3772695954698975 0 -3.3772695954698975 165.47904723783722 0 0 0 0 -109.21060295469215 -37.527030936804522 0 -37.527030936804522 75.304286191967549 0 0 0 0 -87.439111591968555 -1.1279435895299237 0 -1.1279435895299237 24.830506814285471 0 0 0 0 -108.14806565316394 34.498550067757606 0 34.498550067757606 202.05144129834662 0 0 0 0 -163.18920670746735 -49.054596630336789 0 -49.054596630336789 79.227358381119728 0 0 0 0 -315.85736472457882 23.479774058857615 0 23.479774058857615 69.452631999895345 0 0 0 0 -362.3849490560533 -1.1381518716484607 0 -1.1381518716484607 113.66106720616426 0 0 0 0 34.646732297680501 -131.69030652364972 0 -131.69030652364972 127.2469857926917 0 0 0 0 -20.190074423273074 -3.239241703906572 0 -3.239241703906572 91.959123204726524 0 0 0 0 -371.41356730305415 14.575631768507719 0 14.575631768507719 86.599980580970623 0 0 0 0 -493.15060757799074 -36.348872483287778 0 -36.348872483287778 140.38616852670293 0 0 0 0 -526.93553334217722 39.155517119321985 0 39.155517119321985 111.81842766398586 0 0 0 0 -445.41118029861536 -84.87526245478648 0 -84.87526245478648 -17.160688539222974 0 0 0 0 -589.32602573095937 -194.42730343635412 0 -194.42730343635412 -61.482261831654796 0 0 0 0 -620.86854881662293 -48.642830691491326 0 -48.642830691491326 90.327674072430909 0 0 0 0 -85.772336552588968 -31.684577597938642 0 -31.684577597938642 -9.7344144560468067 0 0 0 0 -97.550704092611809 -24.408988104711042 0 -24.408988104711042 2.1063862173869214 0 0 0 0 -254.52246802995796 -260.95663607739152 0 -260.95663607739152 97.276068470529935 0 0 0 0 -370.05081221592263 -20.020038514257976 0 -20.020038514257976 141.94205948388299 0 0 0 0 -371.26986170416058 -60.563897748708314 0 -60.563897748708314 58.307150232445565 0 0 0 0 -491.65349888894707 -107.31970832510524 0 -107.31970832510524 55.339509889562464 0 0 0 0 -393.19626276450435 -158.56008888820179 0 -158.56008888820179 -13.594794594497216 0 0 0 0 21.528631308043259 -76.218230681232853 0 -76.218230681232853 -9.356949501886902 0 0 0 0 -7.3173560731705436 -4.0817805853112077 0 -4.0817805853112077 7.1830370895319859 0 0 0 0 26.016630202168017 -101.30069674852984 0 -101.30069674852984 46.686155581273852 0 0 0 0 -92.523328451890848 -131.19245944255772 0 -131.19245944255772 226.96715283548565 0 0 0 0 -112.32710909901652 -46.340461014032059 0 -46.340461014032059 66.857836609974584 0 0 0 0 -63.465998748518643 -6.1620897808100779 0 -6.1620897808100779 40.539693387991207 0 0 0 0 -209.64541075486341 50.905782564725996 0 50.905782564725996 263.97423003637232 0 0 0 0 -213.44107076142245 76.086292841149657 0 76.086292841149657 158.48945509178338 0 0 0 0 -73.291906999016646 171.28694939359184 0 171.28694939359184 222.42671783112473 0 0 0 0 -276.59441625446198 206.08563949191921 0 206.08563949191921 262.05906196522164 0 0 0 0 -352.35724010493141 57.402543782924567 0 57.402543782924567 282.9787506413079 0 0 0 0 -13.026834002483866 10.22878535970716 0 10.22878535970716 64.158607476006821 0 0 0 0 -112.2011583866697 61.046485490609371 0 61.046485490609371 111.10063772871899 0 0 0 0 -60.044108270805737 34.047130292548445 0 34.047130292548445 80.504149674074142 0 0 0 0 -76.93348730521393 61.005195813451792 0 61.005195813451792 -59.585630784280283 0 0 0 0 -0.96600026907816527 -0.60543857888612251 0 -0.60543857888612251 8.7004111724838182 0 0 0 0 -130.09241440460028 54.606967691709315 0 54.606967691709315 126.55236152711768 0 0 0 0 -50.736755705715041 -36.053313605774747 0 -36.053313605774747 6.1966072431325756 0 0 0 0 -828.7061556874869 -184.69493024098369 0 -184.69493024098369 28.658105154252553 0 0 0 0 -25.501137679648821 16.344221891793467 0 16.344221891793467 5.7774685254411864 0 0 0 0 -15.747756419122553 -3.1649235611739641 0 -3.1649235611739641 0.77528315370178547 0 0 0 0 -993.19267840721295 -354.3780636987467 0 -354.3780636987467 -74.998062433788618 0 0 0 0 -776.96904743825144 137.39257916076804 0 137.39257916076804 183.5197722178018 0 0 0 0 -385.71142281265929 -0.4233942042765193 0 -0.4233942042765193 -54.355930661677121 0 0 0 0 2.8137267663758223 -1.614671588539494 0 -1.614671588539494 29.677749916091173 0 0 0 0 795.3831327936341 -770.17564612242484 0 -770.17564612242484 197.428235332849 0 0 0 0 -576.7115582087572 -179.57059805294193 0 -179.57059805294193 1089.7312850659437 0 0 0 0 832.22969235163328 584.48707637893813 0 584.48707637893813 -878.19862246374396 0 0 0 0 -36.425231959641678 2.7874826248389581 0 2.7874826248389581 112.38434748756481 0 0 0 0 -6.9767283176943238 3.6546152619052066 0 3.6546152619052066 -2.9060404061366292 0 0 0 0 -1001.8241929663163 -2834.2931543653985 0 -2834.2931543653985 -44.848913550642465 0 0 0 0 -156.3309742322308 -29.466946378717694 0 -29.466946378717694 293.04544813066786 0 0 0 0 -68.724381736014038 132.53489338637883 0 132.53489338637883 371.51489789783591 0 0 0 0 28.776328287247452 64.060983433023466 0 64.060983433023466 90.530766531206609 0 0 0 0 -123.30641887336969 -110.93540740000572 0 -110.93540740000572 213.24394791793111 0 0 0 0 -16.586542846111115 -77.416692149612572 0 -77.416692149612572 3.3126504495439804 0 0 0 0 -15.067471923559708 -5.2251835477559325 0 -5.2251835477559325 14.142561402414103 0 0 0 0 -83.096641016556532 -194.42889457533101 0 -194.42889457533101 471.0263619111555 0 0 0 0 12.226084762980463 -131.88918560655691 0 -131.88918560655691 316.46626576180552 0 0 0 0 -214.08148673444521 -23.725539640557372 0 -23.725539640557372 1369.3252863490582 0 0 0 0 -124.12552787570166 -326.20660199885151 0 -326.20660199885151 -916.60991839389317 0 0 0 0 -336.42184320580418 -413.26913722893187 0 -413.26913722893187 -468.90285727828723 0 0 0 0 -21.271629841631409 -3.2590429315036644 0 -3.2590429315036644 3.395841260507547 0 0 0 0 -202.33986984167132 -601.72490222651072 0 -601.72490222651072 846.70150385240208 0 0 0 0 85.397710163975717 -278.64795318070492 0 -278.64795318070492 410.50773881341729 0 0 0 0 -10.636972183201578 -340.51295531958624 0 -340.51295531958624 615.51625716071612 0 0 0 0 90.025262288952945 -266.85453261989653 0 -266.85453261989653 189.69316858882178 0 0 0 0 -851.63434386177687 -367.26401057335079 0 -367.26401057335079 155.58298175041591 0 0 0 0 159.11036693141796 101.1006749731564 0 101.1006749731564 -729.7119639394366 0 0 0 0 212.16443151303974 -66.168290940497741 0 -66.168290940497741 -295.97437451094811 0 0 0 0 -683.40743656860332 260.72336035397217 0 260.72336035397217 159.80783915914435 0 0 0 0 -347.43422468221979 388.49019697135964 0 388.49019697135964 -277.39312434877047 0 0 0 0 -98.48745178009267 73.596570423017965 0 73.596570423017965 119.45382237975946 0 0 0 0 -1.772379155391377 -4.2033003582305639 0 -4.2033003582305639 16.001689277713197 0 0 0 0 110.72828870097874 -186.27657084411294 0 -186.27657084411294 297.07740904334514 0 0 0 0 73.821816085721366 -150.82691006125083 0 -150.82691006125083 283.30064098328069 0 0 0 0 -49.98838502264698 203.81540124333287 0 203.81540124333287 464.53045201485907 0 0 0 0 -3319.5910982110072 607.92367656418537 0 607.92367656418537 186.70480786411281 0 0 0 0 -2250.872693031939 1262.1487480685078 0 1262.1487480685078 -344.393443191595 0 0 0 0 -2562.0128372383915 508.28139586046746 0 508.28139586046746 -281.48397506037327 0 0 0 0 -3464.3394199208997 793.99516623118961 0 793.99516623118961 -366.29347658504594 0 0 0 0 -850.99467454401019 623.21606336895002 0 623.21606336895002 -154.85417620226508 0 0 0 0 -376.73134764816496 929.54013856405584 0 929.54013856405584 -1027.2814217455643 0 0 0 0 -854.03171678557555 554.09876903738132 0 554.09876903738132 -380.2633860246824 0 0 0 0 157.10438655777034 -47.157021834520719 0 -47.157021834520719 -479.77851854071741 0 0 0 0 299.7337381693942 349.43614771428213 0 349.43614771428213 -226.13315015619901 0 0 0 0 -999.85430476312467 -645.82206696399714 0 -645.82206696399714 21.756562454562925 0 0 0 0 -2315.7386803311965 1447.4242807072808 0 1447.4242807072808 -1110.3324967193698 0 0 0 0 -28.495674365615344 4.011986849156969 0 4.011986849156969 0.94229635781518128 0 0 0 0 -4706.3074626521266 -70.620475523698587 0 -70.620475523698587 -800.30378091615785 0 0 0 0 -3319.0577342183969 -348.36980213810739 0 -348.36980213810739 -1637.4626718690818 0 0 0 0 -3124.5022377627974 375.77800874306456 0 375.77800874306456 1009.9321236923658 0 0 0 0 -1372.0055836721585 1425.3699078736047 0 1425.3699078736047 1589.6549295163975 0 0 0 0 408.28614504354482 513.07203372289882 0 513.07203372289882 199.43875415838966 0 0 0 0 -10.3256069624519 2.2130038599380697 0 2.2130038599380697 -0.59298916222044173 0 0 0 0 -2100.3414369037782 -1647.4434544039186 0 -1647.4434544039186 -1715.6955463196728 0 0 0 0 -88.007905506514362 -491.02439475593201 0 -491.02439475593201 -1051.4459203321112 0 0 0 0 -4490.1068198670546 -357.12618435361219 0 -357.12618435361219 -7.2026348795734521 0 0 0 0 -2567.2329731229111 -493.06213595757254 0 -493.06213595757254 -181.22176768169265 0 0 0 0 -2245.6175115056631 -242.94930716733484 0 -242.94930716733484 271.49130047547806 0 0 0 0 -1915.4344441933499 -126.56561521827098 0 -126.56561521827098 18.193682262390212 0 0 0 0 -1378.7168164106843 -35.653826147199652 0 -35.653826147199652 314.74944080027126 0 0 0 0 -2371.3937398184135 416.20006013328066 0 416.20006013328066 475.79006202212622 0 0 0 0 -1545.9201012633566 -643.60206286960056 0 -643.60206286960056 -205.44845940839878 0 0 0 0 -594.52295084233629 -325.57320369381887 0 -325.57320369381887 -99.291278301273451 0 0 0 0 -40.203722236328758 -35.540749652298473 0 -35.540749652298473 167.72297434116263 0 0 0 0 -1442.2071470037918 -33.923252348069582 0 -33.923252348069582 642.69730911753868 0 0 0 0 -752.56825747695984 -447.86336078761087 0 -447.86336078761087 603.40811948664032 0 0 0 0 -2075.6143299956457 192.3454752698517 0 192.3454752698517 592.10388609207075 0 0 0 0 -1421.7323177273502 71.486445800544971 0 71.486445800544971 471.83678909495211 0 0 0 0 -1445.983004224734 62.338971781646251 0 62.338971781646251 565.37817184690402 0 0 0 0 -1861.0139748711299 364.67521651859897 0 364.67521651859897 540.52727837626298 0 0 0 0 -1904.3606047643698 305.3093983477338 0 305.3093983477338 545.82701394624564 0 0 0 0 -1887.680546613723 479.56781739541566 0 479.56781739541566 370.16337530045348 0 0 0 0 -1887.9981201879855 328.7717541477432 0 328.7717541477432 473.75521133061557 0 0 0 0 -2004.69782378948 366.48672691720822 0 366.48672691720822 582.66067401250893 0 0 0 0 -1999.6432722141908 528.21073832992442 0 528.21073832992442 189.71574671815245 0 0 0 0 -1990.0678435687732 473.27874527853828 0 473.27874527853828 376.3359121671383 0 0 0 0 -1409.766370937301 815.54404079689084 0 815.54404079689084 -59.701628939345483 0 0 0 0 -1755.6232199648657 376.33343854614213 0 376.33343854614213 436.27398984160936 0 0 0 0 -1494.8836323240939 104.66066442764804 0 104.66066442764804 303.56058633255452 0 0 0 0 -1402.3042921473025 -297.52902426600849 0 -297.52902426600849 -159.90048926908639 0 0 0 0 -1922.0327887493768 -17.260852574061573 0 -17.260852574061573 280.19941115966049 0 0 0 0 -1888.1138484929907 286.76545989129045 0 286.76545989129045 564.44656044256408 0 0 0 0 -1984.0264722393549 602.26764335023017 0 602.26764335023017 388.85404122617183 0 0 0 0 -1936.6155440448201 -14.766915730955589 0 -14.766915730955589 437.016414409969 0 0 0 0 -2225.0709932871978 158.01293094765424 0 158.01293094765424 543.00069950699753 0 0 0 0 -3533.0723536312289 -431.16664672976549 0 -431.16664672976549 401.61967054034312 0 0 0 0 -3063.8538506130208 1000.9786306652313 0 1000.9786306652313 409.65368977771868 0 0 0 0 -1536.0991218170093 410.33050058322624 0 410.33050058322624 274.13418888113301 0 0 0 0 -1977.7188716900346 -1176.6210958576594 0 -1176.6210958576594 -981.70956421310984 0 0 0 0 -993.13106111690286 -130.75022996568259 0 -130.75022996568259 -209.60611004241946 0 0 0 0 -552.25510234411922 14.994711229977838 0 14.994711229977838 248.02883534329885 0 0 0 0 -300.05801764529315 -173.12608186372745 0 -173.12608186372745 216.10535259154221 0 0 0 0 -1359.1433197939623 394.51922056378498 0 394.51922056378498 264.53592990959442 0 0 0 0 -693.66117072613997 -104.77994163103358 0 -104.77994163103358 402.46879780426389 0 0 0 0 -1494.5756365666457 221.151596514017 0 221.151596514017 486.44142668113545 0 0 0 0 -1432.9262153131094 753.71771549690675 0 753.71771549690675 -1.3552441417195951 0 0 0 0 117.95777500949043 384.09231988184183 0 384.09231988184183 -272.44814069390486 0 0 0 0 -590.67606606167101 278.15109269547611 0 278.15109269547611 101.27594060214324 0 0 0 0 -14.858402721642051 -191.98268591145825 0 -191.98268591145825 67.595191882079234 0 0 0 0 -620.11135604469746 198.41573262995826 0 198.41573262995826 63.447403940896038 0 0 0 0 -180.11171586788259 -13.969562566271634 0 -13.969562566271634 -109.68225724386866 0 0 0 0 -84.183403169863595 -333.54152505719412 0 -333.54152505719412 208.31131606445706 0 0 0 0 -138.26420026543201 -204.12795866910164 0 -204.12795866910164 308.34976112342702 0 0 0 0 -96.417628263863492 -3.2005857863503877 0 -3.2005857863503877 24.342792190760534 0 0 0 0 -167.61805411757086 -370.89732715910941 0 -370.89732715910941 525.53854029728245 0 0 0 0 -323.39339521927468 -7.3433727698866278 0 -7.3433727698866278 637.11185185278009 0 0 0 0 63.136421727307606 -49.700166026799707 0 -49.700166026799707 167.89645116412066 0 0 0 0 -25.424301467971503 -25.656207537676678 0 -25.656207537676678 45.305123582986575 0 0 0 0 181.44981865536829 -346.90110069626098 0 -346.90110069626098 148.80439503017624 0 0 0 0 653.81457981293352 64.815457984668683 0 64.815457984668683 -310.05064003436564 0 0 0 0 -1246.9740946170641 1048.5616648696887 0 1048.5616648696887 -236.04836137984239 0 0 0 0 -145.2473948305269 -359.95301507265322 0 -359.95301507265322 513.32016692314573 0 0 0 0 -31.423501811591933 11.247206526360372 0 11.247206526360372 -5.4544098032973558 0 0 0 0 -1555.8528666367583 285.22266326859426 0 285.22266326859426 -532.27089447680191 0 0 0 0 -1294.9735946358342 -410.82712878748316 0 -410.82712878748316 -335.28398281946329 0 0 0 0 -77.654241353127873 -143.30372059162983 0 -143.30372059162983 671.41866495265276 0 0 0 0 -105.41741532834837 79.205298016666944 0 79.205298016666944 31.242532425736606 0 0 0 0 -329.54366050901444 -395.97512871105164 0 -395.97512871105164 -819.05274446977091 0 0 0 0 -70.939468014301383 -17.668848559954313 0 -17.668848559954313 -282.25788042480053 0 0 0 0 35.876377612934448 -239.90220482662608 0 -239.90220482662608 -599.94952868400742 0 0 0 0 -610.31638315942837 -129.04089201668103 0 -129.04089201668103 -1575.5497796107957 0 0 0 0 -1167.2820290241507 -595.17184144003841 0 -595.17184144003841 674.30410311015294 0 0 0 0 -1288.7546269019513 -602.99692452186173 0 -602.99692452186173 2054.8714851217374 0 0 0 0 725.92723223486246 175.27639237580661 0 175.27639237580661 -371.62947541840549 0 0 0 0 -1098.8677058421672 -146.86512377288091 0 -146.86512377288091 -163.24382607847656 0 0 0 0 -2751.7220243706979 -1096.2579725377873 0 -1096.2579725377873 -695.56224591852151 0 0 0 0 -4276.2612903862027 699.46733008891897 0 699.46733008891897 135.31230483885884 0 0 0 0 -4649.9437077435432 -14.068374707814655 0 -14.068374707814655 1380.825397161927 0 0 0 0 -4959.4615663215227 72.584390379721299 0 72.584390379721299 1368.1713711225939 0 0 0 0 -4253.4249889989296 93.868359169249743 0 93.868359169249743 992.83984567166408 0 0 0 0 -6479.0255517624319 -2625.4902059870656 0 -2625.4902059870656 547.34493108301103 0 0 0 0 -145.30466327853938 79.573262255863767 0 79.573262255863767 46.382054687168818 0 0 0 0 -1028.3150476155861 222.63160616606638 0 222.63160616606638 -1327.7819193056202 0 0 0 0 -1444.229414743284 -394.99500224042094 0 -394.99500224042094 -907.38555086206634 0 0 0 0 -536.23026359104551 567.47134423711395 0 567.47134423711395 -138.54230644975542 0 0 0 0 -149.75893480282451 88.714580657309156 0 88.714580657309156 49.521315866529775 0 0 0 0 -18.510528894807862 16.713686838750931 0 16.713686838750931 -7.2032680024620888 0 0 0 0 4651.8157778921304 978.895259092591 0 978.895259092591 -4751.6324648242808 0 0 0 0 -827.06103847827762 -825.12570519415021 0 -825.12570519415021 -1056.4607382077374 0 0 0 0 -5196.0235642345651 -556.92660655190593 0 -556.92660655190593 1391.6556726890121 0 0 0 0 1.3840035617542981 19.138307345708732 0 19.138307345708732 -2.9780936868546917 0 0 0 0 -839.11255615361733 504.2366100927502 0 504.2366100927502 20.316867939160147 0 0 0 0 -55.757957666282891 154.41381155163981 0 154.41381155163981 28.410377610740397 0 0 0 0 -14.706963121491128 22.023912409993393 0 22.023912409993393 -2.5551085220782515 0 0 0 0 -1147.1410032928834 -219.58806834103234 0 -219.58806834103234 692.55446536668751 0 0 0 0 -818.41135285967903 706.89854152633961 0 706.89854152633961 931.49323841977457 0 0 0 0 -46.862542669879048 23.829596522541408 0 23.829596522541408 -7.9904870106803827 0 0 0 0 -294.4844166496332 193.42992387131017 0 193.42992387131017 -491.1487875705061 0 0 0 0 570.06178250884932 436.00008239621457 0 436.00008239621457 -105.05090035203466 0 0 0 0 635.5262671783712 212.21033121876826 0 212.21033121876826 -566.58342737632938 0 0 0 0 -53.639239025372689 9.5713820114878274 0 9.5713820114878274 1.9615455127337142 0 0 0 0 -245.25107999477223 -159.79548415710087 0 -159.79548415710087 321.4516110845143 0 0 0 0 92.171328847565746 -33.186260010657861 0 -33.186260010657861 -204.84679661340124 0 0 0 0 281.28026976091496 -384.51021227832098 0 -384.51021227832098 -650.29052212852548 0 0 0 0 -244.66564690367522 324.67748940392994 0 324.67748940392994 -157.83325559936929 0 0 0 0 -44.449780946193641 -151.59091997536234 0 -151.59091997536234 -183.75734954787185 0 0 0 0 -134.89985759759293 -56.317201023390226 0 -56.317201023390226 -157.31754001782247 0 0 0 0 -140.27929821248429 -69.366143575560272 0 -69.366143575560272 94.510367770068115 0 0 0 0 -88.390651197715385 8.5520137904500473 0 8.5520137904500473 5.3875220184482728 0 0 0 0 -33.397300713518781 -9.1944439690750599 0 -9.1944439690750599 -0.61748176842331759 0 0 0 0 -141.2799746295168 111.48172342109501 0 111.48172342109501 201.05538506134872 0 0 0 0 63.268317971218494 -45.665821486476489 0 -45.665821486476489 -188.12312421735987 0 0 0 0 -95.067318903333216 149.06902698124759 0 149.06902698124759 98.557482944868752 0 0 0 0 -39.485838640586309 23.663856912991903 0 23.663856912991903 -11.069758083116859 0 0 0 0 370.09716682962608 22.60141184962049 0 22.60141184962049 -130.81661036926744 0 0 0 0 255.2233255476458 170.29300215467811 0 170.29300215467811 -126.42426873068598 0 0 0 0 97.127332023337658 128.37207756759381 0 128.37207756759381 -133.0737330788761 0 0 0 0 72.122037925044424 -43.114624636808003 0 -43.114624636808003 -412.87599145195418 0 0 0 0 0.97516073640144896 -57.451236727774813 0 -57.451236727774813 -157.57034244630631 0 0 0 0 -25.270976937316775 17.535810451379326 0 17.535810451379326 -9.1811586970006545 0 0 0 0 -0.90827756197359122 12.982586174244716 0 12.982586174244716 -122.71198420388464 0 0 0 0 156.25449625503825 140.11909808954442 0 140.11909808954442 -179.82067597193213 0 0 0 0 133.43046932449943 123.0502423212929 0 123.0502423212929 18.688988895035436 0 0 0 0 474.9320364936284 302.85418153380851 0 302.85418153380851 -137.13310230038041 0 0 0 0 2.5547967835848624 4.4616325445698806 0 4.4616325445698806 -20.421710959056973 0 0 0 0 -18.357425701309694 -4.0464686633931706 0 -4.0464686633931706 -91.01237712616421 0 0 0 0 -1006.6375212574349 110.97209416846817 0 110.97209416846817 49.719393986222713 0 0 0 0 -891.79667526960839 -94.971998116363466 0 -94.971998116363466 60.84984446944145 0 0 0 0 -619.73799169669655 165.80531102197165 0 165.80531102197165 -181.33222625759663 0 0 0 0 -888.07610415411182 -169.5765145911646 0 -169.5765145911646 -537.49348799474092 0 0 0 0 3.4987819049404862 -0.25903182294774751 0 -0.25903182294774751 -11.839603278549873 0 0 0 0 810.68395970331039 166.52976573510387 0 166.52976573510387 -564.98906878008484 0 0 0 0 360.20129407874629 -23.653208915546202 0 -23.653208915546202 -346.17824517264671 0 0 0 0 -1964.1053900966563 -743.4511687179438 0 -743.4511687179438 -297.9791581825084 0 0 0 0 -501.96046856909561 -1521.642875114263 0 -1521.642875114263 -876.65148899173073 0 0 0 0 -0.91238316359328309 4.7392640632316656 0 4.7392640632316656 -5.5921158362467764 0 0 0 0 -81.985939177864566 -697.09145397787506 0 -697.09145397787506 -3054.4641012050706 0 0 0 0 472.16608064060711 905.21570984870232 0 905.21570984870232 -273.35016682033165 0 0 0 0 -4863.8960175391403 -1174.5486714111539 0 -1174.5486714111539 296.25165197175738 0 0 0 0 -1921.4130665730499 -579.11869414973262 0 -579.11869414973262 331.59853798468248 0 0 0 0 -142.88604290984222 -37.678863510804149 0 -37.678863510804149 -131.12794075421698 0 0 0 0 -2115.2160542875663 383.78976382664769 0 383.78976382664769 -53.050813528948993 0 0 0 0 -38.001696665055889 -3.7147755569695278 0 -3.7147755569695278 -1.0272696445920015 0 0 0 0 -2682.7991456746822 1253.1849503782187 0 1253.1849503782187 -243.36723585709115 0 0 0 0 -2593.2402353022171 -2515.8602365590996 0 -2515.8602365590996 -1444.3301055701704 0 0 0 0 -98.574086146935329 -6.9496787105424005 0 -6.9496787105424005 -2.304865446022097 0 0 0 0 -423.3850727537174 222.35332012195067 0 222.35332012195067 479.55362128162233 0 0 0 0 -257.22848454203995 -167.42535669121935 0 -167.42535669121935 89.181007212600889 0 0 0 0 -40.032548062557908 137.57437844878405 0 137.57437844878405 -381.90733084311614 0 0 0 0 41.917070685996123 -124.50898636849712 0 -124.50898636849712 -220.94478737780446 0 0 0 0 -96.647737600294931 89.129800647428965 0 89.129800647428965 -182.56509392108819 0 0 0 0 -109.40181077354146 197.27117067720496 0 197.27117067720496 -1033.5685345060228 0 0 0 0 -1686.8513743749681 435.92738937513423 0 435.92738937513423 -77.078390822594429 0 0 0 0 -645.65027608417495 -543.720744904409 0 -543.720744904409 -104.47973458114211 0 0 0 0 -7.6450723790919994 8.8846430214980217 0 8.8846430214980217 -6.0930716364683875 0 0 0 0 -2193.5903992906988 -214.20863452151025 0 -214.20863452151025 -21.298066541579828 0 0 0 0 -1556.1972688542937 -191.53263361881909 0 -191.53263361881909 -580.41510187864696 0 0 0 0 -2011.5766394706397 -328.31564591222059 0 -328.31564591222059 5.5927955553670472 0 0 0 0 -1451.177302272612 -554.6574827664499 0 -554.6574827664499 -585.07799122266204 0 0 0 0 -1276.4083736947405 -267.9083949525957 0 -267.9083949525957 -152.34765054059062 0 0 0 0 -1005.9015076059804 -661.76586020470677 0 -661.76586020470677 -312.75452811173182 0 0 0 0 -1476.5590719399061 -249.38177335594355 0 -249.38177335594355 -153.36210126608785 0 0 0 0 -1120.0047399020441 -324.72277703975669 0 -324.72277703975669 -19.376426818248092 0 0 0 0 -1525.6438292214971 -260.61129776297321 0 -260.61129776297321 333.01218269332639 0 0 0 0 -1723.823382784838 -30.022343990971422 0 -30.022343990971422 417.99016339894888 0 0 0 0 -784.20029997752499 -253.68399487098941 0 -253.68399487098941 229.58563709695409 0 0 0 0 -910.02226496683443 293.66810787034035 0 293.66810787034035 467.46433723111295 0 0 0 0 356.29435060268588 393.60979269639029 0 393.60979269639029 233.09885278509773 0 0 0 0 -1010.0083451276514 474.70263438325492 0 474.70263438325492 -98.319788880472515 0 0 0 0 -159.93121479982437 -140.47597667042373 0 -140.47597667042373 244.56907050724385 0 0 0 0 -97.041428843276663 16.611277208319279 0 16.611277208319279 13.005670224909409 0 0 0 0 1.1492703064709673 0.22421143380860542 0 0.22421143380860542 -0.76810664596217038 0 0 0 0 -29.096580222569173 24.451567812273424 0 24.451567812273424 -6.8371901645450635 0 0 0 0 -45.70205907845957 -14.044032529994581 0 -14.044032529994581 99.381380389740116 0 0 0 0 -38.946982975674786 20.302956692225884 0 20.302956692225884 1.6662342832441559 0 0 0 0 -44.640642921956896 -35.951867904963819 0 -35.951867904963819 7.5667520121514826 0 0 0 0 -11.339532676189265 -52.202791662667323 0 -52.202791662667323 53.880317938681628 0 0 0 0 -16.663502813687955 11.12509615842373 0 11.12509615842373 -33.248001087023113 0 0 0 0 -6.1740877025277214 1.6578238236276093 0 1.6578238236276093 4.1537056377783568 0 0 0 0 -34.452820715814596 21.602879971580705 0 21.602879971580705 -0.7525375638674916 0 0 0 0 -32.90679161373555 24.324236892726802 0 24.324236892726802 3.7361145720329887 0 0 0 0 -29.591244373936206 25.476037594847639 0 25.476037594847639 -3.1326835896497869 0 0 0 0 -27.033643723640125 21.79628341091211 0 21.79628341091211 -1.0720998297692859 0 0 0 0 4.0694528744018896 -1.5562045435817211 0 -1.5562045435817211 -2.8192727346225688 0 0 0 0 -29.131133996875178 22.58041964458063 0 22.58041964458063 1.3320440036666241 0 0 0 0 -885.9790303068803 369.95823063306057 0 369.95823063306057 -133.40021158753638 0 0 0 0 36.213320800161455 18.876501678308898 0 18.876501678308898 -66.907661898075503 0 0 0 0 -19.662902269743014 16.195943714470204 0 16.195943714470204 -8.0033113406764542 0 0 0 0 25.165756709233392 30.206855517481927 0 30.206855517481927 1.5866503056968213 0 0 0 0 -24.71933170837292 17.314438048393129 0 17.314438048393129 5.7974687778890939 0 0 0 0 -29.159094642822311 20.742089769141216 0 20.742089769141216 4.2720599763924838 0 0 0 0 -1184.041627054321 394.33745663066566 0 394.33745663066566 -97.211510366386392 0 0 0 0 -775.63160897660782 -371.33058357900336 0 -371.33058357900336 390.80119950543849 0 0 0 0 -6.1834768044054442 5.4709521167105377 0 5.4709521167105377 3.7722237795377502 0 0 0 0 -4.5264332999926751 21.238959827310232 0 21.238959827310232 1.0917045800509002 0 0 0 0 -1698.1070237846116 -198.28729663283139 0 -198.28729663283139 178.60118021201288 0 0 0 0 -1591.1564378916082 175.66271981174441 0 175.66271981174441 -6.3018344401007198 0 0 0 0 -843.77699061704334 37.309686237822916 0 37.309686237822916 -6.8969242556634072 0 0 0 0 -1147.9219512427953 -232.35772763075568 0 -232.35772763075568 33.186447267566791 0 0 0 0 -1704.7638916871874 -34.096227006550862 0 -34.096227006550862 374.12126240917587 0 0 0 0 -1231.996395448652 -274.97479385887618 0 -274.97479385887618 150.0642413550122 0 0 0 0 -1712.322799249785 -23.120718544640113 0 -23.120718544640113 127.87298632112424 0 0 0 0 -2127.2822260422909 233.65802779685509 0 233.65802779685509 90.892281263427321 0 0 0 0 -1820.2849292634965 -208.39145263791499 0 -208.39145263791499 155.24186031248109 0 0 0 0 -1967.3112727715452 90.29412243777324 0 90.29412243777324 204.25779868401014 0 0 0 0 -1596.7227368530657 73.077491320726494 0 73.077491320726494 14.006241518144634 0 0 0 0 -1775.3687675391539 57.754517690293824 0 57.754517690293824 24.128129137901851 0 0 0 0 -1556.9001403296716 -58.409321991146044 0 -58.409321991146044 -18.141108309728224 0 0 0 0 -1752.2488829995473 -98.741768362984658 0 -98.741768362984658 -2.3626877377009805 0 0 0 0 -31.827709214310744 -18.930245113923775 0 -18.930245113923775 -22.865214141284014 0 0 0 0 -50.5278598182922 -19.569956262548658 0 -19.569956262548658 -13.515483903815039 0 0 0 0 -43.961148228801903 -12.434148247963094 0 -12.434148247963094 -5.9041907774553692 0 0 0 0 -180.17615280291648 -21.849302070260819 0 -21.849302070260819 -114.84242918849122 0 0 0 0 -1046.0098100846444 250.7224440554819 0 250.7224440554819 78.539541805308545 0 0 0 0 -58.762424246087903 -36.896237841443508 0 -36.896237841443508 -34.638043394690612 0 0 0 0 -1016.5222007158154 262.00408999854608 0 262.00408999854608 58.036010504477417 0 0 0 0 4.2619721985253705 -4.9473632484329073 0 -4.9473632484329073 -3.8015327116260025 0 0 0 0 -1477.835825359005 126.88011818031373 0 126.88011818031373 177.70682772592409 0 0 0 0 -11.287169780232944 18.039513029119007 0 18.039513029119007 -29.654518523868319 0 0 0 0 -39.71105902580166 -28.029196351823884 0 -28.029196351823884 -33.362043949611689 0 0 0 0 120.41416396107525 456.48331048508226 0 456.48331048508226 169.74811131480055 0 0 0 0 -466.64319636366781 46.992649621318378 0 46.992649621318378 296.56992410506973 0 0 0 0 11.633350029752279 -5.279093378999832 0 -5.279093378999832 -12.535630317302136 0 0 0 0 4.8293141150372492 0.21605118607230622 0 0.21605118607230622 -6.3854964570565542 0 0 0 0 -395.28826732635935 -182.47914048135863 0 -182.47914048135863 -33.264843392755211 0 0 0 0 489.82175026705227 757.8525170118387 0 757.8525170118387 -34.655247893193177 0 0 0 0 -154.72556566045387 85.669161186049223 0 85.669161186049223 4.558522093202555 0 0 0 0 -79.677731009527633 37.047984006406296 0 37.047984006406296 15.044122985652848 0 0 0 0 5.8293758866455789 -3.2923380445044614 0 -3.2923380445044614 -7.0296217849143012 0 0 0 0 -138.44446350954968 185.46517301936774 0 185.46517301936774 40.948766797100689 0 0 0 0 6.8481119996140478 -16.196431552328363 0 -16.196431552328363 -17.876245234140242 0 0 0 0 18.078183381796407 -1.5490784034054741 0 -1.5490784034054741 -13.515308140767957 0 0 0 0 -0.5371609262654502 -0.27422086960140746 0 -0.27422086960140746 -13.536360612442067 0 0 0 0 20.765348779241322 19.357713934268929 0 19.357713934268929 -56.741560960041681 0 0 0 0 -75.044763822784176 9.0645925084705787 0 9.0645925084705787 6.3127819601444202 0 0 0 0 -212.66469044014229 51.880459205241266 0 51.880459205241266 78.085182623909134 0 0 0 0 -9.3467793140225695 62.879721949509758 0 62.879721949509758 -49.858807908983749 0 0 0 0 -15.747158755289139 21.868947440360799 0 21.868947440360799 -2.2862800137997148 0 0 0 0 -59.064011066999228 17.31926058011797 0 17.31926058011797 -10.714331632819039 0 0 0 0 -111.76106564035581 -35.225635406317565 0 -35.225635406317565 -18.236928806032211 0 0 0 0 -102.40199875331018 65.830834624341435 0 65.830834624341435 -19.818683951176226 0 0 0 0 -143.08724136133242 38.375040824725922 0 38.375040824725922 14.887580744495253 0 0 0 0 -11.450714702275775 3.332400489086595 0 3.332400489086595 5.1424345158321128 0 0 0 0 -138.63277436893259 -2.4479541891209919 0 -2.4479541891209919 24.890507450150835 0 0 0 0 -35.858921077211562 -7.4286661454968481 0 -7.4286661454968481 24.972861805636313 0 0 0 0 -49.660887042540708 32.793609528957177 0 32.793609528957177 18.750175302543994 0 0 0 0 -25.527192071864775 14.157113515823966 0 14.157113515823966 2.5174323470358551 0 0 0 0 -27.1979169281386 -3.413383392656641 0 -3.413383392656641 5.1086453982274183 0 0 0 0 -75.052021275565494 1.5429489626038873 0 1.5429489626038873 -0.88226091369621784 0 0 0 0 -46.003919085589729 9.7688667324017455 0 9.7688667324017455 -3.0554610698067912 0 0 0 0 -12.778552356065267 -0.020907755025760366 0 -0.020907755025760366 -15.821228490596752 0 0 0 0 -68.506739868498698 -6.5906483131573168 0 -6.5906483131573168 -7.2689713129090023 0 0 0 0 -68.149039327843639 -6.3706485211009749 0 -6.3706485211009749 -8.6449552188732923 0 0 0 0 -9.5623918275191002 -7.6255079258544072 0 -7.6255079258544072 -2.2164361491756281 0 0 0 0 22.191132903924881 101.95766116823347 0 101.95766116823347 -186.92174785801035 0 0 0 0 -30.550629085686523 140.78107104752462 0 140.78107104752462 241.37766525831495 0 0 0 0 -219.36459450688562 -125.40143806920605 0 -125.40143806920605 207.21944254551977 0 0 0 0 -67.606075028879303 2.824795470250427 0 2.824795470250427 2.9260970909128519 0 0 0 0 136.92409044310807 35.197929706290779 0 35.197929706290779 -137.33518592427208 0 0 0 0 -37.486474983139487 3.6060975039390541 0 3.6060975039390541 1.9973286873473626 0 0 0 0 -6.2489566296717385 -267.12752381611972 0 -267.12752381611972 62.933013605993438 0 0 0 0 -27.344242833214707 -2.2053178776640578 0 -2.2053178776640578 7.2001620848591248 0 0 0 0 -103.36816087486295 -12.714937713883728 0 -12.714937713883728 0.17951783648095443 0 0 0 0 -8.8283600844030587 17.451730207828007 0 17.451730207828007 1.4263816784331294 0 0 0 0 -52.753331198473461 14.508756382362662 0 14.508756382362662 1.2316304960695561 0 0 0 0 -17.5170284435209 -0.45029587177126018 0 -0.45029587177126018 3.5089582929977432 0 0 0 0 -63.505028767554904 7.9142445473717089 0 7.9142445473717089 -8.2568024579986741 0 0 0 0 -74.791279363358626 6.7637987569431459 0 6.7637987569431459 5.8320593687248845 0 0 0 0 128.34315893766689 57.565321542808789 0 57.565321542808789 -5.5339754931669631 0 0 0 0 -14.876717614666539 -1.3651042852521869 0 -1.3651042852521869 -3.4738572165138404 0 0 0 0 -62.034183849813417 5.1122182183289624 0 5.1122182183289624 -4.8784581791874189 0 0 0 0 -26.380956285596312 0.66088699841944276 0 0.66088699841944276 10.907681055621842 0 0 0 0 -45.142115426555591 14.323343548031545 0 14.323343548031545 -4.5693508863719146 0 0 0 0 -32.422552391435602 33.629377813423162 0 33.629377813423162 -9.7671046589393882 0 0 0 0 14.411370058067405 11.266852785201575 0 11.266852785201575 -29.978534025976543 0 0 0 0 -95.987781599847949 34.321676819976801 0 34.321676819976801 -0.73932404907532145 0 0 0 0 -80.948115980119837 23.188832945853022 0 23.188832945853022 7.462119719229122 0 0 0 0 -99.21638763815281 25.698744894057199 0 25.698744894057199 10.635192978817031 0 0 0 0 -76.322592762269778 46.844339574715377 0 46.844339574715377 -7.0688864344085687 0 0 0 0 -80.255744667658291 14.697577243358239 0 14.697577243358239 3.720928940207159 0 0 0 0 -113.12523239931761 5.1415447645124743 0 5.1415447645124743 2.216974739433681 0 0 0 0 -73.050843641707615 19.292288474133557 0 19.292288474133557 -5.0722620077003739 0 0 0 0 -98.217800164376968 27.014052742265449 0 27.014052742265449 11.662763010932395 0 0 0 0 -71.161725606623804 42.38231500128586 0 42.38231500128586 -13.968710749758429 0 0 0 0 -63.006702570459311 16.010381831592554 0 16.010381831592554 -4.0508641646565593 0 0 0 0 -111.61511531965516 51.75343907457318 0 51.75343907457318 -24.650780029716771 0 0 0 0 -61.102534384946921 3.2885068824080008 0 3.2885068824080008 10.256084541097152 0 0 0 0 -114.01581669124425 42.155151738838867 0 42.155151738838867 7.4328113184678841 0 0 0 0 -114.126932529649 5.2705837050160351 0 5.2705837050160351 23.012784678152457 0 0 0 0 -30.432681720519071 16.465388626668783 0 16.465388626668783 -2.1387280419665764 0 0 0 0 -67.648731780624075 5.4544340203956381 0 5.4544340203956381 1.1666991311321908 0 0 0 0 -22.369760465457084 -1.7642941175443951 0 -1.7642941175443951 -0.33469272185399745 0 0 0 0 -162.77501394824867 -2.3215979359640642 0 -2.3215979359640642 20.142376471751049 0 0 0 0 -63.741733610105086 27.54889365820307 0 27.54889365820307 7.8845492563535089 0 0 0 0 -64.100250573450467 13.405364259228008 0 13.405364259228008 1.2442367872536124 0 0 0 0 -58.535538067907311 10.339280792525159 0 10.339280792525159 -2.9185270647916042 0 0 0 0 -53.613983580390936 14.539935748528238 0 14.539935748528238 -0.47055567751737026 0 0 0 0 91.320058419252746 93.549923018706977 0 93.549923018706977 -69.599360034884739 0 0 0 0 -192.06978779050405 -39.59150016708918 0 -39.59150016708918 -30.024229686059698 0 0 0 0 -112.31297426047968 6.5340568939009245 0 6.5340568939009245 0.96088955625600647 0 0 0 0 7.4811509429634384 0.49814184320936761 0 0.49814184320936761 -3.0785161275951332 0 0 0 0 -149.29165974271018 3.7020570224776748 0 3.7020570224776748 -58.463607491808943 0 0 0 0 -99.802684056165162 -18.789635990528041 0 -18.789635990528041 -57.87579017657481 0 0 0 0 -95.55807793349959 -75.245662169356365 0 -75.245662169356365 -67.822979575222234 0 0 0 0 -57.713615483524336 24.635363957301706 0 24.635363957301706 6.8734507069993924 0 0 0 0 -50.01870834758293 21.011995811171278 0 21.011995811171278 -2.9574612529598001 0 0 0 0 -37.960903064494687 23.905516127893009 0 23.905516127893009 -5.7702274338189454 0 0 0 0 -61.102380047974293 53.539809277256609 0 53.539809277256609 -5.5082426615831537 0 0 0 0 -202.91271165668331 -11.465271502536552 0 -11.465271502536552 -91.024171507135179 0 0 0 0 -63.355398969077214 42.684428947823562 0 42.684428947823562 -14.369575900858763 0 0 0 0 -68.566130371710301 49.107054365527929 0 49.107054365527929 1.6942168599759952 0 0 0 0 -59.37067971288343 30.983883180660087 0 30.983883180660087 6.3756599271036976 0 0 0 0 -147.95149093217333 -45.234899316668816 0 -45.234899316668816 -24.034836842096411 0 0 0 0 -143.35920934285969 -53.492027031774342 0 -53.492027031774342 -9.1901828183617909 0 0 0 0 -115.44353946906631 -49.180123686444858 0 -49.180123686444858 -35.530125885787129 0 0 0 0 -146.24527552421205 -26.369507535011508 0 -26.369507535011508 -52.27863746330695 0 0 0 0 -144.58287476473561 -47.86159839258778 0 -47.86159839258778 -29.035120576700137 0 0 0 0 -101.90265615331009 -18.093604044372114 0 -18.093604044372114 -3.8357096142317459 0 0 0 0 -79.980636655891431 -1.27007600856723 0 -1.27007600856723 1.4270087995246286 0 0 0 0 -27.717788747688644 13.962178662751199 0 13.962178662751199 8.36858038693358 0 0 0 0 -58.323672889979434 11.949425508244104 0 11.949425508244104 8.6083029643434728 0 0 0 0 -153.5193699504016 -59.353840287617913 0 -59.353840287617913 -4.9903702743504255 0 0 0 0 -143.27090071345447 -66.708937478299958 0 -66.708937478299958 -1.5015065433581185 0 0 0 0 -35.071689812737709 -25.818284575682213 0 -25.818284575682213 -1.8033301674987499 0 0 0 0 -22.912411214960542 -5.697509820625811 0 -5.697509820625811 2.6053789072072604 0 0 0 0 -130.6050721029751 -51.815937899633354 0 -51.815937899633354 -10.037928625213681 0 0 0 0 -125.54499618893897 -61.434446932609717 0 -61.434446932609717 7.8530861685030686 0 0 0 0 -103.74685592124297 -41.73215229363359 0 -41.73215229363359 -12.754684165262006 0 0 0 0 -87.694330519385403 -62.230253705594805 0 -62.230253705594805 10.681436338538333 0 0 0 0 -114.83296731608971 -39.162368967936402 0 -39.162368967936402 -48.000480798174976 0 0 0 0 -100.84769424743718 -59.464155663908969 0 -59.464155663908969 -22.348009276600351 0 0 0 0 -113.79721395263914 -47.101849932845653 0 -47.101849932845653 -50.918028877884353 0 0 0 0 -83.3229282341199 -34.568026865745196 0 -34.568026865745196 -60.525583271670257 0 0 0 0 -46.170130842830986 -44.355542411267379 0 -44.355542411267379 -75.474535867664599 0 0 0 0 -79.465684813359985 -39.968794405092922 0 -39.968794405092922 16.38499423070607 0 0 0 0 -57.800240391021362 -74.463432916325473 0 -74.463432916325473 -6.3081830623304995 0 0 0 0 -2.6196094670922321 -68.862772146854468 0 -68.862772146854468 -62.909884817059719 0 0 0 0 -16.188628289644839 -99.142026314357281 0 -99.142026314357281 13.336149448185097 0 0 0 0 -50.329104554781225 -26.812633995121359 0 -26.812633995121359 -93.007043888156204 0 0 0 0 -26.347206331920461 -56.839023516489306 0 -56.839023516489306 -83.206647944100041 0 0 0 0 -37.18669929399141 5.9841346631575387 0 5.9841346631575387 -0.87873652328963203 0 0 0 0 -66.371800621040165 23.547967221987165 0 23.547967221987165 -155.9227970902266 0 0 0 0 -40.650128505047178 -25.066014017610541 0 -25.066014017610541 -107.46362114834074 0 0 0 0 -20.705401070852531 -29.087384556601137 0 -29.087384556601137 -109.52608728537325 0 0 0 0 -100.04652760911631 -42.57662922941563 0 -42.57662922941563 -105.84195334283868 0 0 0 0 -10.485697159310533 -1.2191293463483532 0 -1.2191293463483532 0.086020047727267013 0 0 0 0 -30.226125737361144 23.451270006076811 0 23.451270006076811 -102.61022471653632 0 0 0 0 -98.983061383300083 -37.1552009702649 0 -37.1552009702649 -75.639883342882968 0 0 0 0 -97.088116345752496 -48.575189525652604 0 -48.575189525652604 -100.59322348828573 0 0 0 0 -108.8297975413152 -53.704946473786549 0 -53.704946473786549 -69.28166404894364 0 0 0 0 -93.899422188347671 -12.9024553918739 0 -12.9024553918739 -95.934674055009964 0 0 0 0 -5344.5125511435654 -724.40783893493199 0 -724.40783893493199 -106.01418118395486 0 0 0 0 -4566.6798800003162 2019.2911145878543 0 2019.2911145878543 -707.53973949934698 0 0 0 0 -3137.4479032838644 856.58266018758945 0 856.58266018758945 -407.64759402323216 0 0 0 0 -2260.0477734892083 653.34910182427313 0 653.34910182427313 -368.18635300467758 0 0 0 0 -2688.705920291115 582.52333144293004 0 582.52333144293004 -46.449879077699734 0 0 0 0 -2153.9557209544473 261.49639581171743 0 261.49639581171743 134.52862625069019 0 0 0 0 -2619.3749098388585 -4.21000637045492 0 -4.21000637045492 198.56718625643498 0 0 0 0 -1594.6032549780975 -480.64786891140329 0 -480.64786891140329 -108.53072407458785 0 0 0 0 -1402.8357804881744 -14.390875950136888 0 -14.390875950136888 -68.447518401093021 0 0 0 0 -15.79911663855917 15.011585628279548 0 15.011585628279548 -9.3257731481208044 0 0 0 0 -122.77148666494031 -359.18434302852984 0 -359.18434302852984 94.011674570333525 0 0 0 0 -7.1269504825086401 5.2091982143394588 0 5.2091982143394588 -6.4936627397346136 0 0 0 0 -124.30622096724983 -125.07741253357199 0 -125.07741253357199 390.15264809019664 0 0 0 0 -17.287101979272848 16.165239079170448 0 16.165239079170448 4.1772023079175256 0 0 0 0 7.7302793202725297 106.52431107841949 0 106.52431107841949 272.33995085630249 0 0 0 0 3.6599028209820972 -65.816002495659177 0 -65.816002495659177 112.02705741251066 0 0 0 0 -4.8429485547259716 21.61859084479282 0 21.61859084479282 -4.9429305340360745 0 0 0 0 -22.175494028284447 23.171469242149175 0 23.171469242149175 4.2061213452047639 0 0 0 0 -28.793868689028386 25.858910690344764 0 25.858910690344764 4.0927261942329096 0 0 0 0 -82.25713896020352 -145.28524004716508 0 -145.28524004716508 45.296096847096123 0 0 0 0 317.25985567196039 -129.22246089415421 0 -129.22246089415421 9.7466519855288425 0 0 0 0 691.98455968881899 -368.11256468971806 0 -368.11256468971806 -107.50985395510361 0 0 0 0 -44.350606555155537 23.541684754342896 0 23.541684754342896 -2.8407972366776448 0 0 0 0 -24.052307847465553 24.911229613899422 0 24.911229613899422 -6.0112071997447032 0 0 0 0 164.98859233774238 -300.27394764301539 0 -300.27394764301539 446.75110788023085 0 0 0 0 689.04463768619462 561.55500585413029 0 561.55500585413029 -587.10906008504753 0 0 0 0 -11.753593874873765 57.729495645659682 0 57.729495645659682 -20.094855988966597 0 0 0 0 -87.720913894896512 40.575744119319097 0 40.575744119319097 2.3396362544444855 0 0 0 0 126.8176609234506 442.77567099040607 0 442.77567099040607 345.39836949465712 0 0 0 0 -153.62438479930279 188.42023051111846 0 188.42023051111846 -515.98647855994568 0 0 0 0 131.41129989525143 433.1743574611985 0 433.1743574611985 -381.70934639262123 0 0 0 0 -486.1892901868996 686.56300046126307 0 686.56300046126307 -566.33272944092164 0 0 0 0 -647.25022977525805 370.87018323895427 0 370.87018323895427 -511.22273535750355 0 0 0 0 -768.06797648248903 575.2058937772108 0 575.2058937772108 -538.54323697744258 0 0 0 0 -925.45969000207333 310.54020759436298 0 310.54020759436298 -912.01025051694887 0 0 0 0 -912.29861489911127 -7.9187042224011748 0 -7.9187042224011748 -101.34068997568647 0 0 0 0 -287.47653486873605 -100.54189573498843 0 -100.54189573498843 -641.62026568319243 0 0 0 0 -53.703904231166234 -27.586231527053314 0 -27.586231527053314 -130.28536839902335 0 0 0 0 -297.61728366682655 24.949463193999691 0 24.949463193999691 0.53724591188074555 0 0 0 0 125.91910962636757 -125.97945907528947 0 -125.97945907528947 -110.22138211791025 0 0 0 0 -172.09244703361765 -122.10092701265967 0 -122.10092701265967 61.659071783738909 0 0 0 0 -161.59179359670088 -426.89410478900481 0 -426.89410478900481 -14.918046760645666 0 0 0 0 -240.87309688859386 20.657872198377845 0 20.657872198377845 -226.78663812881859 0 0 0 0 300.59146835565844 1091.014460960002 0 1091.014460960002 -329.23391342537798 0 0 0 0 -1853.2767835773502 1569.6227216766019 0 1569.6227216766019 -410.42462237283326 0 0 0 0 -628.14578024900402 41.243451664268832 0 41.243451664268832 -1171.198406622334 0 0 0 0 -5691.2390942789571 1011.5072069401976 0 1011.5072069401976 -100.61412712710444 0 0 0 0 -2129.0608425500977 788.78647222299696 0 788.78647222299696 -605.57284547181371 0 0 0 0 -1578.6827587691077 1005.9076551889448 0 1005.9076551889448 -822.54836998446171 0 0 0 0 -2157.944331772007 648.94146439237011 0 648.94146439237011 -202.28659223927752 0 0 0 0 -2812.4041517852165 1609.6715186780075 0 1609.6715186780075 -1588.5429147077205 0 0 0 0 -2429.1692818718093 50.720564314563035 0 50.720564314563035 -1451.4830479073244 0 0 0 0 -563.90701258641093 -1923.1780430320646 0 -1923.1780430320646 1526.145651801382 0 0 0 0 -36.669015176143105 -8.4066139865714149 0 -8.4066139865714149 2.22173154401532 0 0 0 0 -2558.5068135802067 2046.3005322750832 0 2046.3005322750832 -1910.6001871888984 0 0 0 0 -5675.8567000551993 2757.6061552988558 0 2757.6061552988558 -1966.6638728692724 0 0 0 0 -2082.617649043299 -225.44938617634034 0 -225.44938617634034 266.11381541266019 0 0 0 0 -2566.0848565675551 614.54242566243829 0 614.54242566243829 67.613697070868511 0 0 0 0 -4019.7884946505283 1471.2985973956377 0 1471.2985973956377 134.05968333367491 0 0 0 0 -1281.2277423666255 -320.20831080869152 0 -320.20831080869152 229.3686699792197 0 0 0 0 -3990.5357584917947 -604.35822855385231 0 -604.35822855385231 1103.2492103839677 0 0 0 0 -3205.2488629718937 747.17222075920472 0 747.17222075920472 653.64387070694647 0 0 0 0 -1895.1363321573081 1015.8803647315344 0 1015.8803647315344 -404.82344289761477 0 0 0 0 -2897.5885930627701 441.23375951861271 0 441.23375951861271 536.2024325166467 0 0 0 0 -3620.0500605402813 1226.4979950290799 0 1226.4979950290799 7.0618565792501613 0 0 0 0 -151.4427061344104 134.49414210694249 0 134.49414210694249 20.033751558741642 0 0 0 0 -4.5044831559951746 -1.6820830263382902 0 -1.6820830263382902 1.0161251754305027 0 0 0 0 -315.97022489355732 64.981417193731431 0 64.981417193731431 478.0789121129983 0 0 0 0 -1028.5353808457839 91.777105125056551 0 91.777105125056551 479.85697944834465 0 0 0 0 470.39571417836851 1.6190466532507344 0 1.6190466532507344 -486.04910558530901 0 0 0 0 -1923.665440246551 830.720177055058 0 830.720177055058 133.95460391937013 0 0 0 0 -41.231274938378192 78.31422136647825 0 78.31422136647825 -31.991524126661716 0 0 0 0 -43.209711676701929 58.950480591667827 0 58.950480591667827 -11.966527919928495 0 0 0 0 -80.782390430256783 54.373086152867927 0 54.373086152867927 4.991438401857522 0 0 0 0 135.02659979093005 203.73779428868124 0 203.73779428868124 -118.11405493257553 0 0 0 0 -62.784659353375901 155.78049858647864 0 155.78049858647864 -21.662225223983114 0 0 0 0 -44.981080080302121 64.717188347425292 0 64.717188347425292 -12.80247920289753 0 0 0 0 -106.82496111022192 12.074462548140218 0 12.074462548140218 -43.746334795127041 0 0 0 0 -213.72103648373741 64.033184853068633 0 64.033184853068633 -44.777060153273851 0 0 0 0 -125.32473698268586 4.8130457257211674 0 4.8130457257211674 -29.87915770431573 0 0 0 0 -143.59926417724637 -35.594600658587296 0 -35.594600658587296 -118.57194409381918 0 0 0 0 77.696874769695569 89.750490563943458 0 89.750490563943458 -43.47630931059166 0 0 0 0 -72.926430415722464 49.194958703398868 0 49.194958703398868 -12.693238695331303 0 0 0 0 -147.79568549095117 91.883750605174001 0 91.883750605174001 -11.245431848882902 0 0 0 0 -89.492205549322534 15.953922134842287 0 15.953922134842287 -4.5428976391413016 0 0 0 0 216.09641446708702 -122.11034726241996 0 -122.11034726241996 308.07939799648739 0 0 0 0 27.702161851408448 -1.3200330007989152 0 -1.3200330007989152 -14.617132356356855 0 0 0 0 -1984.996041811959 -380.86486800626699 0 -380.86486800626699 498.7820965408464 0 0 0 0 -2732.8152225967788 -26.87783426500755 0 -26.87783426500755 337.47316259714353 0 0 0 0 -3027.6321333151955 703.62421480024432 0 703.62421480024432 -47.245171883689181 0 0 0 0 -3211.0420445110867 767.66684174163674 0 767.66684174163674 -7.4943796601801296 0 0 0 0 -3343.7718996275798 549.49893123710899 0 549.49893123710899 88.874403746114695 0 0 0 0 -2974.9627018476021 455.37430806868724 0 455.37430806868724 75.401023237683148 0 0 0 0 -2896.1138862109874 565.2631678135308 0 565.2631678135308 227.44525246696867 0 0 0 0 -2960.7398987751803 428.41014982756496 0 428.41014982756496 329.52779071105761 0 0 0 0 -2947.0899084000339 440.83758095690791 0 440.83758095690791 169.02080386731541 0 0 0 0 -2446.4996585674453 396.984942814639 0 396.984942814639 217.55379115149844 0 0 0 0 -2441.9957165496526 383.76271153358812 0 383.76271153358812 -190.03222988520429 0 0 0 0 -46.812985039562975 0.45263674300304046 0 0.45263674300304046 0.58111527959452758 0 0 0 0 -2820.0495606355471 552.13607244396371 0 552.13607244396371 55.866025267452642 0 0 0 0 -254.71445231997495 56.606418886261963 0 56.606418886261963 -16.550669200667471 0 0 0 0 -13.516388224991431 81.282471998299513 0 81.282471998299513 -5.7145162206465514 0 0 0 0 -2631.3750965261206 760.44107617974441 0 760.44107617974441 132.98711149066366 0 0 0 0 -2791.7889250347071 556.5242307010576 0 556.5242307010576 -126.10094876828225 0 0 0 0 -1612.4213691831465 1203.5580721653755 0 1203.5580721653755 -762.77318554882731 0 0 0 0 -3104.2112213256551 655.33024763111098 0 655.33024763111098 168.0359422826441 0 0 0 0 -1038.6635156562934 184.64540334771027 0 184.64540334771027 -362.00224450150563 0 0 0 0 -1669.2500897585051 629.2783068409135 0 629.2783068409135 -296.41890126010549 0 0 0 0 -2244.9032833032252 302.38250245973177 0 302.38250245973177 67.887509554127035 0 0 0 0 -1241.0434066503803 -26.739631045769784 0 -26.739631045769784 -180.42069359584184 0 0 0 0 -29.616921434040705 55.125990248711105 0 55.125990248711105 101.34077657301532 0 0 0 0 -36.515860813582549 12.387969767369214 0 12.387969767369214 59.421346198307219 0 0 0 0 -90.990292467206018 1.2076339979375916 0 1.2076339979375916 88.537686582683818 0 0 0 0 -76.981764646596275 -2.8234257157218963 0 -2.8234257157218963 69.13251795139513 0 0 0 0 -92.771921785819359 -19.20625142591075 0 -19.20625142591075 40.758138157201756 0 0 0 0 903.35429440496227 -12.936279543462035 0 -12.936279543462035 -542.84822569972857 0 0 0 0 -79.648565248033265 52.73138325695254 0 52.73138325695254 210.35280162663184 0 0 0 0 -1335.873082978098 313.20241690342664 0 313.20241690342664 1158.8084132400545 0 0 0 0 243.48632051153982 391.49703922900653 0 391.49703922900653 -151.03541021891033 0 0 0 0 -66.87876253009631 19.012997496603884 0 19.012997496603884 -4.1138841544185762 0 0 0 0 -54.496416409936501 -0.99955891542776953 0 -0.99955891542776953 97.591326931284129 0 0 0 0 -54.869367266044719 -31.289629465992221 0 -31.289629465992221 163.28776214751451 0 0 0 0 -72.599170860135928 -45.373318752150226 0 -45.373318752150226 113.30015809254655 0 0 0 0 -69.047365050995722 -57.251934781665113 0 -57.251934781665113 37.199376350097737 0 0 0 0 -80.241006105032284 -18.668373007554692 0 -18.668373007554692 79.609758403688829 0 0 0 0 -80.688658174534794 1.6148013128986349 0 1.6148013128986349 129.23540023790338 0 0 0 0 -57.877340674334846 -26.718421426908208 0 -26.718421426908208 80.048661714212358 0 0 0 0 -68.202069538659998 -13.381918024357674 0 -13.381918024357674 58.355309572652914 0 0 0 0 -101.56740649451967 -29.283652190173598 0 -29.283652190173598 74.97954736470092 0 0 0 0 -98.957917097650352 -25.703607582617224 0 -25.703607582617224 39.197252311852935 0 0 0 0 -78.172356369810586 -41.55174126990687 0 -41.55174126990687 38.913311051597702 0 0 0 0 -98.251593172550201 -34.678355276988441 0 -34.678355276988441 38.527679942104442 0 0 0 0 -109.35041950896266 -56.016522867295862 0 -56.016522867295862 30.929640369067783 0 0 0 0 -138.85654821750359 -45.978504923643413 0 -45.978504923643413 36.675769404133462 0 0 0 0 -175.85518832986418 -46.267095178392083 0 -46.267095178392083 35.359604258646868 0 0 0 0 -115.80594251444563 -42.740823277914387 0 -42.740823277914387 5.2341298511601053 0 0 0 0 1.4468871141834754 -31.218008824403881 0 -31.218008824403881 7.4689414744477318 0 0 0 0 -139.67133027123054 -40.27480639409805 0 -40.27480639409805 -3.089056084560184 0 0 0 0 -137.56047186194337 -54.815629529623493 0 -54.815629529623493 14.896300730229996 0 0 0 0 -113.94114570553938 -47.44291390098806 0 -47.44291390098806 27.0360257160537 0 0 0 0 -122.18518425541697 -22.084001889284991 0 -22.084001889284991 53.921902107209462 0 0 0 0 -12.988149210540485 -1.2835018825393547 0 -1.2835018825393547 -1.064901616637858 0 0 0 0 -356.61553461919539 -88.229008923421134 0 -88.229008923421134 90.388722400362894 0 0 0 0 -178.10494664564612 -14.282896471714594 0 -14.282896471714594 -30.065328318552929 0 0 0 0 -67.566497497420642 32.932635376332655 0 32.932635376332655 -5.9071410036503949 0 0 0 0 -249.21012734113901 226.19044945496262 0 226.19044945496262 68.438231859765438 0 0 0 0 -72.867512975774758 54.008217940043963 0 54.008217940043963 -4.1314342691868156 0 0 0 0 -367.04017288758769 114.14684863311777 0 114.14684863311777 62.181907371010311 0 0 0 0 -78.374078817440022 -47.998874077837172 0 -47.998874077837172 -39.758073728458839 0 0 0 0 290.87087881888147 366.08074291768116 0 366.08074291768116 287.57190456239732 0 0 0 0 -3.8793841410901599 -27.303956160124585 0 -27.303956160124585 9.4645533479420578 0 0 0 0 -114.3424620059377 10.63385341491994 0 10.63385341491994 74.992503896182825 0 0 0 0 -64.988393702480323 18.931053573065352 0 18.931053573065352 -3.9407184533589579 0 0 0 0 -113.25988622318255 21.087109854972368 0 21.087109854972368 55.304868711904419 0 0 0 0 -111.63189333217542 -7.4750418858908461 0 -7.4750418858908461 12.507809365404682 0 0 0 0 -112.82182912310236 4.8782584971031611 0 4.8782584971031611 72.40661037344762 0 0 0 0 16.841589905729052 84.399538959479287 0 84.399538959479287 96.986441914104944 0 0 0 0 -12.123150978648969 -0.86787622144015586 0 -0.86787622144015586 -4.1564392974737032 0 0 0 0 305.18110994639574 136.09043595952517 0 136.09043595952517 -104.70045438129091 0 0 0 0 102.80990806804039 194.31545449905025 0 194.31545449905025 230.46791657833455 0 0 0 0 318.98965517809847 88.821858722183606 0 88.821858722183606 -61.04485979308447 0 0 0 0 -758.34582988190232 30.107722636086692 0 30.107722636086692 33.231176708570274 0 0 0 0 -456.26318537141196 49.138492122665411 0 49.138492122665411 -19.552027946652743 0 0 0 0 -124.4293468221731 6.1872235514802014 0 6.1872235514802014 -96.260842627170859 0 0 0 0 -430.85683042986784 -7.6704221570862501 0 -7.6704221570862501 -70.685780186200645 0 0 0 0 -560.54210122300719 177.37758116944769 0 177.37758116944769 -95.040891621408264 0 0 0 0 -154.83099435287295 123.07529802133377 0 123.07529802133377 -288.42101139265287 0 0 0 0 -117.25162693444872 -65.695552587520069 0 -65.695552587520069 -219.44904230005159 0 0 0 0 -184.36777393158991 -60.056465385816409 0 -60.056465385816409 -4.9548299895950549 0 0 0 0 -7.5825030124810837 13.52217015219199 0 13.52217015219199 -22.114102195717724 0 0 0 0 -226.20269558401196 -24.060625041298408 0 -24.060625041298408 132.09786115026691 0 0 0 0 203.35409246558265 19.029623225395881 0 19.029623225395881 -103.12998989883636 0 0 0 0 331.05760471095709 399.17570459247963 0 399.17570459247963 -173.9480975002607 0 0 0 0 -249.91366363469569 -80.370236453424241 0 -80.370236453424241 -29.331298432382027 0 0 0 0 -109.71096915510134 94.928183352495125 0 94.928183352495125 -31.039932750413527 0 0 0 0 386.13626458062936 -243.74660766634406 0 -243.74660766634406 -308.43074468859413 0 0 0 0 -2.9746902030420301 4.6734416057993258 0 4.6734416057993258 -7.9981537042872866 0 0 0 0 283.68048468568304 43.24067086849459 0 43.24067086849459 -37.319674113849032 0 0 0 0 -633.86629864983115 73.938796341120224 0 73.938796341120224 -13.481297272963275 0 0 0 0 528.56465784955071 375.35790572186488 0 375.35790572186488 135.06875201442381 0 0 0 0 877.95597983346488 247.93583448739173 0 247.93583448739173 -354.0593248365185 0 0 0 0 -436.05657430997235 279.33059321512542 0 279.33059321512542 -166.33398925435176 0 0 0 0 -613.98306625401892 -53.003396566314223 0 -53.003396566314223 -105.97108103106075 0 0 0 0 -1019.9957370222692 -158.39523158433076 0 -158.39523158433076 -61.938485513766182 0 0 0 0 -617.85297945610364 -261.41840327560249 0 -261.41840327560249 -221.70424813182763 0 0 0 0 -889.45151974178589 -508.84622646143316 0 -508.84622646143316 -101.70774206642272 0 0 0 0 -669.38501174296835 -132.55698141473067 0 -132.55698141473067 -112.55869348996976 0 0 0 0 -555.98837148342864 -210.18553419714635 0 -210.18553419714635 -148.23214627009929 0 0 0 0 -146.18591743637808 -10.094968891461576 0 -10.094968891461576 -197.52865402702719 0 0 0 0 121.38412216550751 -283.46065808882713 0 -283.46065808882713 -149.3523873009035 0 0 0 0 -281.44144762358337 120.0068195475269 0 120.0068195475269 520.61984722874149 0 0 0 0 -57.408173635431012 -538.42600525123316 0 -538.42600525123316 -456.32255374033411 0 0 0 0 268.85467227864137 597.34733617703432 0 597.34733617703432 -313.42074955210637 0 0 0 0 59.165574001803179 -262.46475000812416 0 -262.46475000812416 270.10185543263879 0 0 0 0 -133.96450900600757 38.064089330897332 0 38.064089330897332 530.09339590751551 0 0 0 0 -56.06297005660781 12.83336677175717 0 12.83336677175717 -1.7415578519559514 0 0 0 0 -16.160866572143277 -190.68301177782087 0 -190.68301177782087 178.34935105281829 0 0 0 0 -8.7672622069221688 51.215133658147352 0 51.215133658147352 262.48122601458454 0 0 0 0 -3753.8151805209927 1444.6347119584379 0 1444.6347119584379 -993.54832708952836 0 0 0 0 -2447.7758622189722 721.43546096747014 0 721.43546096747014 -433.77529179151315 0 0 0 0 -2840.235264592251 -102.98074705078761 0 -102.98074705078761 -2163.8910871302633 0 0 0 0 -2864.0219527108129 -1200.967690537922 0 -1200.967690537922 -402.96348535074048 0 0 0 0 -3584.1949495878653 1451.0903934707603 0 1451.0903934707603 -119.9948873433716 0 0 0 0 -23.878825221554109 4.2977733447501407 0 4.2977733447501407 -0.97043639303254992 0 0 0 0 -2816.2071829355555 1192.6989723323131 0 1192.6989723323131 -158.76668614871596 0 0 0 0 -4563.505338440591 -314.34339124767575 0 -314.34339124767575 12.945014492288465 0 0 0 0 -1757.9464246514253 -211.94398850026755 0 -211.94398850026755 44.757610090156049 0 0 0 0 -2818.3484932349238 -300.34909391486781 0 -300.34909391486781 241.2008901927511 0 0 0 0 -2545.9686792206921 -144.52449545165905 0 -144.52449545165905 -23.202880406934128 0 0 0 0 -1892.7311199555261 -546.29094734533101 0 -546.29094734533101 11.073712733961656 0 0 0 0 -2084.7061800932861 -1348.3529961264794 0 -1348.3529961264794 -459.31654465550855 0 0 0 0 -2760.5243505970348 637.10493881562491 0 637.10493881562491 -87.813297898115707 0 0 0 0 -2402.1221784232475 543.78817686388675 0 543.78817686388675 -395.43608042546293 0 0 0 0 -1949.6662783227948 320.19310723485478 0 320.19310723485478 10.006658131114364 0 0 0 0 -2262.0959092979465 49.789330941526714 0 49.789330941526714 99.524736809631577 0 0 0 0 -1601.7556830575486 -69.758559721770325 0 -69.758559721770325 -19.078915862978647 0 0 0 0 -1067.8509754496372 -286.40057861444433 0 -286.40057861444433 -71.406190110204079 0 0 0 0 -1668.4390987232618 -242.84497497916118 0 -242.84497497916118 34.237350047519158 0 0 0 0 -1793.196442666318 42.378317584259662 0 42.378317584259662 -28.710424696168957 0 0 0 0 -1681.0736481532076 430.69451955833847 0 430.69451955833847 -708.17665406278797 0 0 0 0 -1660.0882574402749 240.14559881152752 0 240.14559881152752 -205.77870982174045 0 0 0 0 -1959.4387598884641 371.36774549426627 0 371.36774549426627 -360.0732445032163 0 0 0 0 -1058.5170655779802 303.7330366615206 0 303.7330366615206 -393.63688452781321 0 0 0 0 -2043.6461338079753 494.347721359974 0 494.347721359974 -217.08302427379112 0 0 0 0 -430.37667923778645 -447.87318369817058 0 -447.87318369817058 -816.59839876562569 0 0 0 0 -602.48174395014939 -150.86055862098374 0 -150.86055862098374 -584.18755364934805 0 0 0 0 -1681.8683413094986 -627.26706873484545 0 -627.26706873484545 -487.7818405164312 0 0 0 0 -999.39874146839429 -207.38475373630854 0 -207.38475373630854 -563.60221715436762 0 0 0 0 -367.71301708839019 -229.92054802380608 0 -229.92054802380608 -643.83199869894815 0 0 0 0 -453.06043832432988 75.424141433326042 0 75.424141433326042 -601.32284612948661 0 0 0 0 -198.81320082921593 61.867774823954278 0 61.867774823954278 -610.66316890544545 0 0 0 0 -677.41005460850283 444.45992759465526 0 444.45992759465526 -604.23790787403232 0 0 0 0 -443.2809445517305 -144.32375526653789 0 -144.32375526653789 -292.19671407038732 0 0 0 0 -19.017997426955844 -5.9460672606855951 0 -5.9460672606855951 -248.52521863011953 0 0 0 0 -2215.9898921667518 939.09230927334966 0 939.09230927334966 -506.5060744278926 0 0 0 0 -1558.7174010025046 620.19241796052938 0 620.19241796052938 -409.61791963096675 0 0 0 0 -1582.245602511015 485.41390834075241 0 485.41390834075241 -350.40038480940348 0 0 0 0 -495.450298427284 -0.80773198722272355 0 -0.80773198722272355 -376.79650825743147 0 0 0 0 -1842.7551045598811 236.90927842480232 0 236.90927842480232 -904.28870195856871 0 0 0 0 -2298.1454231965763 400.41541080937486 0 400.41541080937486 365.16461391763096 0 0 0 0 -1.9919692377637501 0.41791858285694161 0 0.41791858285694161 -1.3480853206809797 0 0 0 0 -1352.3750360971098 643.59282162352702 0 643.59282162352702 -715.28236478041708 0 0 0 0 -1198.6455520906561 197.26877723738511 0 197.26877723738511 24.688385479330464 0 0 0 0 -481.03891833458329 356.66548470822636 0 356.66548470822636 -50.750772907946157 0 0 0 0 153.16996043603285 -283.73724054538616 0 -283.73724054538616 106.71360254507181 0 0 0 0 -1084.6517803370225 -63.798942447936497 0 -63.798942447936497 534.90423764533898 0 0 0 0 -1.6344932761751547 -2.5423026749784015 0 -2.5423026749784015 -0.73304386442764979 0 0 0 0 -1389.0634936675051 -219.26288447232037 0 -219.26288447232037 15.416371800498382 0 0 0 0 -541.75730066611368 189.06825095853776 0 189.06825095853776 -386.45924953546091 0 0 0 0 29.086129168921616 -366.61308717411794 0 -366.61308717411794 109.07356958803757 0 0 0 0 27.403294271258346 -161.56326769696761 0 -161.56326769696761 425.96612732443646 0 0 0 0 92.429667163349222 -324.18272628682553 0 -324.18272628682553 236.42036632948202 0 0 0 0 -355.06381632346893 205.92877222008065 0 205.92877222008065 -98.021083477409775 0 0 0 0 309.94054503734515 -990.10884509039897 0 -990.10884509039897 1061.8021868354799 0 0 0 0 20.664927206002176 -155.04555417295342 0 -155.04555417295342 482.22287796258024 0 0 0 0 -232.5737741698249 -770.20713019582035 0 -770.20713019582035 2141.2588693787284 0 0 0 0 208.15849539305782 -653.25560187627889 0 -653.25560187627889 799.21602415099915 0 0 0 0 204.79037007839543 -137.92486218847546 0 -137.92486218847546 1272.9398550290698 0 0 0 0 466.71736802326632 -450.11410715108377 0 -450.11410715108377 -521.75250874748554 0 0 0 0 107.09286776190856 -7.934065722261721 0 -7.934065722261721 -775.40878431781766 0 0 0 0 7.5261213900727739 -1.943924640535819 0 -1.943924640535819 -0.1045428281376406 0 0 0 0 307.89736180955151 -620.73260016111851 0 -620.73260016111851 4.3620202577849341 0 0 0 0 438.81562144837517 -346.34338581497968 0 -346.34338581497968 192.07217340054785 0 0 0 0 784.62244788918906 -656.36579953532816 0 -656.36579953532816 -21.237582105856745 0 0 0 0 -560.62892217947228 -294.70234985543675 0 -294.70234985543675 15.458178060211139 0 0 0 0 -0.88095416126729731 -2.7589692200118066 0 -2.7589692200118066 4.2701229201860951 0 0 0 0 -437.25876196073841 -438.24083480136187 0 -438.24083480136187 152.90371789688834 0 0 0 0 -1540.1755225225934 296.26246345728487 0 296.26246345728487 78.228264118709376 0 0 0 0 322.58125573516918 -578.3342411737483 0 -578.3342411737483 -58.912782111089655 0 0 0 0 -0.65757935279003288 -4.1105609971244803 0 -4.1105609971244803 0.57381499598746011 0 0 0 0 131.92618162301369 -709.49609121449862 0 -709.49609121449862 34.40376891658525 0 0 0 0 -233.65372013841261 -601.47863696683225 0 -601.47863696683225 387.67044342697727 0 0 0 0 -525.51835358505195 -20.011713732947555 0 -20.011713732947555 -194.85677443830491 0 0 0 0 -670.43654218511074 33.817540857897939 0 33.817540857897939 233.31843044678862 0 0 0 0 -1598.1908274449961 326.0876504070111 0 326.0876504070111 328.20696103332534 0 0 0 0 -1375.0873105601786 1284.3754901235197 0 1284.3754901235197 -72.604079247269055 0 0 0 0 -1746.2809905430913 82.527885847713605 0 82.527885847713605 -71.641648772067128 0 0 0 0 -1875.2148897912848 721.35361193572294 0 721.35361193572294 -418.70712072390052 0 0 0 0 -2757.0543655524525 753.02266091653019 0 753.02266091653019 -1405.3047943565052 0 0 0 0 -2748.0895837373828 573.82216518280347 0 573.82216518280347 -8.1240916521001054 0 0 0 0 -4268.6246087700856 181.2113550694512 0 181.2113550694512 345.53136758980418 0 0 0 0 -3140.2262680625572 751.97893883299264 0 751.97893883299264 511.75843294017341 0 0 0 0 -3612.4996543060552 948.85816632854949 0 948.85816632854949 470.60556384089841 0 0 0 0 -3104.0460784327588 787.68189971794891 0 787.68189971794891 333.72041053976682 0 0 0 0 -2933.8609925961355 753.34853208256618 0 753.34853208256618 328.35764632253085 0 0 0 0 -4268.431264958228 1607.8852479528925 0 1607.8852479528925 95.420980533451484 0 0 0 0 -2988.8383945497153 991.64808901815059 0 991.64808901815059 381.98022469088892 0 0 0 0 -3756.9906959512828 -185.97558686451649 0 -185.97558686451649 281.47259383151277 0 0 0 0 -2120.2560848780995 -122.87011114907659 0 -122.87011114907659 281.48605917366831 0 0 0 0 -366.17009679182956 84.99055722449566 0 84.99055722449566 -438.76344737656291 0 0 0 0 -3556.5934577915759 421.35368598216428 0 421.35368598216428 552.33072966763484 0 0 0 0 20.535676066065207 -128.12870799442953 0 -128.12870799442953 -364.62925501264067 0 0 0 0 -422.99203618949105 -73.877189064241975 0 -73.877189064241975 -59.526614985208653 0 0 0 0 24.903609555534786 -81.600664033826433 0 -81.600664033826433 -116.42347018470809 0 0 0 0 -469.37207192573624 -104.73580763000905 0 -104.73580763000905 549.48284653125302 0 0 0 0 -162.50660640667775 325.86016392956299 0 325.86016392956299 -185.9127830506834 0 0 0 0 -1978.9431175056379 804.50471194503189 0 804.50471194503189 -271.47682831138809 0 0 0 0 -2565.8143161502012 1828.8910139364457 0 1828.8910139364457 -431.95624287664214 0 0 0 0 -13.018789466960811 5.9146305918282067 0 5.9146305918282067 -1.5369611332818272 0 0 0 0 -3357.9345957544283 -584.185039983764 0 -584.185039983764 288.16400400856492 0 0 0 0 -196.5413711269357 -20.797576659906554 0 -20.797576659906554 -384.86862433014267 0 0 0 0 -16.038457730988682 -1.3695697560458484 0 -1.3695697560458484 1.1277464774946999 0 0 0 0 -185.05874586384743 46.141314461449838 0 46.141314461449838 -4.2870200433442278 0 0 0 0 -26.574428224146686 115.32127713770205 0 115.32127713770205 -279.57230463386077 0 0 0 0 -33.741350073509125 4.6676375337787039 0 4.6676375337787039 -0.32233617174946971 0 0 0 0 64.766626263910439 -134.27707892023477 0 -134.27707892023477 -182.90882043506463 0 0 0 0 36.317226429877337 -102.82430143117381 0 -102.82430143117381 -103.97187610126457 0 0 0 0 41.78442532769941 15.287245364345708 0 15.287245364345708 -311.60172285512272 0 0 0 0 -2959.9491267011035 946.98471896941373 0 946.98471896941373 -110.27909446952981 0 0 0 0 -7.4402106950336702 -1.0460353765877528 0 -1.0460353765877528 1.6123225822035891 0 0 0 0 -2777.5381481996592 924.76597962870437 0 924.76597962870437 -118.54749772234209 0 0 0 0 -3002.7574225019926 838.71826457816223 0 838.71826457816223 -214.0280521241948 0 0 0 0 -3224.3075753495013 587.34831085116389 0 587.34831085116389 11.384622992623918 0 0 0 0 -3254.6293938440213 945.7398030727345 0 945.7398030727345 31.265791522631844 0 0 0 0 -4251.088849239648 366.31186766948258 0 366.31186766948258 -9.0416046448954148 0 0 0 0 -2430.3553501700226 27.135889398648033 0 27.135889398648033 -600.9089687031701 0 0 0 0 -2985.5524710218015 785.01662788890508 0 785.01662788890508 149.02581001412182 0 0 0 0 -2371.4250963240047 553.63392943802137 0 553.63392943802137 0.49200279751141807 0 0 0 0 -2279.5959597111942 627.12070177528813 0 627.12070177528813 -243.39726111610798 0 0 0 0 -3671.8730473078103 1392.116596064755 0 1392.116596064755 61.295010320251095 0 0 0 0 -2942.8508436241027 695.5783614397842 0 695.5783614397842 215.11220148191205 0 0 0 0 -3145.0183658571914 858.96899591109923 0 858.96899591109923 480.97275047795301 0 0 0 0 -3155.1577948604536 797.4220105667946 0 797.4220105667946 160.64545967791946 0 0 0 0 
</DataArray>
<DataArray type="Float64" Name="cross_section_updated" format="ascii">
1 1 1 1 1 0.0095537423901016286 1 1 1 1 1 1 0.0030478739181770548 1 1 1 0.0072122619832988913 1 1 1 1 0.001335657992425264 1 1 1 1 1 0.0091961318799493111 1 0.010051003450765386 1 1 1 1 0.0099765181746886977 1 1 1 1 1 1 1 1 0.0063673252578936787 1 1 1 0.0048082831849927433 1 0.0049233274442064129 1 1 1 2.65852473368966e-09 0.0095195517355294926 1 1 1 1 1 0.0091076492487083584 1 1 1 1 1 1 1 1 1 0.010016107387486841 0.0013028665865012605 1 1 1 1 1 0.0079106369476937746 1 0.0093600959108161193 1 0.0041703408874056158 1 1 1 1 1 0.0076479912581321786 1 1 1 0.0097993164927434664 1 1 0.0080137606248518733 1 1 0.005361970482835595 1 1 0.001425728163046279 1 1 1 1 1 1 1 1 1 1 0.0025466681735915875 0.0097651997808859033 1 1 1 1 1 1 1 1 1 1 0.0093189421709875316 1 0.011116345043394947 1 1 0.0032487472244994986 1 0.0089973162986284536 1 1 0.0099813394128683147 1 1 1 1 1 1 1 1 1 1 1 1 1 1 1 0.012228030765659079 1 1 1 0.010741721973300984 1 1 1 0.0056155404515815591 1 1 1 1 0.0040180159368519222 1 1 0.0089755851104051931 0.0036553160142515084 1 1 1 3.9985573879741665e-10 1 1 1 1 1 1 0.0051550823542713675 1 1 1 1 1 1 1 1 1 1 1 1 0.008864559064192111 1 1 1 1 1 1 1 1 1 1 1 1 1 1 1 1 1 -4.0499941802996098e-09 0.0067533978270960179 1 1 1 0.0077046533251468458 1 1 1 1 1 1 0.0093759199695852731 1 1 1 1 0.0083528533906323948 1 0.0083982772016233422 0.0050029162522898952 1 1 0.0062145068193910045 1 1 1 1 1 1 1 1 1 1 1 1 1 1 1 1 1 1 1 0.0067895645867617482 1 1 1 1 1 0.0053998894243633758 1 1 1 1 1 1 1 1 0.0089214006289364441 1 1 1 1 0.0094997238833568545 1 0.0071632294600415952 1 5.89409215878689e-11 1 1 1 1 1 1 1 0.01045440372018285 1 1 1 0.01004293648148504 1 1 1 1 1 1 1 1 1 1 1 1 1 1 1 1 1 -6.5353544104196359e-10 1 1 0.00075881438569626314 0.0071477131671733272 1 1 1 1 1 1 1 1 1 1 1 1 1 1 1 1 0.012691404298875896 1 1 1 1 0.0043824072831089404 0.010002882999313109 1 1 1 1 1 0.0085268705929988572 1 0.0011273586956593203 1 1 1 1 1 1 0.0057187115987615261 -6.5599346787958979e-10 1 1 1 1 1 1 1 1 1 1 0.0061033994072558859 1 1 1 1 1 1 1 1 1 1 1 1 1 1 1 1 1 1 1 1 1 0.0021510798480169659 1 1 1 0.0024047232438233861 1 1 1 1 0.010071907298955379 1 1 1 1 1 1 1 1 1 1 1 1 1 1 1 1 1 1 1 1 1 1 1 1 0.01082336903752075 1 1 0.010219784917522071 1 1 1 1 0.011690016992692065 1 1 1 1 1 1 1 1 1 1 1 1 1 1 1 1 1 1 1 1 1 1 1 1 1 1 1 0.0014182900267463126 1 1 0.0079019771290301036 1 1 0.0045876714796685147 1 1 1 1 1 1 1 1 1 1 0.0093937947165949817 1 1 1 1 0.010004992804946967 1 0.0077638868872485951 1 1 1 0.01014554633834489 1 1 1 1 0.0095108422096404702 1 1 1 1 0.0085269443374218403 1 0.0085314657241738808 1 0.007304125608520326 1 1 1 0.0095606269592482911 1 1 1 1 1 1 1 1 1 1 0.0026483693178110564 1 1 0.0096708478883688453 1 0.0048735334775068667 1 1 0.0059567071117875379 1 0.0096208163823136364 1 1 1 1 1 1 0.0098944100073264426 1 1 1 1 0.00120478129576174 1 0.0061121061637056558 0.010123083555137019 1 1 1 0.01004955001773551 1 1 1 1 1 1 1 1 1 1 1 1 1 1 1 1 1 1 1 1 1 1 1 1 1 1 1 1 1 1 1 1 1 1 1 0.0099705765433478581 1 1 0.002428814618091104 1 1 1 1 1 0.0066186430146051613 1 1 1 1 1 1 1 1 1 1 1 1 1 1 1 1 0.0067338935564914566 1 1 1 1 1 1 0.0099639217643689715 1 1 1 1 1 1 1 1 1 1 1 1 1 1 0.0099185255595655407 1 1 1 1 1 1 1 1 1 1 1 1 0.0082366414420980243 1 1 1 1 1 1 1 1 1 1 0.0099546037951965712 1 1 1 1 1 1 1 1 1 1 1 0.0095817308940639324 1 1 1 1 0.009228397178405302 1 1 1 1 0.0029850692503523742 1 1 1 1 1 1 1 0.0035494110924496544 1 0.010194034835665333 1 1 0.011881567466803248 1 0.002709197776106953 1 1 1 0.010003898473821691 1 1 1 1 1 1 1 1 1 1 1 1 1 1 1 1 1 1 1 1 0.010032105165967288 1 1 1 1 1 0.0030556155313913175 1 1 1 1 1 0.0094992169171202318 1 1 1 1 1 1 1 1 1 1 1 1 1 1 1 1 1 1 1 1 1 1 1 1 1 1 1 1 1 1 1 1 1 1 1 1 1 1 1 1 1 1 1 0.010015741632767075 1 1 1 1 1 1 1 1 1 1 1 1 1 1 1 1 1 1 1 1 1 1 1 1 1 1 1 1 1 1 1 1 1 1 1 1 1 1 1 1 1 1 1 1 1 1 1 1 0.0076192998827158374 1 1 1 0.010081244693804461 1 0.0099132407017127923 1 0.0082532056074884515 1 1 1 1 1 1 1 1 1 1 0.009352601498862835 1 1 1 1 0.0085424018608242797 1 1 1 1 1 1 1 1 1 1 0.0061403443634550844 1 1 1 1 0.0098138695592977932 1 1 1 1 1 1 1 0.0062872744251157159 1 1 1 1 1 1 1 1 1 1 1 0.010043162630343948 1 1 1 1 1 1 0.0067645284513455552 1 1 1 1 1 1 1 1 1 1 1 1 1 1 1 1 0.010167494928881483 1 1 1 0.010016828434619898 1 1 1 1 1 1 1 1 1 1 1 1 1 1 1 0.0097360540145966304 1 1 1 0.0094282928235187267 1 1 0.0074755594661562001 0.011114010896032981 1 0.010999545374893442 1 1 1 1 1 1 0.0096728084185067603 1 1 1 1 1 1 1 0.0090751112366583408 1 1 1 1 1 1 1 1 1 1 1 1 1 1 1 1 1 1 1 1 1 1 1 1 1 1 1 1 1 1 1 1 1 1 1 0.0080406437166914771 1 1 1 1 1 1 1 0.010049683248794945 1 0.0037602386269129382 1 1 1 0.0098128139601770317 1 1 1 1 1 1 1 1 0.0099190685703054449 1 1 0.0097875575992675025 1 1 0.0094685640630049056 1 0.012255198305587196 1 1 0.010205274212825115 1 1 1 1 1 1 1 1 0.0041081227872280072 1 0.0099159451857986896 -7.3241392117839865e-11 1 1 1 0.011058948648626579 1 1 1 0.010530763208034651 1 0.0091695123632253885 1 1 0.0031418934661695871 0.010273277099437008 1 1 0.010055721077285019 1 1 1 1 1 1 1 0.0024347675081834103 1 1 0.0078391003742852503 1 0.0034833229893051071 1 1 0.0042961571383738385 1 1 1 1 1 0.012525302151603523 1 1 1 1 0.011200211176050497 1 0.010024372386550486 1 1 0.0098208983475362513 0.010433334683156492 1 1 1 1 1 0.004637947028651038 1 1 1 1 1 1 1 1 1 0.0080458815607370674 1 1 1 1 1 1 1 1 1 1 1 1 1 1 1 1 1 1 1 1 1 1 1 1 1 1 1 2.8076280276373433e-09 1 1 1 1 1 1 1 1 1 1 1 0.0099878601009043572 1 0.00040131801094286587 1 1 1 1 1 1 1 1 1 1 1 1 1 1 1 1 1 1 1 0.0092298139490709554 1 0.0089483901683229811 1 0.0088914719977496604 1 1 1 1 1 0.0061485670915389862 1 1 0.0084409484671648348 1 1 1 1 1 1 1 1 1 1 1 1 1 1 0.0081469123990254525 1 1 1 1 1 1 1 1 1 1 1 0.01014729266613538 1 1 1 1 3.1268334033107692e-09 1 1 1 1 1 1 0.0019239154558634702 1 1 1 1 1 1 0.0065350086549587488 1 1 1 1 1 1 1 1 1 1 1 1 1 1 1 1 1 1 1 0.0083772036670387191 1 1 1 0.0097919681017119287 1 1 1 1 1 1 1 1 1 1 0.0097486620320151145 1 1 1 1 1 1 0.0093689594033459951 0.0095081833882636104 1 1 1 1 1 1 1 1 1 1 1 1 1 1 1 1 7.1611373120641225e-05 1 1 -9.4784295494830528e-10 1 1 1 1 0.006567056972564744 0.010592506809754973 1 1 1 1 1 1 1 1 1 1 1 1 1 1 1 1 1 1 1 1 1 1 1 1 1 1 1 1 1 1 1 1 1 1 1 1 1 1 1 1 1 1 0.0086926062801259123 1 1 1 1 1 1 1 1 1 1 1 1 1 0.0062873392895588728 1 1 1 1 1 1 1 0.0099302069109201228 1 1 1 1 1 1 1 1 1 1 0.01084784998927083 1 1 0.00041465083155840365 1 1 -7.6919374168704646e-10 1 1 1 1 1 1 1 1 1 1 1 3.7064469731243332e-09 1 0.0015113293595418239 1 0.010986883543776723 1 1 1 0.0093253906321753774 1 1 1 1 1 1 1 1 1 1 1 1 1 1 1 0.0087630285973605785 1 0.0070178603931652372 1 1 0.0062357091029337109 1 1 0.01905767804838476 1 1 1 1 0.012581119762419012 1 1 1 1 1 1 1 1 1 1 0.0030360398014910904 1 1 1 1 1 1 1 1 1 1 1 1 0.010211774022698142 1 1 1 1 1 1 1 1 1 1 1 1 1 1 1 1.1262904359155002e-09 1 1 1 1 1 1 1 3.1568143758764489e-09 1 1 1 1 1 1 -1.6063273185554228e-09 1 1 1 0.0032726507783861804 0.00061429405518933231 0.010176735840602941 -9.4528333164506373e-10 1 1 1 1 1 1 1 1 1 1 1 1 1 1 1 1 0.0091577119993418877 1 1 1 1 1 1 0.002169973300573988 1 0.010067291801664418 1 1 -1.8568410121121148e-09 1 1 1 0.0049039456427126364 0.0050359861959327623 1 1 1 0.0098012540808619028 1 1 1 1 0.0081529177554705845 1 1 1 1 1 1 1 1 1 1 1 1 1 1 1 1 1 1 1 1 1 1 1 1 1 1 1 1 1 1 1 1 1 1 1 1 1 1 1 1 1 1 1 1 0.0021324465885002308 1 0.0062973112140616988 1 1 1 1 1 1 1 1 1 1 1 1 1 1 1 1 1 1 1 1 1 1 0.0091780912314038676 1 1 1 1 1 1 1 1 1 1 1 1 1 1 1 0.0080750540435410856 1 1 1 1 1 0.0077047711886512171 1 1 1 1 1 1 1 1 1 1 1 1 1 1 1 1 1 1 1 1 1 1 1 1 0.0099890322238835386 0.0099628558184873053 1 1 1 1 1 1 1 1 1 1 1 1 1 1 1 1 1 0.010383957924533505 1 1 1 1 1 1 1 0.011578664892651684 0.0097095766563343733 1 1 1 1 1 1 1 1 1 1 1 1 1 1 1 1 1 1 0.00738940134257394 0.0033864485572833586 1 1 1 1 1 1 1 1 1 1 1 1 1 1 1 1 1 1 1 1 1 1 1 1 1 1 1 1 1 1 0.0099162421183262538 1 1 0.015999550632257838 1 1 1 0.0063686675193756741 1 1 1 1 1 1 1 1 1 1 1 1 1 1 1 1 1 1 1 1 1 1 1 1 0.0098590373948115664 1 1 1 1 1 1 1 1 1 0.0032006245664032637 1 0.0079339208322773604 0.010685745983479468 0.0093990694050612687 1 1 1 -1.4035202063056307e-09 1 0.0098136659605727178 1 1 1 1 0.0011748991742445321 1 1 1 1 1 1 1 1 1 1 1 1 1 1 1 1 1 1 1 1 1 1 1 1 0.0094592689045968695 1 1 1 1 0.0099867153802788936 1 0.0098531810844138083 1 1 1 1 1 1 1 1 1 1 1 1 1 1 1 1 1 1 1 1 1 1 -1.6897233889867636e-09 1 0.0089993348356361465 1 1 1 1 1 0.010772390124818962 5.7067862935245017e-10 1 1 1 1.5348192647368641e-09 1 0.009215697313333885 1 1 1 1 1 1 1 1 1 1 1 1 0.0058438571103030523 1 1 1 1 1 1 1 0.0077958815357789604 1 1 1 1 1 0.0016405651475309008 1 1 1 1 0.0046579901819744571 1 1 0.0034955141525010447 1 1 0.0019503548844865756 1 1 1 1 1 1 1 1 1 0.0029027221195563474 1 1 1 1 1 1 1 1 1 1 1 1 1 2.0412273191161567e-09 1 1 1 8.2540452682952625e-06 1 1 1 1 1 1 1 1 0.0085702147525205333 1 1 0.0094179680462568634 1 1 1 1 1 0.0093016696672576608 1 1 0.0082817372358651251 1 0.0083803421883541195 1 0.0094602131072327143 1 1 0.0083637739631456688 1 1 0.0062368522445880488 1 1 1 0.0099088216318304854 1 1 1 0.0035074964170953987 0.0079286364355246625 1 0.0090097557283331658 1 1 0.0082979903364745998 1 1 1 0.009038909448966348 1 1 1 1 1 1 0.0058942324326316659 1 1 1 1 1 1 1 1 1 0.0090186874408202302 1 1 0.0035344491963284243 1 1 0.010627673276065373 1 0.010675525923991208 1 1 1 1 1 1 0.009225182574672303 0.0078144575291139856 1 1 1 1 1 1 1 1 1 1 1 1 0.0071709887514126332 1 1 1 1 1 0.0019799860112904993 1 1 1 -2.1293754329243519e-09 0.0088628654981703012 0.0037755495197131853 1 1 1 1 1 1 1 1 0.0068403197041779773 1 1 1 1 1 1 1 1 1 1 1 1 1 1 1 0.0011262703552844429 1 1 0.0007633220048520184 1 1 1 1 1 0.0096715166685531519 1 1 1 1 0.0095325196544642429 1 1 1 1 1 0.009975802887278902 0.0085824800666368141 1 1 1 1 1 1 1 1 1 0.0022934800511657527 1 1 0.0088174028831480081 1 1 1 0.0081188583159114217 0.0036418851276979851 0.0082822998058269381 1 1 1 0.0017260725727264014 0.0099556392686585352 1 1 1 1 1 1 0.0081110004668782619 1 1 1 1 1 0.011255452109386433 1 1 1 -2.9813153612501253e-09 1 1 1 1 0.011297576361503563 1 1 0.0035530128616327039 1 1 1 0.0013573865320135534 1 0.0080167400292967227 0.0090062709904462496 1 1 1 1 0.009700577408779068 1 0.010014845665008133 1 1 1 1 1 1 1 1 1 1 1 1 1 1 1 1 1 1 1 1 0.0025198880013859448 1 1 1 0.0072797636694045889 1 1 1 1 1 0.0019983185211901941 1 1 1 1 1 1 1 1 1 1 1 1 1 1 1 1 1 1 1 1 1 1 1 1 1 1 1 1 1 1 1 1 1 1 1 1 1 0.0019368765960027581 1 0.013286453899502977 1 1 1 1 1 1 1 1 1 1 1 1 1 1 0.012345532257224517 1 0.010024779599441706 1 1 1 1 0.010683417118720909 1 1 0.010170780486927097 0.010103492426611188 1 1 1 1 1 0.010044207109579404 1 1 1 1 1 1 1 1 1 1 1 1 1 1 1 1 1 1 1 1 1 1 1 1 1 1 1 1 1 1 1 1 0.0063823846046915447 1 1 1 1 1 1 1 1 1 1 1 1 1 1 1 1 1 1 1 1 1 1 1 0.0098696334499893679 1 0.009975791428125139 1 1 1 1 1 1 1 1 1 1 1 1 1 1 1 1 1 1 1 9.5235207914212694e-10 0.010033649412699269 1 1 1 1 1 1 1 1 1 1 1 0.0097512670190700659 1 1 1 1 1 1 1 1 1 1 1 0.0082081287941244419 1 1.5083206628130341e-09 1 1 1 0.003546683745969538 1 1 1 1 1 1 1 1 1 1 1 1 1 1 1 1 1 1 1 1 1 1 1 1 1 1 1 1 1 1 1 1 1 1 1 1 0.0086275503082302307 1 0.010737197595435215 1 1 1 1 1 1 1 1 1 1 0.0063392429932283487 1 1 1 1 1 1 0.0082629524588312235 1 1 1 1 1 1 1 1 1 1 1 1 1 1 1 1 1 0.0069578086446757826 0.0088815181102786713 1 1 1 1 1 1 1 1 1 1 1 1 1 1 1 1 1 1 0.009418413915492703 1 1 1 1 1 1 1 1 0.0097282534876185489 1 1 1 1 1 1 1 1 1 1 1 1 1 1 1 1 1 1 1 1 1 0.0093954003840411651 1 1 1 1 1 1 1 1 1 1 1 1 1 1 1 1 1 1 1 1 1 0.0079579172332020498 1 0.0041463680100382663 1 1 1 1 0.00096367318430436166 1 1 1 1 1 1 1 1 1 1 1 1 1 1 1 1 1 1 1 1 1 1 1 1 1 1 1 1 1 1 0.0096009936310642099 0.0090100969073128451 1 1 0.0095864181998489006 1 1 1 1 1 1 1 1 1 1 1 1 1 1 0.007621668216810415 1 0.010619640881812074 1 1 1 1 0.0097322390920857871 1 1 1 1 1 1 1 1 1 1 1 1 1 1 1 1 1 1 1 1 1 1 1 1 1 1 1 1 1 1 1 1 1 1 0.0081710156672131634 1 1 0.010017322786728967 0.0093056034910990529 1 1 1 1 1 1 1 1 1 1 1 1 1 1 0.0096934120414461783 0.0093262497180227194 1 1 1 1 0.0085467118765170016 1 0.0090871733815092049 0.0093352639657831235 1 1 1 1 1 1 1 1 1 0.01023103482341961 1 1 1 1 1 1 1 1 1 1 1 0.010588300446730385 1 1 1 1 1 0.0077115349578244317 1 1 0.010123560598643258 1 0.0099843030867475396 1 1 1 1 0.0087314803236053836 1 0.0064645843898548799 1 1 0.010645630942699911 1 1 1 1 1 0.010288365319389143 1 0.0068428738067141184 1 1 1 1 -1.8316147626373791e-09 1 1 1 1 0.010903548110122147 1 0.010326075834111194 1 1 1 1 1 1 1 0.0044395365266918368 1 0.0099366070118534211 1 1 1 0.0036679278676417862 0.0088031058385611687 1 1 1 1.2830948040165602e-09 0.008822612342848167 1 1 1 1 1 1 1 1 1 1 1 0.0023536949868945625 1 1 1 1 1 1 1 1 0.0059810971536473582 1 1 0.00033459490980681378 1 1 1 6.4919722984300987e-05 1 1 1 3.5321661706610996e-09 1 1 1 1 1 1 1 1 1 1 1 6.1727886344065119e-10 1 1 1 1 1 1 1 1 1 0.0085721131366940703 1 1 1 1 1 1 0.00063950557371658841 1 1 1 1 8.2934156417358018e-10 1 1 1 1 1 1 1 1 1 1 1 1 1 1 1 0.0016720059394976575 1 1 1 1 1 1 1 1 1 1 1 1 1 1 1 1 1 1 1 1 0.011111470822289396 0.002777428323434826 1 1 1 1 1 1 0.0092328095284790346 1 -2.6450072201922303e-09 1 1 1 1 0.00032529133085976852 1 1 1 1 1 0.0073360934732835158 1 1 1 0.0010917127228623931 1 -2.2104271191203395e-09 0.0027269284514108505 1 1 1 1 1 0.010135407130730124 1 1 1 1 1 1 1 1 1 1 1.1092440299620421e-09 1 0.003569930172518861 1 1 1 0.003983453751907215 1 1 1 1 1 0.009174484461360698 1 0.0093069167271803942 1 1 1 1 1 0.0097970590261581125 1 1 1 1 1 1 1 1 0.010158007274973419 1 1 1 1 1 0.00887766736587557 1 1 1 1 1 1 1 1 1 1 1 1 1 0.009800494317071938 1 1 1 1 1 1 1 1 1 1 1 1 1 1 1 1 0.0079350083632682214 1 1 1 0.0024844378113031279 1 0.0098386471554939917 1 1 0.012310607159548235 1 1 1 1 1 1 1 0.0066466774156692457 1 0.0056915118320478922 1 1 1 1 0.0061468953935298817 1 1 1 0.0029065789252131838 1 1 1 1 0.0092851685269788597 1 1 0.01004004763671074 1 1 1 1 0.0097765154432080982 1 1 1 1 1 1 1 1 1 0.00066443733562234625 1 1 -2.3857333192323082e-09 1 1 1 1 1 0.0028543102567631642 0.0058681103269710311 1 1 -4.3135504890212673e-10 1 1 0.0042846084413213151 1 1 1 1 1 1 1 1 1 1 1 1 1 1 1 1 1 1 1 1 0.0087557996289246726 1 1 1 1 1 0.0019456953211364481 1 0.010830043022372043 1 1 0.010197419550359396 1 0.0091356576329157321 1 1 1 1 0.0094707456745280957 1 1 1 1 0.0096889572547010985 1 1 1 1 1 1 1 1 0.0095385222725724375 1 1 0.0082040827097684486 1 1 1 0.0086313406114495381 0.0094001232330351934 1 1 0.0085369202373135108 1 1 1 0.0099732238980238235 1 0.0097642194891846019 1 1 1 1 1 1 1 1 1 1 1 1 1 1 0.0025458735445974129 1 1 1 0.0028721870099186614 1 1 1 1 0.0043295794241861515 1 1 1 1 1 1 1 1 1 1 1 1 0.0099697312820379996 1 1 0.010174701512403878 1 1 0.0081309205056456085 1 1 1 0.0077109539985006914 1 1 1 0.009702989321133601 0.0019225209353537949 1 1 1 1 1 1 1 1 1 1 1 1 0.0090961877644728309 1 0.0084180528255608095 1 1 0.0092157513566534788 1 1 0.0075567550146434376 1 1 1 1 1 1 1 0.0013493352040573336 0.010569166319930677 0.012605697350673484 0.0087162448311157298 1 1 0.0054165437428636831 1 1 1 1 0.0023804541596731191 1 0.009790861864855803 1 1 0.0096099120071539146 1 1 1 1 1 1 1 0.0057431924841982174 1 0.010192834533494099 1 1 1 1 1 1 1 1 0.0090235933052811024 1 1 1 1 0.0088510778222446133 1 1 0.0080817505692347743 0.0027966837227920652 1 0.0032821941927025332 1 1 1 1 0.0043511233878574702 1 1 1 0.0020292532378260036 1 1 0.0074547396478597885 1 1 0.0091919049975705408 1 0.010019176096654432 1 0.010227368620984494 1 1 0.0026508079595408754 1 0.0011086437881233334 1 1 1 1 1 1.6573155556254271e-09 1 1 1 0.0055338597018056088 1 0.010471432455023223 1 1 1 0.0068997422229931868 1 1 1 1 1 1 1 1 1 1 1 1 1 0.0094636171160919283 1 1 0.0097422640208576772 1 1 0.0095291569349829769 1 1 1 1 0.010594871620582549 1 1 1 0.0088019123203596367 1 1 1 1 1 1 0.012735470023572296 1 0.0097952531473661161 1 1 1 1 1 0.0080788324507535328 1 1 1 1 0.0099922613245563754 1 1 1 1 1 1 1 1 1 1 0.0064913378837563387 1 0.007060414016778746 1 1 1 0.0043829714573877174 1 1 0.0051101848409239332 1 1 -1.2816434788454067e-09 1 1 1 1 0.0016629934962140089 1 1 4.3152418444103446e-10 1 1 1 1.4345296305007249e-09 1 1 1 1 0.0094367480046649212 1 1 1 1 1 1 1 -1.5542505199528378e-09 1 0.0090055569106088362 1 1 0.0058490893285146912 1 1 1 1 1 1 1 0.011750475075289769 1 1 1 1 0.0096426144238730225 1 1 1 1 1 1 1 0.0050699221960636004 0.00208554806509028 1 0.010003036328419826 1 1 1 0.0031377955789761505 1 1 1 1 1 -8.905827672545108e-10 1 1 1 1 1 1 1 1 1 1 0.010209099300354843 1 1 1 1 1 1 1 0.0084600129382742823 1 1 1 1 1 1 1 0.0063575332273381035 1 1 1 1 1 1 0.001402781905654198 1 1 1 1 1 1 1 1 1 1 1 1 1 1 1 1 1 1 1 1 1 1 1 1 1 1 1 1 1 1 1 1 1 1 1 1 1 1 1 1 1 1 1 1 1 1 1 1 1 1 1 1 1 1 1 1 1 1 1 1 1 1 0.0089151132186653208 1 0.0099855005271103272 1 0.0078425327212661364 1 1 1 1 1 1 1 1 1 1 0.010220453193724666 1 0.0070366126458945629 0.01049619699786138 1 0.0081102770326368073 1 1 1 1 0.0055929112167729805 1 1 1 1 0.0087846624341227243 1 1 1 1 1 1 1 1 1 1 1 0.0097251292737575434 1 1 1 1 1 1 1 1 1 1 1 1 1 1 1 1 1 0.010908231445619896 1 1 1 1 1 1 0.013513342160871338 1 1 1 1 1 0.0067987353899155445 1 1 1 1 1 1 0.0078559690561751001 1 1 1 1 1 1 1 1 1 1 1 1 1 1 0.00099329499990766582 1 0.0091020217135910596 1 1 1 1 0.001627952861867437 1 1 1 0.0086035602226395176 1 1 1 1 0.010661011389062985 0.0045752570743416432 1 0.0063390068343198505 1 1 0.0097233882580724674 1 1 1 1 1 1 1 1 1 1 1 1 1 1 1 0.0093543104096655543 1 1 0.0023210627063525342 1 1 1 0.012427188979308388 1 1 1 1 0.0095377489735951164 1 1 1 1 1 1 1 1 0.010701477241306842 1 1 1 1 1 1 1 1 1 1 0.0099763732656917171 1 1 1 0.0093253095486526966 1 1 1 1 1 1 1 1 1 1 1 1 1 1 1 0.0072388826209778979 1 1 1 0.0063191969891870032 1 1 0.007734079567524337 1 0.0029907828634461887 1 1 0.010873768782854891 0.0097818117172505849 0.010980334049962882 1 1 1 1 6.6907040672040119e-05 1 1 1 1 1 6.2261526871665307e-09 1 1 0.0092294311405435592 1 1 1 1 1 1 1 1 1 1 1 1 0.010038641513019222 1 1 1 1 1 2.7474896038826024e-09 1 1 1 1 0.0073866003020226396 3.9992149383771824e-09 1 1 1 1 0.0085404480828533275 1 1 1 1 1 1 1 1 1 1 1 0.0068104956785989684 1 1 1 1 1 1 1 0.010163393294221884 1 1 0.0017109419400052964 1 1 0.0088443904495717918 1 1 1 0.00076501190676139981 1 0.011163650960707419 1 1 1 0.0036998600811851481 0.0082166815468641494 1 0.0088956269378039562 1 1 1 1 1 1 1 1 1 1 1 1 1 1 1 1 1 1 1 1 1 1 1 0.0067322213416541824 1 1 0.0019305426920740876 1 1 1 1 1 1 1 1 1 1 1 1 1 1 1 1 1 1 1 1 1 1 1 1 1 1 1 1 1 1 1 0.0080387326523400984 1 1 1 1 0.010704759933637219 1 1 1 1 1 1 1 0.0069963162612624013 1 1 1 1 1 0.010005717520043917 1 0.0032901056595999135 0.0099335139161401912 1 1 1 1 1 1 1 1 1 1 1 0.010127056522697632 1 1 1 0.0098420442704149659 1 1 1 1 1 1 1 1 1 1 1 1 1 1 1 1 1 1 1 1 1 1 1 1 1 1 1 1 1 1 1 1 0.010153323584466144 1 1 1 1 1 0.0099665948300093447 1 0.010400404975847426 1 1 1 1 0.0034384949447911449 1 1 1 1 1 1 1 1 1 1 1 1 1 1 1 1 1 1 0.0041662203510964696 1 1 1 1 1 1 0.0054287345806116293 0.010055289336510828 1 1 1 1 1 1 1 1 1 1 0.0072112611499241886 0.0072461119728741523 1 1 1 1 0.0071814506941165843 1 1 0.010581149279217791 1 1 1 1 1 1 1 1 1 1 0.00716950464876954 1 0.0078961342772491689 1 0.0063752522176230442 1 1 1 1 1 0.0073672780526308854 1 1 1 1 1 0.010103504764271755 1 1 1 1 1 1 1 1 1 1 1 1 1 1 1 0.0084425139193225682 1 0.0059054513909983768 1 1 1 1 1 1 1 1 1 1 1 1 1 1 1 0.0079020536347169344 1 1 1 1 1 1 1 1 1 1 1 0.0089804211044504107 1 1 1 1 1 1 1 1 1 1 1 1 1 1 1 1 1 1 1 1 1 -7.669487545047815e-10 1 1 1 1 1 1 1 1 1 1 1 1 1 1 1.2813096365166254e-09 1 1 1 1 1 1 1 1 1 1 1 1 1 1 1 1 1 1 1 1 1 1 1 1 1 1 1 1 1 1 1 1 1 1 1 1 1 1 1 1 1 0.0072408733570312328 1 1 1 1 1 1 1 1 0.010102228528291218 1 1 1 1 1 1 1 1 1 1 1 1 1 1 0.010136700504508288 1 1 0.0095174243825564241 1 1 1 1 1 1 1 1 1 0.011291627833856859 1 1 1 1 1 1 1 0.0026455059610097512 0.007262706397114003 1 1 1 1 1 1 1 1 1 1 1 1 0.0090080985011197576 1 1 1 0.009610577608840206 1 1 1 1 1 1 1 0.0074656134565762085 1 1 0.0088804801632756149 1 1 1 1 1 1 1 1 1 1 1 1 1 0.010519704443058978 1 1 1 0.0094974087512322662 1 1 1 1 1 0.0001288302746429125 1 1 0.0087723764742585423 0.010018216525614057 1 1 1 0.0030828794576268363 1 1 1 0.011133056687005484 1 1 1 0.002704579961281801 1 1 1 1 1 1 1 1 1 1 1 1 1 0.0072721645950703405 1 1 1 1 0.0036119230070670444 1 1 1 1 1 0.010859475180933918 1 1 1 1 1 1 0.010126823469775864 1 1 1 1 1 1 1 1 1 1 1 1 1 1 1 1 1 1 1 1 1 1 1 1 1 1 1 1 1 1 1 1 1 1 1 1 1 1 1 1 1 1 1 1 1 0.0084583921304363617 1 1 1 1 1 1 1 1 1 1 1 1 1 0.0098722496950213422 1 1 1 1 1 0.0094960098242575716 1 1 1 1 0.0099853574983021741 1 1 1 1 0.0099719702241055173 1 1 1 0.016275205589422949 0.0075496823483314039 1 1 0.011114891869504245 1 0.0085797643790072042 0.010449347281010471 1 1 1 0.0086099511630438157 1 1 1 1 1 1 1 0.0094446841759350669 1 1 1 1 0.010100468785242008 1 1 1 1 1 1 1 1 0.0088337622761415768 1 0.0074579272449262837 1 1 0.0072930840520911665 1 1 1 1 1 1 1 1 1 1 1 0.010030304587131554 1 0.005851872850450357 1 1 1 1 1 1 1 0.0072930962570794018 1 1 1 1 1 0.0077419940369262193 1 1 1 1 1 1 1 1 1 0.0070748534727578952 1 1 1 1 1 1 1 1 1 1 1 1 1 1 1 1 1 1 1 1 1 1 1 1 1 1 1 1 1 1 1 1 1 1 1 1 1 1 1 1 1 0.0089216325302665239 1 1 1 1 1 1 1 1 1 1 1 1 1 1 1 1 0.0091221673748842803 1 1 1 1 1 1 1 1 1 1 1 1 1 1 1 1 1 1 1 1 1 1 1 1 1 1 1 1 1 1 1 1 1 1 1 1 1 1 1 1 1 1 1 1 1 1 1 1 1 1 1 1 1 1 1 1 1 1 1 1 1 1 1 1 1 1 1 1 1 1 1 1 1 1 1 1 1 1 1 1 1 1 1 1 1 1 1 1 1 1 1 1 1 1 1 1 1 1 1 1 1 1 1 0.0034518806140652822 1 1 1 1 1 1 1 1 1 1 1 1 1 0.0076516006315118018 1 1 1 1 1 1 1 1 1 1 0.0099009772769737773 1 1 1 1 1 1 1 1 1 1 1 1 1 1 1 1 1 1 1 1 1 1 1 1 1 1 1 0.010409798618667856 1 1 1 1 1 1 1 1 0.0077953219310019986 1 1 1 1 1 1 1 1 1 1 1 1 1 1 1 0.00020390887303066343 1 1 1 1 1 1 1 1 1 1 1 1 0.0055201476853681403 1 1 1 1 1 1 1 1 1 1 1 1 1 1 1 1 1 1 1 1 1 1 1 1 1 1 0.011094774481540278 -2.6784383634625986e-09 1 1 1 1 1 1 1 0.0097370553782024447 1 1 1 1 0.0095421222790685861 1 0.006626386957739836 1 1 1 1 0.005053070952015102 1 1 0.010129901502326068 1 1 0.0057389093492443985 1 1 1 1 1 1 1 1 1 1 1 1 1 1 1 1 1 1 1 1 1 1 1 1 1 1 1 1 1 1 1 1 1 1 1 1 1 1 1 1 0.0055527013324575929 1 1 1 0.0073251523779678668 1 1 1 1 1 1 1 1 1 0.0048570782064553198 1 1 1 1 1 1 0.0075319258284874489 1 1 1 0.0094277483969462048 1 1 1 0.0096468650139504564 1 1 1 1 1 1 1 0.0075804413090297985 0.0080968196489625208 0.0071862399481106799 1 0.0094276821436238244 0.0087688780394221781 1 1 0.00961501427928276 0.0081326229044960344 1 1 1 1 1 1 1 1 1 1 1 1 1 1 1 1 1 1 1 1 1 1 1 1 1 1 0.0082164277861460876 0.0077876821767829292 1 1 1 0.0056505055071732081 0.01033534645342361 1 0.0079554497827914999 1 0.010879782995110958 1 0.0089045142324595174 0.0078566736371630426 1 1 1 1 1 0.010451083831777133 1 1 1 1 0.0097259992391829069 1 1 1 1 1 1 1 0.0092058259433099761 1 0.0099763453644906176 1 1 0.0030464923219721066 1 1 1 1 0.010054948570460916 1 1 1 1 1 1 1 1 1 1 1 1 1 1 1 1 1 0.0021922547982990287 1 1 0.0033165545821098406 1 1 2.7529554920413535e-09 1 1 1 1 0.005367330442064628 1 1 1 1 1 -2.6780196255016264e-09 1 1 1 0.0083744181260192382 1 0.0018528816182561102 1 1 1 1 1 0.0085712846007735127 0.0071837587482870818 1 0.0033873965702909126 1 1 0.012392274295641883 1 1 1 1 1 -1.9565952018296695e-09 1 1 1 1 1 1 1 1 0.010767363968655318 1 1 1 1 1 1 1 1 1 0.0094975111432132574 1 1 1 1 1 1 1 1 1 1 1 1 1 1 1 1 1 1 1 1 1 1 1 1 1 1 1 1 1 1 1 1 1 1 1 1 1 1 1 1 1 1 1 1 1 1 1 1 1 1 1 1 1 1 1 1 1 1 1 1 1 1 1 1 1 1 1 1 1 1 1 1 1 1 1 1 1 0.0048638594319441548 0.0084430224847236932 1 1 0.0073722275716382474 1 1 1 1 1 1 1 0.006410354487690402 1 1 1 1 1 1 1 1 3.3791276244157786e-10 1 1 1 1 1 1 1 1 6.1439681120489809e-10 1 1 1 1 1 1 1 1 1 1 1 1 1 1 1 1 1 1 1 1 1 1 1 1 1 1 1 0.010615929420639231 1 1 1 0.0099954784513284524 1 1 1 0.0043131032598838631 0.010000336226468939 1 1 0.0099218134077190406 0.0051740864643727812 1 1 1.3102513860127271e-10 0.0051638385340454828 1 1 1 1 1 1 1 1 1 1 1 1 1 1 1 1 1 1 1 0.0068261782939429243 1 1 1 1 0.0016466103792867684 1 1 1 1 1 1 1 1 1 1 1 1 1 0.0079972888077435283 1 1 1 1 1 1 1 1 1 1 1 0.010057592612217706 1 1 1 0.0059034375320502408 1 1 0.006375465314525406 0.0064023081735369927 1 1 1 1 1 1 1 1 0.0088088083936000237 1 1 1 1 1 0.0067279743624775335 1 1 1 1 1 1 1 1 1 1 1 1 1 1 0.0055623655913638785 1 0.0024304168252012766 0.01001223452038741 1 1 1 1 1 0.0037981831886445645 1 1 1 0.0064580988634331451 1 0.0069428927147723307 1 1 0.0067737275627242806 1 1 1 1 0.0099506767985616806 1 1 1 0.0017672322071908412 1 1 1 1 0.0077070552495492814 1 1 0.0083714453074590252 1 1 1.704840019156606e-10 1 1 1 1 1 1 1 1 1 1 1 1 1 1 1 1 1 1 1 1 1 1 1 1 1 1 1 1 1 1 1 1 1 1 1 1 1 1 1 1 1 1 1 1 1 1 1 1 1 1 1 1 1 1 1 1 1 1 1 1 1 1 1 1 1 1 1 1 1 1 1 1 1 1 1 1 1 1 1 1 1 1 1 1 1 1 1 1 1 1 1 1 1 1 1 1 1 1 1 1 1 1 1 1 1 1 1 1 1 1 1 1 1 1 1 1 1 1 1 1 1 1 1 1 1 1 1 1 1 1 1 1 1 1 1 1 1 1 1 1 1 1 1 1 1 1 1 1 1 1 1 1 1 1 1 1 1 1 1 1 0.0078447466862184515 1 1 1 1 1 1 1 1 1 2.617101433210632e-09 2.2018719078933935e-09 1 1 0.003956447607766405 1 7.621882725655782e-12 1 0.010046491753685251 1 1 1 1 1 1 1 1 1 1 1 1 1 1 1 1 1 1 1 1 1 1 1 1 1 1 1 1 1 1 1 1 1 1 1 1 1 1 1 1 1 1 1 1 1 1 1 1 1 1 1 1 1 1 1 1 1 1 1 1 1 1 1 1 1 1 1 1 1 0.0053681802598026396 1 1 1 1 1 1 1 1 1 1 1 1 1 1 1 1 1 1 1 1 1 1 1 1 1 1 1 1 1 1 1 1 1 1 1 1 1 1 1 1 1 1 1 1 0.008302280030458185 1 1 1 1 1 1 1 1 1 1 0.0076055167311035307 1 1 1 1 1 1 1 1 1 1 0.0018638363615369781 1 1 1 1 1 1 1 1 1 1 1 1 1 1 1 1 1 0.0046667519246089625 1 1 0.0068575369100716491 1 1 1 1 1 1 1 1 1 0.0071398434465406741 1 0.010402713025041706 1 0.0005244520301178647 1 1 1 1 1 1 1 1 0.009092987578964682 1 1 0.010118795282705536 1 1 1 1 1 1 1 1 1.9521735269978358e-09 1 1 1 1 1 1 1 1 1 1 1 1 1 1 1 1 1 1 1 1 1 1 1 1 1 1 1 1 1 0.010503657134030326 0.0098649683770070332 1 0.010197035626147989 1 1 1 1 0.0080384015823246786 1 1 1 1 0.01002303088024006 0.0092039498949003304 1 1 1 1 1 1 1 1 1 1 1 1 1 1 0.0019782257263227972 1 0.0099669060124030658 0.0033928114368984123 1 1 1 0.010744062707218066 1 1 1 1 1 1 1 1 1 1 1 1 1 1 1 1 1 1 1 0.0081879704060950388 1 1 1 1 1 1 1 1 1 1 1 1 1 1 1 1 1 1 1 1 0.007464199155906355 1 1 1 1 1 1 1 1 1 0.0090020678536353541 1 1 0.010226771470931264 1 1 1 1 1 1 1 0.0062749193923266854 1 1 1 1 1 1 1 1 1 1 1 1 1 1 1 1 1 1 1 1 0.010007166540683905 1 0.0088582843690853466 0.0082625925351986658 1 9.2564343343037869e-11 1 1 1 1 1 1 1 1 1 1 1 1 1 1 1 1 1 1 1 1 0.0012358611335373734 1 1.2015859123665207e-09 1 1 1 1 1 1 1 1 1 1 1 1 6.080797393392956e-10 1 1 1 1 1 1 1 1 1 1 1 0.010178049479767285 1 1 1 1 1 1 1 1 1 1 1 1 1 1 1 1 1 1 1 1 1 1 1 0.002108146561769773 1 1 1 1 1 1 1 1 1 1 1 1 1 1 1 1 1 1 1 -8.8432579618477614e-10 1 1 1 1 1 0.009968818209556073 1 1 0.010103299156217877 1 1 6.0903341935621483e-05 1 1 1 1 1 1 1 1 1 1 1 1 0.0086711690705317535 1 1 0.0096211197774098561 1 1 1 1 1 1 1 1 1 1 1 1 1 1 1 1 1 1 1 1 1 1 0.010694832661941099 1 1 1 1 0.0099120173147424114 1 0.0046586913697006863 1 1 1 1 1 1 1 1 1 1 1 1 1 0.0080642502015410272 1 0.0097738832150731508 0.0022171748012856131 1 0.0077690743219595848 1 6.6514813448770305e-10 1 1 1 1 1 1 0.0099857855603069402 1 1 1 1 1 1 1 1 1 1 1 1 1 1 0.0097291455893525093 1 1 1 0.0093657131967898287 1 1 1 1 1 1 0.0099418272149137069 1 1 0.010063335501483129 1 1 1 1 1 1 1 0.010121128500659873 1 1 1 1 1 1 1 1 1 1 1 1 1 1 1 1 1 1 1 1 1 1 0.0093512493413127687 1 0.0097146817338754372 1 1 1 1 1 1 1 0.0093975208922795483 1 1 1 1 1 1 1 1 1 0.009479025664153767 1 1 1 1 1 1 1 1 1 1 1 1 1 1 1 1 1 1 0.0074179563395815693 1 0.0093658499759129051 1 1 1 1.3938888931974702e-10 1 0.0080333321028967335 1 1 1 1 1 1 6.5182206507308216e-10 1 1 1 1 1 1 1 1 1 1 1 0.010046550803515721 1 1 0.0041367282750952618 1 1 1 1 1 0.0099936710149443955 0.011865918317352231 1 0.010094266021981834 1 1 0.0090043324083281147 0.0032697287459035416 1 0.0038649705918188549 1 1 1 1 1 1 1 1 1 1 1 1 1 1 1 1 1 1 1 1 1 1 1 1 1 1 1 0.010000173450447862 1 1 1 0.01013687395495615 1 1 1 1 1 1 1 1 1 1 1 1 1 1 1 0.0094115414587777405 1 1 1 1 1 1 0.0085784254691091792 1 1 1 1 1 1 0.0094151958542652032 1 1 1 1 1 1 1 1 1 1 0.0055075233668886621 0.0082642036074301074 1 1 1 1 1 1 1 1 1 1 1 1 1 1 1 0.0067878150975496827 1 1 1 0.010046742975281735 0.0086014425603159507 1 1 1 1 1 1 1 1 1 1 1 0.0065943188013891478 1 1 1 1 1 1 1 1 1 1 1 1 1 1 1 1 1 1 1 1 1 1 1 1 1 1 1 1 1 1 1 1 1 1 1 1 1 1 1 1 1 0.0096116956831108612 1 0.011284569067952385 1 1 1 1 1 1 1 0.0025218097693783742 1 1 1 1 1 0.0035877141270194979 1 1 1 0.0051416806027329096 1 1 1 1 1 1 1 1 1 1 1 0.0095708053117198114 0.010282792076860402 1 0.0029984490363387482 0.0084771658789961693 1 1 0.0022894142127285015 1 1 1 0.0095219820120635151 1 1 1 1 0.0031027636231040316 1 1 1 1 1 1 1 0.010852911832016029 1 1 1 1 1 1 1 1 1 1 1 1 1 1 1 0.010781917638392006 1 1 1 1 1 1 1 1 0.010136429368922397 1 1 1 0.0097407533414524804 0.0083958124841339993 0.0092298558181046451 1 1 1 0.008367303807997533 1 1 1 0.0046924579619093999 1 1 1 1 0.0072236876486158636 0.010005902240410133 1 0.0092257254862317707 1 1 1 0.0088719169773731881 1 1 1 1 1 0.0088992049845071433 1 1 1 1 0.0085892508305732227 1 1 1 1 0.0070427058240056396 1 1 1 1 1 1 1 1 1 1 1 1 1 1 1 1 0.010510008251289622 1 1 1 1 0.0097149779379459497 1 0.0098570462281968082 1 1 1 1 1 1 1 1 1 1 1 1 0.0093580045973857134 1 1 1 1 1 1 1 1 1 1 1 0.0077589797876197499 1 1 1 1 1 1 1 1 0.0038746951081940553 1 1 1 0.010839677713233754 1 0.016624731685744163 1 1 1 1 1 1 1 1 1 1 1 1 1 1 1 1 1 1 1 1 1 1 1 1 1 1 1 1 1 1 1 1 0.0092269145988888007 1 1 1 1 1 1 1 1 1 1 1 1 1 1 1 1 1 1 1 1 1 1 1 1 1 1 1 1 1 1 1 1 1 0.010063281748908373 1 0.010679860328819651 1 0.011102351982510462 1 1 1 1 1 1 1 1 1 1 1 1 1 1 0.00516364006558186 1 1 1 0.0071519290687610954 1 1 1 1 1 1 1 1 1 1 1 0.013682551804512 1 1 1 1 1 1 1 1 1 1 1 1 0.0025953392327303735 1 1 1 0.001098092735304191 1 1 1 1 1 1 1 1 1 1 1 1 1 1 1 0.0060708311195502608 1 0.0081643741563929319 1 1 1 1 1 -4.8930751117559623e-10 1 1 1 1 1 1 1 1 1 1 1 1 1 1 1 1 1 1 1 1 1 1 1 1 1 1 1 1 1 1 1 1 1 1 1 1 1 1 1 1 1 1 1 1 1 1 1 1 1 1 1 1 1 1 1 0.0066031518249698405 0.0095719981019332032 1 1 1 1 1 1 1 1 1 0.0086678074490332893 1 1 1 1 1 1 1 1 1 0.0090917228406278208 1 1 1 0.0067662507244962838 1 1 1 1 1 1 1 1 0.0062621898387998243 1 1 1 0.0083557328756424694 1 1 1 0.0033755984883840802 1 1 1 1 1 1 1 1 1 1 1 1 1 1 1 1 1 1 1 1 1 1 1 1 1 0.0082295514396953234 1 1 1 0.0063087711235557363 1 1 1 1 1 1 1 1 1 1 1 1 1 1 1 0.0013333379142885723 1 0.0060706979102108857 1 1 1 1 1 1 0.00038055386522227452 1 1 1 1 1 1 1 1.6393045358664704e-09 1 1 1 0.0036431790276127973 1 1 1 1 0.005942408924653475 1 1 0.0059397905427518612 1 1 1 1 0.0087248417231967912 1 1 1 1 1 1 0.0068040614070571763 1 1 1 1 1 1 1 1 1 1 1 1 1 1 1 1 1 1 1 1 1 1 1 1 1 1 1 0.0089042959493912215 1 1 1 0.0073371149221739696 1 1 1 1 1 1 1 1 0.010152457327157237 0.0087289625847408805 1 1 1 1 1 1 1 0.0093549152099398278 1 1 0.009425401239981061 1 1 1 0.0091540627849423309 1 1 0.012734892110545683 1 1 1 0.0059827977135884641 1 0.0099982052150068643 0.0036076938999774627 1 0.0099922984303736431 0.0066803700487166433 1 1 1 0.0099929726935984176 0.0095261755512598863 1 1 1 0.0065311292404895624 1 1 1 0.01031730025829565 1 1 1 1 1 1 1 1 1 1 1 1 1 1 1 1 1 1 1 1 0.0090401439288054219 1 1 1 1 0.0074729629015881684 1 1 1 1 1 1 1 0.01029673016034041 1 1 0.0067186216386822262 1 1 1 1 1 0.0081928585836433948 0.011130463804530784 1 1 0.0085368113501427326 0.0093209221867454131 1 1 1 1 1 1 1 1 0.00019608844118034624 0.010021308082300895 1 0.0098790077687876815 1 1 1 1 0.0086887228448984943 1 1 0.00048995169546564576 1 1 1 1 1 1 1 1 1 1 1 1 0.0036304030648513994 1 1 0.0097397681027005384 1 1 1 1 1 1 1 1 1 1 1 3.5828999489506685e-10 1 1 1 1 1 1 1 1 1 1 1 1 1 1 1 1 1 1 1 1 1 1 1 1 1 0.0052218863904348531 1 0.0055944812334325147 1 1 1 1 1 1 0.0062920795698199403 1 1 1 1 1 1 1 1 1 1 1 1 1 1 1 1 1 1 1 1 1 1 1 1 1 1 0.008398780172275265 1 1 1 0.0082660239391191478 1 1 1 1 1 1 6.0414363231425794e-05 1 1 1 0.00059964165079979398 1 1 1 1 0.0019494200700153896 1 1 1 1 1 1 1 1 1 0.001824830602888905 1 1 1 1 1 1 1 1 1 1 1 1 1 1 1 1 1 1 1 1 1 1 -5.1705176945526787e-10 1 1 1 1 -1.4172151716063119e-09 1 1 1 1 1 1 1 1 1 1 1 1 1 1 1 0.0064043223439078784 1 1 1 1 1 0.0081382984047887186 1 1 1 1 1 1 0.0082497332248137323 1 1 0.0053352665720598214 1 1 1 1 1 0.005840588738183855 1 1 1 1 1 0.010272473728457486 1 1 1 1 1 1 1 0.0098592464081936615 1 0.009858281822397846 1 1 1 1 0.0086364814636712695 1 1 1 0.0073471246413499558 1 1 0.0071867515069910931 1 1 1 0.008615700856573115 1 1 1 1 0.0065360924635872036 0.0094352285830223634 1 1 1 1 1 1 0.010182123278082565 1 1 1 0.0099711496224725443 0.001538420854931867 1 1 1 1 1 1 1 1 1 1 1 1 1 1 1 1 1 1 1 1 1 1 1 1 1 1 1 1 0.0076744251738462624 1 1 1 1 1 1 1 1 2.2482961221925724e-09 1 1 1 1 0.0021847690484541223 1 1 1 1 1 1 1 1 1 1 1 1 1 0.0037775619758429989 1 0.0050138722151068758 1 1 1 1 0.0095499085579703082 1 1 1 1 1 1 1 1 1 1 1 1 1 1 1 1 1 1 1 0.0098230628368191752 1 1 1 1 1 1 1 1 1 1 1 1 0.0079749042641669675 1 0.0047834498070765917 1 1 1 0.0039389591807020632 1 1 1 1 1 1 1 1 1 1 1 1 1 1 1 1 1 1 0.0071304136377924356 1 1 1 1 1 1 0.00076497731238265448 1 1 1 1 1 1 1 2.9210411658930902e-09 1 1 0.0030721972389004051 1 1 1 1 1 1 1 1 1 1 1 1 1 1 1 1 1 1 0.010153296976746622 1 1 1 1 0.010075223682361113 1 1 1 1 1 1 1 0.0019022107866741647 0.010003819543284352 1 1 1 0.00072727944577765172 1 1 1 1 0.019306079137265383 1 1 1 1 1 1 1 1 0.0075622522379152138 1 1 1 1 1 1 1 1 1 0.011820567015160982 1 1 1 1 0.015353955914340208 1 1 1 1 1 1 0.011016505405911861 1 1 1 1 1 1 1 1 1 0.012484828343280159 1 1 1 1 1 1 1 1 1 1 1 1 1 0.012036055170460514 1 1 1 0.010088154203879353 1 0.0097124534282485089 1 1 1 0.0081338281691930234 1 1 1 1 0.0090535897973602342 1 1 1 0.0082384387393740904 1 1 1 1 0.0091848489420138651 1 1 1 1 1 1 1 1 1 0.010567732233092219 1 1 1 1 1 1 1 1 1 1 0.0031089135146057101 1 1 1 1 0.0074405043117834399 1 1 1 1 1 1 1 1 1 1 1 1 1 1 1 1 1 1 1 1 1 1 1 -5.0400925100113625e-10 1 0.0092876277502874638 0.010527986427241677 1 1 1 1 1 1 0.010011855638067807 1 1 1 0.0073718120170363222 0.0055894127751229261 1 0.010840945877167975 0.0056314334361978746 1 0.010007018276222981 1 1 1 1 1 0.0098642114657756935 1 1 1 1 1 1 1 0.009945273408775844 1 1 0.0068381022425250751 1 1 1 1 1 0.0099321773333762575 0.003802515769447453 1 1 0.011166651203538602 0.0082867481339259346 1 1 1 1 1 1 0.010453501116903272 1 1 0.010003686238559866 1 0.00025754565808301655 1 1 1 1 1 1 0.0098530286593950522 1 0.0014418321174177809 1 1 1 1 1 1 1 1 1 1 1 1 0.00148978536450705 1 1 1 1 1 1 0.0085604510142022992 1 0.0031948796073752103 1 0.009884873758979916 1 1 1 1 1 1 1 1 1 1 1 1 1 1 1 0.0099984727751588516 1 1 1 1 0.0099984545239780453 1 1 1 0.009943390730094856 1 1 1 1 1 1 1 2.3809946236852397e-09 1 1 1 1 1 7.9508094552593889e-10 0.0061284340802829212 1 1 1 1 0.0087680882383895445 1 1 1 1 1 1 1 0.0096806828725340202 0.0091890058839713684 1 1 1 1 1 1 0.0099998767961855597 1 0.0094829940331264406 1 1 1 1 1 1 1 1 0.0093406781651611745 1 1 1 1 1 0.008343709353773883 1 1 0.0085577322036755818 1 1 0.0097754182619340865 1 9.5566295155169456e-10 1 1 1 0.016886216526788303 0.007225781158403409 1 1 1 1 1 1 0.0037177782272139401 1 0.0014760983372763756 1 1 1 0.0060721747728245869 1 1 0.006438475371470246 1 1 1 1 1 1 1 1 1 1 1 1 1 1 1 1 1 0.010576325738171912 1 1 1 -6.2750978718772998e-10 1 0.010003273776220338 1 1 1 1 1 0.0089747552590254496 0.011788038676131256 1 1 1 0.010582197937642937 1 1 1 1 1 0.0078397827180357905 1 1 1 1 1 1 1 0.0040142953833555758 1 1 1 1 1 1 1 1 1 1 0.0014331797828196838 1 9.5344352418830908e-05 1 1 1 1 1 1 1 1 2.733899065465728e-09 1 1 0.0028021053808384225 0.001721256361935937 1 0.00052670468380821428 1 1 0.0049805866502146343 1 1 1 1 0.010040256311814976 1 0.0099993238188319841 1 1 1 1 0.0077238783497690176 1 1 1 1 0.0060906935370536736 1 1 1 1 0.0087068496154559943 0.010117314815717343 1 1 1 1 1 1 1 1 1.0822077262107044e-10 1 1 1 1 1 0.00080442073004213799 1 1 1 1 1 1 1 1 1 1 1 1 1 1 0.014463818658916112 1 1 4.0222309719006866e-09 1 1 1 1 1 0.0086445967998715553 1 1 0.0068644273938870889 1 1 1 1 0.010287750111376915 1 1 0.010014650214634109 0.0082884998192226667 0.01258197266635697 1 1 1 1 0.0092791354869032183 1 0.0064340644914515632 1 1 1 0.010006235063036835 1 1 0.005481176158232591 1 1 1 1 1 1 1 1 1 1 1 1 1 1 1 1 1 1 1 1 1 1 1 1 1 0.0096899801438428811 1 1 1 1 1 1 1 1 0.0082878552126325073 1 1 1 1 1 1 1 1 1 1 1 1 1 1 1 1 1 0.007961325242764411 1 1 1 1 1 1 0.010792401101049376 0.0054300256123298654 1 0.0056959512902624646 1 1 1 0.011298283275149966 0.0087246158341925274 1 1 1 1 1 1 1 1 1 1 1 1 1 1 0.010120173458071471 1 0.011691427914568158 1 1 1 1 1 1 1 1 1 1 1 1 1 1 1 1 1 1 1 1 1 1 1 1 1 1 1 1 1 1 1 1 1 1 1 1 1 1 1 1 1 1 1 1 1 1 1 1 1 0.0096282236819246469 1 1 0.011129246080516728 1 1 1 1 1 1 1 0.013742073737598878 1 0.0067698628526335729 1 1 1 1 1 1 1 1 1 -3.657646737570408e-09 1 1 1 1 0.0087831222207824869 1 1 1 1 1 0.0080321188204456849 1 1 1 1 1 1 1 1 1 1 1 1 1 1 1 1 1 1 1 1 1 1 1 1 1 1 1 0.0099073545717642958 1 1 1 1 1 1 1 0.009820370483561016 1 1 1 1 0.0094170921467043086 1 0.0099812268294059651 1 1 1 1 0.0098530728820520157 1 1 1 0.0036384981282121202 1 1 1 1 1 1 1 1 0.0097789510684232264 1 1 1 1 1 1 1 1 1 1 1 1 1 1 1 1 1 1 1 1 1 0.0056063594369420867 1 1 1 1 1 0.0099021790762525222 1 1 1 1 0.011724534939130452 1 1 1 1 1 0.0023923015961024008 1 1 1 1 1 0.0062443742112831286 1 1 1 1 1 1 1 1 1 1 0.0063992746259941072 1 1 1 1 1 1 1 1 1 1 1 0.0036270795034767309 1 1 1 1 1 0.0099617891361743361 1 1 1 1 1 1 1 1 1 1 1 0.0083356019714731222 1 1 1 1 1 1 1 1 1 1 1 1 1 1 1 1 1 1 1 1 1 1 1 1 1 1 1 1 1 1 1 1 1 1 1 1 1 1 1 0.0099529102034925845 1 1 0.0099146993396669204 1 1 1 1 1 1 1 1 1 1 1 1 1 1 1 1 1 1 1 1 1 1 1 1 1 1 1 1 1 1 1 1 1 0.0098884657411327896 1 1 1 1 0.010170003436800634 1 1 1 1 1 0.010435157637607708 1 1 1 1 0.0044230950249787987 1 1 0.0034494476157678304 1 1 1 1 1 1 1 0.010007138260215048 0.01009145696997615 1 1 1 1 1 0.0031068518586178442 1 0.010998588950198524 1 1 0.006667683139628542 1 1 0.0082644635572093061 1 1 1 1 1 1 1 1 1 1 1 1 1 1 1 1 1 1 1 1 1 1 1 1 1 1 1 1 1 1 1 1 1 1 1 1 1 1 1 1 1 1 1 1 1 1 1 1 1 1 0.0072850724171372935 1 1 1 1 1 1 1 1 1 1 1 1 1 1 1 1 0.003302974720453225 1 0.010002318827496033 1 1 1 1 0.0045348949001272551 1 1 0.0070077760614047566 1 0.0090161377227559389 1 0.0096601664788209321 1 1 1 1 0.0097312623863316655 1 1 1 1 1 1 1 1 1 1 1 1 1 1 1 0.0061786005243494903 1 1 1 1 1 1 1 0.0060509542025358534 1 1 1 0.010230529451664999 1 1 1 1 1 1 1 1 0.0099675205102469078 1 0.0093595642786351504 1 1 1 0.0098121033563456431 1 1 1 1 1 0.010055846403827918 1 1 1 1 1 1 1 1 1 1 1 1 1 1 1 1 0.0087172377373405299 1 1 0.0066773581744127477 1 1 1 1 1 1 1 1 1 1 0.0060187421604265406 1 1 1 1 1 1 1 1 0.0095564038846933722 1 0.0007866463776274174 1 1 1 1 1 1 1 1 1 1 1 0.010159974228018667 0.0097764423850862578 1 1 1 1 1 0.017106627756171042 1 0.0097076972582460161 1 1 1 6.6619264271761125e-10 1 2.7093478849327113e-10 1 1 1 1 1 1 1 1 0.00052903845572348923 1 1 1 0.012022209306449906 1 1 1 1 1 1 1 1 1 1 1 1 1 1 1 1 1 1 1 1 1 1 1 1 1 1 1 1 1 1 1 1 1 1 1 0.0046902858752992313 1 1 1 1 1 1 1 1 1 1 1 1 1 1 1 1 1 1 1 1 1 1 1 0.010634343040554051 1 1 1 1 1 1 0.011492421720067257 1 0.011439396336082968 1 1 0.0074935833714433325 1 1 1 1 0.010364947839084822 1 6.7931599928572339e-10 1 1 1 1 1 1 1 0.0093103695289092347 1 1 1 1 1 1 1 1 1 1 1 1 1 1 1 1 1 1 1 1 1 1 1.6441770861463922e-10 1 1 0.0085210184961389546 1 1 1 1.1168122190929886e-09 1 1 1 1 1 1 1 1 1 1 1 1 1 1 1 0.0006313833246447409 1 1 1 1 1 1 1 1 0.0095037312771290017 1 1 1 1 0.0015619065059857482 1 1 1 1 1 1 1 1 0.0092898348271873987 1 1 0.0096579832692445175 5.5795541797909465e-10 1 1 1 1 1 1 1 1 1 1 1 1 0.0091155089898460745 1 1 0.0081061118823560208 1 1 0.0089906028925099482 1 1 1 0.0083642284904184364 1 1 1 1 1 1 1 1 1 1 0.0061683850586489869 1 1 1 1 1 1 1 1 1 1 1 1 1 1 0.0059493929126112552 0.012698172566872683 1 1 1 1 1 1 1 1 1 1 1 1 1 1 1 1 1 1 1 1 1 1 1 1 1 1 1 1 1 1 1 1 0.0086868476980595452 1 1 0.0071370003657902567 1 1 1 1 1 1 1 1 1 1 1 1 1 0.0085852358747701626 1 1 1 1 1 1 1 1 0.0084679697884066513 1 1 1 1 1 1 1 1 0.0094678056099233229 1 1 1 1 1 1 1 1 1 1 1 1 1 1 1 1 1 1 1 1 1 1 1 1 1 1 1 1 1 1 1 1 1 1 1 1 1 1 1 0.0067117121294795138 1 1 1 1 0.0069388292811517725 1 1 1 1 1 1 1 1 1 1 1 1 1 0.0043652482327586097 1 1 1 0.0076503321061770439 1 1 1 1 1 1 0.010401782326651867 1 1 1 1 1 0.009061058918498021 1 1 1 0.010003498838775098 1 1 1 1 1 0.010022858360738109 1 1 0.0069305840691895083 1 1 1 1 1 1 1 1 1 1 1 1 1 1 1 1 1 1 1 1 1 0.0084501526677307065 1 1 1 1 1 0.009484276193799988 1 1 1 1 1 1 1 1 1 0.0089807278327361934 1 1 1 1 1 1 1 1 1 1 1 1 1 1 1 1 1 1 1 1 1 1 1 1 1 1 0.010284427074445355 1 1 1 1 1 0.007187570170292118 1 1 1 1 1 1 0.0073365465191538234 1 1 1 1 1 1 0.0075615532589992929 1 1 0.006806924598545705 1 1 1 1 1 1 1 0.011450716017250459 0.009590924363529818 1 0.0098074964062272313 1 0.0059760383161020364 1 1 1 0.0088825875086246536 0.0076627812127091147 1 0.012032506383888185 0.010284584502276633 1 1 1 1 1 1 1 1 1 1 1 1 1 1 1 1 1 1 1 1 1 1 1 1 1 1 1 1 1 1 1 0.0094442257855114342 1 1 1 1 0.0082349838505842432 1 1 0.0070073445064523301 1 0.0071199375306020066 1 1 1 0.010910912797899566 1 1 0.0071131291971617827 1 1 0.011751820934750631 0.0053501435379741114 1 1 1 1 1 1 1 1 1 1 1 1 1 1 0.0047362447999744345 1 0.010079240327445407 1 1 1 1 0.0091445196460838273 1 1 1 0.010011419800702696 1 1 1 0.0086258538993996756 0.0085698156618193508 1 1 1 1 1 1 1 1 1 1 1 1 1 0.0092772259785904431 1 1 1 1 1 1 0.0079270420849804485 0.00095373341174001536 1 1 1 2.1376153729046887e-09 1 1 0.0098563407156074222 1 1 1 1 0.0087751480752983908 1 1 0.0018481603909376761 1 1 0.0074155183582981414 1 1 0.0085926991802761331 0.0039287623828027154 1 0.011178962690548664 1 0.0022534871573550407 1 0.0095061256023175229 1 0.010002740430563222 1 1 1 0.010681590649415094 1 0.010444147802239406 1 0.0087313588749248026 1 1 0.009507619250413081 1 1 1 1 0.010144476134945983 1 1 1 1 1 1 1 1 1 1 1 1 1 1 0.0019627762745350157 1 1 1 1 1 0.0011127209806292976 1 1 1 1 1 1 0.010133032170470027 1 1 0.0060608566044735787 1 1 1 0.010749345829209547 1 1 0.012256918035809966 1 0.012151147298863643 1 1 1 1 1 1 1 1 1 1 1 1 1 1 1 1 1 0.010128160914268033 1 1 0.01039891870107941 1 1 1 1 0.010349013586001501 0.0092405286417092183 1 1 1 1 1 1 1 1 1 1 1 1 1 1 1 0.0040293150783890161 1 1 1 1 1 1 1 1 1 0.010114452037381681 1 1 1 1 1 0.0070904857972372455 1 1 1 1 1 1 1 1 1 1 0.0077592610232168832 0.0090391042541812516 1 1 1 1 1 1 1 1 1 0.0093670101074364819 1 1 1 1 1 1 1 1 1 1 1 1 1 1 0.0064469826731560383 1 1 1 1.9742147153167799e-10 0.010991356622362645 1 1 0.0031788621473315282 1 1 1 0.00069072919201080239 1 1 1 0.010018055014420747 1 1 1 1 1 0.011594378818795065 1 1 1 1 1 1 0.010043855442063831 1 1 1 1 0.0035313164115931515 1 1 1 1 1 1 1 1 1 0.0049137630075260057 1 1 1 1 1 0.0062940714196228209 1 1 0.0084862074080661321 1 1 1 1 1 1 1 1 1 1 1 1 1 1 1 1 1 1 1 1 0.0069623017327742551 1 1 1 1 1 1 0.002494377757963193 1 1 1 1 1 1 1 1 1 1 1 1 1 1 1 1 1 1 1 0.0088745894551649496 1 1 1 0.010005606797750534 1 0.0010961903833470879 1 1 1 1 1 1 0.010171738946496126 1 -7.686025349160075e-10 1 1 1 1 0.010025800427643087 1 1 1 1 1 1 1 1 1 0.011965199116161986 1 1 1 1 1 1 1 1 1 1 1 0.012277851226153888 1 0.00065169762650845505 0.010063831576120095 1 1 0.00085785050443013802 1 0.016908792553623327 1 1 1 0.0096350833889686082 1 1 1 1 1 1 1 -3.8961007906230041e-09 1 1 1 0.0091088773356368703 1 1 1 1 1 1 1 1 1 1 1 1 1 1 1 1 1 1 1 0.0099469935219002985 1 1 0.009398210350417208 1 1 0.0084039791251350748 1 1 1 1 0.0080154198204156965 1 1 1 0.0060228963186462862 0.0076910986965783544 1 1 1 0.0083860073278927624 1 1 1 1 0.0080677511826542318 1 0.0097067332857248261 0.0063072968707852048 1 1 0.0080345336243175976 1 1 1 1 0.0080382959754862447 1 0.0092905816060805443 1 1 1 1 1 1 0.0083361806254266015 1 1 0.0090639500332847702 1 1 1 1 1 1 0.0091698129843601432 1 1 1 0.0077957203165033313 1 1 1 0.0061853203952259303 1 1 1 1 1 1 1 1 1 1 1 1 1 1 0.005934793186042178 1 1 1 1 0.0082997754788803994 1 1 1 0.0020850900536657051 1 1 1 0.0012071815973242524 1 1 1 1 1 1 1 0.0086917919589965514 1 1 0.0008333468494019329 1 1 1 1 0.0095196297374969922 1 1 1 0.010228276919701944 1 1 1 1 1 1 1 1 1 1 1 1 1 1 1 1 1 1 1 1 1 1 1 1 1 1 1 1 1 1 1 1 1 1 1 1 1 1 1 1 1 0.0059490042410968984 1 1 1 1 1 1 2.4473162693432193e-09 1 0.0063995307727920739 1 1 0.00089751688902969633 1 1 1 1 1 1 1 1 1 1 1 1 -3.650501522595162e-09 -8.5384875038452268e-10 1 1 0.0092799176975812709 1 1 1 0.010347034199070914 1 1 1 1 0.0099192399243672146 1 1 1 1 0.0049140399353317888 1 -1.5470504781747718e-09 1 1 1 1 1 1 1.1672597385187222e-09 0.0069277757589803991 1 0.0046747190772337115 0.01010029710064082 1 1 1 0.0089718016016791559 0.005841151895555635 1 0.0061410052290320327 0.0097166401962611969 1 1 1 0.0011831558007546553 1 1 1 1 1 0.0009941764465700761 0.0070770450528604197 -1.2718588578153334e-09 1 1 1 1 0.0071853488322092575 1 1 1 0.016828163518461045 1 1 1 0.0098142018518115465 1 1 0.0069096723941826817 1 1 1 0.0023193562681528297 1 1 0.009932406305973621 1 0.0012498137135151066 0.011096556785022929 1 0.00039212193752202751 1 1 1 5.7147399243340224e-09 0.0093332048994950127 1 1 1 1 0.010093459530436045 1 0.0051383639444439692 0.0030229473417983065 1 2.7765040613858538e-09 1 1 1 1 1 1 1 1 0.0057313533986177289 1 1 1 1 1 1 1 1 1 1 1 0.008347199635622889 1 1 1 1.1838188970769714e-09 2.3989650248940064e-09 1 0.00087689176695434669 1 0.0048338848047236775 1 1 -5.9052328096886875e-09 0.0083063456050112786 1 6.3647913033787473e-09 0.0031784246894175482 1 1 0.0047276024012166892 1 1 1 1 0.0080490964802249002 0.018634413161644152 1 1 -3.7374502874065046e-09 1 1 7.3307866877564409e-09 1 1 -2.2534559149245403e-09 1 -6.9386333692578184e-09 1 1.1818891236786006e-09 1 6.3323062210463021e-09 1 1 0.0099488688394735042 1 1 1 0.001789847995224603 1 0.017317433041941659 0.017086342545555876 1 1 0.019127436427962712 1 1 1 1 1 1 1 0.0034908962306820571 1 1 1 1 1 1 0.0098553942119934609 1 1 1 0.0075248550287992273 1 1 1 1 1 0.016506639333360433 1 1 1 0.010017326919485918 1 1 1 0.0069205733633266597 0.009885938775523663 1 1 1 0.012942251710516028 1 1 1 1 0.0090912752807518829 1 1 1 1 1 1 0.0090251373299626431 1 1 1 1 1 0.0082582694151866129 1 1 1 1 1 1 1 1 1 1 0.011362595022037611 1 1 1 1 1 1 1 1 1 1 1 1 1 1 0.0073381169468199094 1 1 1 1 1 0.0089261912191429121 1 1 1 1 1 1 1 1 1 1 1 1 1 1 1 1 1 1 1 1 1 1 1 1 1 1 1 1 1 1 1 1 1 1 1 1 1 1 1 1 1 1 1 1 1 1 1 1 1 1 0.00064991666177058663 1 1 1 0.010002898326381449 1 1 1 1 0.0066095564576791055 1 1 1 0.0036862196270611471 1 1 1 1 1 1 1 1 1 1 1 1 1 1 -3.3145385464061761e-09 1 1 1 -2.0088512017041316e-09 0.0072569379242146889 1 1 1 0.010420292196235669 1 1 0.0088632250616711532 1 1 0.0042710185450492259 1 1 1 0.0048091126974244298 1 1 1 1 1 1 1 0.0013400090628241331 0.0099699156128037879 1 1 1 0.0049133907734601242 1 1 1 1 1 0.0065795682245119759 1 1 1 1 0.0080908064100800071 1 1 1 1 1 0.0091722898727465401 1 1 1 1 0.0091594827697464992 1 1 1 1 1 1 0.0061651584872340296 1 1 9.2759930720623385e-05 1 1 1 1 1 1 1 1 0.0087164285262975958 1 1 1 1 1 1 1 1 1 1 1 1 1 1 1 1 0.0099789437738830901 1 1 0.0067773820186507287 1 1 1 0.010001785229489114 1 1 1 1 0.010150315622653807 1 1 1 0.0074766032624121303 1 1 1 1 1 0.0095683247456274743 0.01019625513581544 1 1 1 1 1 1 1 1 1 1 1 1 1 1 1 1 1 1 1 1 1 0.0099363553328150715 1 1 1 1 1 0.0097102210869435199 0.0097951280340315208 1 1 1 1 0.0098497712950471172 1 1 1 0.0086516048860469322 1 0.0029673356036024438 1 1 0.0090723773945006712 1 1 1 1 0.0099477712759094613 1 1 1 0.0093097035522762515 0.010425332337190582 1 0.0057906833997537644 0.0084187931999654339 1 1 0.010121645239362062 1 1 1 0.0034858147796398946 1 1 1 0.0086295794013847241 1 0.0091591255765250679 1 0.010337186268772842 1 1 1 0.0096312723876782781 1 0.0091373544824748729 0.0085007883729896691 1 1 1 1 1 1 1 1 1 1 1 1 1 1 1 1 0.0087220945339180466 1 0.009977595505624241 1 0.0029033315348698518 1 0.0087633077475867353 0.0043028182895502518 1 1 1 0.0099762882921544428 1 1 1 1 0.0044245993029783104 1 1 1 1 0.0034178754571224691 1 1 1 1 1 1 1 1 0.0084132946236667745 0.010746145276595339 1 1 0.010034754459799537 0.010370614715069251 1 1 1 1 1 1 1 1 1 1 1 1 1 1 1 0.0061859891943362444 1 1 1 1 0.0099893923001279673 1 1 1 1 1 1 1 1 1 1 1 1 1 1 0.0075829003991897924 1 0.008877376369332033 1 1 1 1 0.0088466475879131635 1 1 1 1 1 1 0.0085961953705789816 1 1 0.0062498182046041668 1 1 1 1 1 1 1 1 1 1 1 1 1 1 1 1 1 1 1 1 1 1 1 1 1 1 0.0067466103022978344 1 1 1 1 1 1 1 1 1 1 1 1 0.0099191418935920556 1 1 1 1 1 0.0069311299891503071 1 1 1 0.0017119878618767279 1 1 1 1 1 0.0070869205989256903 0.013262768653286688 1 1 0.009984541631171788 1 1 1 1 1 1 1 1 1 1 1 0.0094846449207042112 1 1 0.0016472702837060072 1 1 1 1 1 1 1 1 1 1 1 1 1 1 1 1 1 0.0027847626708758302 1 1 1 1 1 1 1 1 1 1 1 1 1 1 1 1 0.011013254284628522 1 1 1 1 0.0098731688581072362 1 1 1 1 0.0024285147046595075 1 1 1 0.011177934797227441 1 0.0029638682886049331 1 1 1 1 0.0095903270927202924 1 1 1 1 1 1 1 1 1 1 1 0.0069808699037746877 1 1 1 1 1 1 0.0089210546109853399 1 1 1 1 1 1 1 1 1 1 1 1 1 1 1 1 1 1 0.0041386088260222248 1 1 1 1 1 1 1 0.0075664780381232699 1 1 1 1 1 1 1 1 1 1 1 1 1 1 1 1 1 1 1 1 1 1 1 1 1 1 1 1 1 1 1 1 1 1 1 1 0.0098636611685671716 1 1 1 1 1 0.0099358476434021608 1 1 1 1 1 1 1 1 1 1 1 1 1 0.010671991425730415 1 1 1 1 0.010297438345604907 1 1 1 0.010072186474834996 1 1 1 1 1 1 1 1 1 1 1 1 1 1 1 1 1 1 1 1 1 1 1 1 1 1 1 1 0.0085314383040367842 1 1 0.0090466974445818291 1 1 0.0065666354609619365 1 1 1 1 0.009566772521651664 1 1 1 1 1 1 1 1 1 1 1 1 1 
</DataArray>
</CellData>
</Piece>
</UnstructuredGrid>
</VTKFile>
