<?xml version="1.0"?>
<VTKFile type="UnstructuredGrid" version="0.1" byte_order="LittleEndian">
<UnstructuredGrid>
<Piece NumberOfPoints="31898" NumberOfCells="11152">
<Points>
<DataArray type="Float64" NumberOfComponents="3" format="ascii">
-0.5 -0.5 0 -0.47620991077874902 -0.44978878706170539 0 -0.49999999999999473 -0.42132396840504388 0 -0.5 -0.5 0 -0.47160970827802529 -0.4793630013852106 0 -0.47620991077874902 -0.44978878706170539 0 -0.5 -0.5 0 -0.47160970827802529 -0.4793630013852106 0 -0.44860394795025399 -0.5 0 -0.47160970827802529 -0.4793630013852106 0 -0.44860394795025399 -0.5 0 -0.4490820238307246 -0.45820516232899983 0 -0.44860394795025399 -0.5 0 -0.4490820238307246 -0.45820516232899983 0 -0.42881687682924802 -0.47781464288736519 0 -0.4490820238307246 -0.45820516232899983 0 -0.45555437223955858 -0.42914059360647611 0 -0.4490820238307246 -0.45820516232899983 0 -0.45555437223955858 -0.42914059360647611 0 -0.43867285131603428 -0.4271457417558665 0 -0.4490820238307246 -0.45820516232899983 0 -0.43867285131603428 -0.4271457417558665 0 -0.4263356171060747 -0.44269880333887462 0 -0.47160970827802529 -0.4793630013852106 0 -0.4490820238307246 -0.45820516232899983 0 -0.47620991077874902 -0.44978878706170539 0 -0.4490820238307246 -0.45820516232899983 0 -0.47620991077874902 -0.44978878706170539 0 -0.45555437223955858 -0.42914059360647611 0 -0.47620991077874902 -0.44978878706170539 0 -0.48101336032419229 -0.41069999664450008 0 -0.45555437223955858 -0.42914059360647611 0 -0.47620991077874902 -0.44978878706170539 0 -0.49999999999999473 -0.42132396840504388 0 -0.48101336032419229 -0.41069999664450008 0 -0.49999999999999473 -0.42132396840504388 0 -0.48101336032419229 -0.41069999664450008 0 -0.5 -0.393886241813306 0 -0.49999999999999473 -0.42132396840504388 0 -0.48101336032419229 -0.41069999664450008 0 -0.5 -0.393886241813306 0 -0.47854472220918332 -0.38978458738689759 0 -0.48422759779560409 -0.37130120630367158 0 -0.5 -0.393886241813306 0 -0.5 -0.36644851522156802 0 -0.48422759779560409 -0.37130120630367158 0 -0.48101336032419229 -0.41069999664450008 0 -0.5 -0.393886241813306 0 -0.47854472220918332 -0.38978458738689759 0 -0.48101336032419229 -0.41069999664450008 0 -0.47854472220918332 -0.38978458738689759 0 -0.46202672064839212 -0.40007602488395211 0 -0.48101336032419229 -0.41069999664450008 0 -0.46202672064839212 -0.40007602488395211 0 -0.47854472220918332 -0.38978458738689759 0 -0.46725442735267431 -0.37660061361585562 0 -0.46202672064839212 -0.40007602488395211 0 -0.47854472220918332 -0.38978458738689759 0 -0.46725442735267431 -0.37660061361585562 0 -0.48422759779560409 -0.37130120630367158 0 -0.46725442735267431 -0.37660061361585562 0 -0.46202672064839212 -0.40007602488395211 0 -0.46725442735267431 -0.37660061361585562 0 -0.45645674801697989 -0.38644133236760531 0 -0.46202672064839212 -0.40007602488395211 0 -0.46725442735267431 -0.37660061361585562 0 -0.45645674801697989 -0.38644133236760531 0 -0.4540003998136638 -0.37455519391687309 0 -0.45645674801697989 -0.38644133236760531 0 -0.46202672064839212 -0.40007602488395211 0 -0.44257020456291563 -0.38918913383950271 0 -0.46202672064839212 -0.40007602488395211 0 -0.44257020456291563 -0.38918913383950271 0 -0.44727608925983742 -0.41095911152778891 0 -0.46202672064839212 -0.40007602488395211 0 -0.44257020456291563 -0.38918913383950271 0 -0.44257020456291563 -0.38918913383950271 0 -0.44727608925983742 -0.41095911152778891 0 -0.43479358559901082 -0.4041454901736512 0 -0.44257020456291563 -0.38918913383950271 0 -0.4540003998136638 -0.37455519391687309 0 -0.44172858264042247 -0.37082207246888088 0 -0.45645674801697989 -0.38644133236760531 0 -0.44257020456291563 -0.38918913383950271 0 -0.4540003998136638 -0.37455519391687309 0 -0.46202672064839212 -0.40007602488395211 0 -0.45555437223955858 -0.42914059360647611 0 -0.44727608925983742 -0.41095911152778891 0 -0.46202672064839212 -0.40007602488395211 0 -0.45555437223955858 -0.42914059360647611 0 -0.48101336032419229 -0.41069999664450008 0 -0.46202672064839212 -0.40007602488395211 0 -0.45555437223955858 -0.42914059360647611 0 -0.44727608925983742 -0.41095911152778891 0 -0.43867285131603428 -0.4271457417558665 0 -0.43676601469929588 -0.41441201227470881 0 -0.44727608925983742 -0.41095911152778891 0 -0.43676601469929588 -0.41441201227470881 0 -0.43479358559901082 -0.4041454901736512 0 -0.45555437223955858 -0.42914059360647611 0 -0.44727608925983742 -0.41095911152778891 0 -0.43867285131603428 -0.4271457417558665 0 -0.43867285131603428 -0.4271457417558665 0 -0.42681803064840879 -0.42717069814352421 0 -0.4263356171060747 -0.44269880333887462 0 -0.42681803064840879 -0.42717069814352421 0 -0.41531815884496182 -0.42985383783075998 0 -0.4263356171060747 -0.44269880333887462 0 -0.42681803064840879 -0.42717069814352421 0 -0.42624289495594048 -0.42089725947505818 0 -0.42083332353326591 -0.42146747131641099 0 -0.42681803064840879 -0.42717069814352421 0 -0.43096994786351572 -0.41951492446283251 0 -0.42624289495594048 -0.42089725947505818 0 -0.43867285131603428 -0.4271457417558665 0 -0.42681803064840879 -0.42717069814352421 0 -0.43096994786351572 -0.41951492446283251 0 -0.43867285131603428 -0.4271457417558665 0 -0.43676601469929588 -0.41441201227470881 0 -0.43096994786351572 -0.41951492446283251 0 -0.43676601469929588 -0.41441201227470881 0 -0.43096994786351572 -0.41951492446283251 0 -0.42907264086257813 -0.41311715872526122 0 -0.43676601469929588 -0.41441201227470881 0 -0.42907264086257813 -0.41311715872526122 0 -0.43479358559901082 -0.4041454901736512 0 -0.42907264086257813 -0.41311715872526122 0 -0.43479358559901082 -0.4041454901736512 0 -0.42460885511582858 -0.40417321677700252 0 -0.42907264086257813 -0.41311715872526122 0 -0.41997834854398469 -0.41180534796019508 0 -0.42907264086257813 -0.41311715872526122 0 -0.42635027777857132 -0.41543594397746519 0 -0.41997834854398469 -0.41180534796019508 0 -0.42907264086257813 -0.41311715872526122 0 -0.41997834854398469 -0.41180534796019508 0 -0.42460885511582858 -0.40417321677700252 0 -0.42635027777857132 -0.41543594397746519 0 -0.41997834854398469 -0.41180534796019508 0 -0.42635027777857132 -0.41543594397746519 0 -0.42083332353326591 -0.42146747131641099 0 -0.41997834854398469 -0.41180534796019508 0 -0.43096994786351572 -0.41951492446283251 0 -0.42624289495594048 -0.42089725947505818 0 -0.42635027777857132 -0.41543594397746519 0 -0.43096994786351572 -0.41951492446283251 0 -0.42907264086257813 -0.41311715872526122 0 -0.42635027777857132 -0.41543594397746519 0 -0.42624289495594048 -0.42089725947505818 0 -0.42635027777857132 -0.41543594397746519 0 -0.42083332353326591 -0.42146747131641099 0 -0.42083332353326591 -0.42146747131641099 0 -0.41997834854398469 -0.41180534796019508 0 -0.40992282953163789 -0.42011435591993562 0 -0.41997834854398469 -0.41180534796019508 0 -0.39756877647335259 -0.40857286797681719 0 -0.41997834854398469 -0.41180534796019508 0 -0.40992282953163789 -0.42011435591993562 0 -0.39756877647335259 -0.40857286797681719 0 -0.40992282953163789 -0.42011435591993562 0 -0.41531815884496182 -0.42985383783075998 0 -0.39591554026262499 -0.42887225451549271 0 -0.41531815884496182 -0.42985383783075998 0 -0.39591554026262499 -0.42887225451549271 0 -0.41160927495564159 -0.44339431233754628 0 -0.42083332353326591 -0.42146747131641099 0 -0.40992282953163789 -0.42011435591993562 0 -0.41531815884496182 -0.42985383783075998 0 -0.42681803064840879 -0.42717069814352421 0 -0.42083332353326591 -0.42146747131641099 0 -0.41531815884496182 -0.42985383783075998 0 -0.44257020456291563 -0.38918913383950271 0 -0.42311368847744002 -0.37830224279505142 0 -0.42594061475171041 -0.39368797999533162 0 -0.44257020456291563 -0.38918913383950271 0 -0.42311368847744002 -0.37830224279505142 0 -0.44172858264042247 -0.37082207246888088 0 -0.44257020456291563 -0.38918913383950271 0 -0.42311368847744002 -0.37830224279505142 0 -0.42311368847744002 -0.37830224279505142 0 -0.42594061475171041 -0.39368797999533162 0 -0.416587075656149 -0.38785930376960043 0 -0.44257020456291563 -0.38918913383950271 0 -0.42594061475171041 -0.39368797999533162 0 -0.43479358559901082 -0.4041454901736512 0 -0.42594061475171041 -0.39368797999533162 0 -0.43479358559901082 -0.4041454901736512 0 -0.42460885511582858 -0.40417321677700252 0 -0.41997834854398469 -0.41180534796019508 0 -0.41325908582185972 -0.39811010703057192 0 -0.39770572831670092 -0.39911486077581648 0 -0.41997834854398469 -0.41180534796019508 0 -0.39770572831670092 -0.39911486077581648 0 -0.42594061475171041 -0.39368797999533162 0 -0.42460885511582858 -0.40417321677700252 0 -0.41325908582185972 -0.39811010703057192 0 -0.41997834854398469 -0.41180534796019508 0 -0.42460885511582858 -0.40417321677700252 0 -0.41325908582185972 -0.39811010703057192 0 -0.42594061475171041 -0.39368797999533162 0 -0.41325908582185972 -0.39811010703057192 0 -0.416587075656149 -0.38785930376960043 0 -0.41325908582185972 -0.39811010703057192 0 -0.416587075656149 -0.38785930376960043 0 -0.40403491357358612 -0.38133688525744702 0 -0.42311368847744002 -0.37830224279505142 0 -0.40403491357358612 -0.38133688525744702 0 -0.40365717239196519 -0.36741535175059892 0 -0.42311368847744002 -0.37830224279505142 0 -0.416587075656149 -0.38785930376960043 0 -0.40403491357358612 -0.38133688525744702 0 -0.40403491357358612 -0.38133688525744702 0 -0.39190790742475001 -0.38540387676521748 0 -0.39770572831670092 -0.39911486077581648 0 -0.40403491357358612 -0.38133688525744702 0 -0.39190790742475001 -0.38540387676521748 0 -0.3904578797192948 -0.37473938743617019 0 -0.41325908582185972 -0.39811010703057192 0 -0.40403491357358612 -0.38133688525744702 0 -0.39770572831670092 -0.39911486077581648 0 -0.39770572831670092 -0.39911486077581648 0 -0.37543310808941849 -0.38642437359143528 0 -0.39770572831670092 -0.39911486077581648 0 -0.37515920440272033 -0.40534038799344108 0 -0.37543310808941849 -0.38642437359143528 0 -0.39770572831670092 -0.39911486077581648 0 -0.37515920440272033 -0.40534038799344108 0 -0.39756877647335259 -0.40857286797681719 0 -0.37515920440272033 -0.40534038799344108 0 -0.37543310808941849 -0.38642437359143528 0 -0.37543310808941849 -0.38642437359143528 0 -0.3904578797192948 -0.37473938743617019 0 -0.37568304780698558 -0.36916333065311507 0 -0.39190790742475001 -0.38540387676521748 0 -0.37543310808941849 -0.38642437359143528 0 -0.3904578797192948 -0.37473938743617019 0 -0.37543310808941849 -0.38642437359143528 0 -0.37568304780698558 -0.36916333065311507 0 -0.39190790742475001 -0.38540387676521748 0 -0.39770572831670092 -0.39911486077581648 0 -0.37543310808941849 -0.38642437359143528 0 -0.41997834854398469 -0.41180534796019508 0 -0.39770572831670092 -0.39911486077581648 0 -0.39756877647335259 -0.40857286797681719 0 -0.40992282953163789 -0.42011435591993562 0 -0.39591554026262499 -0.42887225451549271 0 -0.39756877647335259 -0.40857286797681719 0 -0.37515920440272033 -0.40534038799344108 0 -0.39591554026262499 -0.42887225451549271 0 -0.39756877647335259 -0.40857286797681719 0 -0.37515920440272033 -0.40534038799344108 0 -0.39756877647335259 -0.40857286797681719 0 -0.37515920440272033 -0.40534038799344108 0 -0.39591554026262499 -0.42887225451549271 0 -0.37472313619600889 -0.43545561783144832 0 -0.39591554026262499 -0.42887225451549271 0 -0.39301703415267508 -0.44654444244683272 0 -0.37472313619600889 -0.43545561783144832 0 -0.39301703415267508 -0.44654444244683272 0 -0.37428706798929601 -0.46557084766945539 0 -0.37472313619600889 -0.43545561783144832 0 -0.39591554026262499 -0.42887225451549271 0 -0.39301703415267508 -0.44654444244683272 0 -0.41160927495564159 -0.44339431233754628 0 -0.39301703415267508 -0.44654444244683272 0 -0.40396056051613372 -0.45751466911048011 0 -0.41160927495564159 -0.44339431233754628 0 -0.40396056051613372 -0.45751466911048011 0 -0.39245383412573559 -0.47875733455523922 0 -0.41207507163844148 -0.46917161410542801 0 -0.40396056051613372 -0.45751466911048011 0 -0.38912381425271458 -0.46154275838996711 0 -0.39245383412573559 -0.47875733455523922 0 -0.40396056051613372 -0.45751466911048011 0 -0.39245383412573559 -0.47875733455523922 0 -0.40396056051613372 -0.45751466911048011 0 -0.40649676728151513 -0.45682610390212369 0 -0.40396056051613372 -0.45751466911048011 0 -0.38912381425271458 -0.46154275838996711 0 -0.39301703415267508 -0.44654444244683272 0 -0.40396056051613372 -0.45751466911048011 0 -0.38912381425271458 -0.46154275838996711 0 -0.39301703415267508 -0.44654444244683272 0 -0.38912381425271458 -0.46154275838996711 0 -0.37428706798929601 -0.46557084766945539 0 -0.38912381425271458 -0.46154275838996711 0 -0.37428706798929601 -0.46557084766945539 0 -0.38912381425271458 -0.46154275838996711 0 -0.38378714202547332 -0.47159002408209011 0 -0.37428706798929601 -0.46557084766945539 0 -0.38378714202547332 -0.47159002408209011 0 -0.39245383412573559 -0.47875733455523922 0 -0.37411677223754131 -0.47733161267270968 0 -0.39245383412573559 -0.47875733455523922 0 -0.37240076261097882 -0.48974555046165519 0 -0.37411677223754131 -0.47733161267270968 0 -0.38378714202547332 -0.47159002408209011 0 -0.37411677223754131 -0.47733161267270968 0 -0.37428706798929601 -0.46557084766945539 0 -0.38912381425271458 -0.46154275838996711 0 -0.38378714202547332 -0.47159002408209011 0 -0.39245383412573559 -0.47875733455523922 0 -0.38094710773533791 -0.49999999999999839 0 -0.39245383412573559 -0.47875733455523922 0 -0.38094710773533791 -0.49999999999999839 0 -0.39245383412573559 -0.47875733455523922 0 -0.37240076261097882 -0.48974555046165519 0 -0.38094710773533791 -0.49999999999999839 0 -0.39245383412573559 -0.47875733455523922 0 -0.40997732063196057 -0.5 0 -0.39245383412573559 -0.47875733455523922 0 -0.41207507163844148 -0.46917161410542801 0 -0.40997732063196057 -0.5 0 -0.41207507163844148 -0.46917161410542801 0 -0.40997732063196057 -0.5 0 -0.42881687682924802 -0.47781464288736519 0 -0.44860394795025399 -0.5 0 -0.40997732063196057 -0.5 0 -0.42881687682924802 -0.47781464288736519 0 -0.41207507163844148 -0.46917161410542801 0 -0.42881687682924802 -0.47781464288736519 0 -0.42627766738448791 -0.46032764904509182 0 -0.4490820238307246 -0.45820516232899983 0 -0.42881687682924802 -0.47781464288736519 0 -0.42627766738448791 -0.46032764904509182 0 -0.4490820238307246 -0.45820516232899983 0 -0.42627766738448791 -0.46032764904509182 0 -0.4263356171060747 -0.44269880333887462 0 -0.42627766738448791 -0.46032764904509182 0 -0.4263356171060747 -0.44269880333887462 0 -0.41655419253802572 -0.45404861160063659 0 -0.4263356171060747 -0.44269880333887462 0 -0.41160927495564159 -0.44339431233754628 0 -0.41655419253802572 -0.45404861160063659 0 -0.41531815884496182 -0.42985383783075998 0 -0.4263356171060747 -0.44269880333887462 0 -0.41160927495564159 -0.44339431233754628 0 -0.40396056051613372 -0.45751466911048011 0 -0.41160927495564159 -0.44339431233754628 0 -0.40649676728151513 -0.45682610390212369 0 -0.41160927495564159 -0.44339431233754628 0 -0.40649676728151513 -0.45682610390212369 0 -0.41655419253802572 -0.45404861160063659 0 -0.40396056051613372 -0.45751466911048011 0 -0.41160927495564159 -0.44339431233754628 0 -0.41207507163844148 -0.46917161410542801 0 -0.40649676728151513 -0.45682610390212369 0 -0.41655419253802572 -0.45404861160063659 0 -0.40396056051613372 -0.45751466911048011 0 -0.41207507163844148 -0.46917161410542801 0 -0.40649676728151513 -0.45682610390212369 0 -0.41207507163844148 -0.46917161410542801 0 -0.42627766738448791 -0.46032764904509182 0 -0.41655419253802572 -0.45404861160063659 0 -0.45662330498375908 -0.25656877445722759 0 -0.43445882011373449 -0.25478651907497341 0 -0.45662330498375908 -0.25656877445722759 0 -0.43445882011373449 -0.25478651907497341 0 -0.45034617445999431 -0.24335722649563979 0 -0.44999384684511368 -0.2755750489792308 0 -0.45662330498375908 -0.25656877445722759 0 -0.43445882011373449 -0.25478651907497341 0 -0.44999384684511368 -0.2755750489792308 0 -0.43077531442077321 -0.27459050524281542 0 -0.43445882011373449 -0.25478651907497341 0 -0.44999384684511368 -0.2755750489792308 0 -0.441361257405879 -0.29303276451920029 0 -0.43077531442077321 -0.27459050524281542 0 -0.44999384684511368 -0.2755750489792308 0 -0.4670541169931961 -0.26846056693166809 0 -0.46910519348062618 -0.28320526693770848 0 -0.44999384684511368 -0.2755750489792308 0 -0.4670541169931961 -0.26846056693166809 0 -0.45662330498375908 -0.25656877445722759 0 -0.45662330498375908 -0.25656877445722759 0 -0.47878778985378329 -0.25835102983948688 0 -0.4670541169931961 -0.26846056693166809 0 -0.45662330498375908 -0.25656877445722759 0 -0.47878778985378329 -0.25835102983948688 0 -0.45662330498375908 -0.25656877445722759 0 -0.47878778985378329 -0.25835102983948688 0 -0.47142395938804471 -0.23802335247430181 0 -0.47878778985378329 -0.25835102983948688 0 -0.5 -0.25669760885461612 0 -0.48361763707807442 -0.27426406281091331 0 -0.47878778985378329 -0.25835102983948688 0 -0.5 -0.25669760885461612 0 -0.4875835208682564 -0.24248539692068891 0 -0.5 -0.25669760885461612 0 -0.48361763707807442 -0.27426406281091331 0 -0.5 -0.28413533544635422 0 -0.4670541169931961 -0.26846056693166809 0 -0.47878778985378329 -0.25835102983948688 0 -0.48361763707807442 -0.27426406281091331 0 -0.4670541169931961 -0.26846056693166809 0 -0.48361763707807442 -0.27426406281091331 0 -0.46910519348062618 -0.28320526693770848 0 -0.46910519348062618 -0.28320526693770848 0 -0.48580896399913942 -0.29193665231809679 0 -0.47164434439118558 -0.29859902487093259 0 -0.48361763707807442 -0.27426406281091331 0 -0.46910519348062618 -0.28320526693770848 0 -0.48580896399913942 -0.29193665231809679 0 -0.5 -0.28413533544635422 0 -0.48580896399913942 -0.29193665231809679 0 -0.5 -0.3115730620380921 0 -0.48361763707807442 -0.27426406281091331 0 -0.5 -0.28413533544635422 0 -0.48580896399913942 -0.29193665231809679 0 -0.48580896399913942 -0.29193665231809679 0 -0.5 -0.3115730620380921 0 -0.48293754746551898 -0.30617437981156609 0 -0.48293754746551898 -0.30617437981156609 0 -0.47164434439118558 -0.29859902487093259 0 -0.47203566342767839 -0.31514771464943409 0 -0.48580896399913942 -0.29193665231809679 0 -0.48293754746551898 -0.30617437981156609 0 -0.47164434439118558 -0.29859902487093259 0 -0.47164434439118558 -0.29859902487093259 0 -0.46096111539772322 -0.3069557537098867 0 -0.47203566342767839 -0.31514771464943409 0 -0.46096111539772322 -0.3069557537098867 0 -0.44739706002137658 -0.30395698434733032 0 -0.45229582611609759 -0.31444164243390338 0 -0.46096111539772322 -0.3069557537098867 0 -0.45682111422556548 -0.29317658806621089 0 -0.44739706002137658 -0.30395698434733032 0 -0.47164434439118558 -0.29859902487093259 0 -0.46096111539772322 -0.3069557537098867 0 -0.45682111422556548 -0.29317658806621089 0 -0.44999384684511368 -0.2755750489792308 0 -0.46910519348062618 -0.28320526693770848 0 -0.45682111422556548 -0.29317658806621089 0 -0.46910519348062618 -0.28320526693770848 0 -0.47164434439118558 -0.29859902487093259 0 -0.45682111422556548 -0.29317658806621089 0 -0.44999384684511368 -0.2755750489792308 0 -0.45682111422556548 -0.29317658806621089 0 -0.441361257405879 -0.29303276451920029 0 -0.45682111422556548 -0.29317658806621089 0 -0.441361257405879 -0.29303276451920029 0 -0.44739706002137658 -0.30395698434733032 0 -0.441361257405879 -0.29303276451920029 0 -0.44739706002137658 -0.30395698434733032 0 -0.43527018611072049 -0.30465000121327751 0 -0.44739706002137658 -0.30395698434733032 0 -0.44024276041750632 -0.31887045497680111 0 -0.43527018611072049 -0.30465000121327751 0 -0.44739706002137658 -0.30395698434733032 0 -0.45229582611609759 -0.31444164243390338 0 -0.44024276041750632 -0.31887045497680111 0 -0.44024276041750632 -0.31887045497680111 0 -0.45653421084860168 -0.32646185290925811 0 -0.44024276041750632 -0.31887045497680111 0 -0.43930980958642257 -0.33554338078202212 0 -0.45653421084860168 -0.32646185290925811 0 -0.45229582611609759 -0.31444164243390338 0 -0.44024276041750632 -0.31887045497680111 0 -0.45653421084860168 -0.32646185290925811 0 -0.43930980958642257 -0.33554338078202212 0 -0.44966367396753332 -0.33841986907325933 0 -0.46855294336124231 -0.32873531729210143 0 -0.43930980958642257 -0.33554338078202212 0 -0.4507851133594416 -0.34910720111649318 0 -0.43930980958642257 -0.33554338078202212 0 -0.44966367396753332 -0.33841986907325933 0 -0.4507851133594416 -0.34910720111649318 0 -0.44966367396753332 -0.33841986907325933 0 -0.46855294336124231 -0.32873531729210143 0 -0.46386644800117471 -0.33586508895417932 0 -0.43930980958642257 -0.33554338078202212 0 -0.46855294336124231 -0.32873531729210143 0 -0.43930980958642257 -0.33554338078202212 0 -0.46855294336124231 -0.32873531729210143 0 -0.45653421084860168 -0.32646185290925811 0 -0.44966367396753332 -0.33841986907325933 0 -0.4586808436472537 -0.3401528003513713 0 -0.45711636988675219 -0.34547487934353349 0 -0.44966367396753332 -0.33841986907325933 0 -0.4586808436472537 -0.3401528003513713 0 -0.46386644800117471 -0.33586508895417932 0 -0.4586808436472537 -0.3401528003513713 0 -0.46472493826860672 -0.34236766697450172 0 -0.45711636988675219 -0.34547487934353349 0 -0.4586808436472537 -0.3401528003513713 0 -0.46472493826860672 -0.34236766697450172 0 -0.46386644800117471 -0.33586508895417932 0 -0.46855294336124231 -0.32873531729210143 0 -0.46207595183026873 -0.31834845619891672 0 -0.47203566342767839 -0.31514771464943409 0 -0.46855294336124231 -0.32873531729210143 0 -0.45653421084860168 -0.32646185290925811 0 -0.46207595183026873 -0.31834845619891672 0 -0.46096111539772322 -0.3069557537098867 0 -0.45229582611609759 -0.31444164243390338 0 -0.46207595183026873 -0.31834845619891672 0 -0.45229582611609759 -0.31444164243390338 0 -0.45653421084860168 -0.32646185290925811 0 -0.46207595183026873 -0.31834845619891672 0 -0.46096111539772322 -0.3069557537098867 0 -0.46207595183026873 -0.31834845619891672 0 -0.47203566342767839 -0.31514771464943409 0 -0.48293754746551898 -0.30617437981156609 0 -0.47203566342767839 -0.31514771464943409 0 -0.47770984076123751 -0.32964979107966252 0 -0.48293754746551898 -0.30617437981156609 0 -0.47770984076123751 -0.32964979107966252 0 -0.48293754746551898 -0.30617437981156609 0 -0.48763303240419292 -0.31981883507337211 0 -0.47770984076123751 -0.32964979107966252 0 -0.46855294336124231 -0.32873531729210143 0 -0.47203566342767839 -0.31514771464943409 0 -0.47770984076123751 -0.32964979107966252 0 -0.5 -0.3115730620380921 0 -0.5 -0.33901078862982997 0 -0.49048543526404831 -0.32960291085151988 0 -0.5 -0.3115730620380921 0 -0.48763303240419292 -0.31981883507337211 0 -0.49048543526404831 -0.32960291085151988 0 -0.5 -0.3115730620380921 0 -0.48293754746551898 -0.30617437981156609 0 -0.48763303240419292 -0.31981883507337211 0 -0.48763303240419292 -0.31981883507337211 0 -0.49048543526404831 -0.32960291085151988 0 -0.47770984076123751 -0.32964979107966252 0 -0.49048543526404831 -0.32960291085151988 0 -0.47770984076123751 -0.32964979107966252 0 -0.48708430315481122 -0.3479620774366432 0 -0.5 -0.33901078862982997 0 -0.49048543526404831 -0.32960291085151988 0 -0.48708430315481122 -0.3479620774366432 0 -0.47770984076123751 -0.32964979107966252 0 -0.47248213405695583 -0.35312520234775913 0 -0.47770984076123751 -0.32964979107966252 0 -0.47248213405695583 -0.35312520234775913 0 -0.48708430315481122 -0.3479620774366432 0 -0.46472493826860672 -0.34236766697450172 0 -0.47770984076123751 -0.32964979107966252 0 -0.47248213405695583 -0.35312520234775913 0 -0.46855294336124231 -0.32873531729210143 0 -0.46386644800117471 -0.33586508895417932 0 -0.47770984076123751 -0.32964979107966252 0 -0.46472493826860672 -0.34236766697450172 0 -0.46386644800117471 -0.33586508895417932 0 -0.47770984076123751 -0.32964979107966252 0 -0.47248213405695583 -0.35312520234775913 0 -0.48708430315481122 -0.3479620774366432 0 -0.48422759779560409 -0.37130120630367158 0 -0.5 -0.33901078862982997 0 -0.48708430315481122 -0.3479620774366432 0 -0.5 -0.36644851522156802 0 -0.48708430315481122 -0.3479620774366432 0 -0.5 -0.36644851522156802 0 -0.48422759779560409 -0.37130120630367158 0 -0.46725442735267431 -0.37660061361585562 0 -0.47248213405695583 -0.35312520234775913 0 -0.48422759779560409 -0.37130120630367158 0 -0.46725442735267431 -0.37660061361585562 0 -0.47248213405695583 -0.35312520234775913 0 -0.46725442735267431 -0.37660061361585562 0 -0.4540003998136638 -0.37455519391687309 0 -0.46226041713245919 -0.36267102145096558 0 -0.46725442735267431 -0.37660061361585562 0 -0.47248213405695583 -0.35312520234775913 0 -0.46226041713245919 -0.36267102145096558 0 -0.4540003998136638 -0.37455519391687309 0 -0.46226041713245919 -0.36267102145096558 0 -0.45167034254705118 -0.36337553476545958 0 -0.47248213405695583 -0.35312520234775913 0 -0.46226041713245919 -0.36267102145096558 0 -0.46130034509645268 -0.35111989715704561 0 -0.46472493826860672 -0.34236766697450172 0 -0.47248213405695583 -0.35312520234775913 0 -0.46130034509645268 -0.35111989715704561 0 -0.46472493826860672 -0.34236766697450172 0 -0.46130034509645268 -0.35111989715704561 0 -0.45711636988675219 -0.34547487934353349 0 -0.46130034509645268 -0.35111989715704561 0 -0.45711636988675219 -0.34547487934353349 0 -0.4507851133594416 -0.34910720111649318 0 -0.46226041713245919 -0.36267102145096558 0 -0.4507851133594416 -0.34910720111649318 0 -0.45167034254705118 -0.36337553476545958 0 -0.46226041713245919 -0.36267102145096558 0 -0.46130034509645268 -0.35111989715704561 0 -0.4507851133594416 -0.34910720111649318 0 -0.46226041713245919 -0.36267102145096558 0 -0.4507851133594416 -0.34910720111649318 0 -0.4507851133594416 -0.34910720111649318 0 -0.44504098357239391 -0.35771747353496869 0 -0.45167034254705118 -0.36337553476545958 0 -0.44966367396753332 -0.33841986907325933 0 -0.45711636988675219 -0.34547487934353349 0 -0.4507851133594416 -0.34910720111649318 0 -0.4507851133594416 -0.34910720111649318 0 -0.44408457896710762 -0.34741130507322732 0 -0.44504098357239391 -0.35771747353496869 0 -0.43930980958642257 -0.33554338078202212 0 -0.4507851133594416 -0.34910720111649318 0 -0.44408457896710762 -0.34741130507322732 0 -0.44408457896710762 -0.34741130507322732 0 -0.43834809566141358 -0.35386966642967582 0 -0.4310745521241639 -0.35060051531725012 0 -0.44408457896710762 -0.34741130507322732 0 -0.43834809566141358 -0.35386966642967582 0 -0.44504098357239391 -0.35771747353496869 0 -0.43834809566141358 -0.35386966642967582 0 -0.44504098357239391 -0.35771747353496869 0 -0.43256408976529492 -0.36260533289695268 0 -0.44504098357239391 -0.35771747353496869 0 -0.44172858264042247 -0.37082207246888088 0 -0.43256408976529492 -0.36260533289695268 0 -0.4540003998136638 -0.37455519391687309 0 -0.44172858264042247 -0.37082207246888088 0 -0.45167034254705118 -0.36337553476545958 0 -0.44504098357239391 -0.35771747353496869 0 -0.44172858264042247 -0.37082207246888088 0 -0.45167034254705118 -0.36337553476545958 0 -0.42311368847744002 -0.37830224279505142 0 -0.44172858264042247 -0.37082207246888088 0 -0.43256408976529492 -0.36260533289695268 0 -0.42311368847744002 -0.37830224279505142 0 -0.43256408976529492 -0.36260533289695268 0 -0.41867380740831611 -0.36398836527224071 0 -0.43256408976529492 -0.36260533289695268 0 -0.42210656065146929 -0.35476551363046099 0 -0.41867380740831611 -0.36398836527224071 0 -0.44408457896710762 -0.34741130507322732 0 -0.4310745521241639 -0.35060051531725012 0 -0.42443636388738298 -0.3390060521705498 0 -0.43834809566141358 -0.35386966642967582 0 -0.43256408976529492 -0.36260533289695268 0 -0.4310745521241639 -0.35060051531725012 0 -0.4310745521241639 -0.35060051531725012 0 -0.42266042161335821 -0.34652378860874011 0 -0.42210656065146929 -0.35476551363046099 0 -0.4310745521241639 -0.35060051531725012 0 -0.42266042161335821 -0.34652378860874011 0 -0.42443636388738298 -0.3390060521705498 0 -0.43256408976529492 -0.36260533289695268 0 -0.4310745521241639 -0.35060051531725012 0 -0.42210656065146929 -0.35476551363046099 0 -0.42210656065146929 -0.35476551363046099 0 -0.41243440171204931 -0.35621682403100541 0 -0.41867380740831611 -0.36398836527224071 0 -0.41243440171204931 -0.35621682403100541 0 -0.40365717239196519 -0.36741535175059892 0 -0.40302160193259851 -0.3439916005776541 0 -0.42210656065146929 -0.35476551363046099 0 -0.41714587076776338 -0.34786779488983011 0 -0.41243440171204931 -0.35621682403100541 0 -0.42266042161335821 -0.34652378860874011 0 -0.42210656065146929 -0.35476551363046099 0 -0.41714587076776338 -0.34786779488983011 0 -0.42266042161335821 -0.34652378860874011 0 -0.41714587076776338 -0.34786779488983011 0 -0.41853876063601031 -0.34037906703560689 0 -0.41714587076776338 -0.34786779488983011 0 -0.41853876063601031 -0.34037906703560689 0 -0.41714587076776338 -0.34786779488983011 0 -0.41243440171204931 -0.35621682403100541 0 -0.40302160193259851 -0.3439916005776541 0 -0.41714587076776338 -0.34786779488983011 0 -0.40302160193259851 -0.3439916005776541 0 -0.41853876063601031 -0.34037906703560689 0 -0.42311368847744002 -0.37830224279505142 0 -0.41867380740831611 -0.36398836527224071 0 -0.40365717239196519 -0.36741535175059892 0 -0.42311368847744002 -0.37830224279505142 0 -0.40365717239196519 -0.36741535175059892 0 -0.41243440171204931 -0.35621682403100541 0 -0.41867380740831611 -0.36398836527224071 0 -0.40365717239196519 -0.36741535175059892 0 -0.40403491357358612 -0.38133688525744702 0 -0.40365717239196519 -0.36741535175059892 0 -0.40403491357358612 -0.38133688525744702 0 -0.40365717239196519 -0.36741535175059892 0 -0.3904578797192948 -0.37473938743617019 0 -0.40365717239196519 -0.36741535175059892 0 -0.38979507995825918 -0.35965881973269581 0 -0.40365717239196519 -0.36741535175059892 0 -0.3904578797192948 -0.37473938743617019 0 -0.38979507995825918 -0.35965881973269581 0 -0.3904578797192948 -0.37473938743617019 0 -0.38979507995825918 -0.35965881973269581 0 -0.37568304780698558 -0.36916333065311507 0 -0.37568304780698558 -0.36916333065311507 0 -0.37593298752455201 -0.35190228771479481 0 -0.38979507995825918 -0.35965881973269581 0 -0.37568304780698558 -0.36916333065311507 0 -0.37593298752455201 -0.35190228771479481 0 -0.38979507995825918 -0.35965881973269581 0 -0.37595629511297179 -0.35029264644438168 0 -0.40302160193259851 -0.3439916005776541 0 -0.37595629511297179 -0.35029264644438168 0 -0.40302160193259851 -0.3439916005776541 0 -0.38842354837557669 -0.33756560667471242 0 -0.37595629511297179 -0.35029264644438168 0 -0.40302160193259851 -0.3439916005776541 0 -0.37595629511297179 -0.35029264644438168 0 -0.37607676276689278 -0.3419730509543204 0 -0.37390838074359528 -0.35076941925389299 0 -0.37595629511297179 -0.35029264644438168 0 -0.37607676276689278 -0.3419730509543204 0 -0.37595629511297179 -0.35029264644438168 0 -0.37593298752455201 -0.35190228771479481 0 -0.37390838074359528 -0.35076941925389299 0 -0.37595629511297179 -0.35029264644438168 0 -0.37593298752455201 -0.35190228771479481 0 -0.38979507995825918 -0.35965881973269581 0 -0.37595629511297179 -0.35029264644438168 0 -0.37593298752455201 -0.35190228771479481 0 -0.38979507995825918 -0.35965881973269581 0 -0.37593298752455201 -0.35190228771479481 0 -0.40365717239196519 -0.36741535175059892 0 -0.40302160193259851 -0.3439916005776541 0 -0.40365717239196519 -0.36741535175059892 0 -0.38979507995825918 -0.35965881973269581 0 -0.40302160193259851 -0.3439916005776541 0 -0.40302160193259851 -0.3439916005776541 0 -0.40263324863316441 -0.32967896077653092 0 -0.40263324863316441 -0.32967896077653092 0 -0.38842354837557669 -0.33756560667471242 0 -0.38442983343225828 -0.32189177462067481 0 -0.40302160193259851 -0.3439916005776541 0 -0.40263324863316441 -0.32967896077653092 0 -0.38842354837557669 -0.33756560667471242 0 -0.37607676276689278 -0.3419730509543204 0 -0.37641717267996733 -0.3184640617331177 0 -0.38842354837557669 -0.33756560667471242 0 -0.37607676276689278 -0.3419730509543204 0 -0.38442983343225828 -0.32189177462067481 0 -0.37607676276689278 -0.3419730509543204 0 -0.38442983343225828 -0.32189177462067481 0 -0.37595629511297179 -0.35029264644438168 0 -0.38842354837557669 -0.33756560667471242 0 -0.37607676276689278 -0.3419730509543204 0 -0.37607676276689278 -0.3419730509543204 0 -0.37641717267996733 -0.3184640617331177 0 -0.38442983343225828 -0.32189177462067481 0 -0.37641717267996733 -0.3184640617331177 0 -0.38442983343225828 -0.32189177462067481 0 -0.3841914044669909 -0.30132118344037401 0 -0.37641717267996733 -0.3184640617331177 0 -0.38442983343225828 -0.32189177462067481 0 -0.40263324863316441 -0.32967896077653092 0 -0.38442983343225828 -0.32189177462067481 0 -0.40185461233875269 -0.30098256284660307 0 -0.40263324863316441 -0.32967896077653092 0 -0.38442983343225828 -0.32189177462067481 0 -0.40263324863316441 -0.32967896077653092 0 -0.40185461233875269 -0.30098256284660307 0 -0.40263324863316441 -0.32967896077653092 0 -0.41242695344044827 -0.31820451366256841 0 -0.40185461233875269 -0.30098256284660307 0 -0.41242695344044827 -0.31820451366256841 0 -0.41920998916455232 -0.33677027649670849 0 -0.42301959421646518 -0.31628833020920039 0 -0.41920998916455232 -0.33677027649670849 0 -0.42301959421646518 -0.31628833020920039 0 -0.41242695344044827 -0.31820451366256841 0 -0.42301959421646518 -0.31628833020920039 0 -0.41541732284930832 -0.30730243798379953 0 -0.40302160193259851 -0.3439916005776541 0 -0.41920998916455232 -0.33677027649670849 0 -0.41853876063601031 -0.34037906703560689 0 -0.40302160193259851 -0.3439916005776541 0 -0.40263324863316441 -0.32967896077653092 0 -0.41920998916455232 -0.33677027649670849 0 -0.40263324863316441 -0.32967896077653092 0 -0.41920998916455232 -0.33677027649670849 0 -0.40263324863316441 -0.32967896077653092 0 -0.41242695344044827 -0.31820451366256841 0 -0.41920998916455232 -0.33677027649670849 0 -0.40302160193259851 -0.3439916005776541 0 -0.41853876063601031 -0.34037906703560689 0 -0.41853876063601031 -0.34037906703560689 0 -0.42443636388738298 -0.3390060521705498 0 -0.41920998916455232 -0.33677027649670849 0 -0.42443636388738298 -0.3390060521705498 0 -0.41920998916455232 -0.33677027649670849 0 -0.41853876063601031 -0.34037906703560689 0 -0.42443636388738298 -0.3390060521705498 0 -0.41920998916455232 -0.33677027649670849 0 -0.41853876063601031 -0.34037906703560689 0 -0.43930980958642257 -0.33554338078202212 0 -0.44408457896710762 -0.34741130507322732 0 -0.42443636388738298 -0.3390060521705498 0 -0.43930980958642257 -0.33554338078202212 0 -0.42443636388738298 -0.3390060521705498 0 -0.42301959421646518 -0.31628833020920039 0 -0.41920998916455232 -0.33677027649670849 0 -0.42443636388738298 -0.3390060521705498 0 -0.42301959421646518 -0.31628833020920039 0 -0.44408457896710762 -0.34741130507322732 0 -0.42443636388738298 -0.3390060521705498 0 -0.42266042161335821 -0.34652378860874011 0 -0.41853876063601031 -0.34037906703560689 0 -0.42443636388738298 -0.3390060521705498 0 -0.43930980958642257 -0.33554338078202212 0 -0.42443636388738298 -0.3390060521705498 0 -0.43930980958642257 -0.33554338078202212 0 -0.42301959421646518 -0.31628833020920039 0 -0.44024276041750632 -0.31887045497680111 0 -0.42395130998641067 -0.31127905704434472 0 -0.44024276041750632 -0.31887045497680111 0 -0.43930980958642257 -0.33554338078202212 0 -0.42301959421646518 -0.31628833020920039 0 -0.44024276041750632 -0.31887045497680111 0 -0.42301959421646518 -0.31628833020920039 0 -0.42395130998641067 -0.31127905704434472 0 -0.42301959421646518 -0.31628833020920039 0 -0.42395130998641067 -0.31127905704434472 0 -0.42395130998641067 -0.31127905704434472 0 -0.42709180872781188 -0.29439449141065738 0 -0.44024276041750632 -0.31887045497680111 0 -0.42395130998641067 -0.31127905704434472 0 -0.43527018611072049 -0.30465000121327751 0 -0.42395130998641067 -0.31127905704434472 0 -0.42709180872781188 -0.29439449141065738 0 -0.41541732284930832 -0.30730243798379953 0 -0.42395130998641067 -0.31127905704434472 0 -0.43527018611072049 -0.30465000121327751 0 -0.42709180872781188 -0.29439449141065738 0 -0.441361257405879 -0.29303276451920029 0 -0.43527018611072049 -0.30465000121327751 0 -0.42709180872781188 -0.29439449141065738 0 -0.42709180872781188 -0.29439449141065738 0 -0.43077531442077321 -0.27459050524281542 0 -0.42709180872781188 -0.29439449141065738 0 -0.41684225135067149 -0.28376244362903152 0 -0.43077531442077321 -0.27459050524281542 0 -0.441361257405879 -0.29303276451920029 0 -0.42709180872781188 -0.29439449141065738 0 -0.441361257405879 -0.29303276451920029 0 -0.42709180872781188 -0.29439449141065738 0 -0.43077531442077321 -0.27459050524281542 0 -0.42709180872781188 -0.29439449141065738 0 -0.41684225135067149 -0.28376244362903152 0 -0.40618483967714292 -0.29638963380315841 0 -0.42709180872781188 -0.29439449141065738 0 -0.40618483967714292 -0.29638963380315841 0 -0.41684225135067149 -0.28376244362903152 0 -0.40690107601488551 -0.28490397733270861 0 -0.40618483967714292 -0.29638963380315841 0 -0.41541732284930832 -0.30730243798379953 0 -0.40185461233875269 -0.30098256284660307 0 -0.40618483967714292 -0.29638963380315841 0 -0.42709180872781188 -0.29439449141065738 0 -0.41541732284930832 -0.30730243798379953 0 -0.40618483967714292 -0.29638963380315841 0 -0.41541732284930832 -0.30730243798379953 0 -0.40618483967714292 -0.29638963380315841 0 -0.41242695344044827 -0.31820451366256841 0 -0.41541732284930832 -0.30730243798379953 0 -0.40185461233875269 -0.30098256284660307 0 -0.41541732284930832 -0.30730243798379953 0 -0.40185461233875269 -0.30098256284660307 0 -0.42301959421646518 -0.31628833020920039 0 -0.41541732284930832 -0.30730243798379953 0 -0.42395130998641067 -0.31127905704434472 0 -0.41541732284930832 -0.30730243798379953 0 -0.42301959421646518 -0.31628833020920039 0 -0.42395130998641067 -0.31127905704434472 0 -0.41541732284930832 -0.30730243798379953 0 -0.38442983343225828 -0.32189177462067481 0 -0.40185461233875269 -0.30098256284660307 0 -0.39448508010510541 -0.297525044214214 0 -0.40185461233875269 -0.30098256284660307 0 -0.40174149504185092 -0.29681366012781812 0 -0.40618483967714292 -0.29638963380315841 0 -0.40185461233875269 -0.30098256284660307 0 -0.40174149504185092 -0.29681366012781812 0 -0.40185461233875269 -0.30098256284660307 0 -0.39448508010510541 -0.297525044214214 0 -0.40174149504185092 -0.29681366012781812 0 -0.40185461233875269 -0.30098256284660307 0 -0.39448508010510541 -0.297525044214214 0 -0.39448508010510541 -0.297525044214214 0 -0.40174149504185092 -0.29681366012781812 0 -0.37641717267996733 -0.3184640617331177 0 -0.37669606201677502 -0.29920373422444158 0 -0.38442983343225828 -0.32189177462067481 0 -0.39448508010510541 -0.297525044214214 0 -0.38442983343225828 -0.32189177462067481 0 -0.39448508010510541 -0.297525044214214 0 -0.3841914044669909 -0.30132118344037401 0 -0.37641717267996733 -0.3184640617331177 0 -0.3841914044669909 -0.30132118344037401 0 -0.37669606201677502 -0.29920373422444158 0 -0.39448508010510541 -0.297525044214214 0 -0.3841914044669909 -0.30132118344037401 0 -0.37928718982873688 -0.29895646409505849 0 -0.39448508010510541 -0.297525044214214 0 -0.37928718982873688 -0.29895646409505849 0 -0.3841914044669909 -0.30132118344037401 0 -0.37928718982873688 -0.29895646409505849 0 -0.3841914044669909 -0.30132118344037401 0 -0.37928718982873688 -0.29895646409505849 0 -0.37669606201677502 -0.29920373422444158 0 -0.37928718982873688 -0.29895646409505849 0 -0.37669606201677502 -0.29920373422444158 0 -0.37671758341694961 -0.29771744858697219 0 -0.37928718982873688 -0.29895646409505849 0 -0.37671758341694961 -0.29771744858697219 0 -0.37928718982873688 -0.29895646409505849 0 -0.37669606201677502 -0.29920373422444158 0 -0.37669606201677502 -0.29920373422444158 0 -0.37671758341694961 -0.29771744858697219 0 -0.37671758341694961 -0.29771744858697219 0 -0.38607699004493318 -0.28757386461908069 0 -0.38483052758877101 -0.28123782127595193 0 -0.37671758341694961 -0.29771744858697219 0 -0.3770412393053626 -0.27536550612006683 0 -0.37671758341694961 -0.29771744858697219 0 -0.38483052758877101 -0.28123782127595193 0 -0.3770412393053626 -0.27536550612006683 0 -0.37928718982873688 -0.29895646409505849 0 -0.37671758341694961 -0.29771744858697219 0 -0.38467000758835601 -0.29297497791584359 0 -0.37671758341694961 -0.29771744858697219 0 -0.38467000758835601 -0.29297497791584359 0 -0.38607699004493318 -0.28757386461908069 0 -0.39448508010510541 -0.297525044214214 0 -0.37928718982873688 -0.29895646409505849 0 -0.38467000758835601 -0.29297497791584359 0 -0.39448508010510541 -0.297525044214214 0 -0.38467000758835601 -0.29297497791584359 0 -0.39448508010510541 -0.297525044214214 0 -0.38467000758835601 -0.29297497791584359 0 -0.39217701296355612 -0.28987936211692023 0 -0.38467000758835601 -0.29297497791584359 0 -0.38607699004493318 -0.28757386461908069 0 -0.39217701296355612 -0.28987936211692023 0 -0.38607699004493318 -0.28757386461908069 0 -0.39049541959166939 -0.28414526237041138 0 -0.39217701296355612 -0.28987936211692023 0 -0.39049541959166939 -0.28414526237041138 0 -0.39420405367365152 -0.27853706101481662 0 -0.38483052758877101 -0.28123782127595193 0 -0.38607699004493318 -0.28757386461908069 0 -0.39049541959166939 -0.28414526237041138 0 -0.38483052758877101 -0.28123782127595193 0 -0.39597078832761667 -0.28551153658085893 0 -0.40174149504185092 -0.29681366012781812 0 -0.40123596036735593 -0.27818233727432817 0 -0.39049541959166939 -0.28414526237041138 0 -0.39597078832761667 -0.28551153658085893 0 -0.39420405367365152 -0.27853706101481662 0 -0.40174149504185092 -0.29681366012781812 0 -0.40123596036735593 -0.27818233727432817 0 -0.40174149504185092 -0.29681366012781812 0 -0.40322207619149192 -0.29288764445213411 0 -0.40123596036735593 -0.27818233727432817 0 -0.39049541959166939 -0.28414526237041138 0 -0.39597078832761667 -0.28551153658085893 0 -0.39217701296355612 -0.28987936211692023 0 -0.39597078832761667 -0.28551153658085893 0 -0.39217701296355612 -0.28987936211692023 0 -0.40174149504185092 -0.29681366012781812 0 -0.39448508010510541 -0.297525044214214 0 -0.39217701296355612 -0.28987936211692023 0 -0.40174149504185092 -0.29681366012781812 0 -0.40690107601488551 -0.28490397733270861 0 -0.40322207619149192 -0.29288764445213411 0 -0.40618483967714292 -0.29638963380315841 0 -0.40174149504185092 -0.29681366012781812 0 -0.40322207619149192 -0.29288764445213411 0 -0.40618483967714292 -0.29638963380315841 0 -0.40174149504185092 -0.29681366012781812 0 -0.40618483967714292 -0.29638963380315841 0 -0.40322207619149192 -0.29288764445213411 0 -0.40618483967714292 -0.29638963380315841 0 -0.40690107601488551 -0.28490397733270861 0 -0.40322207619149192 -0.29288764445213411 0 -0.40123596036735593 -0.27818233727432817 0 -0.39420405367365152 -0.27853706101481662 0 -0.37710287173325818 -0.2711091198417086 0 -0.40073042569286338 -0.25955101442083811 0 -0.40123596036735593 -0.27818233727432817 0 -0.39420405367365152 -0.27853706101481662 0 -0.40073042569286338 -0.25955101442083811 0 -0.40123596036735593 -0.27818233727432817 0 -0.40073042569286338 -0.25955101442083811 0 -0.40123596036735593 -0.27818233727432817 0 -0.40073042569286338 -0.25955101442083811 0 -0.41341650638623911 -0.27076301679274262 0 -0.39597078832761667 -0.28551153658085893 0 -0.40123596036735593 -0.27818233727432817 0 -0.39420405367365152 -0.27853706101481662 0 -0.39420405367365152 -0.27853706101481662 0 -0.37710287173325818 -0.2711091198417086 0 -0.3770412393053626 -0.27536550612006683 0 -0.39420405367365152 -0.27853706101481662 0 -0.3770412393053626 -0.27536550612006683 0 -0.39420405367365152 -0.27853706101481662 0 -0.38483052758877101 -0.28123782127595193 0 -0.3770412393053626 -0.27536550612006683 0 -0.37710287173325818 -0.2711091198417086 0 -0.3770412393053626 -0.27536550612006683 0 -0.37710287173325818 -0.2711091198417086 0 -0.38543722149146659 -0.25821727905458303 0 -0.40073042569286338 -0.25955101442083811 0 -0.37710287173325818 -0.2711091198417086 0 -0.37747963509906429 -0.24508953120583671 0 -0.37710287173325818 -0.2711091198417086 0 -0.40073042569286338 -0.25955101442083811 0 -0.37710287173325818 -0.2711091198417086 0 -0.38543722149146659 -0.25821727905458303 0 -0.37747963509906429 -0.24508953120583671 0 -0.38543722149146659 -0.25821727905458303 0 -0.3938256931015453 -0.25037754026629511 0 -0.37747963509906429 -0.24508953120583671 0 -0.38543722149146659 -0.25821727905458303 0 -0.3938256931015453 -0.25037754026629511 0 -0.40073042569286338 -0.25955101442083811 0 -0.40073042569286338 -0.25955101442083811 0 -0.40282532782868952 -0.25224285689579767 0 -0.40022281387448849 -0.24084313907701979 0 -0.40073042569286338 -0.25955101442083811 0 -0.40022281387448849 -0.24084313907701979 0 -0.3938256931015453 -0.25037754026629511 0 -0.40073042569286338 -0.25955101442083811 0 -0.40022281387448849 -0.24084313907701979 0 -0.40073042569286338 -0.25955101442083811 0 -0.40282532782868952 -0.25224285689579767 0 -0.41385673751816382 -0.25312989710486528 0 -0.40073042569286338 -0.25955101442083811 0 -0.41385673751816382 -0.25312989710486528 0 -0.40073042569286338 -0.25955101442083811 0 -0.41385673751816382 -0.25312989710486528 0 -0.41341650638623911 -0.27076301679274262 0 -0.41385673751816382 -0.25312989710486528 0 -0.41341650638623911 -0.27076301679274262 0 -0.42312684460972783 -0.26331748455384929 0 -0.41385673751816382 -0.25312989710486528 0 -0.41679144862722167 -0.25169429778568547 0 -0.43445882011373449 -0.25478651907497341 0 -0.40282532782868952 -0.25224285689579767 0 -0.41385673751816382 -0.25312989710486528 0 -0.4086566941719203 -0.24778871483445111 0 -0.40282532782868952 -0.25224285689579767 0 -0.41385673751816382 -0.25312989710486528 0 -0.41385673751816382 -0.25312989710486528 0 -0.41679144862722167 -0.25169429778568547 0 -0.41627810448972868 -0.24641300060905449 0 -0.41385673751816382 -0.25312989710486528 0 -0.41679144862722167 -0.25169429778568547 0 -0.41684225135067149 -0.28376244362903152 0 -0.41341650638623911 -0.27076301679274262 0 -0.43077531442077321 -0.27459050524281542 0 -0.40690107601488551 -0.28490397733270861 0 -0.40123596036735593 -0.27818233727432817 0 -0.41341650638623911 -0.27076301679274262 0 -0.41684225135067149 -0.28376244362903152 0 -0.40690107601488551 -0.28490397733270861 0 -0.41341650638623911 -0.27076301679274262 0 -0.41341650638623911 -0.27076301679274262 0 -0.43077531442077321 -0.27459050524281542 0 -0.42312684460972783 -0.26331748455384929 0 -0.43077531442077321 -0.27459050524281542 0 -0.42312684460972783 -0.26331748455384929 0 -0.43445882011373449 -0.25478651907497341 0 -0.41385673751816382 -0.25312989710486528 0 -0.43445882011373449 -0.25478651907497341 0 -0.43077531442077321 -0.27459050524281542 0 -0.43445882011373449 -0.25478651907497341 0 -0.41385673751816382 -0.25312989710486528 0 -0.42312684460972783 -0.26331748455384929 0 -0.43445882011373449 -0.25478651907497341 0 -0.41679144862722167 -0.25169429778568547 0 -0.43445882011373449 -0.25478651907497341 0 -0.42335340856967768 -0.24893549408922019 0 -0.32580796388430833 -0.26195871891040218 0 -0.34139866608006603 -0.2687790352098644 0 -0.31202674084989918 -0.26335133138269068 0 -0.32580796388430833 -0.26195871891040218 0 -0.33345250408021371 -0.25331871279766999 0 -0.32023222063025569 -0.2489608815952247 0 -0.32580796388430833 -0.26195871891040218 0 -0.31664960680882542 -0.25714232151458272 0 -0.32023222063025569 -0.2489608815952247 0 -0.31664960680882542 -0.25714232151458272 0 -0.30853150187083839 -0.25429835417001312 0 -0.32023222063025569 -0.2489608815952247 0 -0.32580796388430833 -0.26195871891040218 0 -0.31664960680882542 -0.25714232151458272 0 -0.31202674084989918 -0.26335133138269068 0 -0.33223611708196649 -0.27626932861073827 0 -0.31972670239926188 -0.28454160199560091 0 -0.31187737399160442 -0.27618124236115132 0 -0.34139866608006603 -0.2687790352098644 0 -0.31202674084989918 -0.26335133138269068 0 -0.33223611708196649 -0.27626932861073827 0 -0.31202674084989918 -0.26335133138269068 0 -0.3062135479255173 -0.26372173898871692 0 -0.33223611708196649 -0.27626932861073827 0 -0.31187737399160442 -0.27618124236115132 0 -0.3062135479255173 -0.26372173898871692 0 -0.33260241140844943 -0.2743168067351805 0 -0.33223611708196649 -0.27626932861073827 0 -0.31202674084989918 -0.26335133138269068 0 -0.33223611708196649 -0.27626932861073827 0 -0.3062135479255173 -0.26372173898871692 0 -0.33260241140844943 -0.2743168067351805 0 -0.34139866608006603 -0.2687790352098644 0 -0.31202674084989918 -0.26335133138269068 0 -0.33223611708196649 -0.27626932861073827 0 -0.34139866608006603 -0.2687790352098644 0 -0.34951875912658742 -0.28460269103381453 0 -0.33223611708196649 -0.27626932861073827 0 -0.34951875912658742 -0.28460269103381453 0 -0.33260241140844943 -0.2743168067351805 0 -0.33223611708196649 -0.27626932861073827 0 -0.34139866608006603 -0.2687790352098644 0 -0.33260241140844943 -0.2743168067351805 0 -0.33223611708196649 -0.27626932861073827 0 -0.34139866608006603 -0.2687790352098644 0 -0.3363084638556994 -0.26041051377605268 0 -0.34457472137820933 -0.25758558818627408 0 -0.32580796388430833 -0.26195871891040218 0 -0.34139866608006603 -0.2687790352098644 0 -0.3363084638556994 -0.26041051377605268 0 -0.32580796388430833 -0.26195871891040218 0 -0.3363084638556994 -0.26041051377605268 0 -0.33345250408021371 -0.25331871279766999 0 -0.3363084638556994 -0.26041051377605268 0 -0.33345250408021371 -0.25331871279766999 0 -0.34457472137820933 -0.25758558818627408 0 -0.33345250408021371 -0.25331871279766999 0 -0.34457472137820933 -0.25758558818627408 0 -0.34395992200845399 -0.24382677409400949 0 -0.34139866608006603 -0.2687790352098644 0 -0.34457472137820933 -0.25758558818627408 0 -0.35733732661955131 -0.26288598862094092 0 -0.34457472137820933 -0.25758558818627408 0 -0.35872453044413888 -0.25078889886649508 0 -0.34395992200845399 -0.24382677409400949 0 -0.34457472137820933 -0.25758558818627408 0 -0.35733732661955131 -0.26288598862094092 0 -0.35872453044413888 -0.25078889886649508 0 -0.37710287173325818 -0.2711091198417086 0 -0.36828299104124951 -0.26081605551440462 0 -0.37747963509906429 -0.24508953120583671 0 -0.35872453044413888 -0.25078889886649508 0 -0.36828299104124951 -0.26081605551440462 0 -0.37747963509906429 -0.24508953120583671 0 -0.35733732661955131 -0.26288598862094092 0 -0.35872453044413888 -0.25078889886649508 0 -0.36828299104124951 -0.26081605551440462 0 -0.37077059131023282 -0.27420673903703829 0 -0.34951875912658742 -0.28460269103381453 0 -0.37710287173325818 -0.2711091198417086 0 -0.3770412393053626 -0.27536550612006683 0 -0.37077059131023282 -0.27420673903703829 0 -0.3770412393053626 -0.27536550612006683 0 -0.37077059131023282 -0.27420673903703829 0 -0.37710287173325818 -0.2711091198417086 0 -0.36828299104124951 -0.26081605551440462 0 -0.37077059131023282 -0.27420673903703829 0 -0.37710287173325818 -0.2711091198417086 0 -0.37077059131023282 -0.27420673903703829 0 -0.35733732661955131 -0.26288598862094092 0 -0.36828299104124951 -0.26081605551440462 0 -0.37077059131023282 -0.27420673903703829 0 -0.34139866608006603 -0.2687790352098644 0 -0.35733732661955131 -0.26288598862094092 0 -0.37077059131023282 -0.27420673903703829 0 -0.34139866608006603 -0.2687790352098644 0 -0.37077059131023282 -0.27420673903703829 0 -0.34951875912658742 -0.28460269103381453 0 -0.34139866608006603 -0.2687790352098644 0 -0.37077059131023282 -0.27420673903703829 0 -0.34951875912658742 -0.28460269103381453 0 -0.3581763596052473 -0.30097106086504849 0 -0.34010739644885768 -0.2892065328944351 0 -0.34951875912658742 -0.28460269103381453 0 -0.34010739644885768 -0.2892065328944351 0 -0.37671758341694961 -0.29771744858697219 0 -0.37077059131023282 -0.27420673903703829 0 -0.34951875912658742 -0.28460269103381453 0 -0.37671758341694961 -0.29771744858697219 0 -0.34951875912658742 -0.28460269103381453 0 -0.37671758341694961 -0.29771744858697219 0 -0.3770412393053626 -0.27536550612006683 0 -0.37077059131023282 -0.27420673903703829 0 -0.37671758341694961 -0.29771744858697219 0 -0.34951875912658742 -0.28460269103381453 0 -0.3581763596052473 -0.30097106086504849 0 -0.37669606201677502 -0.29920373422444158 0 -0.37671758341694961 -0.29771744858697219 0 -0.3581763596052473 -0.30097106086504849 0 -0.37641717267996733 -0.3184640617331177 0 -0.37669606201677502 -0.29920373422444158 0 -0.36799370156123501 -0.30592930732763762 0 -0.37641717267996733 -0.3184640617331177 0 -0.36799370156123501 -0.30592930732763762 0 -0.35803691493684492 -0.31060122461938489 0 -0.37669606201677502 -0.29920373422444158 0 -0.36799370156123501 -0.30592930732763762 0 -0.3581763596052473 -0.30097106086504849 0 -0.37669606201677502 -0.29920373422444158 0 -0.3581763596052473 -0.30097106086504849 0 -0.36799370156123501 -0.30592930732763762 0 -0.35803691493684492 -0.31060122461938489 0 -0.3581763596052473 -0.30097106086504849 0 -0.35803691493684492 -0.31060122461938489 0 -0.33965665719371979 -0.30273838750565862 0 -0.35803691493684492 -0.31060122461938489 0 -0.33965665719371979 -0.30273838750565862 0 -0.34514704515453298 -0.31300544250539297 0 -0.3581763596052473 -0.30097106086504849 0 -0.33965665719371979 -0.30273838750565862 0 -0.34010739644885768 -0.2892065328944351 0 -0.35803691493684492 -0.31060122461938489 0 -0.3581763596052473 -0.30097106086504849 0 -0.33965665719371979 -0.30273838750565862 0 -0.3581763596052473 -0.30097106086504849 0 -0.33965665719371979 -0.30273838750565862 0 -0.33676996251121621 -0.31158184422573892 0 -0.33965665719371979 -0.30273838750565862 0 -0.34514704515453298 -0.31300544250539297 0 -0.33676996251121621 -0.31158184422573892 0 -0.33965665719371979 -0.30273838750565862 0 -0.32704471803945162 -0.30394193902942662 0 -0.33676996251121621 -0.31158184422573892 0 -0.32594772137393307 -0.30978944971135602 0 -0.32704471803945162 -0.30394193902942662 0 -0.33965665719371979 -0.30273838750565862 0 -0.32704471803945162 -0.30394193902942662 0 -0.32819068517220462 -0.29783339261299951 0 -0.33965665719371979 -0.30273838750565862 0 -0.32704471803945162 -0.30394193902942662 0 -0.32819068517220462 -0.29783339261299951 0 -0.33965665719371979 -0.30273838750565862 0 -0.33223611708196649 -0.27626932861073827 0 -0.32819068517220462 -0.29783339261299951 0 -0.33223611708196649 -0.27626932861073827 0 -0.32819068517220462 -0.29783339261299951 0 -0.34010739644885768 -0.2892065328944351 0 -0.33223611708196649 -0.27626932861073827 0 -0.34951875912658742 -0.28460269103381453 0 -0.34010739644885768 -0.2892065328944351 0 -0.32819068517220462 -0.29783339261299951 0 -0.33965665719371979 -0.30273838750565862 0 -0.34010739644885768 -0.2892065328944351 0 -0.32819068517220462 -0.29783339261299951 0 -0.31972670239926188 -0.28454160199560091 0 -0.31332574866090718 -0.291474364566292 0 -0.32819068517220462 -0.29783339261299951 0 -0.31332574866090718 -0.291474364566292 0 -0.33223611708196649 -0.27626932861073827 0 -0.32819068517220462 -0.29783339261299951 0 -0.31972670239926188 -0.28454160199560091 0 -0.31972670239926188 -0.28454160199560091 0 -0.31332574866090718 -0.291474364566292 0 -0.30937392239009109 -0.28339120160471948 0 -0.31972670239926188 -0.28454160199560091 0 -0.30937392239009109 -0.28339120160471948 0 -0.31187737399160442 -0.27618124236115132 0 -0.31992409361072222 -0.30462145692723192 0 -0.32594772137393307 -0.30978944971135602 0 -0.31307430431717392 -0.31869978567557272 0 -0.31992409361072222 -0.30462145692723192 0 -0.32594772137393307 -0.30978944971135602 0 -0.32594772137393307 -0.30978944971135602 0 -0.32704471803945162 -0.30394193902942662 0 -0.31992409361072222 -0.30462145692723192 0 -0.32594772137393307 -0.30978944971135602 0 -0.32704471803945162 -0.30394193902942662 0 -0.32819068517220462 -0.29783339261299951 0 -0.31332574866090718 -0.291474364566292 0 -0.31992409361072222 -0.30462145692723192 0 -0.32819068517220462 -0.29783339261299951 0 -0.32704471803945162 -0.30394193902942662 0 -0.32819068517220462 -0.29783339261299951 0 -0.31992409361072222 -0.30462145692723192 0 -0.32704471803945162 -0.30394193902942662 0 -0.31992409361072222 -0.30462145692723192 0 -0.32704471803945162 -0.30394193902942662 0 -0.32594772137393307 -0.30978944971135602 0 -0.31307430431717392 -0.31869978567557272 0 -0.32184288384298337 -0.33167017375041419 0 -0.32594772137393307 -0.30978944971135602 0 -0.32184288384298337 -0.33167017375041419 0 -0.32184288384298337 -0.33167017375041419 0 -0.31773804631203251 -0.35355089778947202 0 -0.32184288384298337 -0.33167017375041419 0 -0.34475024534571441 -0.34586667392980902 0 -0.31773804631203251 -0.35355089778947202 0 -0.32184288384298337 -0.33167017375041419 0 -0.34612464597635118 -0.32710031367078812 0 -0.34475024534571441 -0.34586667392980902 0 -0.33676996251121621 -0.31158184422573892 0 -0.32594772137393307 -0.30978944971135602 0 -0.34612464597635118 -0.32710031367078812 0 -0.32594772137393307 -0.30978944971135602 0 -0.34612464597635118 -0.32710031367078812 0 -0.32594772137393307 -0.30978944971135602 0 -0.32184288384298337 -0.33167017375041419 0 -0.34612464597635118 -0.32710031367078812 0 -0.33676996251121621 -0.31158184422573892 0 -0.34514704515453298 -0.31300544250539297 0 -0.34612464597635118 -0.32710031367078812 0 -0.35803691493684492 -0.31060122461938489 0 -0.34514704515453298 -0.31300544250539297 0 -0.34612464597635118 -0.32710031367078812 0 -0.35803691493684492 -0.31060122461938489 0 -0.34612464597635118 -0.32710031367078812 0 -0.35600230731325749 -0.33324145173106873 0 -0.37641717267996733 -0.3184640617331177 0 -0.35803691493684492 -0.31060122461938489 0 -0.37641717267996733 -0.3184640617331177 0 -0.35803691493684492 -0.31060122461938489 0 -0.36719759625642318 -0.33008752154143739 0 -0.35803691493684492 -0.31060122461938489 0 -0.36719759625642318 -0.33008752154143739 0 -0.35600230731325749 -0.33324145173106873 0 -0.37607676276689278 -0.3419730509543204 0 -0.37641717267996733 -0.3184640617331177 0 -0.36719759625642318 -0.33008752154143739 0 -0.37607676276689278 -0.3419730509543204 0 -0.3688763256213185 -0.34309961767568647 0 -0.36719759625642318 -0.33008752154143739 0 -0.36719759625642318 -0.33008752154143739 0 -0.36118874601324108 -0.3436521492952741 0 -0.35600230731325749 -0.33324145173106873 0 -0.3688763256213185 -0.34309961767568647 0 -0.36719759625642318 -0.33008752154143739 0 -0.36118874601324108 -0.3436521492952741 0 -0.34612464597635118 -0.32710031367078812 0 -0.35600230731325749 -0.33324145173106873 0 -0.34475024534571441 -0.34586667392980902 0 -0.36118874601324108 -0.3436521492952741 0 -0.35600230731325749 -0.33324145173106873 0 -0.34475024534571441 -0.34586667392980902 0 -0.36118874601324108 -0.3436521492952741 0 -0.34475024534571441 -0.34586667392980902 0 -0.35925477447714671 -0.35134479444962452 0 -0.34475024534571441 -0.34586667392980902 0 -0.35480891830463612 -0.3592101017575729 0 -0.33937201587241012 -0.36587749477948078 0 -0.34475024534571441 -0.34586667392980902 0 -0.35480891830463612 -0.3592101017575729 0 -0.35925477447714671 -0.35134479444962452 0 -0.36118874601324108 -0.3436521492952741 0 -0.37225797237559449 -0.35115364910559932 0 -0.36118874601324108 -0.3436521492952741 0 -0.35925477447714671 -0.35134479444962452 0 -0.36985982957495511 -0.35171195823109852 0 -0.37568304780698558 -0.36916333065311507 0 -0.37593298752455201 -0.35190228771479481 0 -0.37225797237559449 -0.35115364910559932 0 -0.35480891830463612 -0.3592101017575729 0 -0.35925477447714671 -0.35134479444962452 0 -0.36985982957495511 -0.35171195823109852 0 -0.37607676276689278 -0.3419730509543204 0 -0.3688763256213185 -0.34309961767568647 0 -0.37225797237559449 -0.35115364910559932 0 -0.37607676276689278 -0.3419730509543204 0 -0.37225797237559449 -0.35115364910559932 0 -0.37607676276689278 -0.3419730509543204 0 -0.37390838074359528 -0.35076941925389299 0 -0.37225797237559449 -0.35115364910559932 0 -0.37593298752455201 -0.35190228771479481 0 -0.37390838074359528 -0.35076941925389299 0 -0.37225797237559449 -0.35115364910559932 0 -0.3688763256213185 -0.34309961767568647 0 -0.36118874601324108 -0.3436521492952741 0 -0.37225797237559449 -0.35115364910559932 0 -0.37593298752455201 -0.35190228771479481 0 -0.37390838074359528 -0.35076941925389299 0 -0.36118874601324108 -0.3436521492952741 0 -0.36985982957495511 -0.35171195823109852 0 -0.37225797237559449 -0.35115364910559932 0 -0.37595629511297179 -0.35029264644438168 0 -0.37390838074359528 -0.35076941925389299 0 -0.37390838074359528 -0.35076941925389299 0 -0.37225797237559449 -0.35115364910559932 0 -0.36985982957495511 -0.35171195823109852 0 -0.37225797237559449 -0.35115364910559932 0 -0.37568304780698558 -0.36916333065311507 0 -0.37225797237559449 -0.35115364910559932 0 -0.36100598543278789 -0.37820409176948921 0 -0.35480891830463612 -0.3592101017575729 0 -0.36985982957495511 -0.35171195823109852 0 -0.36100598543278789 -0.37820409176948921 0 -0.36985982957495511 -0.35171195823109852 0 -0.37225797237559449 -0.35115364910559932 0 -0.36100598543278789 -0.37820409176948921 0 -0.37225797237559449 -0.35115364910559932 0 -0.36100598543278789 -0.37820409176948921 0 -0.33937201587241012 -0.36587749477948078 0 -0.36100598543278789 -0.37820409176948921 0 -0.35480891830463612 -0.3592101017575729 0 -0.33937201587241012 -0.36587749477948078 0 -0.36100598543278789 -0.37820409176948921 0 -0.33937201587241012 -0.36587749477948078 0 -0.31773804631203251 -0.35355089778947202 0 -0.33937201587241012 -0.36587749477948078 0 -0.31773804631203251 -0.35355089778947202 0 -0.32803705280137402 -0.37447550275240871 0 -0.34475024534571441 -0.34586667392980902 0 -0.33937201587241012 -0.36587749477948078 0 -0.31773804631203251 -0.35355089778947202 0 -0.31773804631203251 -0.35355089778947202 0 -0.31381007312398762 -0.37448885129246268 0 -0.31773804631203251 -0.35355089778947202 0 -0.31381007312398762 -0.37448885129246268 0 -0.32803705280137402 -0.37447550275240871 0 -0.31381007312398762 -0.37448885129246268 0 -0.29871455833571747 -0.36148408621311728 0 -0.29196992941862432 -0.3825632544476108 0 -0.31773804631203251 -0.35355089778947202 0 -0.31381007312398762 -0.37448885129246268 0 -0.29871455833571747 -0.36148408621311728 0 -0.31773804631203251 -0.35355089778947202 0 -0.29871455833571747 -0.36148408621311728 0 -0.29282778547957722 -0.33935753649529382 0 -0.31773804631203251 -0.35355089778947202 0 -0.29282778547957722 -0.33935753649529382 0 -0.29871455833571747 -0.36148408621311728 0 -0.27675503022224163 -0.36681377825091099 0 -0.29282778547957722 -0.33935753649529382 0 -0.29871455833571747 -0.36148408621311728 0 -0.27675503022224163 -0.36681377825091099 0 -0.29196992941862432 -0.3825632544476108 0 -0.27675503022224163 -0.36681377825091099 0 -0.25757508569408222 -0.36424633604315798 0 -0.26546808025963542 -0.34847395767735678 0 -0.27675503022224163 -0.36681377825091099 0 -0.25757508569408222 -0.36424633604315798 0 -0.25812358553267323 -0.37605355791306738 0 -0.25757508569408222 -0.36424633604315798 0 -0.24839247009954951 -0.37292447016044328 0 -0.24532753696728959 -0.36501789644951049 0 -0.25757508569408222 -0.36424633604315798 0 -0.25812358553267323 -0.37605355791306738 0 -0.24839247009954951 -0.37292447016044328 0 -0.25757508569408222 -0.36424633604315798 0 -0.26546808025963542 -0.34847395767735678 0 -0.24650166737573331 -0.3569693529562265 0 -0.26546808025963542 -0.34847395767735678 0 -0.24650166737573331 -0.3569693529562265 0 -0.24881121389389799 -0.33838995723746451 0 -0.27675503022224163 -0.36681377825091099 0 -0.26546808025963542 -0.34847395767735678 0 -0.29282778547957722 -0.33935753649529382 0 -0.26791752464712137 -0.32516417520111718 0 -0.27544300416693679 -0.31995488319631832 0 -0.29282778547957722 -0.33935753649529382 0 -0.26546808025963542 -0.34847395767735678 0 -0.26791752464712137 -0.32516417520111718 0 -0.29282778547957722 -0.33935753649529382 0 -0.26791752464712137 -0.32516417520111718 0 -0.29282778547957722 -0.33935753649529382 0 -0.26791752464712137 -0.32516417520111718 0 -0.24881121389389799 -0.33838995723746451 0 -0.26546808025963542 -0.34847395767735678 0 -0.26791752464712137 -0.32516417520111718 0 -0.24881121389389799 -0.33838995723746451 0 -0.26791752464712137 -0.32516417520111718 0 -0.24881121389389799 -0.33838995723746451 0 -0.2441082332202735 -0.32380704628422963 0 -0.26791752464712137 -0.32516417520111718 0 -0.2444966906846206 -0.31181945912301329 0 -0.26791752464712137 -0.32516417520111718 0 -0.26963915832665503 -0.30942012505775762 0 -0.2444966906846206 -0.31181945912301329 0 -0.26791752464712137 -0.32516417520111718 0 -0.2441082332202735 -0.32380704628422963 0 -0.2444966906846206 -0.31181945912301329 0 -0.26791752464712137 -0.32516417520111718 0 -0.27544300416693679 -0.31995488319631832 0 -0.26963915832665503 -0.30942012505775762 0 -0.26791752464712137 -0.32516417520111718 0 -0.27544300416693679 -0.31995488319631832 0 -0.27544300416693679 -0.31995488319631832 0 -0.29403167998309421 -0.32125824908992018 0 -0.29478162596868879 -0.30702079099249591 0 -0.27544300416693679 -0.31995488319631832 0 -0.29403167998309421 -0.32125824908992018 0 -0.29282778547957722 -0.33935753649529382 0 -0.31307430431717392 -0.31869978567557272 0 -0.32184288384298337 -0.33167017375041419 0 -0.29282778547957722 -0.33935753649529382 0 -0.32184288384298337 -0.33167017375041419 0 -0.31773804631203251 -0.35355089778947202 0 -0.29282778547957722 -0.33935753649529382 0 -0.31307430431717392 -0.31869978567557272 0 -0.29403167998309421 -0.32125824908992018 0 -0.29282778547957722 -0.33935753649529382 0 -0.31307430431717392 -0.31869978567557272 0 -0.29403167998309421 -0.32125824908992018 0 -0.29478162596868879 -0.30702079099249591 0 -0.31992409361072222 -0.30462145692723192 0 -0.29478162596868879 -0.30702079099249591 0 -0.31992409361072222 -0.30462145692723192 0 -0.31307430431717392 -0.31869978567557272 0 -0.29478162596868879 -0.30702079099249591 0 -0.31992409361072222 -0.30462145692723192 0 -0.30687808727867438 -0.29770175581860719 0 -0.29478162596868879 -0.30702079099249591 0 -0.30687808727867438 -0.29770175581860719 0 -0.29813438661480679 -0.29530641477552327 0 -0.29478162596868879 -0.30702079099249591 0 -0.31992409361072222 -0.30462145692723192 0 -0.2984608121496099 -0.28511533651958437 0 -0.31992409361072222 -0.30462145692723192 0 -0.30687808727867438 -0.29770175581860719 0 -0.2984608121496099 -0.28511533651958437 0 -0.31332574866090718 -0.291474364566292 0 -0.31992409361072222 -0.30462145692723192 0 -0.2984608121496099 -0.28511533651958437 0 -0.31332574866090718 -0.291474364566292 0 -0.30937392239009109 -0.28339120160471948 0 -0.2984608121496099 -0.28511533651958437 0 -0.31332574866090718 -0.291474364566292 0 -0.2984608121496099 -0.28511533651958437 0 -0.30937392239009109 -0.28339120160471948 0 -0.2984608121496099 -0.28511533651958437 0 -0.30347897474907187 -0.279643462580969 0 -0.30687808727867438 -0.29770175581860719 0 -0.29951482580247829 -0.29240083595456018 0 -0.29813438661480679 -0.29530641477552327 0 -0.30687808727867438 -0.29770175581860719 0 -0.2984608121496099 -0.28511533651958437 0 -0.29951482580247829 -0.29240083595456018 0 -0.29951482580247829 -0.29240083595456018 0 -0.29813438661480679 -0.29530641477552327 0 -0.29499124589990039 -0.29073588210889412 0 -0.2984608121496099 -0.28511533651958437 0 -0.29951482580247829 -0.29240083595456018 0 -0.29499124589990039 -0.29073588210889412 0 -0.29499124589990039 -0.29073588210889412 0 -0.29148170063899659 -0.29460773718781319 0 -0.28586576089235322 -0.28577101837165192 0 -0.29813438661480679 -0.29530641477552327 0 -0.29499124589990039 -0.29073588210889412 0 -0.29148170063899659 -0.29460773718781319 0 -0.2984608121496099 -0.28511533651958437 0 -0.29499124589990039 -0.29073588210889412 0 -0.28586576089235322 -0.28577101837165192 0 -0.29148170063899659 -0.29460773718781319 0 -0.28586576089235322 -0.28577101837165192 0 -0.2798353156189245 -0.29508903771003908 0 -0.29148170063899659 -0.29460773718781319 0 -0.29478162596868879 -0.30702079099249591 0 -0.2798353156189245 -0.29508903771003908 0 -0.29478162596868879 -0.30702079099249591 0 -0.26963915832665503 -0.30942012505775762 0 -0.2798353156189245 -0.29508903771003908 0 -0.29478162596868879 -0.30702079099249591 0 -0.26963915832665503 -0.30942012505775762 0 -0.29813438661480679 -0.29530641477552327 0 -0.29148170063899659 -0.29460773718781319 0 -0.29478162596868879 -0.30702079099249591 0 -0.27544300416693679 -0.31995488319631832 0 -0.29478162596868879 -0.30702079099249591 0 -0.26963915832665503 -0.30942012505775762 0 -0.26963915832665503 -0.30942012505775762 0 -0.26057201890547982 -0.29344093798311832 0 -0.2798353156189245 -0.29508903771003908 0 -0.26963915832665503 -0.30942012505775762 0 -0.2444966906846206 -0.31181945912301329 0 -0.26963915832665503 -0.30942012505775762 0 -0.26057201890547982 -0.29344093798311832 0 -0.2444966906846206 -0.31181945912301329 0 -0.26057201890547982 -0.29344093798311832 0 -0.27108878797196961 -0.28331686931735522 0 -0.25298377122075039 -0.27518622721876451 0 -0.26057201890547982 -0.29344093798311832 0 -0.25298377122075039 -0.27518622721876451 0 -0.2435111179254994 -0.29490773243705071 0 -0.26057201890547982 -0.29344093798311832 0 -0.27108878797196961 -0.28331686931735522 0 -0.2798353156189245 -0.29508903771003908 0 -0.28586576089235322 -0.28577101837165192 0 -0.27108878797196961 -0.28331686931735522 0 -0.2798353156189245 -0.29508903771003908 0 -0.27108878797196961 -0.28331686931735522 0 -0.27618707322233982 -0.26709712530320262 0 -0.25298377122075039 -0.27518622721876451 0 -0.28586576089235322 -0.28577101837165192 0 -0.27108878797196961 -0.28331686931735522 0 -0.27618707322233982 -0.26709712530320262 0 -0.27618707322233982 -0.26709712530320262 0 -0.25431856302814809 -0.24833495949118861 0 -0.27618707322233982 -0.26709712530320262 0 -0.25298377122075039 -0.27518622721876451 0 -0.25431856302814809 -0.24833495949118861 0 -0.27618707322233982 -0.26709712530320262 0 -0.27309361240676189 -0.24179026653703889 0 -0.25431856302814809 -0.24833495949118861 0 -0.27618707322233982 -0.26709712530320262 0 -0.2907170577323625 -0.25177677077710309 0 -0.27309361240676189 -0.24179026653703889 0 -0.27618707322233982 -0.26709712530320262 0 -0.2907170577323625 -0.25177677077710309 0 -0.29477899871119112 -0.26293378760569941 0 -0.2984608121496099 -0.28511533651958437 0 -0.28586576089235322 -0.28577101837165192 0 -0.27618707322233982 -0.26709712530320262 0 -0.2984608121496099 -0.28511533651958437 0 -0.27618707322233982 -0.26709712530320262 0 -0.27618707322233982 -0.26709712530320262 0 -0.29477899871119112 -0.26293378760569941 0 -0.29948479845841441 -0.27338487519771032 0 -0.2984608121496099 -0.28511533651958437 0 -0.27618707322233982 -0.26709712530320262 0 -0.29948479845841441 -0.27338487519771032 0 -0.29477899871119112 -0.26293378760569941 0 -0.29948479845841441 -0.27338487519771032 0 -0.30156079933714469 -0.26765617134954151 0 -0.30156079933714469 -0.26765617134954151 0 -0.30403476516136241 -0.27459464834518948 0 -0.30588444940973558 -0.27063474712059482 0 -0.29948479845841441 -0.27338487519771032 0 -0.30156079933714469 -0.26765617134954151 0 -0.30403476516136241 -0.27459464834518948 0 -0.30156079933714469 -0.26765617134954151 0 -0.30588444940973558 -0.27063474712059482 0 -0.3062135479255173 -0.26372173898871692 0 -0.2984608121496099 -0.28511533651958437 0 -0.29948479845841441 -0.27338487519771032 0 -0.30347897474907187 -0.279643462580969 0 -0.29948479845841441 -0.27338487519771032 0 -0.30403476516136241 -0.27459464834518948 0 -0.30347897474907187 -0.279643462580969 0 -0.30937392239009109 -0.28339120160471948 0 -0.30347897474907187 -0.279643462580969 0 -0.31187737399160442 -0.27618124236115132 0 -0.30403476516136241 -0.27459464834518948 0 -0.30347897474907187 -0.279643462580969 0 -0.31187737399160442 -0.27618124236115132 0 -0.30403476516136241 -0.27459464834518948 0 -0.31187737399160442 -0.27618124236115132 0 -0.30588444940973558 -0.27063474712059482 0 -0.31187737399160442 -0.27618124236115132 0 -0.30588444940973558 -0.27063474712059482 0 -0.3062135479255173 -0.26372173898871692 0 -0.31664960680882542 -0.25714232151458272 0 -0.31202674084989918 -0.26335133138269068 0 -0.30853150187083839 -0.25429835417001312 0 -0.2907170577323625 -0.25177677077710309 0 -0.29477899871119112 -0.26293378760569941 0 -0.30853150187083839 -0.25429835417001312 0 -0.31202674084989918 -0.26335133138269068 0 -0.3062135479255173 -0.26372173898871692 0 -0.30853150187083839 -0.25429835417001312 0 -0.29477899871119112 -0.26293378760569941 0 -0.30156079933714469 -0.26765617134954151 0 -0.3062135479255173 -0.26372173898871692 0 -0.29477899871119112 -0.26293378760569941 0 -0.3062135479255173 -0.26372173898871692 0 -0.30853150187083839 -0.25429835417001312 0 -0.33709504481289931 -0.46474263175187808 0 -0.33075086723682939 -0.45093918684289991 0 -0.35302422329502631 -0.44785824460859458 0 -0.33709504481289931 -0.46474263175187808 0 -0.33075086723682939 -0.45093918684289991 0 -0.32054712240525829 -0.47546959342145068 0 -0.33075086723682939 -0.45093918684289991 0 -0.34095461206840061 -0.42640878026434909 0 -0.33075086723682939 -0.45093918684289991 0 -0.35302422329502631 -0.44785824460859458 0 -0.34095461206840061 -0.42640878026434909 0 -0.33075086723682939 -0.45093918684289991 0 -0.32054706720266329 -0.44859283512714471 0 -0.3206124180200437 -0.43193612962395289 0 -0.33075086723682939 -0.45093918684289991 0 -0.32054706720266329 -0.44859283512714471 0 -0.31571728338184601 -0.45752087103574601 0 -0.32054706720266329 -0.44859283512714471 0 -0.31571728338184601 -0.45752087103574601 0 -0.30706080135445341 -0.45057148265483188 0 -0.33075086723682939 -0.45093918684289991 0 -0.32054712240525829 -0.47546959342145068 0 -0.33075086723682939 -0.45093918684289991 0 -0.31571728338184601 -0.45752087103574601 0 -0.32054712240525829 -0.47546959342145068 0 -0.32054712240525829 -0.47546959342145068 0 -0.32750579650535672 -0.48798687004089669 0 -0.32933965142182292 -0.47777380670114528 0 -0.32054712240525829 -0.47546959342145068 0 -0.31034337757368669 -0.50000000000000133 0 -0.32750579650535672 -0.48798687004089669 0 -0.33387795429423722 -0.5 0 -0.31034337757368669 -0.50000000000000133 0 -0.32054712240525829 -0.47546959342145068 0 -0.32750579650535672 -0.48798687004089669 0 -0.31034337757368669 -0.50000000000000133 0 -0.32750579650535672 -0.48798687004089669 0 -0.34342087683177741 -0.48669095008188618 0 -0.33387795429423722 -0.5 0 -0.33709504481289931 -0.46474263175187808 0 -0.32933965142182292 -0.47777380670114528 0 -0.35181335970555933 -0.47167232718529989 0 -0.34342087683177741 -0.48669095008188618 0 -0.32933965142182292 -0.47777380670114528 0 -0.35181335970555933 -0.47167232718529989 0 -0.32750579650535672 -0.48798687004089669 0 -0.34342087683177741 -0.48669095008188618 0 -0.32933965142182292 -0.47777380670114528 0 -0.33709504481289931 -0.46474263175187808 0 -0.32054712240525829 -0.47546959342145068 0 -0.32933965142182292 -0.47777380670114528 0 -0.32933965142182292 -0.47777380670114528 0 -0.35181335970555933 -0.47167232718529989 0 -0.34342087683177741 -0.48669095008188618 0 -0.35181335970555933 -0.47167232718529989 0 -0.35979455825166368 -0.48519290092039941 0 -0.34342087683177741 -0.48669095008188618 0 -0.35741253101478748 -0.5 0 -0.35979455825166368 -0.48519290092039941 0 -0.34342087683177741 -0.48669095008188618 0 -0.33387795429423722 -0.5 0 -0.35741253101478748 -0.5 0 -0.38094710773533791 -0.49999999999999839 0 -0.35741253101478748 -0.5 0 -0.37240076261097882 -0.48974555046165519 0 -0.35741253101478748 -0.5 0 -0.35979455825166368 -0.48519290092039941 0 -0.37240076261097882 -0.48974555046165519 0 -0.35181335970555933 -0.47167232718529989 0 -0.35979455825166368 -0.48519290092039941 0 -0.37411677223754131 -0.47733161267270968 0 -0.35181335970555933 -0.47167232718529989 0 -0.37411677223754131 -0.47733161267270968 0 -0.37428706798929601 -0.46557084766945539 0 -0.35979455825166368 -0.48519290092039941 0 -0.37240076261097882 -0.48974555046165519 0 -0.37411677223754131 -0.47733161267270968 0 -0.37411677223754131 -0.47733161267270968 0 -0.37428706798929601 -0.46557084766945539 0 -0.35181335970555933 -0.47167232718529989 0 -0.37428706798929601 -0.46557084766945539 0 -0.35302422329502631 -0.44785824460859458 0 -0.35181335970555933 -0.47167232718529989 0 -0.37428706798929601 -0.46557084766945539 0 -0.33709504481289931 -0.46474263175187808 0 -0.35181335970555933 -0.47167232718529989 0 -0.35302422329502631 -0.44785824460859458 0 -0.37428706798929601 -0.46557084766945539 0 -0.35302422329502631 -0.44785824460859458 0 -0.37472313619600889 -0.43545561783144832 0 -0.37428706798929601 -0.46557084766945539 0 -0.37472313619600889 -0.43545561783144832 0 -0.35302422329502631 -0.44785824460859458 0 -0.37472313619600889 -0.43545561783144832 0 -0.36076670325611282 -0.42019275678090617 0 -0.37515920440272033 -0.40534038799344108 0 -0.37472313619600889 -0.43545561783144832 0 -0.36076670325611282 -0.42019275678090617 0 -0.37515920440272033 -0.40534038799344108 0 -0.36076670325611282 -0.42019275678090617 0 -0.35115835689997099 -0.40187837368579798 0 -0.37515920440272033 -0.40534038799344108 0 -0.37472313619600889 -0.43545561783144832 0 -0.36076670325611282 -0.42019275678090617 0 -0.35115835689997099 -0.40187837368579798 0 -0.34095461206840061 -0.42640878026434909 0 -0.34815033243380111 -0.40144447968524521 0 -0.35115835689997099 -0.40187837368579798 0 -0.34095461206840061 -0.42640878026434909 0 -0.35115835689997099 -0.40187837368579798 0 -0.34095461206840061 -0.42640878026434909 0 -0.35302422329502631 -0.44785824460859458 0 -0.36076670325611282 -0.42019275678090617 0 -0.34095461206840061 -0.42640878026434909 0 -0.37543310808941849 -0.38642437359143528 0 -0.36100598543278789 -0.37820409176948921 0 -0.35115835689997099 -0.40187837368579798 0 -0.37543310808941849 -0.38642437359143528 0 -0.37568304780698558 -0.36916333065311507 0 -0.36100598543278789 -0.37820409176948921 0 -0.37543310808941849 -0.38642437359143528 0 -0.36100598543278789 -0.37820409176948921 0 -0.37515920440272033 -0.40534038799344108 0 -0.37543310808941849 -0.38642437359143528 0 -0.35115835689997099 -0.40187837368579798 0 -0.37515920440272033 -0.40534038799344108 0 -0.35115835689997099 -0.40187837368579798 0 -0.35115835689997099 -0.40187837368579798 0 -0.34646966066369161 -0.38533898881774881 0 -0.34316085436749 -0.39382471367395527 0 -0.34815033243380111 -0.40144447968524521 0 -0.35115835689997099 -0.40187837368579798 0 -0.34316085436749 -0.39382471367395527 0 -0.34815033243380111 -0.40144447968524521 0 -0.35115835689997099 -0.40187837368579798 0 -0.33937201587241012 -0.36587749477948078 0 -0.36100598543278789 -0.37820409176948921 0 -0.34646966066369161 -0.38533898881774881 0 -0.36100598543278789 -0.37820409176948921 0 -0.35115835689997099 -0.40187837368579798 0 -0.36100598543278789 -0.37820409176948921 0 -0.35115835689997099 -0.40187837368579798 0 -0.34646966066369161 -0.38533898881774881 0 -0.33937201587241012 -0.36587749477948078 0 -0.32803705280137402 -0.37447550275240871 0 -0.34646966066369161 -0.38533898881774881 0 -0.32803705280137402 -0.37447550275240871 0 -0.34646966066369161 -0.38533898881774881 0 -0.32931529664348408 -0.38869437358142001 0 -0.34646966066369161 -0.38533898881774881 0 -0.32931529664348408 -0.38869437358142001 0 -0.34316085436749 -0.39382471367395527 0 -0.34815033243380111 -0.40144447968524521 0 -0.33486919938690762 -0.39884665705885908 0 -0.32944617452305069 -0.41182817437998842 0 -0.32931529664348408 -0.38869437358142001 0 -0.34316085436749 -0.39382471367395527 0 -0.33486919938690762 -0.39884665705885908 0 -0.32931529664348408 -0.38869437358142001 0 -0.33486919938690762 -0.39884665705885908 0 -0.32365381597648563 -0.39942827076698811 0 -0.34815033243380111 -0.40144447968524521 0 -0.34316085436749 -0.39382471367395527 0 -0.33486919938690762 -0.39884665705885908 0 -0.33486919938690762 -0.39884665705885908 0 -0.32365381597648563 -0.39942827076698811 0 -0.32944617452305069 -0.41182817437998842 0 -0.32931529664348408 -0.38869437358142001 0 -0.32365381597648563 -0.39942827076698811 0 -0.30988209993594379 -0.39542680479545339 0 -0.32365381597648563 -0.39942827076698811 0 -0.30595412674790001 -0.41636475829844438 0 -0.30988209993594379 -0.39542680479545339 0 -0.31381007312398762 -0.37448885129246268 0 -0.32931529664348408 -0.38869437358142001 0 -0.30988209993594379 -0.39542680479545339 0 -0.31381007312398762 -0.37448885129246268 0 -0.32803705280137402 -0.37447550275240871 0 -0.32931529664348408 -0.38869437358142001 0 -0.34095461206840061 -0.42640878026434909 0 -0.32944617452305069 -0.41182817437998842 0 -0.3206124180200437 -0.43193612962395289 0 -0.33075086723682939 -0.45093918684289991 0 -0.34095461206840061 -0.42640878026434909 0 -0.3206124180200437 -0.43193612962395289 0 -0.34815033243380111 -0.40144447968524521 0 -0.34095461206840061 -0.42640878026434909 0 -0.32944617452305069 -0.41182817437998842 0 -0.32944617452305069 -0.41182817437998842 0 -0.3206124180200437 -0.43193612962395289 0 -0.30595412674790001 -0.41636475829844438 0 -0.32365381597648563 -0.39942827076698811 0 -0.32944617452305069 -0.41182817437998842 0 -0.30595412674790001 -0.41636475829844438 0 -0.3206124180200437 -0.43193612962395289 0 -0.30595412674790001 -0.41636475829844438 0 -0.29602166034141808 -0.43748304283089118 0 -0.30595412674790001 -0.41636475829844438 0 -0.28680587137917263 -0.41476105187328532 0 -0.29502227998321778 -0.40112933436643161 0 -0.30595412674790001 -0.41636475829844438 0 -0.28680587137917263 -0.41476105187328532 0 -0.29602166034141808 -0.43748304283089118 0 -0.28680587137917263 -0.41476105187328532 0 -0.29602166034141808 -0.43748304283089118 0 -0.27149625348017281 -0.42637325053463759 0 -0.29602166034141808 -0.43748304283089118 0 -0.27149625348017281 -0.42637325053463759 0 -0.29602166034141808 -0.43748304283089118 0 -0.27149625348017281 -0.42637325053463759 0 -0.27906578537949278 -0.44687665772048962 0 -0.31381007312398762 -0.37448885129246268 0 -0.30988209993594379 -0.39542680479545339 0 -0.31381007312398762 -0.37448885129246268 0 -0.30988209993594379 -0.39542680479545339 0 -0.29196992941862432 -0.3825632544476108 0 -0.30595412674790001 -0.41636475829844438 0 -0.30988209993594379 -0.39542680479545339 0 -0.30595412674790001 -0.41636475829844438 0 -0.30988209993594379 -0.39542680479545339 0 -0.29502227998321778 -0.40112933436643161 0 -0.30988209993594379 -0.39542680479545339 0 -0.29502227998321778 -0.40112933436643161 0 -0.29196992941862432 -0.3825632544476108 0 -0.28680587137917263 -0.41476105187328532 0 -0.29502227998321778 -0.40112933436643161 0 -0.2806661672136338 -0.39648987600255969 0 -0.29502227998321778 -0.40112933436643161 0 -0.29196992941862432 -0.3825632544476108 0 -0.2806661672136338 -0.39648987600255969 0 -0.27675503022224163 -0.36681377825091099 0 -0.29196992941862432 -0.3825632544476108 0 -0.26924588117792803 -0.38334910629271668 0 -0.29196992941862432 -0.3825632544476108 0 -0.26924588117792803 -0.38334910629271668 0 -0.2806661672136338 -0.39648987600255969 0 -0.27675503022224163 -0.36681377825091099 0 -0.26924588117792803 -0.38334910629271668 0 -0.25812358553267323 -0.37605355791306738 0 -0.28680587137917263 -0.41476105187328532 0 -0.2806661672136338 -0.39648987600255969 0 -0.26326431180229581 -0.40282557300305732 0 -0.26924588117792803 -0.38334910629271668 0 -0.2806661672136338 -0.39648987600255969 0 -0.26326431180229581 -0.40282557300305732 0 -0.26326431180229581 -0.40282557300305732 0 -0.2504897110532438 -0.38524934403489181 0 -0.24394706363899241 -0.39877073912243299 0 -0.26326431180229581 -0.40282557300305732 0 -0.24697084661892749 -0.41526345823838401 0 -0.24394706363899241 -0.39877073912243299 0 -0.26924588117792803 -0.38334910629271668 0 -0.26326431180229581 -0.40282557300305732 0 -0.2504897110532438 -0.38524934403489181 0 -0.26924588117792803 -0.38334910629271668 0 -0.2504897110532438 -0.38524934403489181 0 -0.25812358553267323 -0.37605355791306738 0 -0.2504897110532438 -0.38524934403489181 0 -0.25812358553267323 -0.37605355791306738 0 -0.24839247009954951 -0.37292447016044328 0 -0.28680587137917263 -0.41476105187328532 0 -0.26326431180229581 -0.40282557300305732 0 -0.27149625348017281 -0.42637325053463759 0 -0.27149625348017281 -0.42637325053463759 0 -0.24697084661892749 -0.41526345823838401 0 -0.26326431180229581 -0.40282557300305732 0 -0.27149625348017281 -0.42637325053463759 0 -0.24697084661892749 -0.41526345823838401 0 -0.27149625348017281 -0.42637325053463759 0 -0.25687425522332558 -0.44642006451091643 0 -0.24697084661892749 -0.41526345823838401 0 -0.25687425522332558 -0.44642006451091643 0 -0.27607931301277078 -0.46657199895299017 0 -0.25409384940020791 -0.47271975939701871 0 -0.25687425522332558 -0.44642006451091643 0 -0.27607931301277078 -0.46657199895299017 0 -0.27906578537949278 -0.44687665772048962 0 -0.27149625348017281 -0.42637325053463759 0 -0.25687425522332558 -0.44642006451091643 0 -0.27906578537949278 -0.44687665772048962 0 -0.29602166034141808 -0.43748304283089118 0 -0.27906578537949278 -0.44687665772048962 0 -0.29968055871002541 -0.46203125713240301 0 -0.27607931301277078 -0.46657199895299017 0 -0.27906578537949278 -0.44687665772048962 0 -0.29968055871002541 -0.46203125713240301 0 -0.31571728338184601 -0.45752087103574601 0 -0.29968055871002541 -0.46203125713240301 0 -0.30706080135445341 -0.45057148265483188 0 -0.31571728338184601 -0.45752087103574601 0 -0.32054712240525829 -0.47546959342145068 0 -0.29968055871002541 -0.46203125713240301 0 -0.32054706720266329 -0.44859283512714471 0 -0.29602166034141808 -0.43748304283089118 0 -0.32054706720266329 -0.44859283512714471 0 -0.3206124180200437 -0.43193612962395289 0 -0.29602166034141808 -0.43748304283089118 0 -0.32054706720266329 -0.44859283512714471 0 -0.29602166034141808 -0.43748304283089118 0 -0.30706080135445341 -0.45057148265483188 0 -0.29602166034141808 -0.43748304283089118 0 -0.29968055871002541 -0.46203125713240301 0 -0.30706080135445341 -0.45057148265483188 0 -0.32054712240525829 -0.47546959342145068 0 -0.31034337757368669 -0.50000000000000133 0 -0.2941570887960146 -0.48201569375099518 0 -0.32054712240525829 -0.47546959342145068 0 -0.29968055871002541 -0.46203125713240301 0 -0.2941570887960146 -0.48201569375099518 0 -0.27607931301277078 -0.46657199895299017 0 -0.29968055871002541 -0.46203125713240301 0 -0.2941570887960146 -0.48201569375099518 0 -0.2941570887960146 -0.48201569375099518 0 -0.28248249767631262 -0.5 0 -0.27039562620846602 -0.48462576079096858 0 -0.31034337757368669 -0.50000000000000133 0 -0.2941570887960146 -0.48201569375099518 0 -0.28248249767631262 -0.5 0 -0.28248249767631262 -0.5 0 -0.27039562620846602 -0.48462576079096858 0 -0.25462161777893849 -0.5 0 -0.27607931301277078 -0.46657199895299017 0 -0.2941570887960146 -0.48201569375099518 0 -0.27039562620846602 -0.48462576079096858 0 -0.27607931301277078 -0.46657199895299017 0 -0.27039562620846602 -0.48462576079096858 0 -0.25409384940020791 -0.47271975939701871 0 -0.27039562620846602 -0.48462576079096858 0 -0.25409384940020791 -0.47271975939701871 0 -0.25462161777893849 -0.5 0 -0.25462161777893849 -0.5 0 -0.23155232774708009 -0.47932355884050398 0 -0.22676073788156451 -0.5 0 -0.25409384940020791 -0.47271975939701871 0 -0.25462161777893849 -0.5 0 -0.23155232774708009 -0.47932355884050398 0 -0.25409384940020791 -0.47271975939701871 0 -0.23155232774708009 -0.47932355884050398 0 -0.2350399564306665 -0.45937717328673289 0 -0.23155232774708009 -0.47932355884050398 0 -0.2350399564306665 -0.45937717328673289 0 -0.2080224731694312 -0.47403962225972662 0 -0.23155232774708009 -0.47932355884050398 0 -0.22676073788156451 -0.5 0 -0.2080224731694312 -0.47403962225972662 0 -0.25687425522332558 -0.44642006451091643 0 -0.2350399564306665 -0.45937717328673289 0 -0.23180750449586429 -0.4343742486430574 0 -0.25687425522332558 -0.44642006451091643 0 -0.25409384940020791 -0.47271975939701871 0 -0.2350399564306665 -0.45937717328673289 0 -0.2350399564306665 -0.45937717328673289 0 -0.21590660946663959 -0.44883644739355771 0 -0.2080224731694312 -0.47403962225972662 0 -0.2350399564306665 -0.45937717328673289 0 -0.21590660946663959 -0.44883644739355771 0 -0.23180750449586429 -0.4343742486430574 0 -0.21590660946663959 -0.44883644739355771 0 -0.1943898331460783 -0.4473597119794826 0 -0.20910912931781811 -0.42543372189632289 0 -0.21590660946663959 -0.44883644739355771 0 -0.1943898331460783 -0.4473597119794826 0 -0.2080224731694312 -0.47403962225972662 0 -0.1943898331460783 -0.4473597119794826 0 -0.2080224731694312 -0.47403962225972662 0 -0.17967053697433849 -0.46928570206264231 0 -0.22676073788156451 -0.5 0 -0.2080224731694312 -0.47403962225972662 0 -0.19889985798419041 -0.5 0 -0.2080224731694312 -0.47403962225972662 0 -0.1821948971586228 -0.48648437486529872 0 -0.17967053697433849 -0.46928570206264231 0 -0.2080224731694312 -0.47403962225972662 0 -0.19889985798419041 -0.5 0 -0.1821948971586228 -0.48648437486529872 0 -0.19889985798419041 -0.5 0 -0.1821948971586228 -0.48648437486529872 0 -0.17103897808681609 -0.49999999999999778 0 -0.1821948971586228 -0.48648437486529872 0 -0.17103897808681609 -0.49999999999999778 0 -0.16495124080259491 -0.49121169214579941 0 -0.17103897808681609 -0.49999999999999778 0 -0.16495124080259491 -0.49121169214579941 0 -0.17103897808681609 -0.49999999999999778 0 -0.16495124080259491 -0.49121169214579941 0 -0.15905149781887321 -0.49999999999999961 0 -0.16495124080259491 -0.49121169214579941 0 -0.15905149781887321 -0.49999999999999961 0 -0.1545750311736096 -0.49062041690426861 0 -0.16495124080259491 -0.49121169214579941 0 -0.15905149781887321 -0.49999999999999961 0 -0.16495124080259491 -0.49121169214579941 0 -0.16530166315622061 -0.47155300009798301 0 -0.17967053697433849 -0.46928570206264231 0 -0.16495124080259491 -0.49121169214579941 0 -0.16530166315622061 -0.47155300009798301 0 -0.15083103946930049 -0.47082765280793248 0 -0.16495124080259491 -0.49121169214579941 0 -0.1545750311736096 -0.49062041690426861 0 -0.15083103946930049 -0.47082765280793248 0 -0.16495124080259491 -0.49121169214579941 0 -0.15083103946930049 -0.47082765280793248 0 -0.16495124080259491 -0.49121169214579941 0 -0.17967053697433849 -0.46928570206264231 0 -0.1821948971586228 -0.48648437486529872 0 -0.16495124080259491 -0.49121169214579941 0 -0.17967053697433849 -0.46928570206264231 0 -0.1943898331460783 -0.4473597119794826 0 -0.17967053697433849 -0.46928570206264231 0 -0.1943898331460783 -0.4473597119794826 0 -0.17967053697433849 -0.46928570206264231 0 -0.1657538353786501 -0.45488695337555668 0 -0.1943898331460783 -0.4473597119794826 0 -0.1657538353786501 -0.45488695337555668 0 -0.1755027511393909 -0.43471579892562301 0 -0.1657538353786501 -0.45488695337555668 0 -0.15761868306950341 -0.43586407366366631 0 -0.1755027511393909 -0.43471579892562301 0 -0.16530166315622061 -0.47155300009798301 0 -0.1657538353786501 -0.45488695337555668 0 -0.15083103946930049 -0.47082765280793248 0 -0.16530166315622061 -0.47155300009798301 0 -0.17967053697433849 -0.46928570206264231 0 -0.1657538353786501 -0.45488695337555668 0 -0.13671083813600751 -0.45044361347006462 0 -0.15083103946930049 -0.47082765280793248 0 -0.13671083813600751 -0.45044361347006462 0 -0.13441782301728619 -0.47175980973682791 0 -0.15083103946930049 -0.47082765280793248 0 -0.1657538353786501 -0.45488695337555668 0 -0.13671083813600751 -0.45044361347006462 0 -0.15083103946930049 -0.47082765280793248 0 -0.13671083813600751 -0.45044361347006462 0 -0.13816776916695811 -0.432543871779144 0 -0.15761868306950341 -0.43586407366366631 0 -0.1657538353786501 -0.45488695337555668 0 -0.13671083813600751 -0.45044361347006462 0 -0.15761868306950341 -0.43586407366366631 0 -0.13671083813600751 -0.45044361347006462 0 -0.13816776916695811 -0.432543871779144 0 -0.1225906368027144 -0.43005957413219659 0 -0.13671083813600751 -0.45044361347006462 0 -0.1225906368027144 -0.43005957413219659 0 -0.13671083813600751 -0.45044361347006462 0 -0.13441782301728619 -0.47175980973682791 0 -0.1201929706126502 -0.46127799294672761 0 -0.13441782301728619 -0.47175980973682791 0 -0.12605423818426559 -0.48707922202292669 0 -0.14429533434837091 -0.48908967660720287 0 -0.13441782301728619 -0.47175980973682791 0 -0.12605423818426559 -0.48707922202292669 0 -0.1201929706126502 -0.46127799294672761 0 -0.1295391708778694 -0.5 0 -0.12605423818426559 -0.48707922202292669 0 -0.14429533434837091 -0.48908967660720287 0 -0.15905149781887321 -0.49999999999999961 0 -0.1295391708778694 -0.5 0 -0.14429533434837091 -0.48908967660720287 0 -0.15905149781887321 -0.49999999999999961 0 -0.14429533434837091 -0.48908967660720287 0 -0.1545750311736096 -0.49062041690426861 0 -0.14429533434837091 -0.48908967660720287 0 -0.1545750311736096 -0.49062041690426861 0 -0.15083103946930049 -0.47082765280793248 0 -0.13441782301728619 -0.47175980973682791 0 -0.14429533434837091 -0.48908967660720287 0 -0.15083103946930049 -0.47082765280793248 0 -0.15345949684661231 -0.4053237642064671 0 -0.15136585988972451 -0.39002590355483568 0 -0.13982663417143551 -0.39933000433158738 0 -0.15136585988972451 -0.39002590355483568 0 -0.1368738238800834 -0.3880397179408614 0 -0.13982663417143551 -0.39933000433158738 0 -0.15345949684661231 -0.4053237642064671 0 -0.13982663417143551 -0.39933000433158738 0 -0.1398029654186671 -0.41064466143528439 0 -0.15136585988972451 -0.39002590355483568 0 -0.1368738238800834 -0.3880397179408614 0 -0.13959568407155781 -0.37291875636350952 0 -0.15136585988972451 -0.39002590355483568 0 -0.15951650330528561 -0.37856285477961621 0 -0.13959568407155781 -0.37291875636350952 0 -0.1368738238800834 -0.3880397179408614 0 -0.12625141541498519 -0.38197991289387551 0 -0.13959568407155781 -0.37291875636350952 0 -0.1368738238800834 -0.3880397179408614 0 -0.12625141541498519 -0.38197991289387551 0 -0.1273295258527142 -0.39594401256049883 0 -0.1368738238800834 -0.3880397179408614 0 -0.1273295258527142 -0.39594401256049883 0 -0.13982663417143551 -0.39933000433158738 0 -0.13982663417143551 -0.39933000433158738 0 -0.1295768038857959 -0.40463739140698729 0 -0.1398029654186671 -0.41064466143528439 0 -0.1273295258527142 -0.39594401256049883 0 -0.13982663417143551 -0.39933000433158738 0 -0.1295768038857959 -0.40463739140698729 0 -0.1273295258527142 -0.39594401256049883 0 -0.1295768038857959 -0.40463739140698729 0 -0.1219584454402414 -0.40406961642135292 0 -0.1295768038857959 -0.40463739140698729 0 -0.1296119374269841 -0.41417592727859581 0 -0.1225700411049412 -0.40994677461386392 0 -0.1296119374269841 -0.41417592727859581 0 -0.12315425937001 -0.41747458531602638 0 -0.1225700411049412 -0.40994677461386392 0 -0.1296119374269841 -0.41417592727859581 0 -0.13713184062407599 -0.42036644340313623 0 -0.12908399078123631 -0.42243277819987513 0 -0.1296119374269841 -0.41417592727859581 0 -0.12908399078123631 -0.42243277819987513 0 -0.12315425937001 -0.41747458531602638 0 -0.1296119374269841 -0.41417592727859581 0 -0.13713184062407599 -0.42036644340313623 0 -0.1398029654186671 -0.41064466143528439 0 -0.1295768038857959 -0.40463739140698729 0 -0.1296119374269841 -0.41417592727859581 0 -0.1398029654186671 -0.41064466143528439 0 -0.12908399078123631 -0.42243277819987513 0 -0.13816776916695811 -0.432543871779144 0 -0.1225906368027144 -0.43005957413219659 0 -0.13713184062407599 -0.42036644340313623 0 -0.12908399078123631 -0.42243277819987513 0 -0.13816776916695811 -0.432543871779144 0 -0.13816776916695811 -0.432543871779144 0 -0.14921107955709881 -0.42003443798493328 0 -0.15761868306950341 -0.43586407366366631 0 -0.13713184062407599 -0.42036644340313623 0 -0.13816776916695811 -0.432543871779144 0 -0.14921107955709881 -0.42003443798493328 0 -0.15345949684661231 -0.4053237642064671 0 -0.1398029654186671 -0.41064466143528439 0 -0.14921107955709881 -0.42003443798493328 0 -0.13713184062407599 -0.42036644340313623 0 -0.1398029654186671 -0.41064466143528439 0 -0.14921107955709881 -0.42003443798493328 0 -0.15345949684661231 -0.4053237642064671 0 -0.14921107955709881 -0.42003443798493328 0 -0.17009787391258249 -0.41611158199907422 0 -0.14921107955709881 -0.42003443798493328 0 -0.17009787391258249 -0.41611158199907422 0 -0.15761868306950341 -0.43586407366366631 0 -0.17009787391258249 -0.41611158199907422 0 -0.15761868306950341 -0.43586407366366631 0 -0.1755027511393909 -0.43471579892562301 0 -0.1943898331460783 -0.4473597119794826 0 -0.1755027511393909 -0.43471579892562301 0 -0.18951413900105801 -0.42212105940109063 0 -0.17009787391258249 -0.41611158199907422 0 -0.1755027511393909 -0.43471579892562301 0 -0.18951413900105801 -0.42212105940109063 0 -0.17009787391258249 -0.41611158199907422 0 -0.18562609472684241 -0.40161550393767448 0 -0.18951413900105801 -0.42212105940109063 0 -0.18562609472684241 -0.40161550393767448 0 -0.16863204450281991 -0.39380366607865908 0 -0.18254917963999329 -0.38971973427100182 0 -0.17009787391258249 -0.41611158199907422 0 -0.18562609472684241 -0.40161550393767448 0 -0.16863204450281991 -0.39380366607865908 0 -0.18562609472684241 -0.40161550393767448 0 -0.18254917963999329 -0.38971973427100182 0 -0.19364364155811911 -0.391297223908462 0 -0.15345949684661231 -0.4053237642064671 0 -0.17009787391258249 -0.41611158199907422 0 -0.16863204450281991 -0.39380366607865908 0 -0.15345949684661231 -0.4053237642064671 0 -0.15136585988972451 -0.39002590355483568 0 -0.16863204450281991 -0.39380366607865908 0 -0.15951650330528561 -0.37856285477961621 0 -0.17625218554490921 -0.38180729220612769 0 -0.1663610822414904 -0.3702523776444529 0 -0.16863204450281991 -0.39380366607865908 0 -0.15951650330528561 -0.37856285477961621 0 -0.17625218554490921 -0.38180729220612769 0 -0.15136585988972451 -0.39002590355483568 0 -0.16863204450281991 -0.39380366607865908 0 -0.15951650330528561 -0.37856285477961621 0 -0.17625218554490921 -0.38180729220612769 0 -0.1663610822414904 -0.3702523776444529 0 -0.18579747934449059 -0.37379744869579251 0 -0.16863204450281991 -0.39380366607865908 0 -0.17625218554490921 -0.38180729220612769 0 -0.18254917963999329 -0.38971973427100182 0 -0.17625218554490921 -0.38180729220612769 0 -0.18254917963999329 -0.38971973427100182 0 -0.18859193186727599 -0.38007498522408562 0 -0.17625218554490921 -0.38180729220612769 0 -0.18859193186727599 -0.38007498522408562 0 -0.18579747934449059 -0.37379744869579251 0 -0.18859193186727599 -0.38007498522408562 0 -0.2014200033848125 -0.37119512976538899 0 -0.18859193186727599 -0.38007498522408562 0 -0.2014200033848125 -0.37119512976538899 0 -0.18579747934449059 -0.37379744869579251 0 -0.18859193186727599 -0.38007498522408562 0 -0.1989719328316337 -0.38216032023399737 0 -0.2014200033848125 -0.37119512976538899 0 -0.1989719328316337 -0.38216032023399737 0 -0.20694960464083431 -0.38128159833907621 0 -0.2014200033848125 -0.37119512976538899 0 -0.1989719328316337 -0.38216032023399737 0 -0.19364364155811911 -0.391297223908462 0 -0.20620014074293039 -0.39180645285032889 0 -0.18859193186727599 -0.38007498522408562 0 -0.1989719328316337 -0.38216032023399737 0 -0.19364364155811911 -0.391297223908462 0 -0.18254917963999329 -0.38971973427100182 0 -0.18859193186727599 -0.38007498522408562 0 -0.19364364155811911 -0.391297223908462 0 -0.18562609472684241 -0.40161550393767448 0 -0.19364364155811911 -0.391297223908462 0 -0.20208872018367391 -0.4070926974887904 0 -0.19364364155811911 -0.391297223908462 0 -0.20620014074293039 -0.39180645285032889 0 -0.20208872018367391 -0.4070926974887904 0 -0.20620014074293039 -0.39180645285032889 0 -0.21479853281951461 -0.38638530273916921 0 -0.22382842548955789 -0.4035077318131633 0 -0.20620014074293039 -0.39180645285032889 0 -0.20208872018367391 -0.4070926974887904 0 -0.22382842548955789 -0.4035077318131633 0 -0.21479853281951461 -0.38638530273916921 0 -0.20694960464083431 -0.38128159833907621 0 -0.21335741342528061 -0.3748607861064962 0 -0.21479853281951461 -0.38638530273916921 0 -0.22412886374227589 -0.38235217247817599 0 -0.21335741342528061 -0.3748607861064962 0 -0.20694960464083431 -0.38128159833907621 0 -0.2014200033848125 -0.37119512976538899 0 -0.21335741342528061 -0.3748607861064962 0 -0.20620014074293039 -0.39180645285032889 0 -0.21479853281951461 -0.38638530273916921 0 -0.20694960464083431 -0.38128159833907621 0 -0.1989719328316337 -0.38216032023399737 0 -0.20620014074293039 -0.39180645285032889 0 -0.20694960464083431 -0.38128159833907621 0 -0.1943898331460783 -0.4473597119794826 0 -0.20910912931781811 -0.42543372189632289 0 -0.1943898331460783 -0.4473597119794826 0 -0.18951413900105801 -0.42212105940109063 0 -0.20910912931781811 -0.42543372189632289 0 -0.18951413900105801 -0.42212105940109063 0 -0.20208872018367391 -0.4070926974887904 0 -0.20910912931781811 -0.42543372189632289 0 -0.18562609472684241 -0.40161550393767448 0 -0.18951413900105801 -0.42212105940109063 0 -0.20208872018367391 -0.4070926974887904 0 -0.20208872018367391 -0.4070926974887904 0 -0.20910912931781811 -0.42543372189632289 0 -0.22382842548955789 -0.4035077318131633 0 -0.20910912931781811 -0.42543372189632289 0 -0.22382842548955789 -0.4035077318131633 0 -0.21590660946663959 -0.44883644739355771 0 -0.20910912931781811 -0.42543372189632289 0 -0.23180750449586429 -0.4343742486430574 0 -0.20910912931781811 -0.42543372189632289 0 -0.23180750449586429 -0.4343742486430574 0 -0.22382842548955789 -0.4035077318131633 0 -0.23180750449586429 -0.4343742486430574 0 -0.24697084661892749 -0.41526345823838401 0 -0.22382842548955789 -0.4035077318131633 0 -0.25687425522332558 -0.44642006451091643 0 -0.23180750449586429 -0.4343742486430574 0 -0.24697084661892749 -0.41526345823838401 0 -0.22412886374227589 -0.38235217247817599 0 -0.2351820232309369 -0.38700758852266848 0 -0.22952037500089251 -0.37311519752493849 0 -0.22412886374227589 -0.38235217247817599 0 -0.22186900287429051 -0.37074082218821958 0 -0.21335741342528061 -0.3748607861064962 0 -0.22412886374227589 -0.38235217247817599 0 -0.22952037500089251 -0.37311519752493849 0 -0.22186900287429051 -0.37074082218821958 0 -0.22382842548955789 -0.4035077318131633 0 -0.24394706363899241 -0.39877073912243299 0 -0.2351820232309369 -0.38700758852266848 0 -0.21479853281951461 -0.38638530273916921 0 -0.22412886374227589 -0.38235217247817599 0 -0.22382842548955789 -0.4035077318131633 0 -0.22412886374227589 -0.38235217247817599 0 -0.22382842548955789 -0.4035077318131633 0 -0.2351820232309369 -0.38700758852266848 0 -0.24697084661892749 -0.41526345823838401 0 -0.22382842548955789 -0.4035077318131633 0 -0.24394706363899241 -0.39877073912243299 0 -0.2504897110532438 -0.38524934403489181 0 -0.24394706363899241 -0.39877073912243299 0 -0.2351820232309369 -0.38700758852266848 0 -0.2504897110532438 -0.38524934403489181 0 -0.2351820232309369 -0.38700758852266848 0 -0.24036284435674521 -0.37772398595485779 0 -0.2351820232309369 -0.38700758852266848 0 -0.24036284435674521 -0.37772398595485779 0 -0.22952037500089251 -0.37311519752493849 0 -0.2504897110532438 -0.38524934403489181 0 -0.24036284435674521 -0.37772398595485779 0 -0.24839247009954951 -0.37292447016044328 0 -0.24839247009954951 -0.37292447016044328 0 -0.24532753696728959 -0.36501789644951049 0 -0.23861636880082099 -0.36955921174380651 0 -0.24036284435674521 -0.37772398595485779 0 -0.24839247009954951 -0.37292447016044328 0 -0.23861636880082099 -0.36955921174380651 0 -0.25757508569408222 -0.36424633604315798 0 -0.24532753696728959 -0.36501789644951049 0 -0.24650166737573331 -0.3569693529562265 0 -0.24532753696728959 -0.36501789644951049 0 -0.24234943749700691 -0.36154613291017651 0 -0.24650166737573331 -0.3569693529562265 0 -0.24532753696728959 -0.36501789644951049 0 -0.24234943749700691 -0.36154613291017651 0 -0.23928568589256061 -0.36455139619594779 0 -0.24234943749700691 -0.36154613291017651 0 -0.23928568589256061 -0.36455139619594779 0 -0.23696933381926599 -0.3585493042599866 0 -0.24532753696728959 -0.36501789644951049 0 -0.23928568589256061 -0.36455139619594779 0 -0.23861636880082099 -0.36955921174380651 0 -0.23928568589256061 -0.36455139619594779 0 -0.23861636880082099 -0.36955921174380651 0 -0.23345080570298909 -0.36409891217005902 0 -0.23928568589256061 -0.36455139619594779 0 -0.23345080570298909 -0.36409891217005902 0 -0.23696933381926599 -0.3585493042599866 0 -0.24036284435674521 -0.37772398595485779 0 -0.23861636880082099 -0.36955921174380651 0 -0.22952037500089251 -0.37311519752493849 0 -0.23345080570298909 -0.36409891217005902 0 -0.22186900287429051 -0.37074082218821958 0 -0.21424807490234879 -0.36231527430669241 0 -0.22952037500089251 -0.37311519752493849 0 -0.23345080570298909 -0.36409891217005902 0 -0.22186900287429051 -0.37074082218821958 0 -0.23696933381926599 -0.3585493042599866 0 -0.21424807490234879 -0.36231527430669241 0 -0.23861636880082099 -0.36955921174380651 0 -0.22952037500089251 -0.37311519752493849 0 -0.23345080570298909 -0.36409891217005902 0 -0.23345080570298909 -0.36409891217005902 0 -0.23696933381926599 -0.3585493042599866 0 -0.21424807490234879 -0.36231527430669241 0 -0.22913587473404851 -0.35200963246311751 0 -0.2097464541822805 -0.33582260124732738 0 -0.22913587473404851 -0.35200963246311751 0 -0.23696933381926599 -0.3585493042599866 0 -0.21424807490234879 -0.36231527430669241 0 -0.22913587473404851 -0.35200963246311751 0 -0.21998707993494029 -0.33959044394559312 0 -0.22913587473404851 -0.35200963246311751 0 -0.21424807490234879 -0.36231527430669241 0 -0.22913587473404851 -0.35200963246311751 0 -0.23696933381926599 -0.3585493042599866 0 -0.22913587473404851 -0.35200963246311751 0 -0.24881121389389799 -0.33838995723746451 0 -0.22913587473404851 -0.35200963246311751 0 -0.23696933381926599 -0.3585493042599866 0 -0.24650166737573331 -0.3569693529562265 0 -0.22913587473404851 -0.35200963246311751 0 -0.24650166737573331 -0.3569693529562265 0 -0.24881121389389799 -0.33838995723746451 0 -0.23696933381926599 -0.3585493042599866 0 -0.24650166737573331 -0.3569693529562265 0 -0.24234943749700691 -0.36154613291017651 0 -0.23696933381926599 -0.3585493042599866 0 -0.24650166737573331 -0.3569693529562265 0 -0.22913587473404851 -0.35200963246311751 0 -0.24881121389389799 -0.33838995723746451 0 -0.2325545649384867 -0.33453283978227571 0 -0.24881121389389799 -0.33838995723746451 0 -0.2441082332202735 -0.32380704628422963 0 -0.2325545649384867 -0.33453283978227571 0 -0.23613058105125781 -0.31890710479075163 0 -0.2279063026952847 -0.3135077128279592 0 -0.2444966906846206 -0.31181945912301329 0 -0.2441082332202735 -0.32380704628422963 0 -0.23498207165859719 -0.32537142019391418 0 -0.23613058105125781 -0.31890710479075163 0 -0.2441082332202735 -0.32380704628422963 0 -0.23498207165859719 -0.32537142019391418 0 -0.2325545649384867 -0.33453283978227571 0 -0.2441082332202735 -0.32380704628422963 0 -0.23613058105125781 -0.31890710479075163 0 -0.2444966906846206 -0.31181945912301329 0 -0.2279063026952847 -0.3135077128279592 0 -0.2193464910840433 -0.31976030368968739 0 -0.21134622408423179 -0.310554889255794 0 -0.23613058105125781 -0.31890710479075163 0 -0.2279063026952847 -0.3135077128279592 0 -0.22829430606921119 -0.32293804105388452 0 -0.23498207165859719 -0.32537142019391418 0 -0.22829430606921119 -0.32293804105388452 0 -0.2325545649384867 -0.33453283978227571 0 -0.23498207165859719 -0.32537142019391418 0 -0.23613058105125781 -0.31890710479075163 0 -0.22829430606921119 -0.32293804105388452 0 -0.22829430606921119 -0.32293804105388452 0 -0.2193464910840433 -0.31976030368968739 0 -0.22209033975117781 -0.32887735541776358 0 -0.2279063026952847 -0.3135077128279592 0 -0.22829430606921119 -0.32293804105388452 0 -0.2193464910840433 -0.31976030368968739 0 -0.22913587473404851 -0.35200963246311751 0 -0.2325545649384867 -0.33453283978227571 0 -0.21998707993494029 -0.33959044394559312 0 -0.22913587473404851 -0.35200963246311751 0 -0.21998707993494029 -0.33959044394559312 0 -0.2097464541822805 -0.33582260124732738 0 -0.22829430606921119 -0.32293804105388452 0 -0.2325545649384867 -0.33453283978227571 0 -0.22209033975117781 -0.32887735541776358 0 -0.2325545649384867 -0.33453283978227571 0 -0.22209033975117781 -0.32887735541776358 0 -0.21998707993494029 -0.33959044394559312 0 -0.21998707993494029 -0.33959044394559312 0 -0.21026925672920721 -0.32756514861737779 0 -0.22209033975117781 -0.32887735541776358 0 -0.21998707993494029 -0.33959044394559312 0 -0.21026925672920721 -0.32756514861737779 0 -0.21998707993494029 -0.33959044394559312 0 -0.2097464541822805 -0.33582260124732738 0 -0.21026925672920721 -0.32756514861737779 0 -0.2097464541822805 -0.33582260124732738 0 -0.21026925672920721 -0.32756514861737779 0 -0.21026925672920721 -0.32756514861737779 0 -0.21134622408423179 -0.310554889255794 0 -0.19267178705524021 -0.30578920503631912 0 -0.21026925672920721 -0.32756514861737779 0 -0.21134622408423179 -0.310554889255794 0 -0.2097464541822805 -0.33582260124732738 0 -0.21026925672920721 -0.32756514861737779 0 -0.19254159852174429 -0.31996122112867409 0 -0.2193464910840433 -0.31976030368968739 0 -0.21026925672920721 -0.32756514861737779 0 -0.21134622408423179 -0.310554889255794 0 -0.2193464910840433 -0.31976030368968739 0 -0.22209033975117781 -0.32887735541776358 0 -0.21026925672920721 -0.32756514861737779 0 -0.2097464541822805 -0.33582260124732738 0 -0.1943588054861482 -0.32297640251143073 0 -0.19254159852174429 -0.31996122112867409 0 -0.21026925672920721 -0.32756514861737779 0 -0.19267178705524021 -0.30578920503631912 0 -0.21026925672920721 -0.32756514861737779 0 -0.19254159852174429 -0.31996122112867409 0 -0.19267178705524021 -0.30578920503631912 0 -0.2097464541822805 -0.33582260124732738 0 -0.19254159852174429 -0.31996122112867409 0 -0.1943588054861482 -0.32297640251143073 0 -0.18737083868624629 -0.33075534874643497 0 -0.18479650728396149 -0.32227615663527998 0 -0.1943588054861482 -0.32297640251143073 0 -0.19254159852174429 -0.31996122112867409 0 -0.1789711567900161 -0.3101302037755338 0 -0.2097464541822805 -0.33582260124732738 0 -0.19466829689393059 -0.33824472710720138 0 -0.19565175395430129 -0.3512554891803924 0 -0.2097464541822805 -0.33582260124732738 0 -0.1943588054861482 -0.32297640251143073 0 -0.19466829689393059 -0.33824472710720138 0 -0.2097464541822805 -0.33582260124732738 0 -0.1943588054861482 -0.32297640251143073 0 -0.1943588054861482 -0.32297640251143073 0 -0.19466829689393059 -0.33824472710720138 0 -0.18737083868624629 -0.33075534874643497 0 -0.19466829689393059 -0.33824472710720138 0 -0.18164424501215659 -0.34621916084723381 0 -0.18737083868624629 -0.33075534874643497 0 -0.19466829689393059 -0.33824472710720138 0 -0.19565175395430129 -0.3512554891803924 0 -0.18164424501215659 -0.34621916084723381 0 -0.20800359978069241 -0.36335027445133922 0 -0.18480326185087809 -0.36719565018674682 0 -0.19565175395430129 -0.3512554891803924 0 -0.20800359978069241 -0.36335027445133922 0 -0.18480326185087809 -0.36719565018674682 0 -0.2014200033848125 -0.37119512976538899 0 -0.18480326185087809 -0.36719565018674682 0 -0.18579747934449059 -0.37379744869579251 0 -0.2014200033848125 -0.37119512976538899 0 -0.20800359978069241 -0.36335027445133922 0 -0.18480326185087809 -0.36719565018674682 0 -0.2014200033848125 -0.37119512976538899 0 -0.20800359978069241 -0.36335027445133922 0 -0.20803809997708481 -0.36661394692190907 0 -0.20800359978069241 -0.36335027445133922 0 -0.20803809997708481 -0.36661394692190907 0 -0.21424807490234879 -0.36231527430669241 0 -0.20800359978069241 -0.36335027445133922 0 -0.20803809997708481 -0.36661394692190907 0 -0.2014200033848125 -0.37119512976538899 0 -0.20803809997708481 -0.36661394692190907 0 -0.21335741342528061 -0.3748607861064962 0 -0.2014200033848125 -0.37119512976538899 0 -0.20803809997708481 -0.36661394692190907 0 -0.20803809997708481 -0.36661394692190907 0 -0.21335741342528061 -0.3748607861064962 0 -0.21424807490234879 -0.36231527430669241 0 -0.22186900287429051 -0.37074082218821958 0 -0.21335741342528061 -0.3748607861064962 0 -0.21424807490234879 -0.36231527430669241 0 -0.20800359978069241 -0.36335027445133922 0 -0.21424807490234879 -0.36231527430669241 0 -0.20803809997708481 -0.36661394692190907 0 -0.21424807490234879 -0.36231527430669241 0 -0.2097464541822805 -0.33582260124732738 0 -0.19565175395430129 -0.3512554891803924 0 -0.20800359978069241 -0.36335027445133922 0 -0.2097464541822805 -0.33582260124732738 0 -0.20800359978069241 -0.36335027445133922 0 -0.2097464541822805 -0.33582260124732738 0 -0.20800359978069241 -0.36335027445133922 0 -0.21424807490234879 -0.36231527430669241 0 -0.22913587473404851 -0.35200963246311751 0 -0.2097464541822805 -0.33582260124732738 0 -0.21424807490234879 -0.36231527430669241 0 -0.2335542019388327 -0.26090262277066528 0 -0.21472073189145299 -0.25725591714607071 0 -0.22837296648480071 -0.23789375384220129 0 -0.2335542019388327 -0.26090262277066528 0 -0.21357196166535461 -0.27540027352014051 0 -0.21472073189145299 -0.25725591714607071 0 -0.25298377122075039 -0.27518622721876451 0 -0.2335542019388327 -0.26090262277066528 0 -0.25431856302814809 -0.24833495949118861 0 -0.25298377122075039 -0.27518622721876451 0 -0.2335542019388327 -0.26090262277066528 0 -0.23093648268818689 -0.28342115129973 0 -0.2335542019388327 -0.26090262277066528 0 -0.23093648268818689 -0.28342115129973 0 -0.21357196166535461 -0.27540027352014051 0 -0.23093648268818689 -0.28342115129973 0 -0.21242319143925911 -0.29354462989421048 0 -0.21357196166535461 -0.27540027352014051 0 -0.23093648268818689 -0.28342115129973 0 -0.2435111179254994 -0.29490773243705071 0 -0.2284599410619414 -0.30268204450860919 0 -0.23093648268818689 -0.28342115129973 0 -0.2284599410619414 -0.30268204450860919 0 -0.21242319143925911 -0.29354462989421048 0 -0.25298377122075039 -0.27518622721876451 0 -0.23093648268818689 -0.28342115129973 0 -0.2435111179254994 -0.29490773243705071 0 -0.2444966906846206 -0.31181945912301329 0 -0.2284599410619414 -0.30268204450860919 0 -0.2435111179254994 -0.29490773243705071 0 -0.2444966906846206 -0.31181945912301329 0 -0.2284599410619414 -0.30268204450860919 0 -0.26057201890547982 -0.29344093798311832 0 -0.2435111179254994 -0.29490773243705071 0 -0.2444966906846206 -0.31181945912301329 0 -0.2279063026952847 -0.3135077128279592 0 -0.2444966906846206 -0.31181945912301329 0 -0.2284599410619414 -0.30268204450860919 0 -0.2284599410619414 -0.30268204450860919 0 -0.21242319143925911 -0.29354462989421048 0 -0.2279063026952847 -0.3135077128279592 0 -0.2284599410619414 -0.30268204450860919 0 -0.21134622408423179 -0.310554889255794 0 -0.2284599410619414 -0.30268204450860919 0 -0.21134622408423179 -0.310554889255794 0 -0.21242319143925911 -0.29354462989421048 0 -0.21134622408423179 -0.310554889255794 0 -0.19267178705524021 -0.30578920503631912 0 -0.21242319143925911 -0.29354462989421048 0 -0.21134622408423179 -0.310554889255794 0 -0.21242319143925911 -0.29354462989421048 0 -0.19267178705524021 -0.30578920503631912 0 -0.19410774352861071 -0.2831088592208712 0 -0.21242319143925911 -0.29354462989421048 0 -0.19410774352861071 -0.2831088592208712 0 -0.21242319143925911 -0.29354462989421048 0 -0.21357196166535461 -0.27540027352014051 0 -0.19410774352861071 -0.2831088592208712 0 -0.21242319143925911 -0.29354462989421048 0 -0.21242319143925911 -0.29354462989421048 0 -0.21357196166535461 -0.27540027352014051 0 -0.21357196166535461 -0.27540027352014051 0 -0.21472073189145299 -0.25725591714607071 0 -0.19410774352861071 -0.2831088592208712 0 -0.21357196166535461 -0.27540027352014051 0 -0.1965391795889786 -0.26204425282134669 0 -0.19410774352861071 -0.2831088592208712 0 -0.1965391795889786 -0.26204425282134669 0 -0.17579229561796161 -0.27267308854753308 0 -0.1965391795889786 -0.26204425282134669 0 -0.20565562739327201 -0.24334207984173631 0 -0.18863044441395099 -0.24733650333174401 0 -0.1965391795889786 -0.26204425282134669 0 -0.18340152769721799 -0.25642831405215172 0 -0.18863044441395099 -0.24733650333174401 0 -0.1965391795889786 -0.26204425282134669 0 -0.21472073189145299 -0.25725591714607071 0 -0.20565562739327201 -0.24334207984173631 0 -0.21357196166535461 -0.27540027352014051 0 -0.1965391795889786 -0.26204425282134669 0 -0.21472073189145299 -0.25725591714607071 0 -0.15747684770731041 -0.26223731787419863 0 -0.16344648285301799 -0.25937253054906129 0 -0.17579229561796161 -0.27267308854753308 0 -0.1593809120407062 -0.25278805690175971 0 -0.16344648285301799 -0.25937253054906129 0 -0.1534429259631987 -0.25724555178864622 0 -0.1593809120407062 -0.25278805690175971 0 -0.16344648285301799 -0.25937253054906129 0 -0.16709258238786229 -0.25188408856254202 0 -0.1593809120407062 -0.25278805690175971 0 -0.16709258238786229 -0.25188408856254202 0 -0.1601832428566283 -0.24550858739866141 0 -0.15747684770731041 -0.26223731787419863 0 -0.16344648285301799 -0.25937253054906129 0 -0.1534429259631987 -0.25724555178864622 0 -0.16344648285301799 -0.25937253054906129 0 -0.1534429259631987 -0.25724555178864622 0 -0.16344648285301799 -0.25937253054906129 0 -0.17379217291466831 -0.25992581321180469 0 -0.17579229561796161 -0.27267308854753308 0 -0.16344648285301799 -0.25937253054906129 0 -0.16709258238786229 -0.25188408856254202 0 -0.17379217291466831 -0.25992581321180469 0 -0.16709258238786229 -0.25188408856254202 0 -0.17679077873490559 -0.25046109420941731 0 -0.17379217291466831 -0.25992581321180469 0 -0.1965391795889786 -0.26204425282134669 0 -0.18340152769721799 -0.25642831405215172 0 -0.17579229561796161 -0.27267308854753308 0 -0.17679077873490559 -0.25046109420941731 0 -0.18340152769721799 -0.25642831405215172 0 -0.17379217291466831 -0.25992581321180469 0 -0.18340152769721799 -0.25642831405215172 0 -0.17379217291466831 -0.25992581321180469 0 -0.17579229561796161 -0.27267308854753308 0 -0.17679077873490559 -0.25046109420941731 0 -0.18340152769721799 -0.25642831405215172 0 -0.18863044441395099 -0.24733650333174401 0 -0.19410774352861071 -0.2831088592208712 0 -0.17579229561796161 -0.27267308854753308 0 -0.17507431738127369 -0.28401326145526029 0 -0.19410774352861071 -0.2831088592208712 0 -0.17579229561796161 -0.27267308854753308 0 -0.15747684770731041 -0.26223731787419863 0 -0.17507431738127369 -0.28401326145526029 0 -0.15747684770731041 -0.26223731787419863 0 -0.17579229561796161 -0.27267308854753308 0 -0.15747684770731041 -0.26223731787419863 0 -0.17579229561796161 -0.27267308854753308 0 -0.17507431738127369 -0.28401326145526029 0 -0.15747684770731041 -0.26223731787419863 0 -0.1596399504195592 -0.27820623095404468 0 -0.17507431738127369 -0.28401326145526029 0 -0.1596399504195592 -0.27820623095404468 0 -0.1624028041075358 -0.29248408411088062 0 -0.1494793968803598 -0.28070198605355251 0 -0.1624028041075358 -0.29248408411088062 0 -0.15973767967650701 -0.30493196891575292 0 -0.15108397830665751 -0.29236825921418419 0 -0.1624028041075358 -0.29248408411088062 0 -0.17507431738127369 -0.28401326145526029 0 -0.17391538329452061 -0.29489800819007239 0 -0.1596399504195592 -0.27820623095404468 0 -0.1624028041075358 -0.29248408411088062 0 -0.17507431738127369 -0.28401326145526029 0 -0.19267178705524021 -0.30578920503631912 0 -0.19410774352861071 -0.2831088592208712 0 -0.17507431738127369 -0.28401326145526029 0 -0.19267178705524021 -0.30578920503631912 0 -0.17507431738127369 -0.28401326145526029 0 -0.17391538329452061 -0.29489800819007239 0 -0.19267178705524021 -0.30578920503631912 0 -0.17507431738127369 -0.28401326145526029 0 -0.17391538329452061 -0.29489800819007239 0 -0.17532621133471249 -0.30426618216820789 0 -0.19254159852174429 -0.31996122112867409 0 -0.19267178705524021 -0.30578920503631912 0 -0.17532621133471249 -0.30426618216820789 0 -0.19267178705524021 -0.30578920503631912 0 -0.17391538329452061 -0.29489800819007239 0 -0.17532621133471249 -0.30426618216820789 0 -0.19254159852174429 -0.31996122112867409 0 -0.17532621133471249 -0.30426618216820789 0 -0.1789711567900161 -0.3101302037755338 0 -0.19254159852174429 -0.31996122112867409 0 -0.17532621133471249 -0.30426618216820789 0 -0.17532621133471249 -0.30426618216820789 0 -0.15973767967650701 -0.30493196891575292 0 -0.16582550601247259 -0.31644195918285489 0 -0.1624028041075358 -0.29248408411088062 0 -0.17532621133471249 -0.30426618216820789 0 -0.15973767967650701 -0.30493196891575292 0 -0.1624028041075358 -0.29248408411088062 0 -0.17532621133471249 -0.30426618216820789 0 -0.1624028041075358 -0.29248408411088062 0 -0.17391538329452061 -0.29489800819007239 0 -0.17532621133471249 -0.30426618216820789 0 -0.144593184228827 -0.30237793828586917 0 -0.15261731536399281 -0.31699983390472031 0 -0.1327552185807534 -0.31482398186879779 0 -0.15973767967650701 -0.30493196891575292 0 -0.144593184228827 -0.30237793828586917 0 -0.15261731536399281 -0.31699983390472031 0 -0.15973767967650701 -0.30493196891575292 0 -0.144593184228827 -0.30237793828586917 0 -0.15108397830665751 -0.29236825921418419 0 -0.144593184228827 -0.30237793828586917 0 -0.1304175251842298 -0.30012492429455973 0 -0.1327552185807534 -0.31482398186879779 0 -0.1304175251842298 -0.30012492429455973 0 -0.1327552185807534 -0.31482398186879779 0 -0.11567190875339491 -0.3081878681979589 0 -0.1304175251842298 -0.30012492429455973 0 -0.13697378053928061 -0.28594316463020741 0 -0.11725087491461519 -0.29108504565108578 0 -0.144593184228827 -0.30237793828586917 0 -0.1304175251842298 -0.30012492429455973 0 -0.13697378053928061 -0.28594316463020741 0 -0.13697378053928061 -0.28594316463020741 0 -0.15108397830665751 -0.29236825921418419 0 -0.1494793968803598 -0.28070198605355251 0 -0.144593184228827 -0.30237793828586917 0 -0.13697378053928061 -0.28594316463020741 0 -0.15108397830665751 -0.29236825921418419 0 -0.1624028041075358 -0.29248408411088062 0 -0.15108397830665751 -0.29236825921418419 0 -0.1494793968803598 -0.28070198605355251 0 -0.1624028041075358 -0.29248408411088062 0 -0.1494793968803598 -0.28070198605355251 0 -0.15747684770731041 -0.26223731787419863 0 -0.1596399504195592 -0.27820623095404468 0 -0.1503927610565664 -0.27179087804580171 0 -0.1596399504195592 -0.27820623095404468 0 -0.1494793968803598 -0.28070198605355251 0 -0.1503927610565664 -0.27179087804580171 0 -0.15747684770731041 -0.26223731787419863 0 -0.1503927610565664 -0.27179087804580171 0 -0.1469785187108 -0.2635474229235048 0 -0.1503927610565664 -0.27179087804580171 0 -0.13966748117377659 -0.26847157538705668 0 -0.1469785187108 -0.2635474229235048 0 -0.1503927610565664 -0.27179087804580171 0 -0.14153524490660671 -0.2763029116229278 0 -0.13966748117377659 -0.26847157538705668 0 -0.1494793968803598 -0.28070198605355251 0 -0.1503927610565664 -0.27179087804580171 0 -0.14153524490660671 -0.2763029116229278 0 -0.13697378053928061 -0.28594316463020741 0 -0.1494793968803598 -0.28070198605355251 0 -0.14153524490660671 -0.2763029116229278 0 -0.13697378053928061 -0.28594316463020741 0 -0.14153524490660671 -0.2763029116229278 0 -0.13219795163187159 -0.27110871778552531 0 -0.13697378053928061 -0.28594316463020741 0 -0.1173011125765811 -0.2721428964285707 0 -0.13697378053928061 -0.28594316463020741 0 -0.13219795163187159 -0.27110871778552531 0 -0.1173011125765811 -0.2721428964285707 0 -0.13219795163187159 -0.27110871778552531 0 -0.1333337708168415 -0.26377523499205202 0 -0.12600056203783161 -0.26301541000095829 0 -0.13219795163187159 -0.27110871778552531 0 -0.12600056203783161 -0.26301541000095829 0 -0.1173011125765811 -0.2721428964285707 0 -0.13219795163187159 -0.27110871778552531 0 -0.13966748117377659 -0.26847157538705668 0 -0.1333337708168415 -0.26377523499205202 0 -0.14153524490660671 -0.2763029116229278 0 -0.13219795163187159 -0.27110871778552531 0 -0.13966748117377659 -0.26847157538705668 0 -0.13966748117377659 -0.26847157538705668 0 -0.13807993829988649 -0.25979154560904222 0 -0.1333337708168415 -0.26377523499205202 0 -0.13807993829988649 -0.25979154560904222 0 -0.1333337708168415 -0.26377523499205202 0 -0.13072292094084129 -0.25648892617767749 0 -0.12600056203783161 -0.26301541000095829 0 -0.13072292094084129 -0.25648892617767749 0 -0.1187556211832122 -0.25814451816493872 0 -0.1333337708168415 -0.26377523499205202 0 -0.12600056203783161 -0.26301541000095829 0 -0.13072292094084129 -0.25648892617767749 0 -0.13072292094084129 -0.25648892617767749 0 -0.13218950310710981 -0.25272660122947088 0 -0.1187556211832122 -0.25814451816493872 0 -0.13072292094084129 -0.25648892617767749 0 -0.13218950310710981 -0.25272660122947088 0 -0.13218950310710981 -0.25272660122947088 0 -0.1459019403517107 -0.25564217047089421 0 -0.13375162957080131 -0.24871916986845621 0 -0.13218950310710981 -0.25272660122947088 0 -0.1459019403517107 -0.25564217047089421 0 -0.13218950310710981 -0.25272660122947088 0 -0.13375162957080131 -0.24871916986845621 0 -0.1459019403517107 -0.25564217047089421 0 -0.13375162957080131 -0.24871916986845621 0 -0.13807993829988649 -0.25979154560904222 0 -0.13218950310710981 -0.25272660122947088 0 -0.1459019403517107 -0.25564217047089421 0 -0.13807993829988649 -0.25979154560904222 0 -0.13072292094084129 -0.25648892617767749 0 -0.13218950310710981 -0.25272660122947088 0 -0.1459019403517107 -0.25564217047089421 0 -0.1534429259631987 -0.25724555178864622 0 -0.1378886282313006 -0.2381062402767252 0 -0.13966748117377659 -0.26847157538705668 0 -0.13807993829988649 -0.25979154560904222 0 -0.1469785187108 -0.2635474229235048 0 -0.13807993829988649 -0.25979154560904222 0 -0.1459019403517107 -0.25564217047089421 0 -0.1469785187108 -0.2635474229235048 0 -0.15747684770731041 -0.26223731787419863 0 -0.1459019403517107 -0.25564217047089421 0 -0.1534429259631987 -0.25724555178864622 0 -0.15747684770731041 -0.26223731787419863 0 -0.1459019403517107 -0.25564217047089421 0 -0.1469785187108 -0.2635474229235048 0 -0.15747684770731041 -0.26223731787419863 0 -0.1459019403517107 -0.25564217047089421 0 -0.15747684770731041 -0.26223731787419863 0 -0.1534429259631987 -0.25724555178864622 0 -0.1593809120407062 -0.25278805690175971 0 -0.1534429259631987 -0.25724555178864622 0 -0.15289321433053751 -0.246830478479277 0 -0.1459019403517107 -0.25564217047089421 0 -0.1534429259631987 -0.25724555178864622 0 -0.17143624801538501 -0.35840063883308271 0 -0.1580141783998408 -0.34710035810185619 0 -0.15489216358121211 -0.36256913283011211 0 -0.17143624801538501 -0.35840063883308271 0 -0.1580141783998408 -0.34710035810185619 0 -0.18164424501215659 -0.34621916084723381 0 -0.17143624801538501 -0.35840063883308271 0 -0.1663610822414904 -0.3702523776444529 0 -0.15489216358121211 -0.36256913283011211 0 -0.15951650330528561 -0.37856285477961621 0 -0.1663610822414904 -0.3702523776444529 0 -0.15489216358121211 -0.36256913283011211 0 -0.17143624801538501 -0.35840063883308271 0 -0.1663610822414904 -0.3702523776444529 0 -0.18480326185087809 -0.36719565018674682 0 -0.1663610822414904 -0.3702523776444529 0 -0.18480326185087809 -0.36719565018674682 0 -0.1663610822414904 -0.3702523776444529 0 -0.18480326185087809 -0.36719565018674682 0 -0.18579747934449059 -0.37379744869579251 0 -0.18480326185087809 -0.36719565018674682 0 -0.18579747934449059 -0.37379744869579251 0 -0.18480326185087809 -0.36719565018674682 0 -0.18164424501215659 -0.34621916084723381 0 -0.19565175395430129 -0.3512554891803924 0 -0.18480326185087809 -0.36719565018674682 0 -0.18164424501215659 -0.34621916084723381 0 -0.17143624801538501 -0.35840063883308271 0 -0.18480326185087809 -0.36719565018674682 0 -0.18164424501215659 -0.34621916084723381 0 -0.18164424501215659 -0.34621916084723381 0 -0.17848522817343529 -0.32524267150772068 0 -0.1629610955137164 -0.33076913941787212 0 -0.18164424501215659 -0.34621916084723381 0 -0.17848522817343529 -0.32524267150772068 0 -0.18164424501215659 -0.34621916084723381 0 -0.18737083868624629 -0.33075534874643497 0 -0.17848522817343529 -0.32524267150772068 0 -0.17532621133471249 -0.30426618216820789 0 -0.17848522817343529 -0.32524267150772068 0 -0.17532621133471249 -0.30426618216820789 0 -0.1789711567900161 -0.3101302037755338 0 -0.17848522817343529 -0.32524267150772068 0 -0.17532621133471249 -0.30426618216820789 0 -0.17848522817343529 -0.32524267150772068 0 -0.16582550601247259 -0.31644195918285489 0 -0.1943588054861482 -0.32297640251143073 0 -0.1789711567900161 -0.3101302037755338 0 -0.18479650728396149 -0.32227615663527998 0 -0.1789711567900161 -0.3101302037755338 0 -0.18479650728396149 -0.32227615663527998 0 -0.17848522817343529 -0.32524267150772068 0 -0.1943588054861482 -0.32297640251143073 0 -0.1789711567900161 -0.3101302037755338 0 -0.18737083868624629 -0.33075534874643497 0 -0.18479650728396149 -0.32227615663527998 0 -0.17848522817343529 -0.32524267150772068 0 -0.17848522817343529 -0.32524267150772068 0 -0.16582550601247259 -0.31644195918285489 0 -0.1629610955137164 -0.33076913941787212 0 -0.16582550601247259 -0.31644195918285489 0 -0.1629610955137164 -0.33076913941787212 0 -0.15261731536399281 -0.31699983390472031 0 -0.15973767967650701 -0.30493196891575292 0 -0.16582550601247259 -0.31644195918285489 0 -0.15261731536399281 -0.31699983390472031 0 -0.1580141783998408 -0.34710035810185619 0 -0.18164424501215659 -0.34621916084723381 0 -0.1629610955137164 -0.33076913941787212 0 -0.1580141783998408 -0.34710035810185619 0 -0.1629610955137164 -0.33076913941787212 0 -0.14559484309128301 -0.3331209990743299 0 -0.14559484309128301 -0.3331209990743299 0 -0.15261731536399281 -0.31699983390472031 0 -0.1327552185807534 -0.31482398186879779 0 -0.1629610955137164 -0.33076913941787212 0 -0.14559484309128301 -0.3331209990743299 0 -0.15261731536399281 -0.31699983390472031 0 -0.14559484309128301 -0.3331209990743299 0 -0.1327552185807534 -0.31482398186879779 0 -0.12678352480283511 -0.3369129194106073 0 -0.14559484309128301 -0.3331209990743299 0 -0.12678352480283511 -0.3369129194106073 0 -0.14043772588655989 -0.35211976174212622 0 -0.12678352480283511 -0.3369129194106073 0 -0.14043772588655989 -0.35211976174212622 0 -0.1203130985899742 -0.35955571918490481 0 -0.1580141783998408 -0.34710035810185619 0 -0.14043772588655989 -0.35211976174212622 0 -0.15489216358121211 -0.36256913283011211 0 -0.1580141783998408 -0.34710035810185619 0 -0.14559484309128301 -0.3331209990743299 0 -0.14043772588655989 -0.35211976174212622 0 -0.14043772588655989 -0.35211976174212622 0 -0.15489216358121211 -0.36256913283011211 0 -0.13959568407155781 -0.37291875636350952 0 -0.15951650330528561 -0.37856285477961621 0 -0.15489216358121211 -0.36256913283011211 0 -0.13959568407155781 -0.37291875636350952 0 -0.12625141541498519 -0.38197991289387551 0 -0.13959568407155781 -0.37291875636350952 0 -0.1203130985899742 -0.35955571918490481 0 -0.14043772588655989 -0.35211976174212622 0 -0.13959568407155781 -0.37291875636350952 0 -0.1203130985899742 -0.35955571918490481 0 -0.1203130985899742 -0.35955571918490481 0 -0.11384267237711319 -0.38219851895920232 0 -0.1203130985899742 -0.35955571918490481 0 -0.10849363524981311 -0.36442991456039969 0 -0.11384267237711319 -0.38219851895920232 0 -0.12625141541498519 -0.38197991289387551 0 -0.1203130985899742 -0.35955571918490481 0 -0.11384267237711319 -0.38219851895920232 0 -0.10849363524981311 -0.36442991456039969 0 -0.096157591159299352 -0.35547454281719221 0 -0.10176491866177829 -0.38015793077534599 0 -0.096157591159299352 -0.35547454281719221 0 -0.10176491866177829 -0.38015793077534599 0 -0.096157591159299352 -0.35547454281719221 0 -0.10176491866177829 -0.38015793077534599 0 -0.085276019388031976 -0.37619188405436782 0 -0.096157591159299352 -0.35547454281719221 0 -0.10964553082547281 -0.34513317088572909 0 -0.090550263656820479 -0.33079115485903843 0 -0.10849363524981311 -0.36442991456039969 0 -0.096157591159299352 -0.35547454281719221 0 -0.10964553082547281 -0.34513317088572909 0 -0.1203130985899742 -0.35955571918490481 0 -0.10849363524981311 -0.36442991456039969 0 -0.10964553082547281 -0.34513317088572909 0 -0.12678352480283511 -0.3369129194106073 0 -0.1203130985899742 -0.35955571918490481 0 -0.10964553082547281 -0.34513317088572909 0 -0.12678352480283511 -0.3369129194106073 0 -0.1203130985899742 -0.35955571918490481 0 -0.12678352480283511 -0.3369129194106073 0 -0.10964553082547281 -0.34513317088572909 0 -0.1112875311940303 -0.32576775904759792 0 -0.1327552185807534 -0.31482398186879779 0 -0.12678352480283511 -0.3369129194106073 0 -0.1112875311940303 -0.32576775904759792 0 -0.1327552185807534 -0.31482398186879779 0 -0.1112875311940303 -0.32576775904759792 0 -0.11567190875339491 -0.3081878681979589 0 -0.1112875311940303 -0.32576775904759792 0 -0.1011365257202933 -0.31403431577096802 0 -0.11567190875339491 -0.3081878681979589 0 -0.1112875311940303 -0.32576775904759792 0 -0.1011365257202933 -0.31403431577096802 0 -0.090550263656820479 -0.33079115485903843 0 -0.10964553082547281 -0.34513317088572909 0 -0.1112875311940303 -0.32576775904759792 0 -0.090550263656820479 -0.33079115485903843 0 -0.096157591159299352 -0.35547454281719221 0 -0.090550263656820479 -0.33079115485903843 0 -0.096157591159299352 -0.35547454281719221 0 -0.090550263656820479 -0.33079115485903843 0 -0.073144777225565616 -0.33606175945158517 0 -0.090550263656820479 -0.33079115485903843 0 -0.084942936154341619 -0.30610776690088481 0 -0.090550263656820479 -0.33079115485903843 0 -0.073144777225565616 -0.33606175945158517 0 -0.084942936154341619 -0.30610776690088481 0 -0.1011365257202933 -0.31403431577096802 0 -0.090550263656820479 -0.33079115485903843 0 -0.084942936154341619 -0.30610776690088481 0 -0.073144777225565616 -0.33606175945158517 0 -0.084942936154341619 -0.30610776690088481 0 -0.060613113796085999 -0.32288269869712272 0 -0.073144777225565616 -0.33606175945158517 0 -0.076755031766953086 -0.35884624094615858 0 -0.063306301319701316 -0.35299520754669739 0 -0.076755031766953086 -0.35884624094615858 0 -0.063306301319701316 -0.35299520754669739 0 -0.065890469742167113 -0.37350781086095058 0 -0.076755031766953086 -0.35884624094615858 0 -0.065890469742167113 -0.37350781086095058 0 -0.085276019388031976 -0.37619188405436782 0 -0.096157591159299352 -0.35547454281719221 0 -0.076755031766953086 -0.35884624094615858 0 -0.085276019388031976 -0.37619188405436782 0 -0.096157591159299352 -0.35547454281719221 0 -0.073144777225565616 -0.33606175945158517 0 -0.076755031766953086 -0.35884624094615858 0 -0.097628444613881649 -0.25834262822693399 0 -0.1173011125765811 -0.2721428964285707 0 -0.097628444613881649 -0.25834262822693399 0 -0.1187556211832122 -0.25814451816493872 0 -0.1098930818979398 -0.24798588601512411 0 -0.13218950310710981 -0.25272660122947088 0 -0.1187556211832122 -0.25814451816493872 0 -0.1098930818979398 -0.24798588601512411 0 -0.097628444613881649 -0.25834262822693399 0 -0.1187556211832122 -0.25814451816493872 0 -0.1173011125765811 -0.2721428964285707 0 -0.13218950310710981 -0.25272660122947088 0 -0.1098930818979398 -0.24798588601512411 0 -0.12600056203783161 -0.26301541000095829 0 -0.1187556211832122 -0.25814451816493872 0 -0.1173011125765811 -0.2721428964285707 0 -0.097628444613881649 -0.25834262822693399 0 -0.1173011125765811 -0.2721428964285707 0 -0.090762408808148426 -0.27102181932101072 0 -0.1173011125765811 -0.2721428964285707 0 -0.096655829275762523 -0.28444542957314378 0 -0.090762408808148426 -0.27102181932101072 0 -0.096655829275762523 -0.28444542957314378 0 -0.10322998884287909 -0.29931702984935987 0 -0.084942936154341619 -0.30610776690088481 0 -0.096655829275762523 -0.28444542957314378 0 -0.11725087491461519 -0.29108504565108578 0 -0.10322998884287909 -0.29931702984935987 0 -0.13697378053928061 -0.28594316463020741 0 -0.1173011125765811 -0.2721428964285707 0 -0.11725087491461519 -0.29108504565108578 0 -0.1173011125765811 -0.2721428964285707 0 -0.096655829275762523 -0.28444542957314378 0 -0.11725087491461519 -0.29108504565108578 0 -0.11725087491461519 -0.29108504565108578 0 -0.11567190875339491 -0.3081878681979589 0 -0.10322998884287909 -0.29931702984935987 0 -0.1304175251842298 -0.30012492429455973 0 -0.11725087491461519 -0.29108504565108578 0 -0.11567190875339491 -0.3081878681979589 0 -0.1011365257202933 -0.31403431577096802 0 -0.10322998884287909 -0.29931702984935987 0 -0.084942936154341619 -0.30610776690088481 0 -0.1011365257202933 -0.31403431577096802 0 -0.11567190875339491 -0.3081878681979589 0 -0.10322998884287909 -0.29931702984935987 0 -0.084942936154341619 -0.30610776690088481 0 -0.066237696895848033 -0.30175990202967712 0 -0.078368201618682937 -0.28822753231137022 0 -0.084942936154341619 -0.30610776690088481 0 -0.066237696895848033 -0.30175990202967712 0 -0.060613113796085999 -0.32288269869712272 0 -0.066237696895848033 -0.30175990202967712 0 -0.078368201618682937 -0.28822753231137022 0 -0.057136779716869042 -0.28712205926022771 0 -0.078368201618682937 -0.28822753231137022 0 -0.072744725061100565 -0.27289296274949931 0 -0.057136779716869042 -0.28712205926022771 0 -0.096655829275762523 -0.28444542957314378 0 -0.084942936154341619 -0.30610776690088481 0 -0.078368201618682937 -0.28822753231137022 0 -0.096655829275762523 -0.28444542957314378 0 -0.078368201618682937 -0.28822753231137022 0 -0.090762408808148426 -0.27102181932101072 0 -0.078368201618682937 -0.28822753231137022 0 -0.090762408808148426 -0.27102181932101072 0 -0.072744725061100565 -0.27289296274949931 0 -0.090762408808148426 -0.27102181932101072 0 -0.072744725061100565 -0.27289296274949931 0 -0.081281336266817772 -0.26097832242812891 0 -0.072744725061100565 -0.27289296274949931 0 -0.067161912638977472 -0.25903173736147111 0 -0.055745381016590281 -0.2682223094504298 0 -0.072744725061100565 -0.27289296274949931 0 -0.067161912638977472 -0.25903173736147111 0 -0.081281336266817772 -0.26097832242812891 0 -0.067161912638977472 -0.25903173736147111 0 -0.081281336266817772 -0.26097832242812891 0 -0.077955776651182085 -0.24454236002529731 0 -0.067161912638977472 -0.25903173736147111 0 -0.056939497423126581 -0.24878681181634871 0 -0.077955776651182085 -0.24454236002529731 0 -0.097628444613881649 -0.25834262822693399 0 -0.081281336266817772 -0.26097832242812891 0 -0.077955776651182085 -0.24454236002529731 0 -0.097628444613881649 -0.25834262822693399 0 -0.090762408808148426 -0.27102181932101072 0 -0.081281336266817772 -0.26097832242812891 0 -0.097628444613881649 -0.25834262822693399 0 -0.077955776651182085 -0.24454236002529731 0 -0.025857267464119819 -0.25506418495113531 0 -0.050191684441297867 -0.2485850187836515 0 -0.034199021844566052 -0.25740496373097072 0 -0.056939497423126581 -0.24878681181634871 0 -0.034199021844566052 -0.25740496373097072 0 -0.041398382443623198 -0.25192549838374201 0 -0.056939497423126581 -0.24878681181634871 0 -0.041398382443623198 -0.25192549838374201 0 -0.025857267464119819 -0.25506418495113531 0 -0.050191684441297867 -0.2485850187836515 0 -0.034199021844566052 -0.25740496373097072 0 -0.048255079716108998 -0.25800015923011232 0 -0.056939497423126581 -0.24878681181634871 0 -0.034199021844566052 -0.25740496373097072 0 -0.041398382443623198 -0.25192549838374201 0 -0.025857267464119819 -0.25506418495113531 0 -0.041398382443623198 -0.25192549838374201 0 -0.025857267464119819 -0.25506418495113531 0 -0.034199021844566052 -0.25740496373097072 0 -0.037307574571523318 -0.26201401924185519 0 -0.024854767991187229 -0.26705994663832661 0 -0.037307574571523318 -0.26201401924185519 0 -0.048255079716108998 -0.25800015923011232 0 -0.046606779304586107 -0.26584835010199509 0 -0.034199021844566052 -0.25740496373097072 0 -0.037307574571523318 -0.26201401924185519 0 -0.048255079716108998 -0.25800015923011232 0 -0.05702546769870083 -0.25851025446459042 0 -0.048255079716108998 -0.25800015923011232 0 -0.056939497423126581 -0.24878681181634871 0 -0.041398382443623198 -0.25192549838374201 0 -0.056939497423126581 -0.24878681181634871 0 -0.067161912638977472 -0.25903173736147111 0 -0.05702546769870083 -0.25851025446459042 0 -0.056939497423126581 -0.24878681181634871 0 -0.067161912638977472 -0.25903173736147111 0 -0.05702546769870083 -0.25851025446459042 0 -0.055745381016590281 -0.2682223094504298 0 -0.05702546769870083 -0.25851025446459042 0 -0.048255079716108998 -0.25800015923011232 0 -0.055745381016590281 -0.2682223094504298 0 -0.048255079716108998 -0.25800015923011232 0 -0.055745381016590281 -0.2682223094504298 0 -0.046606779304586107 -0.26584835010199509 0 -0.055745381016590281 -0.2682223094504298 0 -0.045119081914121867 -0.27515691248558288 0 -0.046606779304586107 -0.26584835010199509 0 -0.055745381016590281 -0.2682223094504298 0 -0.045119081914121867 -0.27515691248558288 0 -0.057136779716869042 -0.28712205926022771 0 -0.072744725061100565 -0.27289296274949931 0 -0.055745381016590281 -0.2682223094504298 0 -0.057136779716869042 -0.28712205926022771 0 -0.037307574571523318 -0.26201401924185519 0 -0.034478529498429812 -0.28951379058442123 0 -0.037307574571523318 -0.26201401924185519 0 -0.034478529498429812 -0.28951379058442123 0 -0.024854767991187229 -0.26705994663832661 0 -0.037307574571523318 -0.26201401924185519 0 -0.045119081914121867 -0.27515691248558288 0 -0.034478529498429812 -0.28951379058442123 0 -0.037307574571523318 -0.26201401924185519 0 -0.045119081914121867 -0.27515691248558288 0 -0.046606779304586107 -0.26584835010199509 0 -0.045119081914121867 -0.27515691248558288 0 -0.034478529498429812 -0.28951379058442123 0 -0.057136779716869042 -0.28712205926022771 0 -0.034478529498429812 -0.28951379058442123 0 -0.057136779716869042 -0.28712205926022771 0 -0.05012745319326059 -0.30445945297878008 0 -0.066237696895848033 -0.30175990202967712 0 -0.05012745319326059 -0.30445945297878008 0 -0.060613113796085999 -0.32288269869712272 0 -0.066237696895848033 -0.30175990202967712 0 -0.057136779716869042 -0.28712205926022771 0 -0.05012745319326059 -0.30445945297878008 0 -0.034478529498429812 -0.28951379058442123 0 -0.05012745319326059 -0.30445945297878008 0 -0.031649484425336299 -0.31701356192698721 0 -0.034478529498429812 -0.28951379058442123 0 -0.031649484425336299 -0.31701356192698721 0 -0.034478529498429812 -0.28951379058442123 0 -0.020284114256294641 -0.29759304008048471 0 -0.031649484425336299 -0.31701356192698721 0 -0.020284114256294641 -0.29759304008048471 0 -0.01007927323019326 -0.3103345258507364 0 -0.031649484425336299 -0.31701356192698721 0 -0.020284114256294641 -0.29759304008048471 0 -0.01007927323019326 -0.3103345258507364 0 -0.0080748459131490501 -0.2914060437848453 0 -0.01007927323019326 -0.3103345258507364 0 -0.0080748459131490501 -0.2914060437848453 0 0.0017563221397047381 -0.2997067901486577 0 -0.020284114256294641 -0.29759304008048471 0 -0.0080748459131490501 -0.2914060437848453 0 -0.017138438214364771 -0.27969727825543328 0 -0.0080748459131490501 -0.2914060437848453 0 -0.002848760243290064 -0.27761611820401882 0 0.0066437179820165657 -0.2861171845936395 0 -0.0080748459131490501 -0.2914060437848453 0 -0.017138438214364771 -0.27969727825543328 0 -0.002848760243290064 -0.27761611820401882 0 -0.034478529498429812 -0.28951379058442123 0 -0.020284114256294641 -0.29759304008048471 0 -0.017138438214364771 -0.27969727825543328 0 -0.034478529498429812 -0.28951379058442123 0 -0.024854767991187229 -0.26705994663832661 0 -0.017138438214364771 -0.27969727825543328 0 -0.024854767991187229 -0.26705994663832661 0 -0.01588915841142927 -0.27169793716392882 0 -0.01145854626600548 -0.26602311564559261 0 -0.024854767991187229 -0.26705994663832661 0 -0.01588915841142927 -0.27169793716392882 0 -0.017138438214364771 -0.27969727825543328 0 -0.017138438214364771 -0.27969727825543328 0 -0.011833725783772399 -0.27375861231724341 0 -0.002848760243290064 -0.27761611820401882 0 -0.01145854626600548 -0.26602311564559261 0 0.01128192931255503 -0.27464126756021451 0 -0.002848760243290064 -0.27761611820401882 0 -0.01145854626600548 -0.26602311564559261 0 0.01128192931255503 -0.27464126756021451 0 -0.01588915841142927 -0.27169793716392882 0 -0.017138438214364771 -0.27969727825543328 0 -0.011833725783772399 -0.27375861231724341 0 -0.011833725783772399 -0.27375861231724341 0 -0.002848760243290064 -0.27761611820401882 0 -0.01145854626600548 -0.26602311564559261 0 -0.01588915841142927 -0.27169793716392882 0 -0.011833725783772399 -0.27375861231724341 0 -0.01145854626600548 -0.26602311564559261 0 -0.01269776775011346 -0.25850600500130039 0 -0.0051360078472848583 -0.25701396995817721 0 0.0057158633005241696 -0.26337829885565528 0 -0.01145854626600548 -0.26602311564559261 0 -0.01269776775011346 -0.25850600500130039 0 0.0057158633005241696 -0.26337829885565528 0 -0.01269776775011346 -0.25850600500130039 0 0.0057158633005241696 -0.26337829885565528 0 -0.0009620894167222515 -0.25496392916579452 0 -0.0051360078472848583 -0.25701396995817721 0 0.0057158633005241696 -0.26337829885565528 0 -0.0071971320314794382 -0.2528457057960789 0 -0.01082738352359053 -0.24876902592697839 0 -0.0029313858115674811 -0.24854412401401971 0 -0.0009620894167222515 -0.25496392916579452 0 -0.0071971320314794382 -0.2528457057960789 0 -0.0029313858115674811 -0.24854412401401971 0 -0.0009620894167222515 -0.25496392916579452 0 -0.0051360078472848583 -0.25701396995817721 0 -0.0071971320314794382 -0.2528457057960789 0 -0.0051360078472848583 -0.25701396995817721 0 -0.0071971320314794382 -0.2528457057960789 0 -0.0094143843739788544 -0.25459574361389747 0 -0.0071971320314794382 -0.2528457057960789 0 -0.0094143843739788544 -0.25459574361389747 0 -0.01082738352359053 -0.24876902592697839 0 -0.01269776775011346 -0.25850600500130039 0 -0.0094143843739788544 -0.25459574361389747 0 -0.01082738352359053 -0.24876902592697839 0 -0.01269776775011346 -0.25850600500130039 0 -0.0051360078472848583 -0.25701396995817721 0 -0.0094143843739788544 -0.25459574361389747 0 -0.01269776775011346 -0.25850600500130039 0 -0.025857267464119819 -0.25506418495113531 0 -0.034199021844566052 -0.25740496373097072 0 -0.01145854626600548 -0.26602311564559261 0 -0.025857267464119819 -0.25506418495113531 0 -0.01269776775011346 -0.25850600500130039 0 -0.025857267464119819 -0.25506418495113531 0 -0.02368513365757598 -0.23851275990414511 0 -0.034199021844566052 -0.25740496373097072 0 -0.024854767991187229 -0.26705994663832661 0 -0.01145854626600548 -0.26602311564559261 0 -0.034199021844566052 -0.25740496373097072 0 -0.01145854626600548 -0.26602311564559261 0 -0.01145854626600548 -0.26602311564559261 0 -0.01269776775011346 -0.25850600500130039 0 -0.025857267464119819 -0.25506418495113531 0 -0.046940286889098168 -0.35955036210978841 0 -0.050269733973634309 -0.3392354021108881 0 -0.02882043935224279 -0.34451333326955308 0 -0.046940286889098168 -0.35955036210978841 0 -0.02882043935224279 -0.34451333326955308 0 -0.026419717968229769 -0.36867473508972981 0 -0.046940286889098168 -0.35955036210978841 0 -0.026419717968229769 -0.36867473508972981 0 -0.046935058978613817 -0.3783756837809118 0 -0.065890469742167113 -0.37350781086095058 0 -0.046940286889098168 -0.35955036210978841 0 -0.046935058978613817 -0.3783756837809118 0 -0.063306301319701316 -0.35299520754669739 0 -0.065890469742167113 -0.37350781086095058 0 -0.046940286889098168 -0.35955036210978841 0 -0.063306301319701316 -0.35299520754669739 0 -0.046940286889098168 -0.35955036210978841 0 -0.050269733973634309 -0.3392354021108881 0 -0.073144777225565616 -0.33606175945158517 0 -0.063306301319701316 -0.35299520754669739 0 -0.050269733973634309 -0.3392354021108881 0 -0.073144777225565616 -0.33606175945158517 0 -0.050269733973634309 -0.3392354021108881 0 -0.060613113796085999 -0.32288269869712272 0 -0.050269733973634309 -0.3392354021108881 0 -0.060613113796085999 -0.32288269869712272 0 -0.031649484425336299 -0.31701356192698721 0 -0.05012745319326059 -0.30445945297878008 0 -0.060613113796085999 -0.32288269869712272 0 -0.031649484425336299 -0.31701356192698721 0 -0.050269733973634309 -0.3392354021108881 0 -0.031649484425336299 -0.31701356192698721 0 -0.02882043935224279 -0.34451333326955308 0 -0.031649484425336299 -0.31701356192698721 0 -0.02882043935224279 -0.34451333326955308 0 -0.031649484425336299 -0.31701356192698721 0 -0.0038616663111063101 -0.33241552487502413 0 -0.02882043935224279 -0.34451333326955308 0 -0.01007927323019326 -0.3103345258507364 0 -0.031649484425336299 -0.31701356192698721 0 -0.0038616663111063101 -0.33241552487502413 0 -0.01007927323019326 -0.3103345258507364 0 -0.0038616663111063101 -0.33241552487502413 0 0.0094652366165251054 -0.31053241408104548 0 -0.0038616663111063101 -0.33241552487502413 0 -0.0043130761299947744 -0.35643483176966217 0 -0.02882043935224279 -0.34451333326955308 0 -0.0043130761299947744 -0.35643483176966217 0 -0.02882043935224279 -0.34451333326955308 0 -0.026419717968229769 -0.36867473508972981 0 -0.0043130761299947744 -0.35643483176966217 0 -0.026419717968229769 -0.36867473508972981 0 -0.0064694903547723136 -0.38059021958606692 0 -0.0064694903547723136 -0.38059021958606692 0 -0.0080625817845775948 -0.40608726553411861 0 -0.026496984295852101 -0.39226102623928111 0 -0.0064694903547723136 -0.38059021958606692 0 -0.0080625817845775948 -0.40608726553411861 0 0.009690974369139977 -0.39295199195252922 0 -0.0080625817845775948 -0.40608726553411861 0 -0.026496984295852101 -0.39226102623928111 0 -0.029852467816379728 -0.41236872525256307 0 -0.026419717968229769 -0.36867473508972981 0 -0.0064694903547723136 -0.38059021958606692 0 -0.026496984295852101 -0.39226102623928111 0 -0.026496984295852101 -0.39226102623928111 0 -0.048213792324517578 -0.39768762776665978 0 -0.046935058978613817 -0.3783756837809118 0 -0.026419717968229769 -0.36867473508972981 0 -0.026496984295852101 -0.39226102623928111 0 -0.046935058978613817 -0.3783756837809118 0 -0.026496984295852101 -0.39226102623928111 0 -0.048213792324517578 -0.39768762776665978 0 -0.029852467816379728 -0.41236872525256307 0 -0.048213792324517578 -0.39768762776665978 0 -0.065379196062645584 -0.39052657147488062 0 -0.06528413140028641 -0.40548789039177052 0 -0.048213792324517578 -0.39768762776665978 0 -0.046935058978613817 -0.3783756837809118 0 -0.065379196062645584 -0.39052657147488062 0 -0.065890469742167113 -0.37350781086095058 0 -0.046935058978613817 -0.3783756837809118 0 -0.065379196062645584 -0.39052657147488062 0 -0.052630130657334448 -0.42871109396582502 0 -0.036803499053157718 -0.43392585985635063 0 -0.055908543568221357 -0.44353945242809251 0 -0.052630130657334448 -0.42871109396582502 0 -0.048282499091199083 -0.41684649723306111 0 -0.065713266975248902 -0.42040157794015642 0 -0.052630130657334448 -0.42871109396582502 0 -0.055908543568221357 -0.44353945242809251 0 -0.077753046024815156 -0.43509142098737241 0 -0.048282499091199083 -0.41684649723306111 0 -0.06528413140028641 -0.40548789039177052 0 -0.065713266975248902 -0.42040157794015642 0 -0.048213792324517578 -0.39768762776665978 0 -0.048282499091199083 -0.41684649723306111 0 -0.06528413140028641 -0.40548789039177052 0 -0.048213792324517578 -0.39768762776665978 0 -0.048282499091199083 -0.41684649723306111 0 -0.029852467816379728 -0.41236872525256307 0 -0.048282499091199083 -0.41684649723306111 0 -0.036803499053157718 -0.43392585985635063 0 -0.029852467816379728 -0.41236872525256307 0 -0.052630130657334448 -0.42871109396582502 0 -0.048282499091199083 -0.41684649723306111 0 -0.036803499053157718 -0.43392585985635063 0 -0.036803499053157718 -0.43392585985635063 0 -0.01686747062211669 -0.42668809062348251 0 -0.022482277956740859 -0.44034230556013138 0 -0.036803499053157718 -0.43392585985635063 0 -0.01686747062211669 -0.42668809062348251 0 -0.029852467816379728 -0.41236872525256307 0 -0.0080625817845775948 -0.40608726553411861 0 -0.01686747062211669 -0.42668809062348251 0 -0.029852467816379728 -0.41236872525256307 0 -0.0080625817845775948 -0.40608726553411861 0 -0.01686747062211669 -0.42668809062348251 0 0.01224976062295041 -0.42183763890738629 0 -0.01686747062211669 -0.42668809062348251 0 -0.008216644178786571 -0.4466179140804285 0 0.01224976062295041 -0.42183763890738629 0 -0.008216644178786571 -0.4466179140804285 0 -0.0021957942935651631 -0.46571035637089769 0 -0.016151777162071251 -0.46269316979172348 0 -0.0021957942935651631 -0.46571035637089769 0 -0.016151777162071251 -0.46269316979172348 0 -0.01292321871024151 -0.47600360382280887 0 -0.008216644178786571 -0.4466179140804285 0 -0.016151777162071251 -0.46269316979172348 0 -0.028753682251359231 -0.45370767630375852 0 -0.016151777162071251 -0.46269316979172348 0 -0.030722049445265721 -0.46513815794063051 0 -0.025757536927686689 -0.47561542944709773 0 -0.016151777162071251 -0.46269316979172348 0 -0.030722049445265721 -0.46513815794063051 0 -0.028753682251359231 -0.45370767630375852 0 -0.036803499053157718 -0.43392585985635063 0 -0.028753682251359231 -0.45370767630375852 0 -0.022482277956740859 -0.44034230556013138 0 -0.01686747062211669 -0.42668809062348251 0 -0.008216644178786571 -0.4466179140804285 0 -0.022482277956740859 -0.44034230556013138 0 -0.008216644178786571 -0.4466179140804285 0 -0.028753682251359231 -0.45370767630375852 0 -0.022482277956740859 -0.44034230556013138 0 -0.011489863113854141 -0.5 0 -0.010144146689038991 -0.48941639725935437 0 0.012735562036971701 -0.48508522326900949 0 -0.010144146689038991 -0.48941639725935437 0 -0.00065605929082254884 -0.47874224407546379 0 -0.01292321871024151 -0.47600360382280887 0 -0.010144146689038991 -0.48941639725935437 0 -0.01292321871024151 -0.47600360382280887 0 -0.022633997898264431 -0.48384402599231691 0 -0.0021957942935651631 -0.46571035637089769 0 -0.00065605929082254884 -0.47874224407546379 0 -0.01292321871024151 -0.47600360382280887 0 -0.016151777162071251 -0.46269316979172348 0 -0.01292321871024151 -0.47600360382280887 0 -0.025757536927686689 -0.47561542944709773 0 -0.025757536927686689 -0.47561542944709773 0 -0.022633997898264431 -0.48384402599231691 0 -0.032724513000240443 -0.48384135401243772 0 -0.01292321871024151 -0.47600360382280887 0 -0.025757536927686689 -0.47561542944709773 0 -0.022633997898264431 -0.48384402599231691 0 -0.011489863113854141 -0.5 0 -0.010144146689038991 -0.48941639725935437 0 -0.033023855415049652 -0.49374757124969931 0 -0.010144146689038991 -0.48941639725935437 0 -0.022633997898264431 -0.48384402599231691 0 -0.033023855415049652 -0.49374757124969931 0 -0.011489863113854141 -0.5 0 -0.041002190054857779 -0.5 0 -0.033023855415049652 -0.49374757124969931 0 -0.010144146689038991 -0.48941639725935437 0 -0.033023855415049652 -0.49374757124969931 0 -0.022633997898264431 -0.48384402599231691 0 -0.033023855415049652 -0.49374757124969931 0 -0.032724513000240443 -0.48384135401243772 0 -0.041002190054857779 -0.5 0 -0.040644419244316249 -0.48874723383863622 0 -0.055758353525359711 -0.48944453406372251 0 -0.041002190054857779 -0.5 0 -0.033023855415049652 -0.49374757124969931 0 -0.040644419244316249 -0.48874723383863622 0 -0.033023855415049652 -0.49374757124969931 0 -0.040644419244316249 -0.48874723383863622 0 -0.032724513000240443 -0.48384135401243772 0 -0.040644419244316249 -0.48874723383863622 0 -0.040713184226073652 -0.47670270986732172 0 -0.055758353525359711 -0.48944453406372251 0 -0.040644419244316249 -0.48874723383863622 0 -0.040713184226073652 -0.47670270986732172 0 -0.032724513000240443 -0.48384135401243772 0 -0.025757536927686689 -0.47561542944709773 0 -0.040713184226073652 -0.47670270986732172 0 -0.032724513000240443 -0.48384135401243772 0 -0.030722049445265721 -0.46513815794063051 0 -0.025757536927686689 -0.47561542944709773 0 -0.040713184226073652 -0.47670270986732172 0 -0.040713184226073652 -0.47670270986732172 0 -0.05604151524233808 -0.47085547185542692 0 -0.042137987481662489 -0.46199998676314519 0 -0.040713184226073652 -0.47670270986732172 0 -0.05604151524233808 -0.47085547185542692 0 -0.055758353525359711 -0.48944453406372251 0 -0.05604151524233808 -0.47085547185542692 0 -0.055758353525359711 -0.48944453406372251 0 -0.068357021366280857 -0.47830767763467641 0 -0.041002190054857779 -0.5 0 -0.055758353525359711 -0.48944453406372251 0 -0.070514516995861642 -0.5 0 -0.036803499053157718 -0.43392585985635063 0 -0.028753682251359231 -0.45370767630375852 0 -0.042591220718736618 -0.44931976272637059 0 -0.036803499053157718 -0.43392585985635063 0 -0.042591220718736618 -0.44931976272637059 0 -0.055908543568221357 -0.44353945242809251 0 -0.028753682251359231 -0.45370767630375852 0 -0.042591220718736618 -0.44931976272637059 0 -0.042137987481662489 -0.46199998676314519 0 -0.030722049445265721 -0.46513815794063051 0 -0.028753682251359231 -0.45370767630375852 0 -0.042137987481662489 -0.46199998676314519 0 -0.030722049445265721 -0.46513815794063051 0 -0.040713184226073652 -0.47670270986732172 0 -0.042137987481662489 -0.46199998676314519 0 -0.042591220718736618 -0.44931976272637059 0 -0.042137987481662489 -0.46199998676314519 0 -0.054601469153056192 -0.45704509188174619 0 -0.05604151524233808 -0.47085547185542692 0 -0.054601469153056192 -0.45704509188174619 0 -0.071896784036839162 -0.45711427830285839 0 -0.05604151524233808 -0.47085547185542692 0 -0.042137987481662489 -0.46199998676314519 0 -0.054601469153056192 -0.45704509188174619 0 -0.054601469153056192 -0.45704509188174619 0 -0.055908543568221357 -0.44353945242809251 0 -0.071896784036839162 -0.45711427830285839 0 -0.042591220718736618 -0.44931976272637059 0 -0.054601469153056192 -0.45704509188174619 0 -0.055908543568221357 -0.44353945242809251 0 -0.055908543568221357 -0.44353945242809251 0 -0.071896784036839162 -0.45711427830285839 0 -0.077753046024815156 -0.43509142098737241 0 -0.071896784036839162 -0.45711427830285839 0 -0.087573937031005744 -0.47412410395137422 0 -0.093954286744555499 -0.45179652052777369 0 -0.087573937031005744 -0.47412410395137422 0 -0.093954286744555499 -0.45179652052777369 0 -0.071896784036839162 -0.45711427830285839 0 -0.093954286744555499 -0.45179652052777369 0 -0.077753046024815156 -0.43509142098737241 0 -0.093954286744555499 -0.45179652052777369 0 -0.10033463645810529 -0.42946893710417328 0 -0.077753046024815156 -0.43509142098737241 0 -0.055758353525359711 -0.48944453406372251 0 -0.070514516995861642 -0.5 0 -0.068357021366280857 -0.47830767763467641 0 -0.05604151524233808 -0.47085547185542692 0 -0.071896784036839162 -0.45711427830285839 0 -0.068357021366280857 -0.47830767763467641 0 -0.071896784036839162 -0.45711427830285839 0 -0.068357021366280857 -0.47830767763467641 0 -0.087573937031005744 -0.47412410395137422 0 -0.070514516995861642 -0.5 0 -0.068357021366280857 -0.47830767763467641 0 -0.087573937031005744 -0.47412410395137422 0 -0.070514516995861642 -0.5 0 -0.087573937031005744 -0.47412410395137422 0 -0.10002684393686551 -0.5 0 -0.087573937031005744 -0.47412410395137422 0 -0.10002684393686551 -0.5 0 -0.10780494223314389 -0.47765854937150709 0 -0.087573937031005744 -0.47412410395137422 0 -0.10780494223314389 -0.47765854937150709 0 -0.1029954147344513 -0.46359439800738522 0 -0.12605423818426559 -0.48707922202292669 0 -0.10780494223314389 -0.47765854937150709 0 -0.1201929706126502 -0.46127799294672761 0 -0.12605423818426559 -0.48707922202292669 0 -0.1201929706126502 -0.46127799294672761 0 -0.12605423818426559 -0.48707922202292669 0 -0.10002684393686551 -0.5 0 -0.10780494223314389 -0.47765854937150709 0 -0.1295391708778694 -0.5 0 -0.12605423818426559 -0.48707922202292669 0 -0.10002684393686551 -0.5 0 -0.093954286744555499 -0.45179652052777369 0 -0.10033463645810529 -0.42946893710417328 0 -0.10636180231815941 -0.44832292249131772 0 -0.11433170304103479 -0.43547676387052858 0 -0.10033463645810529 -0.42946893710417328 0 -0.10636180231815941 -0.44832292249131772 0 -0.093954286744555499 -0.45179652052777369 0 -0.10033463645810529 -0.42946893710417328 0 -0.087573937031005744 -0.47412410395137422 0 -0.093954286744555499 -0.45179652052777369 0 -0.1029954147344513 -0.46359439800738522 0 -0.10636180231815941 -0.44832292249131772 0 -0.093954286744555499 -0.45179652052777369 0 -0.1029954147344513 -0.46359439800738522 0 -0.10780494223314389 -0.47765854937150709 0 -0.1029954147344513 -0.46359439800738522 0 -0.1201929706126502 -0.46127799294672761 0 -0.10636180231815941 -0.44832292249131772 0 -0.1029954147344513 -0.46359439800738522 0 -0.1201929706126502 -0.46127799294672761 0 -0.13671083813600751 -0.45044361347006462 0 -0.1201929706126502 -0.46127799294672761 0 -0.11433170304103479 -0.43547676387052858 0 -0.10636180231815941 -0.44832292249131772 0 -0.1201929706126502 -0.46127799294672761 0 -0.11433170304103479 -0.43547676387052858 0 -0.13671083813600751 -0.45044361347006462 0 -0.1225906368027144 -0.43005957413219659 0 -0.11433170304103479 -0.43547676387052858 0 -0.1201929706126502 -0.46127799294672761 0 -0.11433170304103479 -0.43547676387052858 0 -0.1225906368027144 -0.43005957413219659 0 -0.11433170304103479 -0.43547676387052858 0 -0.10847043546942051 -0.40967553479432928 0 -0.11433170304103479 -0.43547676387052858 0 -0.10847043546942051 -0.40967553479432928 0 -0.12908399078123631 -0.42243277819987513 0 -0.1225906368027144 -0.43005957413219659 0 -0.12315425937001 -0.41747458531602638 0 -0.11433170304103479 -0.43547676387052858 0 -0.10033463645810529 -0.42946893710417328 0 -0.10847043546942051 -0.40967553479432928 0 -0.10033463645810529 -0.42946893710417328 0 -0.094107383989168333 -0.41562629379671062 0 -0.1067149861716557 -0.40714135368057303 0 -0.10033463645810529 -0.42946893710417328 0 -0.1067149861716557 -0.40714135368057303 0 -0.10847043546942051 -0.40967553479432928 0 -0.10033463645810529 -0.42946893710417328 0 -0.1067149861716557 -0.40714135368057303 0 -0.094107383989168333 -0.41562629379671062 0 -0.1067149861716557 -0.40714135368057303 0 -0.093615658715422545 -0.40476526464288082 0 -0.10847043546942051 -0.40967553479432928 0 -0.1105756132387118 -0.40676785322215941 0 -0.1073722461642546 -0.40484131873350049 0 -0.10847043546942051 -0.40967553479432928 0 -0.1073722461642546 -0.40484131873350049 0 -0.1067149861716557 -0.40714135368057303 0 -0.10847043546942051 -0.40967553479432928 0 -0.1073722461642546 -0.40484131873350049 0 -0.1067149861716557 -0.40714135368057303 0 -0.10847043546942051 -0.40967553479432928 0 -0.1225906368027144 -0.43005957413219659 0 -0.1163272184937543 -0.41351727508190028 0 -0.12315425937001 -0.41747458531602638 0 -0.10847043546942051 -0.40967553479432928 0 -0.1125412123036873 -0.40894162881917728 0 -0.1163272184937543 -0.41351727508190028 0 -0.1125412123036873 -0.40894162881917728 0 -0.1105756132387118 -0.40676785322215941 0 -0.1147915820128618 -0.40580585217832088 0 -0.1225906368027144 -0.43005957413219659 0 -0.10847043546942051 -0.40967553479432928 0 -0.1163272184937543 -0.41351727508190028 0 -0.10847043546942051 -0.40967553479432928 0 -0.1125412123036873 -0.40894162881917728 0 -0.1105756132387118 -0.40676785322215941 0 -0.1225906368027144 -0.43005957413219659 0 -0.10847043546942051 -0.40967553479432928 0 -0.1125412123036873 -0.40894162881917728 0 -0.1163272184937543 -0.41351727508190028 0 -0.1147915820128618 -0.40580585217832088 0 -0.1225700411049412 -0.40994677461386392 0 -0.1219584454402414 -0.40406961642135292 0 -0.1147915820128618 -0.40580585217832088 0 -0.1163272184937543 -0.41351727508190028 0 -0.1225700411049412 -0.40994677461386392 0 -0.1147915820128618 -0.40580585217832088 0 -0.1163272184937543 -0.41351727508190028 0 -0.12315425937001 -0.41747458531602638 0 -0.1225700411049412 -0.40994677461386392 0 -0.1273295258527142 -0.39594401256049883 0 -0.1219584454402414 -0.40406961642135292 0 -0.1190781430676657 -0.39944145851713192 0 -0.11305295545189779 -0.39895005080087959 0 -0.11384267237711319 -0.38219851895920232 0 -0.1073722461642546 -0.40484131873350049 0 -0.1295768038857959 -0.40463739140698729 0 -0.1225700411049412 -0.40994677461386392 0 -0.1219584454402414 -0.40406961642135292 0 -0.1182582065806136 -0.392437760624607 0 -0.11305295545189779 -0.39895005080087959 0 -0.11384267237711319 -0.38219851895920232 0 -0.11384267237711319 -0.38219851895920232 0 -0.1073722461642546 -0.40484131873350049 0 -0.1219584454402414 -0.40406961642135292 0 -0.1190781430676657 -0.39944145851713192 0 -0.1147915820128618 -0.40580585217832088 0 -0.1273295258527142 -0.39594401256049883 0 -0.1190781430676657 -0.39944145851713192 0 -0.1182582065806136 -0.392437760624607 0 -0.1190781430676657 -0.39944145851713192 0 -0.1182582065806136 -0.392437760624607 0 -0.11305295545189779 -0.39895005080087959 0 -0.1105756132387118 -0.40676785322215941 0 -0.1114480992169309 -0.40409126873371493 0 -0.1073722461642546 -0.40484131873350049 0 -0.1105756132387118 -0.40676785322215941 0 -0.1114480992169309 -0.40409126873371493 0 -0.1147915820128618 -0.40580585217832088 0 -0.11305295545189779 -0.39895005080087959 0 -0.1114480992169309 -0.40409126873371493 0 -0.1147915820128618 -0.40580585217832088 0 -0.11305295545189779 -0.39895005080087959 0 -0.1114480992169309 -0.40409126873371493 0 -0.1073722461642546 -0.40484131873350049 0 -0.1190781430676657 -0.39944145851713192 0 -0.11305295545189779 -0.39895005080087959 0 -0.1147915820128618 -0.40580585217832088 0 -0.12625141541498519 -0.38197991289387551 0 -0.1182582065806136 -0.392437760624607 0 -0.11384267237711319 -0.38219851895920232 0 -0.12625141541498519 -0.38197991289387551 0 -0.1273295258527142 -0.39594401256049883 0 -0.1182582065806136 -0.392437760624607 0 -0.11384267237711319 -0.38219851895920232 0 -0.10176491866177829 -0.38015793077534599 0 -0.1073722461642546 -0.40484131873350049 0 -0.10176491866177829 -0.38015793077534599 0 -0.095995502779844255 -0.39166661886747001 0 -0.085276019388031976 -0.37619188405436782 0 -0.10849363524981311 -0.36442991456039969 0 -0.11384267237711319 -0.38219851895920232 0 -0.10176491866177829 -0.38015793077534599 0 -0.10176491866177829 -0.38015793077534599 0 -0.1073722461642546 -0.40484131873350049 0 -0.095995502779844255 -0.39166661886747001 0 -0.10176491866177829 -0.38015793077534599 0 -0.1073722461642546 -0.40484131873350049 0 -0.1067149861716557 -0.40714135368057303 0 -0.1073722461642546 -0.40484131873350049 0 -0.095995502779844255 -0.39166661886747001 0 -0.1067149861716557 -0.40714135368057303 0 -0.1073722461642546 -0.40484131873350049 0 -0.1067149861716557 -0.40714135368057303 0 -0.095995502779844255 -0.39166661886747001 0 -0.1067149861716557 -0.40714135368057303 0 -0.095995502779844255 -0.39166661886747001 0 -0.093615658715422545 -0.40476526464288082 0 -0.093615658715422545 -0.40476526464288082 0 -0.081664681120336771 -0.39582842074610342 0 -0.082451352827770552 -0.41163664718976212 0 -0.095995502779844255 -0.39166661886747001 0 -0.093615658715422545 -0.40476526464288082 0 -0.081664681120336771 -0.39582842074610342 0 -0.095995502779844255 -0.39166661886747001 0 -0.081664681120336771 -0.39582842074610342 0 -0.085276019388031976 -0.37619188405436782 0 -0.081664681120336771 -0.39582842074610342 0 -0.085276019388031976 -0.37619188405436782 0 -0.074552591578295357 -0.38401367178407558 0 -0.095995502779844255 -0.39166661886747001 0 -0.085276019388031976 -0.37619188405436782 0 -0.081664681120336771 -0.39582842074610342 0 -0.065379196062645584 -0.39052657147488062 0 -0.074552591578295357 -0.38401367178407558 0 -0.065890469742167113 -0.37350781086095058 0 -0.085276019388031976 -0.37619188405436782 0 -0.074552591578295357 -0.38401367178407558 0 -0.065890469742167113 -0.37350781086095058 0 -0.065379196062645584 -0.39052657147488062 0 -0.074552591578295357 -0.38401367178407558 0 -0.081664681120336771 -0.39582842074610342 0 -0.06528413140028641 -0.40548789039177052 0 -0.082451352827770552 -0.41163664718976212 0 -0.081664681120336771 -0.39582842074610342 0 -0.065379196062645584 -0.39052657147488062 0 -0.06528413140028641 -0.40548789039177052 0 -0.065713266975248902 -0.42040157794015642 0 -0.085028608260126398 -0.42320905853578622 0 -0.082451352827770552 -0.41163664718976212 0 -0.06528413140028641 -0.40548789039177052 0 -0.065713266975248902 -0.42040157794015642 0 -0.082451352827770552 -0.41163664718976212 0 -0.065713266975248902 -0.42040157794015642 0 -0.077753046024815156 -0.43509142098737241 0 -0.085028608260126398 -0.42320905853578622 0 -0.052630130657334448 -0.42871109396582502 0 -0.065713266975248902 -0.42040157794015642 0 -0.077753046024815156 -0.43509142098737241 0 -0.10033463645810529 -0.42946893710417328 0 -0.077753046024815156 -0.43509142098737241 0 -0.085028608260126398 -0.42320905853578622 0 -0.10033463645810529 -0.42946893710417328 0 -0.094107383989168333 -0.41562629379671062 0 -0.085028608260126398 -0.42320905853578622 0 -0.094107383989168333 -0.41562629379671062 0 -0.085028608260126398 -0.42320905853578622 0 -0.082451352827770552 -0.41163664718976212 0 -0.094107383989168333 -0.41562629379671062 0 -0.093615658715422545 -0.40476526464288082 0 -0.082451352827770552 -0.41163664718976212 0 -0.080832567710134945 -0.085265223789800185 0 -0.09573268077664969 -0.090624673380050064 0 -0.094924188455715333 -0.074372309221374736 0 -0.080832567710134945 -0.085265223789800185 0 -0.0944050220014645 -0.1050702242089397 0 -0.09573268077664969 -0.090624673380050064 0 -0.094924188455715333 -0.074372309221374736 0 -0.077079431972146645 -0.050953682142663811 0 -0.080832567710134945 -0.085265223789800185 0 -0.077460787511610923 -0.070469280456870842 0 -0.094924188455715333 -0.074372309221374736 0 -0.077460787511610923 -0.070469280456870842 0 -0.094924188455715333 -0.074372309221374736 0 -0.078535685693175539 -0.061573663464548622 0 -0.080832567710134945 -0.085265223789800185 0 -0.072736864716213656 -0.076885636419884412 0 -0.077460787511610923 -0.070469280456870842 0 -0.072736864716213656 -0.076885636419884412 0 -0.077460787511610923 -0.070469280456870842 0 -0.067174029152377468 -0.071022972744677337 0 -0.077460787511610923 -0.070469280456870842 0 -0.067174029152377468 -0.071022972744677337 0 -0.070308423821052124 -0.061023041189074957 0 -0.077460787511610923 -0.070469280456870842 0 -0.078535685693175539 -0.061573663464548622 0 -0.070308423821052124 -0.061023041189074957 0 -0.067174029152377468 -0.071022972744677337 0 -0.070308423821052124 -0.061023041189074957 0 -0.060830035872249492 -0.064558057335980773 0 -0.072736864716213656 -0.076885636419884412 0 -0.067174029152377468 -0.071022972744677337 0 -0.063732237529271596 -0.080733089011810297 0 -0.067174029152377468 -0.071022972744677337 0 -0.063732237529271596 -0.080733089011810297 0 -0.058000192015007383 -0.073011667883306972 0 -0.080832567710134945 -0.085265223789800185 0 -0.063732237529271596 -0.080733089011810297 0 -0.066023591375222151 -0.09957098179305135 0 -0.080832567710134945 -0.085265223789800185 0 -0.072736864716213656 -0.076885636419884412 0 -0.063732237529271596 -0.080733089011810297 0 -0.066023591375222151 -0.09957098179305135 0 -0.069466171350113709 -0.1135628440840601 0 -0.0944050220014645 -0.1050702242089397 0 -0.066023591375222151 -0.09957098179305135 0 -0.069466171350113709 -0.1135628440840601 0 -0.054384952187449757 -0.110609208962567 0 -0.077516787342341589 -0.1242022911324857 0 -0.069466171350113709 -0.1135628440840601 0 -0.059238207921678762 -0.13024384051707169 0 -0.077516787342341589 -0.1242022911324857 0 -0.093262550211769629 -0.1231040070079162 0 -0.0944050220014645 -0.1050702242089397 0 -0.077516787342341589 -0.1242022911324857 0 -0.069466171350113709 -0.1135628440840601 0 -0.0944050220014645 -0.1050702242089397 0 -0.066023591375222151 -0.09957098179305135 0 -0.0944050220014645 -0.1050702242089397 0 -0.080832567710134945 -0.085265223789800185 0 -0.066023591375222151 -0.09957098179305135 0 -0.0944050220014645 -0.1050702242089397 0 -0.0944050220014645 -0.1050702242089397 0 -0.1071147179002416 -0.1244919901550422 0 -0.11276894493928399 -0.097790936300085646 0 -0.0944050220014645 -0.1050702242089397 0 -0.11276894493928399 -0.097790936300085646 0 -0.09573268077664969 -0.090624673380050064 0 -0.093262550211769629 -0.1231040070079162 0 -0.0944050220014645 -0.1050702242089397 0 -0.1071147179002416 -0.1244919901550422 0 -0.1071147179002416 -0.1244919901550422 0 -0.11276894493928399 -0.097790936300085646 0 -0.1306137014228527 -0.1212095633787966 0 -0.11276894493928399 -0.097790936300085646 0 -0.1306137014228527 -0.1212095633787966 0 -0.112702195828283 -0.076339248342475546 0 -0.13438499311011279 -0.096174695905308166 0 -0.11276894493928399 -0.097790936300085646 0 -0.112702195828283 -0.076339248342475546 0 -0.13438499311011279 -0.096174695905308166 0 -0.11276894493928399 -0.097790936300085646 0 -0.094924188455715333 -0.074372309221374736 0 -0.112702195828283 -0.076339248342475546 0 -0.11276894493928399 -0.097790936300085646 0 -0.094924188455715333 -0.074372309221374736 0 -0.11276894493928399 -0.097790936300085646 0 -0.09573268077664969 -0.090624673380050064 0 -0.094924188455715333 -0.074372309221374736 0 -0.094924188455715333 -0.074372309221374736 0 -0.1026030192468113 -0.064894788769428779 0 -0.112702195828283 -0.076339248342475546 0 -0.094924188455715333 -0.074372309221374736 0 -0.1026030192468113 -0.064894788769428779 0 -0.090333769324138391 -0.059362086744932152 0 -0.1026030192468113 -0.064894788769428779 0 -0.112702195828283 -0.076339248342475546 0 -0.1158705629695205 -0.060236298698018297 0 -0.112702195828283 -0.076339248342475546 0 -0.1158705629695205 -0.060236298698018297 0 -0.13497135686491851 -0.078315161523928284 0 -0.1158705629695205 -0.060236298698018297 0 -0.1150956899200111 -0.045830426672337207 0 -0.1070798181065768 -0.041876824406217303 0 -0.1158705629695205 -0.060236298698018297 0 -0.1150956899200111 -0.045830426672337207 0 -0.12809376798702951 -0.047905065599393698 0 -0.1163329610324388 -0.034474533447810513 0 -0.12530131535501859 -0.034952786400489197 0 -0.12809376798702951 -0.047905065599393698 0 -0.11023593420079281 -0.033339602888773932 0 -0.1150956899200111 -0.045830426672337207 0 -0.12809376798702951 -0.047905065599393698 0 -0.11023593420079281 -0.033339602888773932 0 -0.1163329610324388 -0.034474533447810513 0 -0.12809376798702951 -0.047905065599393698 0 -0.11023593420079281 -0.033339602888773932 0 -0.12809376798702951 -0.047905065599393698 0 -0.1163329610324388 -0.034474533447810513 0 -0.1221370268088495 -0.025998648103035 0 -0.12530131535501859 -0.034952786400489197 0 -0.11023593420079281 -0.033339602888773932 0 -0.1150956899200111 -0.045830426672337207 0 -0.1070798181065768 -0.041876824406217303 0 -0.11023593420079281 -0.033339602888773932 0 -0.1163329610324388 -0.034474533447810513 0 -0.097427134368436918 -0.027820357899848831 0 -0.11023593420079281 -0.033339602888773932 0 -0.1070798181065768 -0.041876824406217303 0 -0.097427134368436918 -0.027820357899848831 0 -0.1070798181065768 -0.041876824406217303 0 -0.096769769074122519 -0.04215743587210824 0 -0.097427134368436918 -0.027820357899848831 0 -0.1158705629695205 -0.060236298698018297 0 -0.1070798181065768 -0.041876824406217303 0 -0.096769769074122519 -0.04215743587210824 0 -0.1026030192468113 -0.064894788769428779 0 -0.1158705629695205 -0.060236298698018297 0 -0.099264754381345577 -0.055060356505970513 0 -0.1158705629695205 -0.060236298698018297 0 -0.096769769074122519 -0.04215743587210824 0 -0.099264754381345577 -0.055060356505970513 0 -0.096769769074122519 -0.04215743587210824 0 -0.099264754381345577 -0.055060356505970513 0 -0.090746651292135133 -0.048651172445365112 0 -0.1158705629695205 -0.060236298698018297 0 -0.096769769074122519 -0.04215743587210824 0 -0.1026030192468113 -0.064894788769428779 0 -0.099264754381345577 -0.055060356505970513 0 -0.090333769324138391 -0.059362086744932152 0 -0.1029392013539359 -0.0085751277431150782 0 -0.12735709500343681 0.004015926865657337 0 -0.1236693299605585 -0.0137973575501921 0 -0.1110604598185659 -0.0207882196779367 0 -0.1029392013539359 -0.0085751277431150782 0 -0.1236693299605585 -0.0137973575501921 0 -0.1029392013539359 -0.0085751277431150782 0 -0.12735709500343681 0.004015926865657337 0 -0.1236693299605585 -0.0137973575501921 0 -0.1110604598185659 -0.0207882196779367 0 -0.1221370268088495 -0.025998648103035 0 -0.1163329610324388 -0.034474533447810513 0 -0.1221370268088495 -0.025998648103035 0 -0.11173939550707281 -0.027270439782157759 0 -0.1110604598185659 -0.0207882196779367 0 -0.1221370268088495 -0.025998648103035 0 -0.11173939550707281 -0.027270439782157759 0 -0.1163329610324388 -0.034474533447810513 0 -0.097427134368436918 -0.027820357899848831 0 -0.1110604598185659 -0.0207882196779367 0 -0.097427134368436918 -0.027820357899848831 0 -0.1029392013539359 -0.0085751277431150782 0 -0.1163329610324388 -0.034474533447810513 0 -0.11173939550707281 -0.027270439782157759 0 -0.097427134368436918 -0.027820357899848831 0 -0.1110604598185659 -0.0207882196779367 0 -0.11173939550707281 -0.027270439782157759 0 -0.097427134368436918 -0.027820357899848831 0 -0.1029392013539359 -0.0085751277431150782 0 -0.086097875964997059 -0.0058870606910941042 0 -0.078521307704434995 -0.021166182351887271 0 -0.1029392013539359 -0.0085751277431150782 0 -0.078521307704434995 -0.021166182351887271 0 -0.1029392013539359 -0.0085751277431150782 0 -0.086097875964997059 -0.0058870606910941042 0 -0.091682611010439896 0.0063963380850077774 0 -0.086097875964997059 -0.0058870606910941042 0 -0.073830544796709738 -0.0078542708917730738 0 -0.078933949510919491 0.00072378658541613432 0 -0.086097875964997059 -0.0058870606910941042 0 -0.078521307704434995 -0.021166182351887271 0 -0.073830544796709738 -0.0078542708917730738 0 -0.097427134368436918 -0.027820357899848831 0 -0.078521307704434995 -0.021166182351887271 0 -0.097427134368436918 -0.027820357899848831 0 -0.078521307704434995 -0.021166182351887271 0 -0.077668975178724509 -0.024078573046198169 0 -0.097427134368436918 -0.027820357899848831 0 -0.1029392013539359 -0.0085751277431150782 0 -0.078521307704434995 -0.021166182351887271 0 -0.078521307704434995 -0.021166182351887271 0 -0.055132092173872667 -0.033226800447327051 0 -0.05822397002114936 -0.01402224463886402 0 -0.078521307704434995 -0.021166182351887271 0 -0.055132092173872667 -0.033226800447327051 0 -0.077668975178724509 -0.024078573046198169 0 -0.075465350998538308 -0.032772608828030472 0 -0.055132092173872667 -0.033226800447327051 0 -0.078521307704434995 -0.021166182351887271 0 -0.077668975178724509 -0.024078573046198169 0 -0.055132092173872667 -0.033226800447327051 0 -0.078521307704434995 -0.021166182351887271 0 -0.05822397002114936 -0.01402224463886402 0 -0.078521307704434995 -0.021166182351887271 0 -0.073830544796709738 -0.0078542708917730738 0 -0.05822397002114936 -0.01402224463886402 0 -0.073830544796709738 -0.0078542708917730738 0 -0.05822397002114936 -0.01402224463886402 0 -0.068462160169621672 0.0025537029525893409 0 -0.073830544796709738 -0.0078542708917730738 0 -0.078933949510919491 0.00072378658541613432 0 -0.068462160169621672 0.0025537029525893409 0 -0.094924188455715333 -0.074372309221374736 0 -0.090333769324138391 -0.059362086744932152 0 -0.077079431972146645 -0.050953682142663811 0 -0.094924188455715333 -0.074372309221374736 0 -0.078535685693175539 -0.061573663464548622 0 -0.077079431972146645 -0.050953682142663811 0 -0.084868245962835154 -0.053326759561897898 0 -0.090333769324138391 -0.059362086744932152 0 -0.077079431972146645 -0.050953682142663811 0 -0.084868245962835154 -0.053326759561897898 0 -0.080876314157704687 -0.04955372347343575 0 -0.082849096915408454 -0.045583035938281863 0 -0.080876314157704687 -0.04955372347343575 0 -0.078708481780428496 -0.048351416250899462 0 -0.082849096915408454 -0.045583035938281863 0 -0.080876314157704687 -0.04955372347343575 0 -0.078708481780428496 -0.048351416250899462 0 -0.077079431972146645 -0.050953682142663811 0 -0.084868245962835154 -0.053326759561897898 0 -0.080876314157704687 -0.04955372347343575 0 -0.077079431972146645 -0.050953682142663811 0 -0.084868245962835154 -0.053326759561897898 0 -0.090746651292135133 -0.048651172445365112 0 -0.082849096915408454 -0.045583035938281863 0 -0.084868245962835154 -0.053326759561897898 0 -0.090333769324138391 -0.059362086744932152 0 -0.090746651292135133 -0.048651172445365112 0 -0.099264754381345577 -0.055060356505970513 0 -0.090333769324138391 -0.059362086744932152 0 -0.090746651292135133 -0.048651172445365112 0 -0.096769769074122519 -0.04215743587210824 0 -0.088481073739883592 -0.043344290748051233 0 -0.083558777677868248 -0.036985518736449702 0 -0.096769769074122519 -0.04215743587210824 0 -0.097427134368436918 -0.027820357899848831 0 -0.077668975178724509 -0.024078573046198169 0 -0.096769769074122519 -0.04215743587210824 0 -0.077668975178724509 -0.024078573046198169 0 -0.083558777677868248 -0.036985518736449702 0 -0.096769769074122519 -0.04215743587210824 0 -0.077668975178724509 -0.024078573046198169 0 -0.090746651292135133 -0.048651172445365112 0 -0.088481073739883592 -0.043344290748051233 0 -0.082849096915408454 -0.045583035938281863 0 -0.096769769074122519 -0.04215743587210824 0 -0.090746651292135133 -0.048651172445365112 0 -0.088481073739883592 -0.043344290748051233 0 -0.077668975178724509 -0.024078573046198169 0 -0.083558777677868248 -0.036985518736449702 0 -0.075465350998538308 -0.032772608828030472 0 -0.083558777677868248 -0.036985518736449702 0 -0.082849096915408454 -0.045583035938281863 0 -0.075062618692292638 -0.040325846155841297 0 -0.088481073739883592 -0.043344290748051233 0 -0.083558777677868248 -0.036985518736449702 0 -0.082849096915408454 -0.045583035938281863 0 -0.082849096915408454 -0.045583035938281863 0 -0.078067002861142085 -0.04575568247049161 0 -0.075062618692292638 -0.040325846155841297 0 -0.078708481780428496 -0.048351416250899462 0 -0.082849096915408454 -0.045583035938281863 0 -0.078067002861142085 -0.04575568247049161 0 -0.075647814056438792 -0.048762431536943832 0 -0.055132092173872667 -0.033226800447327051 0 -0.078067002861142085 -0.04575568247049161 0 -0.075062618692292638 -0.040325846155841297 0 -0.075647814056438792 -0.048762431536943832 0 -0.075062618692292638 -0.040325846155841297 0 -0.075465350998538308 -0.032772608828030472 0 -0.055132092173872667 -0.033226800447327051 0 -0.075647814056438792 -0.048762431536943832 0 -0.061428605263776047 -0.046553119166432878 0 -0.055132092173872667 -0.033226800447327051 0 -0.075062618692292638 -0.040325846155841297 0 -0.075647814056438792 -0.048762431536943832 0 -0.055132092173872667 -0.033226800447327051 0 -0.083558777677868248 -0.036985518736449702 0 -0.075062618692292638 -0.040325846155841297 0 -0.075465350998538308 -0.032772608828030472 0 -0.065722760200719738 -0.052253177456942877 0 -0.075647814056438792 -0.048762431536943832 0 -0.061428605263776047 -0.046553119166432878 0 -0.065722760200719738 -0.052253177456942877 0 -0.07269306068786438 -0.052406879740114577 0 -0.069833853901725543 -0.055329661047837618 0 -0.065722760200719738 -0.052253177456942877 0 -0.07269306068786438 -0.052406879740114577 0 -0.075647814056438792 -0.048762431536943832 0 -0.07269306068786438 -0.052406879740114577 0 -0.073703714626092445 -0.056102563442451223 0 -0.069833853901725543 -0.055329661047837618 0 -0.07269306068786438 -0.052406879740114577 0 -0.077079431972146645 -0.050953682142663811 0 -0.073703714626092445 -0.056102563442451223 0 -0.078708481780428496 -0.048351416250899462 0 -0.077079431972146645 -0.050953682142663811 0 -0.075647814056438792 -0.048762431536943832 0 -0.07269306068786438 -0.052406879740114577 0 -0.077079431972146645 -0.050953682142663811 0 -0.075647814056438792 -0.048762431536943832 0 -0.078708481780428496 -0.048351416250899462 0 -0.078067002861142085 -0.04575568247049161 0 -0.075647814056438792 -0.048762431536943832 0 -0.078535685693175539 -0.061573663464548622 0 -0.073703714626092445 -0.056102563442451223 0 -0.070308423821052124 -0.061023041189074957 0 -0.078535685693175539 -0.061573663464548622 0 -0.077079431972146645 -0.050953682142663811 0 -0.073703714626092445 -0.056102563442451223 0 -0.073703714626092445 -0.056102563442451223 0 -0.070308423821052124 -0.061023041189074957 0 -0.069833853901725543 -0.055329661047837618 0 -0.070308423821052124 -0.061023041189074957 0 -0.064391701294429504 -0.057679717025484439 0 -0.060830035872249492 -0.064558057335980773 0 -0.070308423821052124 -0.061023041189074957 0 -0.069833853901725543 -0.055329661047837618 0 -0.064391701294429504 -0.057679717025484439 0 -0.065722760200719738 -0.052253177456942877 0 -0.069833853901725543 -0.055329661047837618 0 -0.064391701294429504 -0.057679717025484439 0 -0.064391701294429504 -0.057679717025484439 0 -0.055978059279945473 -0.056388284161067823 0 -0.060830035872249492 -0.064558057335980773 0 -0.065722760200719738 -0.052253177456942877 0 -0.064391701294429504 -0.057679717025484439 0 -0.055978059279945473 -0.056388284161067823 0 -0.055978059279945473 -0.056388284161067823 0 -0.041230103293456458 -0.058058117591144771 0 -0.049479852383656611 -0.067543566470139038 0 -0.055978059279945473 -0.056388284161067823 0 -0.049741921456861897 -0.048697412542500033 0 -0.041230103293456458 -0.058058117591144771 0 -0.055978059279945473 -0.056388284161067823 0 -0.049741921456861897 -0.048697412542500033 0 -0.061428605263776047 -0.046553119166432878 0 -0.065722760200719738 -0.052253177456942877 0 -0.055978059279945473 -0.056388284161067823 0 -0.061428605263776047 -0.046553119166432878 0 -0.049741921456861897 -0.048697412542500033 0 -0.061428605263776047 -0.046553119166432878 0 -0.055132092173872667 -0.033226800447327051 0 -0.049741921456861897 -0.048697412542500033 0 -0.055132092173872667 -0.033226800447327051 0 -0.032367863380537598 -0.044965144957206583 0 -0.055132092173872667 -0.033226800447327051 0 -0.032367863380537598 -0.044965144957206583 0 -0.055132092173872667 -0.033226800447327051 0 -0.032367863380537598 -0.044965144957206583 0 -0.031233838643279398 -0.031193199633022049 0 -0.049741921456861897 -0.048697412542500033 0 -0.032367863380537598 -0.044965144957206583 0 -0.041230103293456458 -0.058058117591144771 0 -0.032367863380537598 -0.044965144957206583 0 -0.041230103293456458 -0.058058117591144771 0 -0.026902341230915561 -0.060374551747501753 0 -0.05822397002114936 -0.01402224463886402 0 -0.057836245250817257 0.0062936453779614283 0 -0.044352522143416888 0.0050416822031405977 0 -0.05822397002114936 -0.01402224463886402 0 -0.037926632337863607 -0.0068783069258408786 0 -0.05822397002114936 -0.01402224463886402 0 -0.068462160169621672 0.0025537029525893409 0 -0.057836245250817257 0.0062936453779614283 0 -0.055132092173872667 -0.033226800447327051 0 -0.05822397002114936 -0.01402224463886402 0 -0.036243114184870161 -0.018923029155399909 0 -0.055132092173872667 -0.033226800447327051 0 -0.036243114184870161 -0.018923029155399909 0 -0.031233838643279398 -0.031193199633022049 0 -0.055132092173872667 -0.033226800447327051 0 -0.036243114184870161 -0.018923029155399909 0 -0.05822397002114936 -0.01402224463886402 0 -0.036243114184870161 -0.018923029155399909 0 -0.037926632337863607 -0.0068783069258408786 0 -0.05822397002114936 -0.01402224463886402 0 -0.037926632337863607 -0.0068783069258408786 0 -0.044352522143416888 0.0050416822031405977 0 -0.036243114184870161 -0.018923029155399909 0 -0.037926632337863607 -0.0068783069258408786 0 -0.029121832422534862 -0.0067169982391169078 0 -0.037926632337863607 -0.0068783069258408786 0 -0.029539197120254941 -0.00051038393964639519 0 -0.029121832422534862 -0.0067169982391169078 0 -0.037926632337863607 -0.0068783069258408786 0 -0.029539197120254941 -0.00051038393964639519 0 -0.03614709390981162 0.0015378833132510439 0 -0.037926632337863607 -0.0068783069258408786 0 -0.03614709390981162 0.0015378833132510439 0 -0.044352522143416888 0.0050416822031405977 0 -0.036243114184870161 -0.018923029155399909 0 -0.017354136195868258 -0.0046192578634720229 0 -0.01819617019275287 -0.0061732580868559192 0 -0.036243114184870161 -0.018923029155399909 0 -0.017354136195868258 -0.0046192578634720229 0 -0.029121832422534862 -0.0067169982391169078 0 -0.036243114184870161 -0.018923029155399909 0 -0.01819617019275287 -0.0061732580868559192 0 -0.019637671972121611 -0.02148729346067638 0 -0.036243114184870161 -0.018923029155399909 0 -0.017354136195868258 -0.0046192578634720229 0 -0.017354136195868258 -0.0046192578634720229 0 -0.01819617019275287 -0.0061732580868559192 0 -0.013500839782477779 -0.0058155532537883976 0 -0.017354136195868258 -0.0046192578634720229 0 -0.01819617019275287 -0.0061732580868559192 0 -0.017354136195868258 -0.0046192578634720229 0 -0.024546082273817361 -0.00265401331122534 0 -0.02112675760807068 0.0030512678310729521 0 -0.024546082273817361 -0.00265401331122534 0 -0.029539197120254941 -0.00051038393964639519 0 -0.02112675760807068 0.0030512678310729521 0 -0.017354136195868258 -0.0046192578634720229 0 -0.024546082273817361 -0.00265401331122534 0 -0.029121832422534862 -0.0067169982391169078 0 -0.024546082273817361 -0.00265401331122534 0 -0.029539197120254941 -0.00051038393964639519 0 -0.029121832422534862 -0.0067169982391169078 0 -0.01819617019275287 -0.0061732580868559192 0 -0.019637671972121611 -0.02148729346067638 0 -0.011008321991883009 -0.01057962122923565 0 -0.036243114184870161 -0.018923029155399909 0 -0.019637671972121611 -0.02148729346067638 0 -0.031233838643279398 -0.031193199633022049 0 -0.019637671972121611 -0.02148729346067638 0 -0.031233838643279398 -0.031193199633022049 0 -0.016064986363794779 -0.036441041599790329 0 -0.0077215053668332834 -0.022860670268973711 0 -0.00118246574067416 -0.01324232368796026 0 0.0015263381015913891 -0.033415212413580753 0 -0.0077215053668332834 -0.022860670268973711 0 -0.016064986363794779 -0.036441041599790329 0 0.0015263381015913891 -0.033415212413580753 0 -0.019637671972121611 -0.02148729346067638 0 -0.0077215053668332834 -0.022860670268973711 0 -0.016064986363794779 -0.036441041599790329 0 -0.019637671972121611 -0.02148729346067638 0 -0.0077215053668332834 -0.022860670268973711 0 -0.011008321991883009 -0.01057962122923565 0 -0.011008321991883009 -0.01057962122923565 0 -0.00118246574067416 -0.01324232368796026 0 -0.0072764121498596901 -0.0036325873431357339 0 -0.0077215053668332834 -0.022860670268973711 0 -0.011008321991883009 -0.01057962122923565 0 -0.00118246574067416 -0.01324232368796026 0 -0.00118246574067416 -0.01324232368796026 0 -0.0072764121498596901 -0.0036325873431357339 0 0.0012074066645448821 -0.00065723147797176382 0 -0.0072764121498596901 -0.0036325873431357339 0 -0.013500839782477779 -0.0058155532537883976 0 -0.013607688627124061 -0.00178224205395049 0 -0.011008321991883009 -0.01057962122923565 0 -0.0072764121498596901 -0.0036325873431357339 0 -0.013500839782477779 -0.0058155532537883976 0 -0.01819617019275287 -0.0061732580868559192 0 -0.011008321991883009 -0.01057962122923565 0 -0.013500839782477779 -0.0058155532537883976 0 -0.017354136195868258 -0.0046192578634720229 0 -0.013500839782477779 -0.0058155532537883976 0 -0.013607688627124061 -0.00178224205395049 0 -0.017354136195868258 -0.0046192578634720229 0 -0.013607688627124061 -0.00178224205395049 0 -0.032367863380537598 -0.044965144957206583 0 -0.0096036345872028556 -0.056703489467087059 0 -0.032367863380537598 -0.044965144957206583 0 -0.026902341230915561 -0.060374551747501753 0 -0.0096036345872028556 -0.056703489467087059 0 -0.032367863380537598 -0.044965144957206583 0 -0.031233838643279398 -0.031193199633022049 0 -0.016064986363794779 -0.036441041599790329 0 -0.032367863380537598 -0.044965144957206583 0 -0.016064986363794779 -0.036441041599790329 0 -0.0096036345872028556 -0.056703489467087059 0 -0.0096036345872028556 -0.056703489467087059 0 0.0015263381015913891 -0.033415212413580753 0 -0.016064986363794779 -0.036441041599790329 0 -0.0096036345872028556 -0.056703489467087059 0 0.0015263381015913891 -0.033415212413580753 0 -0.0096036345872028556 -0.056703489467087059 0 0.0015263381015913891 -0.033415212413580753 0 0.007298405735321048 -0.051477207310420908 0 -0.0096036345872028556 -0.056703489467087059 0 0.0052181775422467033 -0.064346337314722044 0 -0.0096036345872028556 -0.056703489467087059 0 -0.0043762627118289626 -0.071729097412358583 0 0.0052181775422467033 -0.064346337314722044 0 -0.0043762627118289626 -0.071729097412358583 0 -0.0092607301227374331 -0.088572496961274561 0 -0.01646375475339092 -0.071057556949349329 0 -0.0096036345872028556 -0.056703489467087059 0 -0.01646375475339092 -0.071057556949349329 0 -0.0096036345872028556 -0.056703489467087059 0 -0.0043762627118289626 -0.071729097412358583 0 -0.01646375475339092 -0.071057556949349329 0 -0.0092607301227374331 -0.088572496961274561 0 -0.00044729776891663488 -0.1011528385718463 0 0.0042106568376920582 -0.081118225430045127 0 -0.0043762627118289626 -0.071729097412358583 0 -0.0092607301227374331 -0.088572496961274561 0 0.0042106568376920582 -0.081118225430045127 0 -0.0092607301227374331 -0.088572496961274561 0 -0.037642160748979789 -0.094071739377162955 0 -0.0092607301227374331 -0.088572496961274561 0 -0.023323874919582349 -0.085411624431610003 0 -0.01646375475339092 -0.071057556949349329 0 -0.0092607301227374331 -0.088572496961274561 0 -0.023323874919582349 -0.085411624431610003 0 -0.037642160748979789 -0.094071739377162955 0 -0.023323874919582349 -0.085411624431610003 0 -0.01646375475339092 -0.071057556949349329 0 -0.023323874919582349 -0.085411624431610003 0 -0.01646375475339092 -0.071057556949349329 0 -0.034846350139989962 -0.07108844977272101 0 -0.026902341230915561 -0.060374551747501753 0 -0.01646375475339092 -0.071057556949349329 0 -0.034846350139989962 -0.07108844977272101 0 -0.026902341230915561 -0.060374551747501753 0 -0.0096036345872028556 -0.056703489467087059 0 -0.01646375475339092 -0.071057556949349329 0 -0.041230103293456458 -0.058058117591144771 0 -0.026902341230915561 -0.060374551747501753 0 -0.034846350139989962 -0.07108844977272101 0 -0.041230103293456458 -0.058058117591144771 0 -0.034846350139989962 -0.07108844977272101 0 -0.049479852383656611 -0.067543566470139038 0 -0.034846350139989962 -0.07108844977272101 0 -0.048784805137481749 -0.081200653853927454 0 -0.049479852383656611 -0.067543566470139038 0 -0.023323874919582349 -0.085411624431610003 0 -0.034846350139989962 -0.07108844977272101 0 -0.036149297736508462 -0.082943116858855345 0 -0.023323874919582349 -0.085411624431610003 0 -0.036149297736508462 -0.082943116858855345 0 -0.037642160748979789 -0.094071739377162955 0 -0.036149297736508462 -0.082943116858855345 0 -0.048784805137481749 -0.081200653853927454 0 -0.037642160748979789 -0.094071739377162955 0 -0.034846350139989962 -0.07108844977272101 0 -0.036149297736508462 -0.082943116858855345 0 -0.048784805137481749 -0.081200653853927454 0 -0.063732237529271596 -0.080733089011810297 0 -0.066023591375222151 -0.09957098179305135 0 -0.048784805137481749 -0.081200653853927454 0 -0.066023591375222151 -0.09957098179305135 0 -0.048784805137481749 -0.081200653853927454 0 -0.037642160748979789 -0.094071739377162955 0 -0.063732237529271596 -0.080733089011810297 0 -0.048784805137481749 -0.081200653853927454 0 -0.058000192015007383 -0.073011667883306972 0 -0.055978059279945473 -0.056388284161067823 0 -0.060830035872249492 -0.064558057335980773 0 -0.049479852383656611 -0.067543566470139038 0 -0.058000192015007383 -0.073011667883306972 0 -0.060830035872249492 -0.064558057335980773 0 -0.049479852383656611 -0.067543566470139038 0 -0.067174029152377468 -0.071022972744677337 0 -0.058000192015007383 -0.073011667883306972 0 -0.060830035872249492 -0.064558057335980773 0 -0.048784805137481749 -0.081200653853927454 0 -0.058000192015007383 -0.073011667883306972 0 -0.049479852383656611 -0.067543566470139038 0 -0.069466171350113709 -0.1135628440840601 0 -0.054384952187449757 -0.110609208962567 0 -0.059238207921678762 -0.13024384051707169 0 -0.054384952187449757 -0.110609208962567 0 -0.059238207921678762 -0.13024384051707169 0 -0.032945469352336033 -0.1293562392835419 0 -0.066023591375222151 -0.09957098179305135 0 -0.054384952187449757 -0.110609208962567 0 -0.037642160748979789 -0.094071739377162955 0 -0.066023591375222151 -0.09957098179305135 0 -0.037642160748979789 -0.094071739377162955 0 -0.054384952187449757 -0.110609208962567 0 -0.037642160748979789 -0.094071739377162955 0 -0.035661083064217503 -0.11124856921529409 0 -0.054384952187449757 -0.110609208962567 0 -0.032945469352336033 -0.1293562392835419 0 -0.054384952187449757 -0.110609208962567 0 -0.035661083064217503 -0.11124856921529409 0 -0.032945469352336033 -0.1293562392835419 0 -0.01767174996810443 -0.1109570892379047 0 -0.012892303975098539 -0.12786221844410239 0 -0.032945469352336033 -0.1293562392835419 0 -0.035661083064217503 -0.11124856921529409 0 -0.01767174996810443 -0.1109570892379047 0 -0.032945469352336033 -0.1293562392835419 0 -0.0092607301227374331 -0.088572496961274561 0 -0.037642160748979789 -0.094071739377162955 0 -0.01767174996810443 -0.1109570892379047 0 -0.037642160748979789 -0.094071739377162955 0 -0.035661083064217503 -0.11124856921529409 0 -0.01767174996810443 -0.1109570892379047 0 -0.01767174996810443 -0.1109570892379047 0 -0.00044729776891663488 -0.1011528385718463 0 0.005085065621477718 -0.1151057880332567 0 -0.0092607301227374331 -0.088572496961274561 0 -0.01767174996810443 -0.1109570892379047 0 -0.00044729776891663488 -0.1011528385718463 0 -0.01767174996810443 -0.1109570892379047 0 -0.012892303975098539 -0.12786221844410239 0 0.005085065621477718 -0.1151057880332567 0 -0.012892303975098539 -0.12786221844410239 0 0.0027021066240326768 -0.1317064378292063 0 0.005085065621477718 -0.1151057880332567 0 -0.011505986517222349 -0.14810326960451681 0 -0.033736789854580403 -0.16402697950055581 0 -0.032945469352336033 -0.1293562392835419 0 -0.012892303975098539 -0.12786221844410239 0 -0.011505986517222349 -0.14810326960451681 0 0.0027021066240326768 -0.1317064378292063 0 -0.011505986517222349 -0.14810326960451681 0 -0.032945469352336033 -0.1293562392835419 0 -0.012892303975098539 -0.12786221844410239 0 -0.011505986517222349 -0.14810326960451681 0 -0.032945469352336033 -0.1293562392835419 0 -0.011505986517222349 -0.14810326960451681 0 0.009933496317892726 -0.16685029992549011 0 -0.011505986517222349 -0.14810326960451681 0 -0.0085976242789068957 -0.177408956520272 0 0.009933496317892726 -0.16685029992549011 0 -0.0085976242789068957 -0.177408956520272 0 -0.003739977245034012 -0.19168309442994089 0 -0.02712874487570623 -0.18796761311505439 0 -0.0085976242789068957 -0.177408956520272 0 -0.003739977245034012 -0.19168309442994089 0 0.0034571977838801569 -0.17702496179755631 0 -0.0085976242789068957 -0.177408956520272 0 -0.02712874487570623 -0.18796761311505439 0 -0.0085976242789068957 -0.177408956520272 0 -0.033736789854580403 -0.16402697950055581 0 -0.02712874487570623 -0.18796761311505439 0 -0.011505986517222349 -0.14810326960451681 0 -0.0085976242789068957 -0.177408956520272 0 -0.033736789854580403 -0.16402697950055581 0 -0.033736789854580403 -0.16402697950055581 0 -0.041678182321736049 -0.18065303021324261 0 -0.02712874487570623 -0.18796761311505439 0 -0.033736789854580403 -0.16402697950055581 0 -0.041678182321736049 -0.18065303021324261 0 -0.060187329084152079 -0.17209125852752319 0 -0.041678182321736049 -0.18065303021324261 0 -0.060187329084152079 -0.17209125852752319 0 -0.045659865472505487 -0.198526269709837 0 -0.060187329084152079 -0.17209125852752319 0 -0.045659865472505487 -0.198526269709837 0 -0.033736789854580403 -0.16402697950055581 0 -0.060187329084152079 -0.17209125852752319 0 -0.051699405537506939 -0.14899167338562519 0 -0.060187329084152079 -0.17209125852752319 0 -0.051699405537506939 -0.14899167338562519 0 -0.072389231474787458 -0.1492400490994332 0 -0.051699405537506939 -0.14899167338562519 0 -0.059238207921678762 -0.13024384051707169 0 -0.072389231474787458 -0.1492400490994332 0 -0.033736789854580403 -0.16402697950055581 0 -0.051699405537506939 -0.14899167338562519 0 -0.032945469352336033 -0.1293562392835419 0 -0.051699405537506939 -0.14899167338562519 0 -0.059238207921678762 -0.13024384051707169 0 -0.032945469352336033 -0.1293562392835419 0 -0.025857267464119819 -0.25506418495113531 0 -0.02368513365757598 -0.23851275990414511 0 -0.036167443228362108 -0.24337299090061551 0 -0.01269776775011346 -0.25850600500130039 0 -0.02368513365757598 -0.23851275990414511 0 -0.01269776775011346 -0.25850600500130039 0 -0.02368513365757598 -0.23851275990414511 0 -0.01082738352359053 -0.24876902592697839 0 -0.02368513365757598 -0.23851275990414511 0 -0.0067432183097289999 -0.239968376336817 0 -0.0090267388034834407 -0.23007068799598671 0 -0.02368513365757598 -0.23851275990414511 0 -0.01082738352359053 -0.24876902592697839 0 -0.0067432183097289999 -0.239968376336817 0 -0.01082738352359053 -0.24876902592697839 0 -0.0029313858115674811 -0.24854412401401971 0 -0.0067432183097289999 -0.239968376336817 0 -0.0029313858115674811 -0.24854412401401971 0 -0.0067432183097289999 -0.239968376336817 0 0.0026199421412959989 -0.2430643023623929 0 -0.0067432183097289999 -0.239968376336817 0 0.0026199421412959989 -0.2430643023623929 0 0.0017465435191736189 -0.23378549097037141 0 -0.0067432183097289999 -0.239968376336817 0 -0.0090267388034834407 -0.23007068799598671 0 0.0017465435191736189 -0.23378549097037141 0 -0.0090267388034834407 -0.23007068799598671 0 -0.00080535468136348092 -0.21995366459000901 0 -0.01839049427805331 -0.2195873775130934 0 -0.0090267388034834407 -0.23007068799598671 0 -0.00080535468136348092 -0.21995366459000901 0 0.0017465435191736189 -0.23378549097037141 0 -0.02368513365757598 -0.23851275990414511 0 -0.0090267388034834407 -0.23007068799598671 0 -0.01839049427805331 -0.2195873775130934 0 -0.02368513365757598 -0.23851275990414511 0 -0.01839049427805331 -0.2195873775130934 0 -0.034672499565036527 -0.2185195148069887 0 -0.02368513365757598 -0.23851275990414511 0 -0.034672499565036527 -0.2185195148069887 0 -0.01839049427805331 -0.2195873775130934 0 -0.027127261386640289 -0.20489204062456881 0 -0.034672499565036527 -0.2185195148069887 0 -0.01839049427805331 -0.2195873775130934 0 -0.027127261386640289 -0.20489204062456881 0 -0.01084996336714465 -0.20584666152463099 0 -0.00080535468136348092 -0.21995366459000901 0 -0.01839049427805331 -0.2195873775130934 0 -0.01084996336714465 -0.20584666152463099 0 -0.00080535468136348092 -0.21995366459000901 0 -0.01084996336714465 -0.20584666152463099 0 0.01016515501406726 -0.20926501301563591 0 -0.01084996336714465 -0.20584666152463099 0 -0.003739977245034012 -0.19168309442994089 0 0.01016515501406726 -0.20926501301563591 0 -0.01084996336714465 -0.20584666152463099 0 -0.003739977245034012 -0.19168309442994089 0 -0.02712874487570623 -0.18796761311505439 0 -0.027127261386640289 -0.20489204062456881 0 -0.01084996336714465 -0.20584666152463099 0 -0.02712874487570623 -0.18796761311505439 0 -0.041678182321736049 -0.18065303021324261 0 -0.02712874487570623 -0.18796761311505439 0 -0.045659865472505487 -0.198526269709837 0 -0.02712874487570623 -0.18796761311505439 0 -0.045659865472505487 -0.198526269709837 0 -0.027127261386640289 -0.20489204062456881 0 -0.02712874487570623 -0.18796761311505439 0 -0.045659865472505487 -0.198526269709837 0 -0.045659865472505487 -0.198526269709837 0 -0.067682806497079445 -0.21107449474949169 0 -0.062708331551170268 -0.19442045911658551 0 -0.060187329084152079 -0.17209125852752319 0 -0.045659865472505487 -0.198526269709837 0 -0.062708331551170268 -0.19442045911658551 0 -0.045659865472505487 -0.198526269709837 0 -0.067682806497079445 -0.21107449474949169 0 -0.045659865472505487 -0.198526269709837 0 -0.054546183461555722 -0.22015285450131489 0 -0.067682806497079445 -0.21107449474949169 0 -0.045659865472505487 -0.198526269709837 0 -0.034672499565036527 -0.2185195148069887 0 -0.054546183461555722 -0.22015285450131489 0 -0.045659865472505487 -0.198526269709837 0 -0.034672499565036527 -0.2185195148069887 0 -0.027127261386640289 -0.20489204062456881 0 -0.045659865472505487 -0.198526269709837 0 -0.034672499565036527 -0.2185195148069887 0 -0.034672499565036527 -0.2185195148069887 0 -0.044145410485190079 -0.23242073182379891 0 -0.054546183461555722 -0.22015285450131489 0 -0.02368513365757598 -0.23851275990414511 0 -0.034672499565036527 -0.2185195148069887 0 -0.044145410485190079 -0.23242073182379891 0 -0.044145410485190079 -0.23242073182379891 0 -0.054546183461555722 -0.22015285450131489 0 -0.061280333386656921 -0.23284462843810469 0 -0.061280333386656921 -0.23284462843810469 0 -0.050191684441297867 -0.2485850187836515 0 -0.071591358857016049 -0.2429226102204386 0 -0.050191684441297867 -0.2485850187836515 0 -0.071591358857016049 -0.2429226102204386 0 -0.056939497423126581 -0.24878681181634871 0 -0.050191684441297867 -0.2485850187836515 0 -0.071591358857016049 -0.2429226102204386 0 -0.044145410485190079 -0.23242073182379891 0 -0.061280333386656921 -0.23284462843810469 0 -0.050191684441297867 -0.2485850187836515 0 -0.041398382443623198 -0.25192549838374201 0 -0.056939497423126581 -0.24878681181634871 0 -0.050191684441297867 -0.2485850187836515 0 -0.044145410485190079 -0.23242073182379891 0 -0.050191684441297867 -0.2485850187836515 0 -0.036167443228362108 -0.24337299090061551 0 -0.02368513365757598 -0.23851275990414511 0 -0.044145410485190079 -0.23242073182379891 0 -0.036167443228362108 -0.24337299090061551 0 -0.025857267464119819 -0.25506418495113531 0 -0.050191684441297867 -0.2485850187836515 0 -0.036167443228362108 -0.24337299090061551 0 -0.097628444613881649 -0.25834262822693399 0 -0.087470553331264578 -0.24262075389877999 0 -0.077955776651182085 -0.24454236002529731 0 -0.087470553331264578 -0.24262075389877999 0 -0.087928467376508473 -0.23859976953689591 0 -0.1005617376665941 -0.23997685579502359 0 -0.087928467376508473 -0.23859976953689591 0 -0.07453604668454375 -0.2421434382925548 0 -0.07383618536286593 -0.22753148747966839 0 -0.087928467376508473 -0.23859976953689591 0 -0.07453604668454375 -0.2421434382925548 0 -0.087928467376508473 -0.23859976953689591 0 -0.077955776651182085 -0.24454236002529731 0 -0.07453604668454375 -0.2421434382925548 0 -0.087470553331264578 -0.24262075389877999 0 -0.087928467376508473 -0.23859976953689591 0 -0.077955776651182085 -0.24454236002529731 0 -0.087470553331264578 -0.24262075389877999 0 -0.077955776651182085 -0.24454236002529731 0 -0.056939497423126581 -0.24878681181634871 0 -0.077955776651182085 -0.24454236002529731 0 -0.071591358857016049 -0.2429226102204386 0 -0.056939497423126581 -0.24878681181634871 0 -0.077955776651182085 -0.24454236002529731 0 -0.077955776651182085 -0.24454236002529731 0 -0.071591358857016049 -0.2429226102204386 0 -0.07453604668454375 -0.2421434382925548 0 -0.077955776651182085 -0.24454236002529731 0 -0.07453604668454375 -0.2421434382925548 0 -0.071591358857016049 -0.2429226102204386 0 -0.07453604668454375 -0.2421434382925548 0 -0.056939497423126581 -0.24878681181634871 0 -0.071591358857016049 -0.2429226102204386 0 -0.061280333386656921 -0.23284462843810469 0 -0.071591358857016049 -0.2429226102204386 0 -0.07453604668454375 -0.2421434382925548 0 -0.061280333386656921 -0.23284462843810469 0 -0.07453604668454375 -0.2421434382925548 0 -0.07383618536286593 -0.22753148747966839 0 -0.089705747521653334 -0.22362271978914661 0 -0.067682806497079445 -0.21107449474949169 0 -0.054546183461555722 -0.22015285450131489 0 -0.061280333386656921 -0.23284462843810469 0 -0.07383618536286593 -0.22753148747966839 0 -0.054546183461555722 -0.22015285450131489 0 -0.07383618536286593 -0.22753148747966839 0 -0.067682806497079445 -0.21107449474949169 0 -0.061280333386656921 -0.23284462843810469 0 -0.07453604668454375 -0.2421434382925548 0 -0.07383618536286593 -0.22753148747966839 0 -0.087928467376508473 -0.23859976953689591 0 -0.07383618536286593 -0.22753148747966839 0 -0.089705747521653334 -0.22362271978914661 0 -0.087928467376508473 -0.23859976953689591 0 -0.089705747521653334 -0.22362271978914661 0 -0.1005617376665941 -0.23997685579502359 0 -0.089705747521653334 -0.22362271978914661 0 -0.067682806497079445 -0.21107449474949169 0 -0.089705747521653334 -0.22362271978914661 0 -0.084027466008495671 -0.20735524824550181 0 -0.09921486728828334 -0.20109800384388701 0 -0.089705747521653334 -0.22362271978914661 0 -0.084027466008495671 -0.20735524824550181 0 -0.067682806497079445 -0.21107449474949169 0 -0.084027466008495671 -0.20735524824550181 0 -0.067682806497079445 -0.21107449474949169 0 -0.079506442726966622 -0.19362577459948219 0 -0.067682806497079445 -0.21107449474949169 0 -0.062708331551170268 -0.19442045911658551 0 -0.079506442726966622 -0.19362577459948219 0 -0.079506442726966622 -0.19362577459948219 0 -0.09921486728828334 -0.20109800384388701 0 -0.089369030920126963 -0.1732707743578942 0 -0.084027466008495671 -0.20735524824550181 0 -0.079506442726966622 -0.19362577459948219 0 -0.09921486728828334 -0.20109800384388701 0 -0.09921486728828334 -0.20109800384388701 0 -0.1156293974943295 -0.1822747327150937 0 -0.1210853022939376 -0.205467400633562 0 -0.1156293974943295 -0.1822747327150937 0 -0.13505851963374399 -0.18906788910329131 0 -0.09921486728828334 -0.20109800384388701 0 -0.1210853022939376 -0.205467400633562 0 -0.1156293974943295 -0.1822747327150937 0 -0.1210853022939376 -0.205467400633562 0 -0.10755849924533691 -0.2178899443088799 0 -0.11989889803527461 -0.22145143588075511 0 -0.1210853022939376 -0.205467400633562 0 -0.11989889803527461 -0.22145143588075511 0 -0.13086176299679239 -0.21746526838305219 0 -0.089705747521653334 -0.22362271978914661 0 -0.09921486728828334 -0.20109800384388701 0 -0.10755849924533691 -0.2178899443088799 0 -0.09921486728828334 -0.20109800384388701 0 -0.1210853022939376 -0.205467400633562 0 -0.10755849924533691 -0.2178899443088799 0 -0.089705747521653334 -0.22362271978914661 0 -0.11172868854622731 -0.23617094482880149 0 -0.1005617376665941 -0.23997685579502359 0 -0.089705747521653334 -0.22362271978914661 0 -0.11172868854622731 -0.23617094482880149 0 -0.089705747521653334 -0.22362271978914661 0 -0.10755849924533691 -0.2178899443088799 0 -0.11172868854622731 -0.23617094482880149 0 -0.11989889803527461 -0.22145143588075511 0 -0.11172868854622731 -0.23617094482880149 0 -0.127825895831608 -0.22987551408160201 0 -0.10755849924533691 -0.2178899443088799 0 -0.11989889803527461 -0.22145143588075511 0 -0.11172868854622731 -0.23617094482880149 0 -0.13218950310710981 -0.25272660122947088 0 -0.1218823470606431 -0.24640061544388489 0 -0.1098930818979398 -0.24798588601512411 0 -0.11172868854622731 -0.23617094482880149 0 -0.13375162957080131 -0.24871916986845621 0 -0.11172868854622731 -0.23617094482880149 0 -0.1218823470606431 -0.24640061544388489 0 -0.13375162957080131 -0.24871916986845621 0 -0.11172868854622731 -0.23617094482880149 0 -0.13375162957080131 -0.24871916986845621 0 -0.127825895831608 -0.22987551408160201 0 -0.11172868854622731 -0.23617094482880149 0 -0.1218823470606431 -0.24640061544388489 0 -0.1098930818979398 -0.24798588601512411 0 -0.097628444613881649 -0.25834262822693399 0 -0.087470553331264578 -0.24262075389877999 0 -0.1098930818979398 -0.24798588601512411 0 -0.087470553331264578 -0.24262075389877999 0 -0.1098930818979398 -0.24798588601512411 0 -0.1005617376665941 -0.23997685579502359 0 -0.087470553331264578 -0.24262075389877999 0 -0.1098930818979398 -0.24798588601512411 0 -0.11172868854622731 -0.23617094482880149 0 -0.1098930818979398 -0.24798588601512411 0 -0.1005617376665941 -0.23997685579502359 0 -0.087470553331264578 -0.24262075389877999 0 -0.1005617376665941 -0.23997685579502359 0 -0.072389231474787458 -0.1492400490994332 0 -0.089369030920126963 -0.1732707743578942 0 -0.096011965921864201 -0.14265464397282879 0 -0.077516787342341589 -0.1242022911324857 0 -0.093262550211769629 -0.1231040070079162 0 -0.096011965921864201 -0.14265464397282879 0 -0.077516787342341589 -0.1242022911324857 0 -0.072389231474787458 -0.1492400490994332 0 -0.096011965921864201 -0.14265464397282879 0 -0.077516787342341589 -0.1242022911324857 0 -0.059238207921678762 -0.13024384051707169 0 -0.072389231474787458 -0.1492400490994332 0 -0.060187329084152079 -0.17209125852752319 0 -0.072389231474787458 -0.1492400490994332 0 -0.089369030920126963 -0.1732707743578942 0 -0.060187329084152079 -0.17209125852752319 0 -0.079506442726966622 -0.19362577459948219 0 -0.089369030920126963 -0.1732707743578942 0 -0.060187329084152079 -0.17209125852752319 0 -0.062708331551170268 -0.19442045911658551 0 -0.079506442726966622 -0.19362577459948219 0 -0.089369030920126963 -0.1732707743578942 0 -0.1107512355661594 -0.16096683979900789 0 -0.096011965921864201 -0.14265464397282879 0 -0.09921486728828334 -0.20109800384388701 0 -0.089369030920126963 -0.1732707743578942 0 -0.1156293974943295 -0.1822747327150937 0 -0.089369030920126963 -0.1732707743578942 0 -0.1156293974943295 -0.1822747327150937 0 -0.1107512355661594 -0.16096683979900789 0 -0.1156293974943295 -0.1822747327150937 0 -0.13204392770037571 -0.1634514615863005 0 -0.1156293974943295 -0.1822747327150937 0 -0.1107512355661594 -0.16096683979900789 0 -0.13204392770037571 -0.1634514615863005 0 -0.1107512355661594 -0.16096683979900789 0 -0.12070185579410091 -0.1431825863629223 0 -0.13204392770037571 -0.1634514615863005 0 -0.1107512355661594 -0.16096683979900789 0 -0.12070185579410091 -0.1431825863629223 0 -0.096011965921864201 -0.14265464397282879 0 -0.1071147179002416 -0.1244919901550422 0 -0.12070185579410091 -0.1431825863629223 0 -0.096011965921864201 -0.14265464397282879 0 -0.093262550211769629 -0.1231040070079162 0 -0.1071147179002416 -0.1244919901550422 0 -0.096011965921864201 -0.14265464397282879 0 -0.1071147179002416 -0.1244919901550422 0 -0.12070185579410091 -0.1431825863629223 0 -0.1306137014228527 -0.1212095633787966 0 -0.12070185579410091 -0.1431825863629223 0 -0.14845845790642179 -0.14462819045750719 0 -0.1306137014228527 -0.1212095633787966 0 -0.14845845790642179 -0.14462819045750719 0 -0.1306137014228527 -0.1212095633787966 0 -0.15036797716661271 -0.14243845987679379 0 -0.14845845790642179 -0.14462819045750719 0 -0.1306137014228527 -0.1212095633787966 0 -0.15406265534163929 -0.1294064941378926 0 -0.15036797716661271 -0.14243845987679379 0 -0.1306137014228527 -0.1212095633787966 0 -0.15406265534163929 -0.1294064941378926 0 -0.15036797716661271 -0.14243845987679379 0 -0.1564494690737798 -0.13971242061594299 0 -0.1543278084257422 -0.1453912472931165 0 -0.14845845790642179 -0.14462819045750719 0 -0.15894149653025619 -0.15184230729274609 0 -0.15519343748037609 -0.14309809199123349 0 -0.15036797716661271 -0.14243845987679379 0 -0.1564494690737798 -0.13971242061594299 0 -0.1543278084257422 -0.1453912472931165 0 -0.15519343748037609 -0.14309809199123349 0 -0.15036797716661271 -0.14243845987679379 0 -0.1543278084257422 -0.1453912472931165 0 -0.15036797716661271 -0.14243845987679379 0 -0.14845845790642179 -0.14462819045750719 0 -0.15036797716661271 -0.14243845987679379 0 -0.14845845790642179 -0.14462819045750719 0 -0.12070185579410091 -0.1431825863629223 0 -0.14845845790642179 -0.14462819045750719 0 -0.13204392770037571 -0.1634514615863005 0 -0.14845845790642179 -0.14462819045750719 0 -0.13204392770037571 -0.1634514615863005 0 -0.13204392770037571 -0.1634514615863005 0 -0.1475860696211248 -0.17640031700015249 0 -0.13505851963374399 -0.18906788910329131 0 -0.1156293974943295 -0.1822747327150937 0 -0.13204392770037571 -0.1634514615863005 0 -0.13505851963374399 -0.18906788910329131 0 -0.1475860696211248 -0.17640031700015249 0 -0.1655722477793394 -0.1670875310098065 0 -0.15496537504316019 -0.19429807729602311 0 -0.1475860696211248 -0.17640031700015249 0 -0.13505851963374399 -0.18906788910329131 0 -0.15496537504316019 -0.19429807729602311 0 -0.1475860696211248 -0.17640031700015249 0 -0.14862352044039201 -0.16347018067920821 0 -0.1655722477793394 -0.1670875310098065 0 -0.14845845790642179 -0.14462819045750719 0 -0.13204392770037571 -0.1634514615863005 0 -0.14862352044039201 -0.16347018067920821 0 -0.14845845790642179 -0.14462819045750719 0 -0.14862352044039201 -0.16347018067920821 0 -0.1655722477793394 -0.1670875310098065 0 -0.13204392770037571 -0.1634514615863005 0 -0.1475860696211248 -0.17640031700015249 0 -0.14862352044039201 -0.16347018067920821 0 -0.1655722477793394 -0.1670875310098065 0 -0.1716614177265566 -0.15146656102038991 0 -0.1655722477793394 -0.1670875310098065 0 -0.15894149653025619 -0.15184230729274609 0 -0.1716614177265566 -0.15146656102038991 0 -0.1655722477793394 -0.1670875310098065 0 -0.17557921295501691 -0.18022020591375351 0 -0.1689483943248192 -0.19264195369377959 0 -0.1655722477793394 -0.1670875310098065 0 -0.15496537504316019 -0.19429807729602311 0 -0.1689483943248192 -0.19264195369377959 0 -0.1655722477793394 -0.1670875310098065 0 -0.15496537504316019 -0.19429807729602311 0 -0.1655722477793394 -0.1670875310098065 0 -0.17557921295501691 -0.18022020591375351 0 -0.17557921295501691 -0.18022020591375351 0 -0.18239484980351819 -0.16464781923938721 0 -0.1907059301477185 -0.18468107337543721 0 -0.1655722477793394 -0.1670875310098065 0 -0.17557921295501691 -0.18022020591375351 0 -0.18239484980351819 -0.16464781923938721 0 -0.1655722477793394 -0.1670875310098065 0 -0.18239484980351819 -0.16464781923938721 0 -0.1716614177265566 -0.15146656102038991 0 -0.18239484980351819 -0.16464781923938721 0 -0.1716614177265566 -0.15146656102038991 0 -0.1894311146879058 -0.1465309504005988 0 -0.17775058767377289 -0.13584559103097291 0 -0.1716614177265566 -0.15146656102038991 0 -0.1894311146879058 -0.1465309504005988 0 -0.17775058767377289 -0.13584559103097291 0 -0.1716614177265566 -0.15146656102038991 0 -0.17775058767377289 -0.13584559103097291 0 -0.1894311146879058 -0.1465309504005988 0 -0.17775058767377289 -0.13584559103097291 0 -0.19823449762692411 -0.13229999761030051 0 -0.18534812722118199 -0.1163550958908785 0 -0.17775058767377289 -0.13584559103097291 0 -0.18534812722118199 -0.1163550958908785 0 -0.15406265534163929 -0.1294064941378926 0 -0.16394560233522651 -0.1386698702264933 0 -0.15606779039194271 -0.1160101434681408 0 -0.17775058767377289 -0.13584559103097291 0 -0.16394560233522651 -0.1386698702264933 0 -0.15606779039194271 -0.1160101434681408 0 -0.17775058767377289 -0.13584559103097291 0 -0.15606779039194271 -0.1160101434681408 0 -0.15406265534163929 -0.1294064941378926 0 -0.16394560233522651 -0.1386698702264933 0 -0.1564494690737798 -0.13971242061594299 0 -0.16394560233522651 -0.1386698702264933 0 -0.1564494690737798 -0.13971242061594299 0 -0.15962849525536979 -0.1448502401790808 0 -0.14845845790642179 -0.14462819045750719 0 -0.1655722477793394 -0.1670875310098065 0 -0.14845845790642179 -0.14462819045750719 0 -0.1655722477793394 -0.1670875310098065 0 -0.15894149653025619 -0.15184230729274609 0 -0.15519343748037609 -0.14309809199123349 0 -0.1564494690737798 -0.13971242061594299 0 -0.15962849525536979 -0.1448502401790808 0 -0.1543278084257422 -0.1453912472931165 0 -0.15519343748037609 -0.14309809199123349 0 -0.15962849525536979 -0.1448502401790808 0 -0.1543278084257422 -0.1453912472931165 0 -0.15962849525536979 -0.1448502401790808 0 -0.15894149653025619 -0.15184230729274609 0 -0.15962849525536979 -0.1448502401790808 0 -0.15894149653025619 -0.15184230729274609 0 -0.1716614177265566 -0.15146656102038991 0 -0.17775058767377289 -0.13584559103097291 0 -0.16394560233522651 -0.1386698702264933 0 -0.1716614177265566 -0.15146656102038991 0 -0.16394560233522651 -0.1386698702264933 0 -0.15962849525536979 -0.1448502401790808 0 -0.1716614177265566 -0.15146656102038991 0 -0.1534429259631987 -0.25724555178864622 0 -0.15289321433053751 -0.246830478479277 0 -0.1378886282313006 -0.2381062402767252 0 -0.1534429259631987 -0.25724555178864622 0 -0.1378886282313006 -0.2381062402767252 0 -0.15348527020851541 -0.23913552791147211 0 -0.1378886282313006 -0.2381062402767252 0 -0.15430752157141919 -0.22794821467022949 0 -0.15289321433053751 -0.246830478479277 0 -0.15348527020851541 -0.23913552791147211 0 -0.1601832428566283 -0.24550858739866141 0 -0.15289321433053751 -0.246830478479277 0 -0.15348527020851541 -0.23913552791147211 0 -0.1378886282313006 -0.2381062402767252 0 -0.1459019403517107 -0.25564217047089421 0 -0.13375162957080131 -0.24871916986845621 0 -0.1378886282313006 -0.2381062402767252 0 -0.13375162957080131 -0.24871916986845621 0 -0.1378886282313006 -0.2381062402767252 0 -0.127825895831608 -0.22987551408160201 0 -0.13375162957080131 -0.24871916986845621 0 -0.1378886282313006 -0.2381062402767252 0 -0.13218950310710981 -0.25272660122947088 0 -0.1218823470606431 -0.24640061544388489 0 -0.13375162957080131 -0.24871916986845621 0 -0.127825895831608 -0.22987551408160201 0 -0.14435850230698141 -0.22150862358223991 0 -0.13086176299679239 -0.21746526838305219 0 -0.1378886282313006 -0.2381062402767252 0 -0.127825895831608 -0.22987551408160201 0 -0.14435850230698141 -0.22150862358223991 0 -0.11989889803527461 -0.22145143588075511 0 -0.127825895831608 -0.22987551408160201 0 -0.13086176299679239 -0.21746526838305219 0 -0.1378886282313006 -0.2381062402767252 0 -0.14435850230698141 -0.22150862358223991 0 -0.14435850230698141 -0.22150862358223991 0 -0.15430752157141919 -0.22794821467022949 0 -0.16410544360365359 -0.21493654602220469 0 -0.1378886282313006 -0.2381062402767252 0 -0.14435850230698141 -0.22150862358223991 0 -0.15430752157141919 -0.22794821467022949 0 -0.14435850230698141 -0.22150862358223991 0 -0.15496537504316019 -0.19429807729602311 0 -0.14435850230698141 -0.22150862358223991 0 -0.1373527607074172 -0.20563907323320921 0 -0.15496537504316019 -0.19429807729602311 0 -0.14435850230698141 -0.22150862358223991 0 -0.15496537504316019 -0.19429807729602311 0 -0.16410544360365359 -0.21493654602220469 0 -0.14435850230698141 -0.22150862358223991 0 -0.1373527607074172 -0.20563907323320921 0 -0.13086176299679239 -0.21746526838305219 0 -0.1210853022939376 -0.205467400633562 0 -0.1373527607074172 -0.20563907323320921 0 -0.13086176299679239 -0.21746526838305219 0 -0.1210853022939376 -0.205467400633562 0 -0.1373527607074172 -0.20563907323320921 0 -0.13505851963374399 -0.18906788910329131 0 -0.1373527607074172 -0.20563907323320921 0 -0.13505851963374399 -0.18906788910329131 0 -0.15496537504316019 -0.19429807729602311 0 -0.1689483943248192 -0.19264195369377959 0 -0.17994482166635981 -0.2014366202218163 0 -0.16410544360365359 -0.21493654602220469 0 -0.15496537504316019 -0.19429807729602311 0 -0.1689483943248192 -0.19264195369377959 0 -0.16410544360365359 -0.21493654602220469 0 -0.17557921295501691 -0.18022020591375351 0 -0.1689483943248192 -0.19264195369377959 0 -0.17994482166635981 -0.2014366202218163 0 -0.17557921295501691 -0.18022020591375351 0 -0.17994482166635981 -0.2014366202218163 0 -0.1907059301477185 -0.18468107337543721 0 -0.17994482166635981 -0.2014366202218163 0 -0.1784102433228649 -0.21681777692650089 0 -0.16410544360365359 -0.21493654602220469 0 -0.17994482166635981 -0.2014366202218163 0 -0.18904495760185211 -0.20873870471059999 0 -0.19252771524915421 -0.19930647688205899 0 -0.17994482166635981 -0.2014366202218163 0 -0.1784102433228649 -0.21681777692650089 0 -0.18904495760185211 -0.20873870471059999 0 -0.1784102433228649 -0.21681777692650089 0 -0.19175951728552271 -0.21959172261586679 0 -0.18904495760185211 -0.20873870471059999 0 -0.15430752157141919 -0.22794821467022949 0 -0.16410544360365359 -0.21493654602220469 0 -0.16877954452522659 -0.2255120540677526 0 -0.15430752157141919 -0.22794821467022949 0 -0.16877954452522659 -0.2255120540677526 0 -0.16324537569009509 -0.2357306359809743 0 -0.15348527020851541 -0.23913552791147211 0 -0.15430752157141919 -0.22794821467022949 0 -0.16324537569009509 -0.2357306359809743 0 -0.16877954452522659 -0.2255120540677526 0 -0.17781387366555559 -0.23090770197000129 0 -0.16324537569009509 -0.2357306359809743 0 -0.1784102433228649 -0.21681777692650089 0 -0.16410544360365359 -0.21493654602220469 0 -0.16877954452522659 -0.2255120540677526 0 -0.1784102433228649 -0.21681777692650089 0 -0.16877954452522659 -0.2255120540677526 0 -0.17781387366555559 -0.23090770197000129 0 -0.1784102433228649 -0.21681777692650089 0 -0.17781387366555559 -0.23090770197000129 0 -0.19175951728552271 -0.21959172261586679 0 -0.17781387366555559 -0.23090770197000129 0 -0.1805311654956796 -0.2411950136452527 0 -0.19410287643929239 -0.23312434657521411 0 -0.17781387366555559 -0.23090770197000129 0 -0.1805311654956796 -0.2411950136452527 0 -0.16955513552828311 -0.24305067226283769 0 -0.17679077873490559 -0.25046109420941731 0 -0.1805311654956796 -0.2411950136452527 0 -0.18863044441395099 -0.24733650333174401 0 -0.17679077873490559 -0.25046109420941731 0 -0.1805311654956796 -0.2411950136452527 0 -0.16955513552828311 -0.24305067226283769 0 -0.16709258238786229 -0.25188408856254202 0 -0.17679077873490559 -0.25046109420941731 0 -0.16955513552828311 -0.24305067226283769 0 -0.16709258238786229 -0.25188408856254202 0 -0.16955513552828311 -0.24305067226283769 0 -0.1601832428566283 -0.24550858739866141 0 -0.17781387366555559 -0.23090770197000129 0 -0.16955513552828311 -0.24305067226283769 0 -0.16324537569009509 -0.2357306359809743 0 -0.16955513552828311 -0.24305067226283769 0 -0.16324537569009509 -0.2357306359809743 0 -0.1601832428566283 -0.24550858739866141 0 -0.15348527020851541 -0.23913552791147211 0 -0.16324537569009509 -0.2357306359809743 0 -0.1601832428566283 -0.24550858739866141 0 -0.1593809120407062 -0.25278805690175971 0 -0.15289321433053751 -0.246830478479277 0 -0.1601832428566283 -0.24550858739866141 0 -0.20565562739327201 -0.24334207984173631 0 -0.19410287643929239 -0.23312434657521411 0 -0.21201774175915139 -0.2290986139018284 0 -0.21472073189145299 -0.25725591714607071 0 -0.20565562739327201 -0.24334207984173631 0 -0.22837296648480071 -0.23789375384220129 0 -0.20565562739327201 -0.24334207984173631 0 -0.21201774175915139 -0.2290986139018284 0 -0.22837296648480071 -0.23789375384220129 0 -0.20565562739327201 -0.24334207984173631 0 -0.18863044441395099 -0.24733650333174401 0 -0.19410287643929239 -0.23312434657521411 0 -0.1805311654956796 -0.2411950136452527 0 -0.18863044441395099 -0.24733650333174401 0 -0.19410287643929239 -0.23312434657521411 0 -0.17781387366555559 -0.23090770197000129 0 -0.19410287643929239 -0.23312434657521411 0 -0.19175951728552271 -0.21959172261586679 0 -0.19410287643929239 -0.23312434657521411 0 -0.19175951728552271 -0.21959172261586679 0 -0.20443040571370949 -0.21985141578154491 0 -0.21201774175915139 -0.2290986139018284 0 -0.20443040571370949 -0.21985141578154491 0 -0.22630383013383959 -0.21240708539258099 0 -0.19410287643929239 -0.23312434657521411 0 -0.21201774175915139 -0.2290986139018284 0 -0.20443040571370949 -0.21985141578154491 0 -0.20157622681128409 -0.2075672839719423 0 -0.21557055542943429 -0.1904257004922347 0 -0.22630383013383959 -0.21240708539258099 0 -0.20157622681128409 -0.2075672839719423 0 -0.22630383013383959 -0.21240708539258099 0 -0.20443040571370949 -0.21985141578154491 0 -0.20157622681128409 -0.2075672839719423 0 -0.22630383013383959 -0.21240708539258099 0 -0.19175951728552271 -0.21959172261586679 0 -0.20443040571370949 -0.21985141578154491 0 -0.20157622681128409 -0.2075672839719423 0 -0.19175951728552271 -0.21959172261586679 0 -0.20157622681128409 -0.2075672839719423 0 -0.19175951728552271 -0.21959172261586679 0 -0.18904495760185211 -0.20873870471059999 0 -0.20157622681128409 -0.2075672839719423 0 -0.18904495760185211 -0.20873870471059999 0 -0.20157622681128409 -0.2075672839719423 0 -0.19252771524915421 -0.19930647688205899 0 -0.17994482166635981 -0.2014366202218163 0 -0.19252771524915421 -0.19930647688205899 0 -0.1907059301477185 -0.18468107337543721 0 -0.20157622681128409 -0.2075672839719423 0 -0.19252771524915421 -0.19930647688205899 0 -0.20187756758401409 -0.19506767240709361 0 -0.19252771524915421 -0.19930647688205899 0 -0.20187756758401409 -0.19506767240709361 0 -0.1907059301477185 -0.18468107337543721 0 -0.20157622681128409 -0.2075672839719423 0 -0.21557055542943429 -0.1904257004922347 0 -0.20187756758401409 -0.19506767240709361 0 -0.21557055542943429 -0.1904257004922347 0 -0.2038146335316797 -0.1820121315948606 0 -0.20157622681128409 -0.2075672839719423 0 -0.20187756758401409 -0.19506767240709361 0 -0.21557055542943429 -0.1904257004922347 0 -0.21557055542943429 -0.1904257004922347 0 -0.23533053747689989 -0.1962925907305976 0 -0.22630383013383959 -0.21240708539258099 0 -0.23533053747689989 -0.1962925907305976 0 -0.25103143345639523 -0.21724688681321891 0 -0.25418198431724581 -0.18809916394242601 0 -0.22630383013383959 -0.21240708539258099 0 -0.25103143345639523 -0.21724688681321891 0 -0.23533053747689989 -0.1962925907305976 0 -0.22630383013383959 -0.21240708539258099 0 -0.25103143345639523 -0.21724688681321891 0 -0.21201774175915139 -0.2290986139018284 0 -0.22630383013383959 -0.21240708539258099 0 -0.22837296648480071 -0.23789375384220129 0 -0.22630383013383959 -0.21240708539258099 0 -0.22837296648480071 -0.23789375384220129 0 -0.25103143345639523 -0.21724688681321891 0 -0.22837296648480071 -0.23789375384220129 0 -0.25431856302814809 -0.24833495949118861 0 -0.25103143345639523 -0.21724688681321891 0 -0.2335542019388327 -0.26090262277066528 0 -0.22837296648480071 -0.23789375384220129 0 -0.25431856302814809 -0.24833495949118861 0 -0.20708483324238849 -0.15128624944667929 0 -0.22647357207813959 -0.15205360930679629 0 -0.2195633859389316 -0.1340578990397249 0 -0.20708483324238849 -0.15128624944667929 0 -0.19823449762692411 -0.13229999761030051 0 -0.2195633859389316 -0.1340578990397249 0 -0.19823449762692411 -0.13229999761030051 0 -0.2195633859389316 -0.1340578990397249 0 -0.21022893699736381 -0.1097241998529486 0 -0.17775058767377289 -0.13584559103097291 0 -0.19823449762692411 -0.13229999761030051 0 -0.1894311146879058 -0.1465309504005988 0 -0.20708483324238849 -0.15128624944667929 0 -0.1894311146879058 -0.1465309504005988 0 -0.19351686899232889 -0.15854259719770419 0 -0.20708483324238849 -0.15128624944667929 0 -0.19823449762692411 -0.13229999761030051 0 -0.1894311146879058 -0.1465309504005988 0 -0.20708483324238849 -0.15128624944667929 0 -0.19351686899232889 -0.15854259719770419 0 -0.19880271024428661 -0.17007658736909009 0 -0.18239484980351819 -0.16464781923938721 0 -0.1894311146879058 -0.1465309504005988 0 -0.19351686899232889 -0.15854259719770419 0 -0.18239484980351819 -0.16464781923938721 0 -0.19351686899232889 -0.15854259719770419 0 -0.19880271024428661 -0.17007658736909009 0 -0.18239484980351819 -0.16464781923938721 0 -0.19880271024428661 -0.17007658736909009 0 -0.1907059301477185 -0.18468107337543721 0 -0.19880271024428661 -0.17007658736909009 0 -0.1907059301477185 -0.18468107337543721 0 -0.2038146335316797 -0.1820121315948606 0 -0.20187756758401409 -0.19506767240709361 0 -0.1907059301477185 -0.18468107337543721 0 -0.2038146335316797 -0.1820121315948606 0 -0.21557055542943429 -0.1904257004922347 0 -0.2038146335316797 -0.1820121315948606 0 -0.21355186476225221 -0.16985639920369799 0 -0.19880271024428661 -0.17007658736909009 0 -0.2038146335316797 -0.1820121315948606 0 -0.21355186476225221 -0.16985639920369799 0 -0.20708483324238849 -0.15128624944667929 0 -0.21355186476225221 -0.16985639920369799 0 -0.22647357207813959 -0.15205360930679629 0 -0.20708483324238849 -0.15128624944667929 0 -0.19880271024428661 -0.17007658736909009 0 -0.21355186476225221 -0.16985639920369799 0 -0.22956488404758479 -0.1732841170125273 0 -0.2435592126657353 -0.1561425335328199 0 -0.22647357207813959 -0.15205360930679629 0 -0.21355186476225221 -0.16985639920369799 0 -0.22956488404758479 -0.1732841170125273 0 -0.22647357207813959 -0.15205360930679629 0 -0.21557055542943429 -0.1904257004922347 0 -0.21355186476225221 -0.16985639920369799 0 -0.22956488404758479 -0.1732841170125273 0 -0.21557055542943429 -0.1904257004922347 0 -0.22956488404758479 -0.1732841170125273 0 -0.21557055542943429 -0.1904257004922347 0 -0.23533053747689989 -0.1962925907305976 0 -0.22956488404758479 -0.1732841170125273 0 -0.23533053747689989 -0.1962925907305976 0 -0.22956488404758479 -0.1732841170125273 0 -0.25418198431724581 -0.18809916394242601 0 -0.22956488404758479 -0.1732841170125273 0 -0.25418198431724581 -0.18809916394242601 0 -0.2565438833259911 -0.1687602707777138 0 -0.22956488404758479 -0.1732841170125273 0 -0.2435592126657353 -0.1561425335328199 0 -0.22956488404758479 -0.1732841170125273 0 -0.2435592126657353 -0.1561425335328199 0 -0.2565438833259911 -0.1687602707777138 0 -0.2435592126657353 -0.1561425335328199 0 -0.22647357207813959 -0.15205360930679629 0 -0.2432602079730701 -0.13485583854350039 0 -0.22647357207813959 -0.15205360930679629 0 -0.2195633859389316 -0.1340578990397249 0 -0.2432602079730701 -0.13485583854350039 0 -0.2195633859389316 -0.1340578990397249 0 -0.2432602079730701 -0.13485583854350039 0 -0.23065476516460279 -0.11957242830579699 0 -0.2432602079730701 -0.13485583854350039 0 -0.2499653418643101 -0.1102460646797562 0 -0.23065476516460279 -0.11957242830579699 0 -0.2499653418643101 -0.1102460646797562 0 -0.2308399038819596 -0.1034577205422559 0 -0.23065476516460279 -0.11957242830579699 0 -0.2308399038819596 -0.1034577205422559 0 -0.25308440776240432 -0.086371671251396109 0 -0.2499653418643101 -0.1102460646797562 0 -0.2308399038819596 -0.1034577205422559 0 -0.25308440776240432 -0.086371671251396109 0 -0.2308399038819596 -0.1034577205422559 0 -0.21022893699736381 -0.1097241998529486 0 -0.21520721362926831 -0.098298511723915558 0 -0.2308399038819596 -0.1034577205422559 0 -0.22013457808717909 -0.089221868029860679 0 -0.21520721362926831 -0.098298511723915558 0 -0.2308399038819596 -0.1034577205422559 0 -0.23065476516460279 -0.11957242830579699 0 -0.21022893699736381 -0.1097241998529486 0 -0.2195633859389316 -0.1340578990397249 0 -0.23065476516460279 -0.11957242830579699 0 -0.21022893699736381 -0.1097241998529486 0 -0.2335598957907816 -0.079883889973887123 0 -0.24475965461883589 -0.059498385283178377 0 -0.2582325144520296 -0.070050845257802419 0 -0.2335598957907816 -0.079883889973887123 0 -0.2582325144520296 -0.070050845257802419 0 -0.25308440776240432 -0.086371671251396109 0 -0.2308399038819596 -0.1034577205422559 0 -0.2335598957907816 -0.079883889973887123 0 -0.25308440776240432 -0.086371671251396109 0 -0.2308399038819596 -0.1034577205422559 0 -0.22013457808717909 -0.089221868029860679 0 -0.2335598957907816 -0.079883889973887123 0 -0.22013457808717909 -0.089221868029860679 0 -0.2335598957907816 -0.079883889973887123 0 -0.21963876375789801 -0.077814354495200549 0 -0.2335598957907816 -0.079883889973887123 0 -0.21595644614104051 -0.065738508165203102 0 -0.24475965461883589 -0.059498385283178377 0 -0.21595644614104051 -0.065738508165203102 0 -0.24475965461883589 -0.059498385283178377 0 -0.2335598957907816 -0.079883889973887123 0 -0.21963876375789801 -0.077814354495200549 0 -0.21595644614104051 -0.065738508165203102 0 -0.20438945881064449 -0.068244458930106389 0 -0.21100771399754009 -0.086966924160961745 0 -0.21595644614104051 -0.065738508165203102 0 -0.21100771399754009 -0.086966924160961745 0 -0.20438945881064449 -0.068244458930106389 0 -0.21595644614104051 -0.065738508165203102 0 -0.21100771399754009 -0.086966924160961745 0 -0.21963876375789801 -0.077814354495200549 0 -0.21595644614104051 -0.065738508165203102 0 -0.21100771399754009 -0.086966924160961745 0 -0.20438945881064449 -0.068244458930106389 0 -0.21595644614104051 -0.065738508165203102 0 -0.20438945881064449 -0.068244458930106389 0 -0.21595644614104051 -0.065738508165203102 0 -0.20711132549122371 -0.057203435059411119 0 -0.20438945881064449 -0.068244458930106389 0 -0.21100771399754009 -0.086966924160961745 0 -0.19851231957361129 -0.085310821531315487 0 -0.22013457808717909 -0.089221868029860679 0 -0.21963876375789801 -0.077814354495200549 0 -0.21100771399754009 -0.086966924160961745 0 -0.22013457808717909 -0.089221868029860679 0 -0.21100771399754009 -0.086966924160961745 0 -0.21520721362926831 -0.098298511723915558 0 -0.21100771399754009 -0.086966924160961745 0 -0.19851231957361129 -0.085310821531315487 0 -0.20550431009004061 -0.095676697317907802 0 -0.21100771399754009 -0.086966924160961745 0 -0.21520721362926831 -0.098298511723915558 0 -0.20550431009004061 -0.095676697317907802 0 -0.19851231957361129 -0.085310821531315487 0 -0.18118326058104209 -0.08825419183970401 0 -0.18409944718507371 -0.07264022497537044 0 -0.19851231957361129 -0.085310821531315487 0 -0.19294566676858971 -0.096864600750783431 0 -0.18118326058104209 -0.08825419183970401 0 -0.19851231957361129 -0.085310821531315487 0 -0.20550431009004061 -0.095676697317907802 0 -0.19294566676858971 -0.096864600750783431 0 -0.20438945881064449 -0.068244458930106389 0 -0.19851231957361129 -0.085310821531315487 0 -0.18409944718507371 -0.07264022497537044 0 -0.20438945881064449 -0.068244458930106389 0 -0.18409944718507371 -0.07264022497537044 0 -0.18769526278089041 -0.057829612445021099 0 -0.20438945881064449 -0.068244458930106389 0 -0.18409944718507371 -0.07264022497537044 0 -0.21022893699736381 -0.1097241998529486 0 -0.21520721362926831 -0.098298511723915558 0 -0.20550431009004061 -0.095676697317907802 0 -0.21022893699736381 -0.1097241998529486 0 -0.20550431009004061 -0.095676697317907802 0 -0.19294566676858971 -0.096864600750783431 0 -0.19294566676858971 -0.096864600750783431 0 -0.18534812722118199 -0.1163550958908785 0 -0.21022893699736381 -0.1097241998529486 0 -0.19294566676858971 -0.096864600750783431 0 -0.18534812722118199 -0.1163550958908785 0 -0.19823449762692411 -0.13229999761030051 0 -0.21022893699736381 -0.1097241998529486 0 -0.18534812722118199 -0.1163550958908785 0 -0.18534812722118199 -0.1163550958908785 0 -0.17423934197139679 -0.1017815859784342 0 -0.15606779039194271 -0.1160101434681408 0 -0.17775058767377289 -0.13584559103097291 0 -0.18534812722118199 -0.1163550958908785 0 -0.15606779039194271 -0.1160101434681408 0 -0.16057304666404501 -0.10079887419961479 0 -0.17423934197139679 -0.1017815859784342 0 -0.15606779039194271 -0.1160101434681408 0 -0.16057304666404501 -0.10079887419961479 0 -0.16746185343044401 -0.091445336260546128 0 -0.1570966781871318 -0.090327755750333361 0 -0.16057304666404501 -0.10079887419961479 0 -0.17423934197139679 -0.1017815859784342 0 -0.16746185343044401 -0.091445336260546128 0 -0.17423934197139679 -0.1017815859784342 0 -0.18118326058104209 -0.08825419183970401 0 -0.16746185343044401 -0.091445336260546128 0 -0.19294566676858971 -0.096864600750783431 0 -0.18534812722118199 -0.1163550958908785 0 -0.17423934197139679 -0.1017815859784342 0 -0.19294566676858971 -0.096864600750783431 0 -0.17423934197139679 -0.1017815859784342 0 -0.18118326058104209 -0.08825419183970401 0 -0.18118326058104209 -0.08825419183970401 0 -0.18409944718507371 -0.07264022497537044 0 -0.16915717098214109 -0.081397787743409861 0 -0.18118326058104209 -0.08825419183970401 0 -0.16746185343044401 -0.091445336260546128 0 -0.16915717098214109 -0.081397787743409861 0 -0.18409944718507371 -0.07264022497537044 0 -0.1702117591297739 -0.06777753321031553 0 -0.16380943555950259 -0.077035991020633382 0 -0.18409944718507371 -0.07264022497537044 0 -0.16380943555950259 -0.077035991020633382 0 -0.16915717098214109 -0.081397787743409861 0 -0.18409944718507371 -0.07264022497537044 0 -0.17187825396406881 -0.057945450019426657 0 -0.18769526278089041 -0.057829612445021099 0 -0.18409944718507371 -0.07264022497537044 0 -0.16380943555950259 -0.077035991020633382 0 -0.18409944718507371 -0.07264022497537044 0 -0.1702117591297739 -0.06777753321031553 0 -0.17187825396406881 -0.057945450019426657 0 -0.16380943555950259 -0.077035991020633382 0 -0.16105989981045041 -0.063488466825831633 0 -0.14595160177326619 -0.062470528310013429 0 -0.1702117591297739 -0.06777753321031553 0 -0.16105989981045041 -0.063488466825831633 0 -0.17187825396406881 -0.057945450019426657 0 -0.1702117591297739 -0.06777753321031553 0 -0.16380943555950259 -0.077035991020633382 0 -0.16105989981045041 -0.063488466825831633 0 -0.16380943555950259 -0.077035991020633382 0 -0.16109871639751261 -0.084134952385501949 0 -0.14796844382834351 -0.080467891152587012 0 -0.16746185343044401 -0.091445336260546128 0 -0.16915717098214109 -0.081397787743409861 0 -0.16109871639751261 -0.084134952385501949 0 -0.16380943555950259 -0.077035991020633382 0 -0.16915717098214109 -0.081397787743409861 0 -0.16109871639751261 -0.084134952385501949 0 -0.16380943555950259 -0.077035991020633382 0 -0.16915717098214109 -0.081397787743409861 0 -0.16746185343044401 -0.091445336260546128 0 -0.16109871639751261 -0.084134952385501949 0 -0.1570966781871318 -0.090327755750333361 0 -0.16380943555950259 -0.077035991020633382 0 -0.14796844382834351 -0.080467891152587012 0 -0.14796844382834351 -0.080467891152587012 0 -0.13497135686491851 -0.078315161523928284 0 -0.1484932433812913 -0.094043062253026791 0 -0.1570966781871318 -0.090327755750333361 0 -0.14796844382834351 -0.080467891152587012 0 -0.1484932433812913 -0.094043062253026791 0 -0.16109871639751261 -0.084134952385501949 0 -0.1570966781871318 -0.090327755750333361 0 -0.14796844382834351 -0.080467891152587012 0 -0.16380943555950259 -0.077035991020633382 0 -0.14796844382834351 -0.080467891152587012 0 -0.14595160177326619 -0.062470528310013429 0 -0.16380943555950259 -0.077035991020633382 0 -0.14595160177326619 -0.062470528310013429 0 -0.14796844382834351 -0.080467891152587012 0 -0.13497135686491851 -0.078315161523928284 0 -0.14595160177326619 -0.062470528310013429 0 -0.1158705629695205 -0.060236298698018297 0 -0.13497135686491851 -0.078315161523928284 0 -0.1158705629695205 -0.060236298698018297 0 -0.13497135686491851 -0.078315161523928284 0 -0.13122182239868371 -0.062231763532838429 0 -0.13497135686491851 -0.078315161523928284 0 -0.13122182239868371 -0.062231763532838429 0 -0.14595160177326619 -0.062470528310013429 0 -0.112702195828283 -0.076339248342475546 0 -0.13497135686491851 -0.078315161523928284 0 -0.13438499311011279 -0.096174695905308166 0 -0.13497135686491851 -0.078315161523928284 0 -0.13438499311011279 -0.096174695905308166 0 -0.1484932433812913 -0.094043062253026791 0 -0.11276894493928399 -0.097790936300085646 0 -0.13438499311011279 -0.096174695905308166 0 -0.1306137014228527 -0.1212095633787966 0 -0.13438499311011279 -0.096174695905308166 0 -0.1306137014228527 -0.1212095633787966 0 -0.15606779039194271 -0.1160101434681408 0 -0.15406265534163929 -0.1294064941378926 0 -0.1306137014228527 -0.1212095633787966 0 -0.15606779039194271 -0.1160101434681408 0 -0.13438499311011279 -0.096174695905308166 0 -0.15606779039194271 -0.1160101434681408 0 -0.1484932433812913 -0.094043062253026791 0 -0.16057304666404501 -0.10079887419961479 0 -0.15606779039194271 -0.1160101434681408 0 -0.1484932433812913 -0.094043062253026791 0 -0.13438499311011279 -0.096174695905308166 0 -0.15606779039194271 -0.1160101434681408 0 -0.16057304666404501 -0.10079887419961479 0 -0.1570966781871318 -0.090327755750333361 0 -0.1484932433812913 -0.094043062253026791 0 -0.14513665439653431 -0.02122229521611602 0 -0.15148395360685291 -0.031475856168514699 0 -0.16129500549156001 -0.024264335985147129 0 -0.14513665439653431 -0.02122229521611602 0 -0.1346415055917565 -0.031432898451717602 0 -0.15148395360685291 -0.031475856168514699 0 -0.14513665439653431 -0.02122229521611602 0 -0.15327979458335059 -0.01391829646419882 0 -0.16129500549156001 -0.024264335985147129 0 -0.1412848112475209 -0.008091449167619497 0 -0.15773416148281841 -0.0035868741371463562 0 -0.14801408494475049 0.0031182785745780331 0 -0.15327979458335059 -0.01391829646419882 0 -0.1412848112475209 -0.008091449167619497 0 -0.15773416148281841 -0.0035868741371463562 0 -0.14513665439653431 -0.02122229521611602 0 -0.15327979458335059 -0.01391829646419882 0 -0.1412848112475209 -0.008091449167619497 0 -0.1236693299605585 -0.0137973575501921 0 -0.1412848112475209 -0.008091449167619497 0 -0.12735709500343681 0.004015926865657337 0 -0.1412848112475209 -0.008091449167619497 0 -0.12735709500343681 0.004015926865657337 0 -0.14801408494475049 0.0031182785745780331 0 -0.1236693299605585 -0.0137973575501921 0 -0.1412848112475209 -0.008091449167619497 0 -0.13426109495296229 -0.02049569832685658 0 -0.1236693299605585 -0.0137973575501921 0 -0.1221370268088495 -0.025998648103035 0 -0.13426109495296229 -0.02049569832685658 0 -0.14513665439653431 -0.02122229521611602 0 -0.1412848112475209 -0.008091449167619497 0 -0.13426109495296229 -0.02049569832685658 0 -0.14513665439653431 -0.02122229521611602 0 -0.13426109495296229 -0.02049569832685658 0 -0.1346415055917565 -0.031432898451717602 0 -0.1221370268088495 -0.025998648103035 0 -0.12530131535501859 -0.034952786400489197 0 -0.1346415055917565 -0.031432898451717602 0 -0.1221370268088495 -0.025998648103035 0 -0.13426109495296229 -0.02049569832685658 0 -0.1346415055917565 -0.031432898451717602 0 -0.12530131535501859 -0.034952786400489197 0 -0.1346415055917565 -0.031432898451717602 0 -0.12809376798702951 -0.047905065599393698 0 -0.1346415055917565 -0.031432898451717602 0 -0.12809376798702951 -0.047905065599393698 0 -0.14629371500633531 -0.042796653234188263 0 -0.12809376798702951 -0.047905065599393698 0 -0.14595160177326619 -0.062470528310013429 0 -0.12809376798702951 -0.047905065599393698 0 -0.14595160177326619 -0.062470528310013429 0 -0.14629371500633531 -0.042796653234188263 0 -0.13122182239868371 -0.062231763532838429 0 -0.12809376798702951 -0.047905065599393698 0 -0.14595160177326619 -0.062470528310013429 0 -0.1158705629695205 -0.060236298698018297 0 -0.13122182239868371 -0.062231763532838429 0 -0.12809376798702951 -0.047905065599393698 0 -0.14595160177326619 -0.062470528310013429 0 -0.14629371500633531 -0.042796653234188263 0 -0.15696853651444401 -0.052603520026387289 0 -0.16105989981045041 -0.063488466825831633 0 -0.14595160177326619 -0.062470528310013429 0 -0.15696853651444401 -0.052603520026387289 0 -0.15148395360685291 -0.031475856168514699 0 -0.14629371500633531 -0.042796653234188263 0 -0.16402488563849801 -0.041062174760887443 0 -0.1346415055917565 -0.031432898451717602 0 -0.15148395360685291 -0.031475856168514699 0 -0.14629371500633531 -0.042796653234188263 0 -0.14629371500633531 -0.042796653234188263 0 -0.16402488563849801 -0.041062174760887443 0 -0.15696853651444401 -0.052603520026387289 0 -0.15148395360685291 -0.031475856168514699 0 -0.16402488563849801 -0.041062174760887443 0 -0.16129500549156001 -0.024264335985147129 0 -0.16402488563849801 -0.041062174760887443 0 -0.17409393016306191 -0.030370879776367592 0 -0.16129500549156001 -0.024264335985147129 0 -0.16402488563849801 -0.041062174760887443 0 -0.15696853651444401 -0.052603520026387289 0 -0.17187825396406881 -0.057945450019426657 0 -0.16105989981045041 -0.063488466825831633 0 -0.15696853651444401 -0.052603520026387289 0 -0.17187825396406881 -0.057945450019426657 0 -0.16402488563849801 -0.041062174760887443 0 -0.17187825396406881 -0.057945450019426657 0 -0.18133558272394029 -0.043618149437272283 0 -0.17187825396406881 -0.057945450019426657 0 -0.18133558272394029 -0.043618149437272283 0 -0.18769526278089041 -0.057829612445021099 0 -0.18133558272394029 -0.043618149437272283 0 -0.17409393016306191 -0.030370879776367592 0 -0.18915768363079971 -0.025155098795753519 0 -0.16402488563849801 -0.041062174760887443 0 -0.18133558272394029 -0.043618149437272283 0 -0.17409393016306191 -0.030370879776367592 0 -0.17409393016306191 -0.030370879776367592 0 -0.17549551533112251 -0.014893414490097231 0 -0.18915768363079971 -0.025155098795753519 0 -0.16129500549156001 -0.024264335985147129 0 -0.16350931143073591 -0.01273440345064396 0 -0.17549551533112251 -0.014893414490097231 0 -0.17409393016306191 -0.030370879776367592 0 -0.16129500549156001 -0.024264335985147129 0 -0.17549551533112251 -0.014893414490097231 0 -0.15327979458335059 -0.01391829646419882 0 -0.16129500549156001 -0.024264335985147129 0 -0.16350931143073591 -0.01273440345064396 0 -0.15773416148281841 -0.0035868741371463562 0 -0.16716832075785379 -0.0032078365625175 0 -0.1619193683370386 0.0066468078375689294 0 -0.15773416148281841 -0.0035868741371463562 0 -0.16350931143073591 -0.01273440345064396 0 -0.16716832075785379 -0.0032078365625175 0 -0.15327979458335059 -0.01391829646419882 0 -0.15773416148281841 -0.0035868741371463562 0 -0.16350931143073591 -0.01273440345064396 0 -0.16350931143073591 -0.01273440345064396 0 -0.16716832075785379 -0.0032078365625175 0 -0.17549551533112251 -0.014893414490097231 0 -0.17549551533112251 -0.014893414490097231 0 -0.18154179604087481 -0.0036104187285780349 0 -0.18915768363079971 -0.025155098795753519 0 -0.18154179604087481 -0.0036104187285780349 0 -0.18915768363079971 -0.025155098795753519 0 -0.17549551533112251 -0.014893414490097231 0 -0.17584419881677341 0.0071523107965592754 0 -0.17549551533112251 -0.014893414490097231 0 -0.18154179604087481 -0.0036104187285780349 0 -0.17584419881677341 0.0071523107965592754 0 -0.16716832075785379 -0.0032078365625175 0 -0.17549551533112251 -0.014893414490097231 0 -0.17584419881677341 0.0071523107965592754 0 -0.18154179604087481 -0.0036104187285780349 0 -0.19066530249761049 -0.0041303576494283751 0 -0.18915768363079971 -0.025155098795753519 0 -0.18154179604087481 -0.0036104187285780349 0 -0.19066530249761049 -0.0041303576494283751 0 -0.18717715497560061 0.0062623078557712403 0 -0.19066530249761049 -0.0041303576494283751 0 -0.1989264366345522 -0.0080023544535597537 0 -0.18915768363079971 -0.025155098795753519 0 -0.19066530249761049 -0.0041303576494283751 0 -0.1989264366345522 -0.0080023544535597537 0 -0.1965234412062255 0.0098537758749781944 0 -0.1989264366345522 -0.0080023544535597537 0 -0.2007918169376324 -0.0191738513677071 0 -0.20680177871376751 -0.0119671669755851 0 -0.18915768363079971 -0.025155098795753519 0 -0.2007918169376324 -0.0191738513677071 0 -0.21013076049929519 -0.028334228638799381 0 -0.1989264366345522 -0.0080023544535597537 0 -0.18915768363079971 -0.025155098795753519 0 -0.2007918169376324 -0.0191738513677071 0 -0.2007918169376324 -0.0191738513677071 0 -0.21013076049929519 -0.028334228638799381 0 -0.20680177871376751 -0.0119671669755851 0 -0.21013076049929519 -0.028334228638799381 0 -0.21702438745170211 -0.0043907958627755336 0 -0.21921501925093501 -0.017985606360015789 0 -0.21013076049929519 -0.028334228638799381 0 -0.21702438745170211 -0.0043907958627755336 0 -0.21013076049929519 -0.028334228638799381 0 -0.22271521407306469 -0.037269361340154371 0 -0.21921501925093501 -0.017985606360015789 0 -0.21013076049929519 -0.028334228638799381 0 -0.21702438745170211 -0.0043907958627755336 0 -0.20680177871376751 -0.0119671669755851 0 -0.1989264366345522 -0.0080023544535597537 0 -0.20680177871376751 -0.0119671669755851 0 -0.20713549204565579 6.5395444916274768e-05 0 -0.21702438745170211 -0.0043907958627755336 0 -0.20680177871376751 -0.0119671669755851 0 -0.20713549204565579 6.5395444916274768e-05 0 -0.20438945881064449 -0.068244458930106389 0 -0.1967735712207245 -0.046699778862929052 0 -0.20438945881064449 -0.068244458930106389 0 -0.18769526278089041 -0.057829612445021099 0 -0.1967735712207245 -0.046699778862929052 0 -0.20438945881064449 -0.068244458930106389 0 -0.1967735712207245 -0.046699778862929052 0 -0.20711132549122371 -0.057203435059411119 0 -0.18133558272394029 -0.043618149437272283 0 -0.18769526278089041 -0.057829612445021099 0 -0.1967735712207245 -0.046699778862929052 0 -0.18133558272394029 -0.043618149437272283 0 -0.18915768363079971 -0.025155098795753519 0 -0.1967735712207245 -0.046699778862929052 0 -0.18915768363079971 -0.025155098795753519 0 -0.1967735712207245 -0.046699778862929052 0 -0.18915768363079971 -0.025155098795753519 0 -0.21013076049929519 -0.028334228638799381 0 -0.1967735712207245 -0.046699778862929052 0 -0.21013076049929519 -0.028334228638799381 0 -0.21132582579248671 -0.048130994279405613 0 -0.22271521407306469 -0.037269361340154371 0 -0.21013076049929519 -0.028334228638799381 0 -0.1967735712207245 -0.046699778862929052 0 -0.21132582579248671 -0.048130994279405613 0 -0.21595644614104051 -0.065738508165203102 0 -0.21132582579248671 -0.048130994279405613 0 -0.22271521407306469 -0.037269361340154371 0 -0.21595644614104051 -0.065738508165203102 0 -0.21132582579248671 -0.048130994279405613 0 -0.20711132549122371 -0.057203435059411119 0 -0.1967735712207245 -0.046699778862929052 0 -0.21132582579248671 -0.048130994279405613 0 -0.20711132549122371 -0.057203435059411119 0 -0.21595644614104051 -0.065738508165203102 0 -0.2284172135094342 -0.053659916570315727 0 -0.24475965461883589 -0.059498385283178377 0 -0.21595644614104051 -0.065738508165203102 0 -0.2284172135094342 -0.053659916570315727 0 -0.22271521407306469 -0.037269361340154371 0 -0.21595644614104051 -0.065738508165203102 0 -0.22271521407306469 -0.037269361340154371 0 -0.2284172135094342 -0.053659916570315727 0 -0.22271521407306469 -0.037269361340154371 0 -0.23903543051913109 -0.043198085603962481 0 -0.22271521407306469 -0.037269361340154371 0 -0.23903543051913109 -0.043198085603962481 0 -0.24161885061771041 -0.026720350447010301 0 -0.23903543051913109 -0.043198085603962481 0 -0.24161885061771041 -0.026720350447010301 0 -0.25766621977661042 -0.038842414379153638 0 -0.23903543051913109 -0.043198085603962481 0 -0.24475965461883589 -0.059498385283178377 0 -0.25766621977661042 -0.038842414379153638 0 -0.2284172135094342 -0.053659916570315727 0 -0.23903543051913109 -0.043198085603962481 0 -0.24475965461883589 -0.059498385283178377 0 -0.22947398200509031 -0.0088002145151058891 0 -0.22867745033346079 0.0038692188645070222 0 -0.2401015516947359 0.00075261550232862703 0 -0.21702438745170211 -0.0043907958627755336 0 -0.22947398200509031 -0.0088002145151058891 0 -0.22867745033346079 0.0038692188645070222 0 -0.21702438745170211 -0.0043907958627755336 0 -0.22947398200509031 -0.0088002145151058891 0 -0.21921501925093501 -0.017985606360015789 0 -0.22271521407306469 -0.037269361340154371 0 -0.22947398200509031 -0.0088002145151058891 0 -0.21921501925093501 -0.017985606360015789 0 -0.22271521407306469 -0.037269361340154371 0 -0.22947398200509031 -0.0088002145151058891 0 -0.22271521407306469 -0.037269361340154371 0 -0.22947398200509031 -0.0088002145151058891 0 -0.24161885061771041 -0.026720350447010301 0 -0.22947398200509031 -0.0088002145151058891 0 -0.24161885061771041 -0.026720350447010301 0 -0.2437457614006571 -0.011962382738850049 0 -0.24161885061771041 -0.026720350447010301 0 -0.2437457614006571 -0.011962382738850049 0 -0.2598032925822476 -0.0188915667982569 0 -0.22947398200509031 -0.0088002145151058891 0 -0.2437457614006571 -0.011962382738850049 0 -0.2401015516947359 0.00075261550232862703 0 -0.2437457614006571 -0.011962382738850049 0 -0.25267499080189931 -0.0034516002120552492 0 -0.2401015516947359 0.00075261550232862703 0 -0.25267499080189931 -0.0034516002120552492 0 -0.2598032925822476 -0.0188915667982569 0 -0.26909988492935111 -0.0018655285383734981 0 -0.2437457614006571 -0.011962382738850049 0 -0.25267499080189931 -0.0034516002120552492 0 -0.2598032925822476 -0.0188915667982569 0 -0.2598032925822476 -0.0188915667982569 0 -0.27267419604841259 -0.026924212746328481 0 -0.25766621977661042 -0.038842414379153638 0 -0.24161885061771041 -0.026720350447010301 0 -0.2598032925822476 -0.0188915667982569 0 -0.25766621977661042 -0.038842414379153638 0 -0.2598032925822476 -0.0188915667982569 0 -0.27267419604841259 -0.026924212746328481 0 -0.27804425228895369 -0.016131696666228459 0 -0.27267419604841259 -0.026924212746328481 0 -0.27804425228895369 -0.016131696666228459 0 -0.28378415359151371 -0.031280105512012511 0 -0.27804425228895369 -0.016131696666228459 0 -0.26909988492935111 -0.0018655285383734981 0 -0.2917254884257266 -0.0017566381736345419 0 -0.2598032925822476 -0.0188915667982569 0 -0.27804425228895369 -0.016131696666228459 0 -0.26909988492935111 -0.0018655285383734981 0 -0.27804425228895369 -0.016131696666228459 0 -0.2917254884257266 -0.0017566381736345419 0 -0.2928870998243559 -0.020527937726781 0 -0.27804425228895369 -0.016131696666228459 0 -0.2928870998243559 -0.020527937726781 0 -0.28378415359151371 -0.031280105512012511 0 -0.2928870998243559 -0.020527937726781 0 -0.29943422057661201 -0.032203920876667472 0 -0.28378415359151371 -0.031280105512012511 0 -0.2928870998243559 -0.020527937726781 0 -0.31144738423897378 -0.02126732740536201 0 -0.29943422057661201 -0.032203920876667472 0 -0.31144738423897378 -0.02126732740536201 0 -0.31110423911055801 -0.035316851109560482 0 -0.29943422057661201 -0.032203920876667472 0 -0.2917254884257266 -0.0017566381736345419 0 -0.31144738423897378 -0.02126732740536201 0 -0.31177688145040278 0.0050359958776742568 0 -0.2917254884257266 -0.0017566381736345419 0 -0.2928870998243559 -0.020527937726781 0 -0.31144738423897378 -0.02126732740536201 0 -0.2917254884257266 -0.0017566381736345419 0 -0.31144738423897378 -0.02126732740536201 0 -0.30323190850646392 -0.052883144282766713 0 -0.3023660715744253 -0.047018139519123002 0 -0.29757341552329353 -0.05219957266967655 0 -0.29931176789370939 -0.061629941742321552 0 -0.30659897303184058 -0.057135789817405573 0 -0.30728911182784302 -0.064893595009923935 0 -0.30323190850646392 -0.052883144282766713 0 -0.29931176789370939 -0.061629941742321552 0 -0.30659897303184058 -0.057135789817405573 0 -0.30323190850646392 -0.052883144282766713 0 -0.29757341552329353 -0.05219957266967655 0 -0.29931176789370939 -0.061629941742321552 0 -0.30659897303184058 -0.057135789817405573 0 -0.30728911182784302 -0.064893595009923935 0 -0.31405483352543062 -0.056831087900065053 0 -0.30323190850646392 -0.052883144282766713 0 -0.3023660715744253 -0.047018139519123002 0 -0.31025625293594222 -0.050033124508212908 0 -0.30659897303184058 -0.057135789817405573 0 -0.31025625293594222 -0.050033124508212908 0 -0.31405483352543062 -0.056831087900065053 0 -0.30323190850646392 -0.052883144282766713 0 -0.30659897303184058 -0.057135789817405573 0 -0.31025625293594222 -0.050033124508212908 0 -0.3023660715744253 -0.047018139519123002 0 -0.31110423911055801 -0.035316851109560482 0 -0.29943422057661201 -0.032203920876667472 0 -0.3023660715744253 -0.047018139519123002 0 -0.29943422057661201 -0.032203920876667472 0 -0.29166722635019171 -0.038853801873014321 0 -0.29943422057661201 -0.032203920876667472 0 -0.29166722635019171 -0.038853801873014321 0 -0.28378415359151371 -0.031280105512012511 0 -0.3023660715744253 -0.047018139519123002 0 -0.29166722635019171 -0.038853801873014321 0 -0.28390051605192418 -0.042754285685484159 0 -0.29166722635019171 -0.038853801873014321 0 -0.28378415359151371 -0.031280105512012511 0 -0.28390051605192418 -0.042754285685484159 0 -0.3023660715744253 -0.047018139519123002 0 -0.28390051605192418 -0.042754285685484159 0 -0.27356286309663053 -0.053258262401150697 0 -0.3023660715744253 -0.047018139519123002 0 -0.27356286309663053 -0.053258262401150697 0 -0.29757341552329353 -0.05219957266967655 0 -0.27356286309663053 -0.053258262401150697 0 -0.27532891164284878 -0.069285621960536392 0 -0.29757341552329353 -0.05219957266967655 0 -0.27532891164284878 -0.069285621960536392 0 -0.3023660715744253 -0.047018139519123002 0 -0.29757341552329353 -0.05219957266967655 0 -0.27356286309663053 -0.053258262401150697 0 -0.29757341552329353 -0.05219957266967655 0 -0.29931176789370939 -0.061629941742321552 0 -0.27532891164284878 -0.069285621960536392 0 -0.27267419604841259 -0.026924212746328481 0 -0.27375437843427658 -0.039043607324579933 0 -0.25766621977661042 -0.038842414379153638 0 -0.27356286309663053 -0.053258262401150697 0 -0.27375437843427658 -0.039043607324579933 0 -0.25766621977661042 -0.038842414379153638 0 -0.28378415359151371 -0.031280105512012511 0 -0.28390051605192418 -0.042754285685484159 0 -0.27375437843427658 -0.039043607324579933 0 -0.27267419604841259 -0.026924212746328481 0 -0.28378415359151371 -0.031280105512012511 0 -0.27375437843427658 -0.039043607324579933 0 -0.28390051605192418 -0.042754285685484159 0 -0.27356286309663053 -0.053258262401150697 0 -0.27375437843427658 -0.039043607324579933 0 -0.24475965461883589 -0.059498385283178377 0 -0.27356286309663053 -0.053258262401150697 0 -0.2582325144520296 -0.070050845257802419 0 -0.24475965461883589 -0.059498385283178377 0 -0.27356286309663053 -0.053258262401150697 0 -0.24475965461883589 -0.059498385283178377 0 -0.27356286309663053 -0.053258262401150697 0 -0.25766621977661042 -0.038842414379153638 0 -0.2582325144520296 -0.070050845257802419 0 -0.25308440776240432 -0.086371671251396109 0 -0.27532891164284878 -0.069285621960536392 0 -0.25308440776240432 -0.086371671251396109 0 -0.27532891164284878 -0.069285621960536392 0 -0.25308440776240432 -0.086371671251396109 0 -0.27361062541114611 -0.085405998149086934 0 -0.26907394573302829 -0.10103393024372311 0 -0.27361062541114611 -0.085405998149086934 0 -0.26907394573302829 -0.10103393024372311 0 -0.28494676303449051 -0.09097811142482605 0 -0.25308440776240432 -0.086371671251396109 0 -0.27361062541114611 -0.085405998149086934 0 -0.27532891164284878 -0.069285621960536392 0 -0.27356286309663053 -0.053258262401150697 0 -0.2582325144520296 -0.070050845257802419 0 -0.27532891164284878 -0.069285621960536392 0 -0.27361062541114611 -0.085405998149086934 0 -0.27532891164284878 -0.069285621960536392 0 -0.28561909888295839 -0.079360655864953042 0 -0.2432602079730701 -0.13485583854350039 0 -0.2499653418643101 -0.1102460646797562 0 -0.26490928006600228 -0.12397715003998409 0 -0.2499653418643101 -0.1102460646797562 0 -0.26490928006600228 -0.12397715003998409 0 -0.26907394573302829 -0.10103393024372311 0 -0.2499653418643101 -0.1102460646797562 0 -0.25308440776240432 -0.086371671251396109 0 -0.26907394573302829 -0.10103393024372311 0 -0.26907394573302829 -0.10103393024372311 0 -0.28789548083438649 -0.11161882002010511 0 -0.28494676303449051 -0.09097811142482605 0 -0.26490928006600228 -0.12397715003998409 0 -0.28789548083438649 -0.11161882002010511 0 -0.28428672055728371 -0.13281235115180859 0 -0.26490928006600228 -0.12397715003998409 0 -0.26907394573302829 -0.10103393024372311 0 -0.28789548083438649 -0.11161882002010511 0 -0.28789548083438649 -0.11161882002010511 0 -0.28428672055728371 -0.13281235115180859 0 -0.30877835781368662 -0.12931532841693749 0 -0.28789548083438649 -0.11161882002010511 0 -0.29765529442092259 -0.094840601490837839 0 -0.28494676303449051 -0.09097811142482605 0 -0.30761934067920371 -0.1042503242997595 0 -0.29765529442092259 -0.094840601490837839 0 -0.30832877355579341 -0.086934752854072747 0 -0.30761934067920371 -0.1042503242997595 0 -0.30832877355579341 -0.086934752854072747 0 -0.31968159473222052 -0.091584555267719248 0 -0.28789548083438649 -0.11161882002010511 0 -0.30761934067920371 -0.1042503242997595 0 -0.29765529442092259 -0.094840601490837839 0 -0.28789548083438649 -0.11161882002010511 0 -0.30761934067920371 -0.1042503242997595 0 -0.30877835781368662 -0.12931532841693749 0 -0.29931176789370939 -0.061629941742321552 0 -0.27532891164284878 -0.069285621960536392 0 -0.29568251685582603 -0.071589435967753134 0 -0.27532891164284878 -0.069285621960536392 0 -0.29568251685582603 -0.071589435967753134 0 -0.28561909888295839 -0.079360655864953042 0 -0.29568251685582603 -0.071589435967753134 0 -0.28561909888295839 -0.079360655864953042 0 -0.29849490204505058 -0.081938345925378783 0 -0.27361062541114611 -0.085405998149086934 0 -0.28561909888295839 -0.079360655864953042 0 -0.28494676303449051 -0.09097811142482605 0 -0.29765529442092259 -0.094840601490837839 0 -0.28494676303449051 -0.09097811142482605 0 -0.29849490204505058 -0.081938345925378783 0 -0.28561909888295839 -0.079360655864953042 0 -0.28494676303449051 -0.09097811142482605 0 -0.29849490204505058 -0.081938345925378783 0 -0.29849490204505058 -0.081938345925378783 0 -0.30832877355579341 -0.086934752854072747 0 -0.3066986514807607 -0.074546990101646726 0 -0.29765529442092259 -0.094840601490837839 0 -0.29849490204505058 -0.081938345925378783 0 -0.30832877355579341 -0.086934752854072747 0 -0.30832877355579341 -0.086934752854072747 0 -0.3066986514807607 -0.074546990101646726 0 -0.31636087034116728 -0.076704125898778439 0 -0.3066986514807607 -0.074546990101646726 0 -0.31411021802290889 -0.069356746280106005 0 -0.31636087034116728 -0.076704125898778439 0 -0.29568251685582603 -0.071589435967753134 0 -0.29849490204505058 -0.081938345925378783 0 -0.3066986514807607 -0.074546990101646726 0 -0.29568251685582603 -0.071589435967753134 0 -0.3066986514807607 -0.074546990101646726 0 -0.30728911182784302 -0.064893595009923935 0 -0.29931176789370939 -0.061629941742321552 0 -0.29568251685582603 -0.071589435967753134 0 -0.30728911182784302 -0.064893595009923935 0 -0.3066986514807607 -0.074546990101646726 0 -0.30728911182784302 -0.064893595009923935 0 -0.31411021802290889 -0.069356746280106005 0 -0.30728911182784302 -0.064893595009923935 0 -0.31630436981946819 -0.062936971351065629 0 -0.31411021802290889 -0.069356746280106005 0 -0.31630436981946819 -0.062936971351065629 0 -0.31411021802290889 -0.069356746280106005 0 -0.32389808664530562 -0.067702049039115322 0 -0.31630436981946819 -0.062936971351065629 0 -0.32389808664530562 -0.067702049039115322 0 -0.32481687078849097 -0.058022226865728103 0 -0.32389808664530562 -0.067702049039115322 0 -0.3259684841043719 -0.075020057435826168 0 -0.31636087034116728 -0.076704125898778439 0 -0.31411021802290889 -0.069356746280106005 0 -0.32389808664530562 -0.067702049039115322 0 -0.31636087034116728 -0.076704125898778439 0 -0.30832877355579341 -0.086934752854072747 0 -0.32608803180755441 -0.084321365842938284 0 -0.30832877355579341 -0.086934752854072747 0 -0.31968159473222052 -0.091584555267719248 0 -0.32608803180755441 -0.084321365842938284 0 -0.30832877355579341 -0.086934752854072747 0 -0.31636087034116728 -0.076704125898778439 0 -0.32608803180755441 -0.084321365842938284 0 -0.31968159473222052 -0.091584555267719248 0 -0.32608803180755441 -0.084321365842938284 0 -0.3259684841043719 -0.075020057435826168 0 -0.31636087034116728 -0.076704125898778439 0 -0.32608803180755441 -0.084321365842938284 0 -0.31968159473222052 -0.091584555267719248 0 -0.32608803180755441 -0.084321365842938284 0 -0.34030971713070318 -0.087052614945596102 0 -0.32608803180755441 -0.084321365842938284 0 -0.34030971713070318 -0.087052614945596102 0 -0.34745734249292459 -0.081176736816750444 0 -0.32608803180755441 -0.084321365842938284 0 -0.33752694762346008 -0.07135268896247253 0 -0.34745734249292459 -0.081176736816750444 0 -0.32608803180755441 -0.084321365842938284 0 -0.34745734249292459 -0.081176736816750444 0 -0.33752694762346008 -0.07135268896247253 0 -0.3489658634393657 -0.058384012082006782 0 -0.33645864726091979 -0.05858208772264157 0 -0.33752694762346008 -0.07135268896247253 0 -0.3489658634393657 -0.058384012082006782 0 -0.32389808664530562 -0.067702049039115322 0 -0.33752694762346008 -0.07135268896247253 0 -0.33645864726091979 -0.05858208772264157 0 -0.3259684841043719 -0.075020057435826168 0 -0.32608803180755441 -0.084321365842938284 0 -0.33752694762346008 -0.07135268896247253 0 -0.32608803180755441 -0.084321365842938284 0 -0.33752694762346008 -0.07135268896247253 0 -0.32389808664530562 -0.067702049039115322 0 -0.3259684841043719 -0.075020057435826168 0 -0.33752694762346008 -0.07135268896247253 0 -0.32454403747219479 -0.1081839716812668 0 -0.30877835781368662 -0.12931532841693749 0 -0.30761934067920371 -0.1042503242997595 0 -0.32454403747219479 -0.1081839716812668 0 -0.30877835781368662 -0.12931532841693749 0 -0.32454403747219479 -0.1081839716812668 0 -0.33570809008837621 -0.11845594114356341 0 -0.30877835781368662 -0.12931532841693749 0 -0.30761934067920371 -0.1042503242997595 0 -0.31968159473222052 -0.091584555267719248 0 -0.32454403747219479 -0.1081839716812668 0 -0.34030971713070318 -0.087052614945596102 0 -0.32454403747219479 -0.1081839716812668 0 -0.34278855512837281 -0.1049294584887832 0 -0.31968159473222052 -0.091584555267719248 0 -0.34030971713070318 -0.087052614945596102 0 -0.32454403747219479 -0.1081839716812668 0 -0.34030971713070318 -0.087052614945596102 0 -0.32454403747219479 -0.1081839716812668 0 -0.32454403747219479 -0.1081839716812668 0 -0.34278855512837281 -0.1049294584887832 0 -0.33570809008837621 -0.11845594114356341 0 -0.33570809008837621 -0.11845594114356341 0 -0.35404294059136687 -0.1217835462641018 0 -0.33688620478323589 -0.13358080389391511 0 -0.34278855512837281 -0.1049294584887832 0 -0.35404294059136687 -0.1217835462641018 0 -0.35932798989652742 -0.1047455147758234 0 -0.34278855512837281 -0.1049294584887832 0 -0.33570809008837621 -0.11845594114356341 0 -0.35404294059136687 -0.1217835462641018 0 -0.34278855512837281 -0.1049294584887832 0 -0.35932798989652742 -0.1047455147758234 0 -0.35079718399447979 -0.093651592615473511 0 -0.34030971713070318 -0.087052614945596102 0 -0.34278855512837281 -0.1049294584887832 0 -0.35079718399447979 -0.093651592615473511 0 -0.35932798989652742 -0.1047455147758234 0 -0.35079718399447979 -0.093651592615473511 0 -0.36132419909701757 -0.091459041133748031 0 -0.35932798989652742 -0.1047455147758234 0 -0.37367929427193591 -0.1014825750548952 0 -0.37212838853434238 -0.11808059788504249 0 -0.35932798989652742 -0.1047455147758234 0 -0.37367929427193591 -0.1014825750548952 0 -0.36132419909701757 -0.091459041133748031 0 -0.35404294059136687 -0.1217835462641018 0 -0.37212838853434238 -0.11808059788504249 0 -0.37028068739271691 -0.13083580994494901 0 -0.35404294059136687 -0.1217835462641018 0 -0.35932798989652742 -0.1047455147758234 0 -0.37212838853434238 -0.11808059788504249 0 -0.35069420168351129 -0.07223638641294812 0 -0.34745734249292459 -0.081176736816750444 0 -0.36882665317829499 -0.078032107790563188 0 -0.36882665317829499 -0.078032107790563188 0 -0.3489658634393657 -0.058384012082006782 0 -0.35069420168351129 -0.07223638641294812 0 -0.36882665317829499 -0.078032107790563188 0 -0.3489658634393657 -0.058384012082006782 0 -0.33752694762346008 -0.07135268896247253 0 -0.35069420168351129 -0.07223638641294812 0 -0.3489658634393657 -0.058384012082006782 0 -0.33752694762346008 -0.07135268896247253 0 -0.35069420168351129 -0.07223638641294812 0 -0.34745734249292459 -0.081176736816750444 0 -0.34745734249292459 -0.081176736816750444 0 -0.36882665317829499 -0.078032107790563188 0 -0.34745734249292459 -0.081176736816750444 0 -0.36132419909701757 -0.091459041133748031 0 -0.36882665317829499 -0.078032107790563188 0 -0.34030971713070318 -0.087052614945596102 0 -0.34745734249292459 -0.081176736816750444 0 -0.35079718399447979 -0.093651592615473511 0 -0.34745734249292459 -0.081176736816750444 0 -0.35079718399447979 -0.093651592615473511 0 -0.36132419909701757 -0.091459041133748031 0 -0.37367929427193591 -0.1014825750548952 0 -0.36132419909701757 -0.091459041133748031 0 -0.36882665317829499 -0.078032107790563188 0 -0.36882665317829499 -0.078032107790563188 0 -0.36862349457690058 -0.057461967220355487 0 -0.3489658634393657 -0.058384012082006782 0 -0.36882665317829499 -0.078032107790563188 0 -0.36862349457690058 -0.057461967220355487 0 -0.37947166312044489 -0.067272628224985004 0 -0.36862349457690058 -0.057461967220355487 0 -0.3489658634393657 -0.058384012082006782 0 -0.36066681755822472 -0.045118253717945672 0 -0.36862349457690058 -0.057461967220355487 0 -0.37355784227175309 -0.045246792894939887 0 -0.3815482533063424 -0.052412606119804542 0 -0.36862349457690058 -0.057461967220355487 0 -0.36066681755822472 -0.045118253717945672 0 -0.37355784227175309 -0.045246792894939887 0 -0.3489658634393657 -0.058384012082006782 0 -0.36066681755822472 -0.045118253717945672 0 -0.3489658634393657 -0.058384012082006782 0 -0.34511111307690212 -0.046137334811030092 0 -0.36066681755822472 -0.045118253717945672 0 -0.35304062521722218 -0.036039659744318157 0 -0.3553139768507978 -0.023567241021099371 0 -0.33371347875736079 -0.040226824134751989 0 -0.34511111307690212 -0.046137334811030092 0 -0.35304062521722218 -0.036039659744318157 0 -0.33371347875736079 -0.040226824134751989 0 -0.34511111307690212 -0.046137334811030092 0 -0.35304062521722218 -0.036039659744318157 0 -0.36066681755822472 -0.045118253717945672 0 -0.36066681755822472 -0.045118253717945672 0 -0.37236777167708351 -0.031852495353884333 0 -0.35304062521722218 -0.036039659744318157 0 -0.37236777167708351 -0.031852495353884333 0 -0.35304062521722218 -0.036039659744318157 0 -0.36066681755822472 -0.045118253717945672 0 -0.37236777167708351 -0.031852495353884333 0 -0.36066681755822472 -0.045118253717945672 0 -0.37355784227175309 -0.045246792894939887 0 -0.37236777167708351 -0.031852495353884333 0 -0.37236777167708351 -0.031852495353884333 0 -0.3739022591900184 -0.02415390189740213 0 -0.36770044175442279 -0.02036669541201027 0 -0.37236777167708351 -0.031852495353884333 0 -0.36770044175442279 -0.02036669541201027 0 -0.3553139768507978 -0.023567241021099371 0 -0.36770044175442279 -0.02036669541201027 0 -0.35847393927256738 -0.010652033510738681 0 -0.38297625517291389 -0.017448943304264108 0 -0.35304062521722218 -0.036039659744318157 0 -0.37236777167708351 -0.031852495353884333 0 -0.3553139768507978 -0.023567241021099371 0 -0.3739022591900184 -0.02415390189740213 0 -0.36770044175442279 -0.02036669541201027 0 -0.38297625517291389 -0.017448943304264108 0 -0.36770044175442279 -0.02036669541201027 0 -0.35847393927256738 -0.010652033510738681 0 -0.3553139768507978 -0.023567241021099371 0 -0.35847393927256738 -0.010652033510738681 0 -0.38297625517291389 -0.017448943304264108 0 -0.37278444596104371 -0.0079457960458173115 0 -0.35847393927256738 -0.010652033510738681 0 -0.38297625517291389 -0.017448943304264108 0 -0.37474494217865062 -0.0022388935110706832 0 -0.37278444596104371 -0.0079457960458173115 0 -0.36307869926690151 -0.00068504054922277494 0 -0.37278444596104371 -0.0079457960458173115 0 -0.36307869926690151 -0.00068504054922277494 0 -0.35847393927256738 -0.010652033510738681 0 -0.36307869926690151 -0.00068504054922277494 0 -0.34718119132474479 -0.01384164818341615 0 -0.36064890389212972 0.0125435277679194 0 -0.36307869926690151 -0.00068504054922277494 0 -0.35847393927256738 -0.010652033510738681 0 -0.34718119132474479 -0.01384164818341615 0 -0.34718119132474479 -0.01384164818341615 0 -0.36064890389212972 0.0125435277679194 0 -0.34718119132474479 -0.01384164818341615 0 -0.3553139768507978 -0.023567241021099371 0 -0.33371347875736079 -0.040226824134751989 0 -0.35847393927256738 -0.010652033510738681 0 -0.34718119132474479 -0.01384164818341615 0 -0.3553139768507978 -0.023567241021099371 0 -0.34718119132474479 -0.01384164818341615 0 -0.33035884889608558 -0.02420969997450095 0 -0.33371347875736079 -0.040226824134751989 0 -0.34718119132474479 -0.01384164818341615 0 -0.33371347875736079 -0.040226824134751989 0 -0.34718119132474479 -0.01384164818341615 0 -0.32828291010712762 -0.0049346835118845543 0 -0.34055428987364128 0.0059527955302196532 0 -0.34718119132474479 -0.01384164818341615 0 -0.33035884889608558 -0.02420969997450095 0 -0.32828291010712762 -0.0049346835118845543 0 -0.31144738423897378 -0.02126732740536201 0 -0.32828291010712762 -0.0049346835118845543 0 -0.31177688145040278 0.0050359958776742568 0 -0.31144738423897378 -0.02126732740536201 0 -0.33116928005221918 -0.040778016637091109 0 -0.31144738423897378 -0.02126732740536201 0 -0.33035884889608558 -0.02420969997450095 0 -0.32828291010712762 -0.0049346835118845543 0 -0.31144738423897378 -0.02126732740536201 0 -0.33035884889608558 -0.02420969997450095 0 -0.33116928005221918 -0.040778016637091109 0 -0.3023660715744253 -0.047018139519123002 0 -0.31110423911055801 -0.035316851109560482 0 -0.33116928005221918 -0.040778016637091109 0 -0.3023660715744253 -0.047018139519123002 0 -0.31025625293594222 -0.050033124508212908 0 -0.33116928005221918 -0.040778016637091109 0 -0.3023660715744253 -0.047018139519123002 0 -0.33116928005221918 -0.040778016637091109 0 -0.31144738423897378 -0.02126732740536201 0 -0.31110423911055801 -0.035316851109560482 0 -0.33116928005221918 -0.040778016637091109 0 -0.31025625293594222 -0.050033124508212908 0 -0.31770057673851387 -0.05020147555903863 0 -0.33116928005221918 -0.040778016637091109 0 -0.31025625293594222 -0.050033124508212908 0 -0.31770057673851387 -0.05020147555903863 0 -0.31405483352543062 -0.056831087900065053 0 -0.31770057673851387 -0.05020147555903863 0 -0.31405483352543062 -0.056831087900065053 0 -0.31936567051967829 -0.054711673150449433 0 -0.31630436981946819 -0.062936971351065629 0 -0.31936567051967829 -0.054711673150449433 0 -0.32481687078849097 -0.058022226865728103 0 -0.30728911182784302 -0.064893595009923935 0 -0.31630436981946819 -0.062936971351065629 0 -0.31405483352543062 -0.056831087900065053 0 -0.31630436981946819 -0.062936971351065629 0 -0.31405483352543062 -0.056831087900065053 0 -0.31936567051967829 -0.054711673150449433 0 -0.31770057673851387 -0.05020147555903863 0 -0.32448711316898249 -0.050622394842538963 0 -0.33116928005221918 -0.040778016637091109 0 -0.31936567051967829 -0.054711673150449433 0 -0.32481687078849097 -0.058022226865728103 0 -0.32448711316898249 -0.050622394842538963 0 -0.31770057673851387 -0.05020147555903863 0 -0.31936567051967829 -0.054711673150449433 0 -0.32448711316898249 -0.050622394842538963 0 -0.32481687078849097 -0.058022226865728103 0 -0.32770904195502032 -0.053173566283506987 0 -0.32448711316898249 -0.050622394842538963 0 -0.32770904195502032 -0.053173566283506987 0 -0.32448711316898249 -0.050622394842538963 0 -0.32972533979495861 -0.048040159006195682 0 -0.3489658634393657 -0.058384012082006782 0 -0.34511111307690212 -0.046137334811030092 0 -0.3326728772282519 -0.042265511425067279 0 -0.32972533979495861 -0.048040159006195682 0 -0.33645864726091979 -0.05858208772264157 0 -0.3326728772282519 -0.042265511425067279 0 -0.3489658634393657 -0.058384012082006782 0 -0.3326728772282519 -0.042265511425067279 0 -0.32770904195502032 -0.053173566283506987 0 -0.32972533979495861 -0.048040159006195682 0 -0.33645864726091979 -0.05858208772264157 0 -0.3489658634393657 -0.058384012082006782 0 -0.33645864726091979 -0.05858208772264157 0 -0.3326728772282519 -0.042265511425067279 0 -0.32389808664530562 -0.067702049039115322 0 -0.32481687078849097 -0.058022226865728103 0 -0.33645864726091979 -0.05858208772264157 0 -0.32481687078849097 -0.058022226865728103 0 -0.32770904195502032 -0.053173566283506987 0 -0.33645864726091979 -0.05858208772264157 0 -0.34511111307690212 -0.046137334811030092 0 -0.33371347875736079 -0.040226824134751989 0 -0.3326728772282519 -0.042265511425067279 0 -0.33035884889608558 -0.02420969997450095 0 -0.33116928005221918 -0.040778016637091109 0 -0.33371347875736079 -0.040226824134751989 0 -0.35304062521722218 -0.036039659744318157 0 -0.33371347875736079 -0.040226824134751989 0 -0.32448711316898249 -0.050622394842538963 0 -0.32972533979495861 -0.048040159006195682 0 -0.33116928005221918 -0.040778016637091109 0 -0.33116928005221918 -0.040778016637091109 0 -0.3326728772282519 -0.042265511425067279 0 -0.32972533979495861 -0.048040159006195682 0 -0.3326728772282519 -0.042265511425067279 0 -0.32972533979495861 -0.048040159006195682 0 -0.33116928005221918 -0.040778016637091109 0 -0.3326728772282519 -0.042265511425067279 0 -0.33116928005221918 -0.040778016637091109 0 -0.33371347875736079 -0.040226824134751989 0 -0.33116928005221918 -0.040778016637091109 0 -0.33371347875736079 -0.040226824134751989 0 -0.3326728772282519 -0.042265511425067279 0 -0.33371347875736079 -0.040226824134751989 0 -0.3326728772282519 -0.042265511425067279 0 -0.2907170577323625 -0.25177677077710309 0 -0.30853150187083839 -0.25429835417001312 0 -0.30748271917561598 -0.2431056607245809 0 -0.30748271917561598 -0.2431056607245809 0 -0.3004866401015065 -0.2269264896544945 0 -0.32066485276457768 -0.2334308190911655 0 -0.2907170577323625 -0.25177677077710309 0 -0.30748271917561598 -0.2431056607245809 0 -0.3004866401015065 -0.2269264896544945 0 -0.30853150187083839 -0.25429835417001312 0 -0.30748271917561598 -0.2431056607245809 0 -0.32023222063025569 -0.2489608815952247 0 -0.3004866401015065 -0.2269264896544945 0 -0.27575903677895092 -0.22208668823385669 0 -0.3004866401015065 -0.2269264896544945 0 -0.27309361240676189 -0.24179026653703889 0 -0.27575903677895092 -0.22208668823385669 0 -0.3004866401015065 -0.2269264896544945 0 -0.27575903677895092 -0.22208668823385669 0 -0.29482007196541532 -0.2089319155152673 0 -0.2907170577323625 -0.25177677077710309 0 -0.3004866401015065 -0.2269264896544945 0 -0.27309361240676189 -0.24179026653703889 0 -0.27309361240676189 -0.24179026653703889 0 -0.25431856302814809 -0.24833495949118861 0 -0.25103143345639523 -0.21724688681321891 0 -0.27575903677895092 -0.22208668823385669 0 -0.25103143345639523 -0.21724688681321891 0 -0.27309361240676189 -0.24179026653703889 0 -0.27575903677895092 -0.22208668823385669 0 -0.25103143345639523 -0.21724688681321891 0 -0.27575903677895092 -0.22208668823385669 0 -0.25103143345639523 -0.21724688681321891 0 -0.27708552823660842 -0.19790031786117671 0 -0.25103143345639523 -0.21724688681321891 0 -0.25418198431724581 -0.18809916394242601 0 -0.27708552823660842 -0.19790031786117671 0 -0.27708552823660842 -0.19790031786117671 0 -0.29482007196541532 -0.2089319155152673 0 -0.30195969341908391 -0.19078830755985379 0 -0.29482007196541532 -0.2089319155152673 0 -0.30195969341908391 -0.19078830755985379 0 -0.32674672588845421 -0.2120308859258328 0 -0.3004866401015065 -0.2269264896544945 0 -0.29482007196541532 -0.2089319155152673 0 -0.32674672588845421 -0.2120308859258328 0 -0.27575903677895092 -0.22208668823385669 0 -0.27708552823660842 -0.19790031786117671 0 -0.29482007196541532 -0.2089319155152673 0 -0.30195969341908391 -0.19078830755985379 0 -0.30674796742087651 -0.1684647150882764 0 -0.32123008678095788 -0.18729232698745699 0 -0.30674796742087651 -0.1684647150882764 0 -0.2930126781551784 -0.15044668515260809 0 -0.3206808779707625 -0.15110047818677941 0 -0.27724699849667023 -0.17157804188827869 0 -0.2930126781551784 -0.15044668515260809 0 -0.30674796742087651 -0.1684647150882764 0 -0.27724699849667023 -0.17157804188827869 0 -0.2930126781551784 -0.15044668515260809 0 -0.27708552823660842 -0.19790031786117671 0 -0.30195969341908391 -0.19078830755985379 0 -0.27724699849667023 -0.17157804188827869 0 -0.30195969341908391 -0.19078830755985379 0 -0.30674796742087651 -0.1684647150882764 0 -0.27724699849667023 -0.17157804188827869 0 -0.25418198431724581 -0.18809916394242601 0 -0.27708552823660842 -0.19790031786117671 0 -0.27724699849667023 -0.17157804188827869 0 -0.25418198431724581 -0.18809916394242601 0 -0.2565438833259911 -0.1687602707777138 0 -0.27724699849667023 -0.17157804188827869 0 -0.2435592126657353 -0.1561425335328199 0 -0.2565438833259911 -0.1687602707777138 0 -0.26683780591716472 -0.14870377212940841 0 -0.27724699849667023 -0.17157804188827869 0 -0.26683780591716472 -0.14870377212940841 0 -0.2930126781551784 -0.15044668515260809 0 -0.2565438833259911 -0.1687602707777138 0 -0.27724699849667023 -0.17157804188827869 0 -0.26683780591716472 -0.14870377212940841 0 -0.2435592126657353 -0.1561425335328199 0 -0.2432602079730701 -0.13485583854350039 0 -0.26683780591716472 -0.14870377212940841 0 -0.2432602079730701 -0.13485583854350039 0 -0.26490928006600228 -0.12397715003998409 0 -0.26683780591716472 -0.14870377212940841 0 -0.26490928006600228 -0.12397715003998409 0 -0.26683780591716472 -0.14870377212940841 0 -0.28428672055728371 -0.13281235115180859 0 -0.28428672055728371 -0.13281235115180859 0 -0.2930126781551784 -0.15044668515260809 0 -0.30877835781368662 -0.12931532841693749 0 -0.26683780591716472 -0.14870377212940841 0 -0.28428672055728371 -0.13281235115180859 0 -0.2930126781551784 -0.15044668515260809 0 -0.2930126781551784 -0.15044668515260809 0 -0.30877835781368662 -0.12931532841693749 0 -0.3206808779707625 -0.15110047818677941 0 -0.2930126781551784 -0.15044668515260809 0 -0.30877835781368662 -0.12931532841693749 0 -0.33570809008837621 -0.11845594114356341 0 -0.30877835781368662 -0.12931532841693749 0 -0.33688620478323589 -0.13358080389391511 0 -0.30877835781368662 -0.12931532841693749 0 -0.3206808779707625 -0.15110047818677941 0 -0.33688620478323589 -0.13358080389391511 0 -0.3206808779707625 -0.15110047818677941 0 -0.33688620478323589 -0.13358080389391511 0 -0.34399943231138669 -0.15408109000358611 0 -0.33688620478323589 -0.13358080389391511 0 -0.35929992868189681 -0.1386942596847188 0 -0.35404294059136687 -0.1217835462641018 0 -0.33688620478323589 -0.13358080389391511 0 -0.35929992868189681 -0.1386942596847188 0 -0.35404294059136687 -0.1217835462641018 0 -0.35929992868189681 -0.1386942596847188 0 -0.37028068739271691 -0.13083580994494901 0 -0.35929992868189681 -0.1386942596847188 0 -0.37028068739271691 -0.13083580994494901 0 -0.3804539816512269 -0.14482329966991631 0 -0.35929992868189681 -0.1386942596847188 0 -0.3804539816512269 -0.14482329966991631 0 -0.35929992868189681 -0.1386942596847188 0 -0.3655172116091886 -0.15688196674787641 0 -0.3804539816512269 -0.14482329966991631 0 -0.3655172116091886 -0.15688196674787641 0 -0.3804539816512269 -0.14482329966991631 0 -0.3655172116091886 -0.15688196674787641 0 -0.37839901512320262 -0.15996290040625341 0 -0.3804539816512269 -0.14482329966991631 0 -0.33688620478323589 -0.13358080389391511 0 -0.35929992868189681 -0.1386942596847188 0 -0.34399943231138669 -0.15408109000358611 0 -0.35929992868189681 -0.1386942596847188 0 -0.34399943231138669 -0.15408109000358611 0 -0.3655172116091886 -0.15688196674787641 0 -0.34399943231138669 -0.15408109000358611 0 -0.35323542112630057 -0.1671812377988513 0 -0.3655172116091886 -0.15688196674787641 0 -0.3655172116091886 -0.15688196674787641 0 -0.37378547386561772 -0.17392500984250869 0 -0.37839901512320262 -0.15996290040625341 0 -0.35323542112630057 -0.1671812377988513 0 -0.3655172116091886 -0.15688196674787641 0 -0.37378547386561772 -0.17392500984250869 0 -0.37378547386561772 -0.17392500984250869 0 -0.35240556330307887 -0.18479875362473361 0 -0.36895563931783232 -0.19259611207654981 0 -0.35323542112630057 -0.1671812377988513 0 -0.37378547386561772 -0.17392500984250869 0 -0.35240556330307887 -0.18479875362473361 0 -0.35323542112630057 -0.1671812377988513 0 -0.35240556330307887 -0.18479875362473361 0 -0.33400288196205857 -0.17193246321376471 0 -0.35240556330307887 -0.18479875362473361 0 -0.33400288196205857 -0.17193246321376471 0 -0.33669316521431608 -0.19324526314955739 0 -0.33400288196205857 -0.17193246321376471 0 -0.32123008678095788 -0.18729232698745699 0 -0.33669316521431608 -0.19324526314955739 0 -0.3206808779707625 -0.15110047818677941 0 -0.34399943231138669 -0.15408109000358611 0 -0.33400288196205857 -0.17193246321376471 0 -0.34399943231138669 -0.15408109000358611 0 -0.35323542112630057 -0.1671812377988513 0 -0.33400288196205857 -0.17193246321376471 0 -0.30674796742087651 -0.1684647150882764 0 -0.3206808779707625 -0.15110047818677941 0 -0.33400288196205857 -0.17193246321376471 0 -0.30674796742087651 -0.1684647150882764 0 -0.33400288196205857 -0.17193246321376471 0 -0.32123008678095788 -0.18729232698745699 0 -0.30195969341908391 -0.19078830755985379 0 -0.32123008678095788 -0.18729232698745699 0 -0.32674672588845421 -0.2120308859258328 0 -0.32674672588845421 -0.2120308859258328 0 -0.35024140450074381 -0.20994798342056251 0 -0.32674672588845421 -0.2120308859258328 0 -0.33669316521431608 -0.19324526314955739 0 -0.35024140450074381 -0.20994798342056251 0 -0.32674672588845421 -0.2120308859258328 0 -0.35024140450074381 -0.20994798342056251 0 -0.3377174746324717 -0.2284461722996495 0 -0.32123008678095788 -0.18729232698745699 0 -0.32674672588845421 -0.2120308859258328 0 -0.33669316521431608 -0.19324526314955739 0 -0.35240556330307887 -0.18479875362473361 0 -0.36895563931783232 -0.19259611207654981 0 -0.35024140450074381 -0.20994798342056251 0 -0.35240556330307887 -0.18479875362473361 0 -0.33669316521431608 -0.19324526314955739 0 -0.35024140450074381 -0.20994798342056251 0 -0.36895563931783232 -0.19259611207654981 0 -0.37373608311303341 -0.20786508091529229 0 -0.35024140450074381 -0.20994798342056251 0 -0.37373608311303341 -0.20786508091529229 0 -0.35024140450074381 -0.20994798342056251 0 -0.37373608311303341 -0.20786508091529229 0 -0.35024140450074381 -0.20994798342056251 0 -0.36602803805366552 -0.21914337572849349 0 -0.37373608311303341 -0.20786508091529229 0 -0.36602803805366552 -0.21914337572849349 0 -0.37785639846487218 -0.21906994256996459 0 -0.35024140450074381 -0.20994798342056251 0 -0.357966965356528 -0.23170644806675769 0 -0.3377174746324717 -0.2284461722996495 0 -0.35024140450074381 -0.20994798342056251 0 -0.357966965356528 -0.23170644806675769 0 -0.36602803805366552 -0.21914337572849349 0 -0.357966965356528 -0.23170644806675769 0 -0.36602803805366552 -0.21914337572849349 0 -0.36983275924353248 -0.22875232439276311 0 -0.36602803805366552 -0.21914337572849349 0 -0.36983275924353248 -0.22875232439276311 0 -0.37785639846487218 -0.21906994256996459 0 -0.357966965356528 -0.23170644806675769 0 -0.36983275924353248 -0.22875232439276311 0 -0.37747963509906429 -0.24508953120583671 0 -0.35872453044413888 -0.25078889886649508 0 -0.357966965356528 -0.23170644806675769 0 -0.37747963509906429 -0.24508953120583671 0 -0.357966965356528 -0.23170644806675769 0 -0.34395992200845399 -0.24382677409400949 0 -0.3377174746324717 -0.2284461722996495 0 -0.35872453044413888 -0.25078889886649508 0 -0.357966965356528 -0.23170644806675769 0 -0.34395992200845399 -0.24382677409400949 0 -0.33345250408021371 -0.25331871279766999 0 -0.34395992200845399 -0.24382677409400949 0 -0.33132333615916232 -0.2411148243472106 0 -0.33345250408021371 -0.25331871279766999 0 -0.33132333615916232 -0.2411148243472106 0 -0.32023222063025569 -0.2489608815952247 0 -0.34395992200845399 -0.24382677409400949 0 -0.33132333615916232 -0.2411148243472106 0 -0.3377174746324717 -0.2284461722996495 0 -0.32674672588845421 -0.2120308859258328 0 -0.3377174746324717 -0.2284461722996495 0 -0.32066485276457768 -0.2334308190911655 0 -0.33132333615916232 -0.2411148243472106 0 -0.3377174746324717 -0.2284461722996495 0 -0.32066485276457768 -0.2334308190911655 0 -0.3004866401015065 -0.2269264896544945 0 -0.32674672588845421 -0.2120308859258328 0 -0.32066485276457768 -0.2334308190911655 0 -0.30748271917561598 -0.2431056607245809 0 -0.32066485276457768 -0.2334308190911655 0 -0.32023222063025569 -0.2489608815952247 0 -0.33132333615916232 -0.2411148243472106 0 -0.32066485276457768 -0.2334308190911655 0 -0.32023222063025569 -0.2489608815952247 0 -0.43445882011373449 -0.25478651907497341 0 -0.43806130733353449 -0.23541812032183559 0 -0.43445882011373449 -0.25478651907497341 0 -0.4258852610480256 -0.24284815888716721 0 -0.43806130733353449 -0.23541812032183559 0 -0.4258852610480256 -0.24284815888716721 0 -0.42538833238501789 -0.2333934851751748 0 -0.41698539980062188 -0.23875950084572559 0 -0.43445882011373449 -0.25478651907497341 0 -0.4258852610480256 -0.24284815888716721 0 -0.42335340856967768 -0.24893549408922019 0 -0.4258852610480256 -0.24284815888716721 0 -0.42538833238501789 -0.2333934851751748 0 -0.43806130733353449 -0.23541812032183559 0 -0.43091611572645672 -0.22699763907763329 0 -0.42538833238501789 -0.2333934851751748 0 -0.43806130733353449 -0.23541812032183559 0 -0.43091611572645672 -0.22699763907763329 0 -0.44166379455333399 -0.21604972156869759 0 -0.43806130733353449 -0.23541812032183559 0 -0.43091611572645672 -0.22699763907763329 0 -0.43133498143110582 -0.21921018883561361 0 -0.44166379455333399 -0.21604972156869759 0 -0.43133498143110582 -0.21921018883561361 0 -0.4232485836513401 -0.22477446532261011 0 -0.4232102070061276 -0.21869015764887889 0 -0.43091611572645672 -0.22699763907763329 0 -0.43133498143110582 -0.21921018883561361 0 -0.4232485836513401 -0.22477446532261011 0 -0.43091611572645672 -0.22699763907763329 0 -0.4232485836513401 -0.22477446532261011 0 -0.42538833238501789 -0.2333934851751748 0 -0.4232485836513401 -0.22477446532261011 0 -0.42538833238501789 -0.2333934851751748 0 -0.41731365953457839 -0.2310953018814938 0 -0.4232485836513401 -0.22477446532261011 0 -0.41731365953457839 -0.2310953018814938 0 -0.4121948509493269 -0.2247325638453028 0 -0.41731365953457839 -0.2310953018814938 0 -0.4080561583250083 -0.23272886934204159 0 -0.41698539980062188 -0.23875950084572559 0 -0.4232485836513401 -0.22477446532261011 0 -0.4121948509493269 -0.2247325638453028 0 -0.41685681033243982 -0.21746512418924929 0 -0.4232485836513401 -0.22477446532261011 0 -0.41685681033243982 -0.21746512418924929 0 -0.4232102070061276 -0.21869015764887889 0 -0.4121948509493269 -0.2247325638453028 0 -0.4080561583250083 -0.23272886934204159 0 -0.39971520205611372 -0.2221352637332015 0 -0.4121948509493269 -0.2247325638453028 0 -0.40807454407470489 -0.21592977391801271 0 -0.41685681033243982 -0.21746512418924929 0 -0.4121948509493269 -0.2247325638453028 0 -0.39971520205611372 -0.2221352637332015 0 -0.40807454407470489 -0.21592977391801271 0 -0.41731365953457839 -0.2310953018814938 0 -0.4121948509493269 -0.2247325638453028 0 -0.4080561583250083 -0.23272886934204159 0 -0.4080561583250083 -0.23272886934204159 0 -0.40983148527785651 -0.24118391776602099 0 -0.41698539980062188 -0.23875950084572559 0 -0.42538833238501789 -0.2333934851751748 0 -0.41731365953457839 -0.2310953018814938 0 -0.41698539980062188 -0.23875950084572559 0 -0.40983148527785651 -0.24118391776602099 0 -0.41698539980062188 -0.23875950084572559 0 -0.41627810448972868 -0.24641300060905449 0 -0.4258852610480256 -0.24284815888716721 0 -0.42335340856967768 -0.24893549408922019 0 -0.41627810448972868 -0.24641300060905449 0 -0.4258852610480256 -0.24284815888716721 0 -0.41698539980062188 -0.23875950084572559 0 -0.41627810448972868 -0.24641300060905449 0 -0.41679144862722167 -0.25169429778568547 0 -0.42335340856967768 -0.24893549408922019 0 -0.41627810448972868 -0.24641300060905449 0 -0.41385673751816382 -0.25312989710486528 0 -0.41627810448972868 -0.24641300060905449 0 -0.4086566941719203 -0.24778871483445111 0 -0.40983148527785651 -0.24118391776602099 0 -0.41627810448972868 -0.24641300060905449 0 -0.4086566941719203 -0.24778871483445111 0 -0.40282532782868952 -0.25224285689579767 0 -0.4086566941719203 -0.24778871483445111 0 -0.40022281387448849 -0.24084313907701979 0 -0.40983148527785651 -0.24118391776602099 0 -0.4086566941719203 -0.24778871483445111 0 -0.40022281387448849 -0.24084313907701979 0 -0.4080561583250083 -0.23272886934204159 0 -0.40983148527785651 -0.24118391776602099 0 -0.40022281387448849 -0.24084313907701979 0 -0.40022281387448849 -0.24084313907701979 0 -0.3903832871219331 -0.2411545733314838 0 -0.38772777019650018 -0.2315142496456449 0 -0.3938256931015453 -0.25037754026629511 0 -0.40022281387448849 -0.24084313907701979 0 -0.3903832871219331 -0.2411545733314838 0 -0.3938256931015453 -0.25037754026629511 0 -0.3903832871219331 -0.2411545733314838 0 -0.37747963509906429 -0.24508953120583671 0 -0.3903832871219331 -0.2411545733314838 0 -0.37747963509906429 -0.24508953120583671 0 -0.38772777019650018 -0.2315142496456449 0 -0.37747963509906429 -0.24508953120583671 0 -0.37785639846487218 -0.21906994256996459 0 -0.37747963509906429 -0.24508953120583671 0 -0.37785639846487218 -0.21906994256996459 0 -0.38772777019650018 -0.2315142496456449 0 -0.36983275924353248 -0.22875232439276311 0 -0.37747963509906429 -0.24508953120583671 0 -0.37785639846487218 -0.21906994256996459 0 -0.37785639846487218 -0.21906994256996459 0 -0.38772777019650018 -0.2315142496456449 0 -0.38790285805175961 -0.2167146319195192 0 -0.4080561583250083 -0.23272886934204159 0 -0.40022281387448849 -0.24084313907701979 0 -0.39971520205611372 -0.2221352637332015 0 -0.40022281387448849 -0.24084313907701979 0 -0.39971520205611372 -0.2221352637332015 0 -0.38772777019650018 -0.2315142496456449 0 -0.39971520205611372 -0.2221352637332015 0 -0.38790285805175961 -0.2167146319195192 0 -0.40022281387448849 -0.24084313907701979 0 -0.38772777019650018 -0.2315142496456449 0 -0.39971520205611372 -0.2221352637332015 0 -0.39971520205611372 -0.2221352637332015 0 -0.39723076172532301 -0.205782178410022 0 -0.40807454407470489 -0.21592977391801271 0 -0.39971520205611372 -0.2221352637332015 0 -0.39723076172532301 -0.205782178410022 0 -0.38790285805175961 -0.2167146319195192 0 -0.39723076172532301 -0.205782178410022 0 -0.41303892827123678 -0.21093405469715851 0 -0.40807454407470489 -0.21592977391801271 0 -0.37373608311303341 -0.20786508091529229 0 -0.39723076172532301 -0.205782178410022 0 -0.38370630256805799 -0.1971119561512929 0 -0.37373608311303341 -0.20786508091529229 0 -0.39723076172532301 -0.205782178410022 0 -0.38790285805175961 -0.2167146319195192 0 -0.37373608311303341 -0.20786508091529229 0 -0.39723076172532301 -0.205782178410022 0 -0.37373608311303341 -0.20786508091529229 0 -0.37785639846487218 -0.21906994256996459 0 -0.38790285805175961 -0.2167146319195192 0 -0.36895563931783232 -0.19259611207654981 0 -0.38370630256805799 -0.1971119561512929 0 -0.3831693110633177 -0.1873742460103984 0 -0.36895563931783232 -0.19259611207654981 0 -0.37373608311303341 -0.20786508091529229 0 -0.38370630256805799 -0.1971119561512929 0 -0.38370630256805799 -0.1971119561512929 0 -0.39543971762078378 -0.19194216334420211 0 -0.3831693110633177 -0.1873742460103984 0 -0.39723076172532301 -0.205782178410022 0 -0.38370630256805799 -0.1971119561512929 0 -0.39543971762078378 -0.19194216334420211 0 -0.39723076172532301 -0.205782178410022 0 -0.39543971762078378 -0.19194216334420211 0 -0.40534117689708921 -0.19634387975323889 0 -0.39543971762078378 -0.19194216334420211 0 -0.40534117689708921 -0.19634387975323889 0 -0.40730162077548249 -0.18407395049314179 0 -0.39723076172532301 -0.205782178410022 0 -0.40534117689708921 -0.19634387975323889 0 -0.42072544033761272 -0.20369927590475301 0 -0.42032122747045741 -0.1927313373696285 0 -0.42072544033761272 -0.20369927590475301 0 -0.40730162077548249 -0.18407395049314179 0 -0.42072544033761272 -0.20369927590475301 0 -0.40730162077548249 -0.18407395049314179 0 -0.40534117689708921 -0.19634387975323889 0 -0.42072544033761272 -0.20369927590475301 0 -0.40730162077548249 -0.18407395049314179 0 -0.39723076172532301 -0.205782178410022 0 -0.41303892827123678 -0.21093405469715851 0 -0.42072544033761272 -0.20369927590475301 0 -0.39723076172532301 -0.205782178410022 0 -0.42072544033761272 -0.20369927590475301 0 -0.41303892827123678 -0.21093405469715851 0 -0.40807454407470489 -0.21592977391801271 0 -0.41685681033243982 -0.21746512418924929 0 -0.41303892827123678 -0.21093405469715851 0 -0.41685681033243982 -0.21746512418924929 0 -0.42140045260962489 -0.21331085224804261 0 -0.41685681033243982 -0.21746512418924929 0 -0.42140045260962489 -0.21331085224804261 0 -0.4232102070061276 -0.21869015764887889 0 -0.41303892827123678 -0.21093405469715851 0 -0.42140045260962489 -0.21331085224804261 0 -0.42072544033761272 -0.20369927590475301 0 -0.42512182626149492 -0.2033095177213731 0 -0.43378961613155448 -0.20908682079381441 0 -0.44184138868315109 -0.20247798044170351 0 -0.42072544033761272 -0.20369927590475301 0 -0.42512182626149492 -0.2033095177213731 0 -0.43133498143110582 -0.21921018883561361 0 -0.42072544033761272 -0.20369927590475301 0 -0.42512182626149492 -0.2033095177213731 0 -0.43133498143110582 -0.21921018883561361 0 -0.42512182626149492 -0.2033095177213731 0 -0.43378961613155448 -0.20908682079381441 0 -0.43133498143110582 -0.21921018883561361 0 -0.42140045260962489 -0.21331085224804261 0 -0.4232102070061276 -0.21869015764887889 0 -0.43133498143110582 -0.21921018883561361 0 -0.42072544033761272 -0.20369927590475301 0 -0.43133498143110582 -0.21921018883561361 0 -0.42140045260962489 -0.21331085224804261 0 -0.42072544033761272 -0.20369927590475301 0 -0.43133498143110582 -0.21921018883561361 0 -0.43378961613155448 -0.20908682079381441 0 -0.44166379455333399 -0.21604972156869759 0 -0.42032122747045741 -0.1927313373696285 0 -0.44184138868315109 -0.20247798044170351 0 -0.42032122747045741 -0.1927313373696285 0 -0.43099962817645188 -0.18319011649723049 0 -0.43833565968517207 -0.19112957676178299 0 -0.42032122747045741 -0.1927313373696285 0 -0.42512182626149492 -0.2033095177213731 0 -0.44184138868315109 -0.20247798044170351 0 -0.42032122747045741 -0.1927313373696285 0 -0.43833565968517207 -0.19112957676178299 0 -0.44184138868315109 -0.20247798044170351 0 -0.42032122747045741 -0.1927313373696285 0 -0.42072544033761272 -0.20369927590475301 0 -0.42512182626149492 -0.2033095177213731 0 -0.42549584187692119 -0.17333418479170171 0 -0.43099962817645188 -0.18319011649723049 0 -0.41834400919125792 -0.18158621355319651 0 -0.42032122747045741 -0.1927313373696285 0 -0.43099962817645188 -0.18319011649723049 0 -0.41834400919125792 -0.18158621355319651 0 -0.43099962817645188 -0.18319011649723049 0 -0.43495901877196291 -0.17485617288990979 0 -0.44455133712372419 -0.18300714728765441 0 -0.42549584187692119 -0.17333418479170171 0 -0.43099962817645188 -0.18319011649723049 0 -0.43495901877196291 -0.17485617288990979 0 -0.42549584187692119 -0.17333418479170171 0 -0.43495901877196291 -0.17485617288990979 0 -0.43155613508544272 -0.1669321437644439 0 -0.43495901877196291 -0.17485617288990979 0 -0.43155613508544272 -0.1669321437644439 0 -0.44219215159727421 -0.16781727210851849 0 -0.43155613508544272 -0.1669321437644439 0 -0.43166640735559808 -0.1552039120346444 0 -0.44219215159727421 -0.16781727210851849 0 -0.43155613508544272 -0.1669321437644439 0 -0.4214232379976206 -0.16216052115063159 0 -0.43166640735559808 -0.1552039120346444 0 -0.42549584187692119 -0.17333418479170171 0 -0.43155613508544272 -0.1669321437644439 0 -0.4214232379976206 -0.16216052115063159 0 -0.42549584187692119 -0.17333418479170171 0 -0.4214232379976206 -0.16216052115063159 0 -0.41110577652129249 -0.1670682470007229 0 -0.4214232379976206 -0.16216052115063159 0 -0.41110577652129249 -0.1670682470007229 0 -0.40669002996807779 -0.1495058137550834 0 -0.41110577652129249 -0.1670682470007229 0 -0.41834400919125792 -0.18158621355319651 0 -0.40730162077548249 -0.18407395049314179 0 -0.42549584187692119 -0.17333418479170171 0 -0.41110577652129249 -0.1670682470007229 0 -0.41834400919125792 -0.18158621355319651 0 -0.42032122747045741 -0.1927313373696285 0 -0.41834400919125792 -0.18158621355319651 0 -0.40730162077548249 -0.18407395049314179 0 -0.39543971762078378 -0.19194216334420211 0 -0.40730162077548249 -0.18407395049314179 0 -0.39267839793348491 -0.17927693187167279 0 -0.40730162077548249 -0.18407395049314179 0 -0.39267839793348491 -0.17927693187167279 0 -0.39387780121335469 -0.16444862508152899 0 -0.40730162077548249 -0.18407395049314179 0 -0.39387780121335469 -0.16444862508152899 0 -0.37378547386561772 -0.17392500984250869 0 -0.36895563931783232 -0.19259611207654981 0 -0.3831693110633177 -0.1873742460103984 0 -0.37378547386561772 -0.17392500984250869 0 -0.39267839793348491 -0.17927693187167279 0 -0.3831693110633177 -0.1873742460103984 0 -0.37378547386561772 -0.17392500984250869 0 -0.39267839793348491 -0.17927693187167279 0 -0.39387780121335469 -0.16444862508152899 0 -0.39543971762078378 -0.19194216334420211 0 -0.39267839793348491 -0.17927693187167279 0 -0.3831693110633177 -0.1873742460103984 0 -0.37378547386561772 -0.17392500984250869 0 -0.37839901512320262 -0.15996290040625341 0 -0.39387780121335469 -0.16444862508152899 0 -0.37839901512320262 -0.15996290040625341 0 -0.39387780121335469 -0.16444862508152899 0 -0.3804539816512269 -0.14482329966991631 0 -0.41110577652129249 -0.1670682470007229 0 -0.39387780121335469 -0.16444862508152899 0 -0.40669002996807779 -0.1495058137550834 0 -0.41110577652129249 -0.1670682470007229 0 -0.40730162077548249 -0.18407395049314179 0 -0.39387780121335469 -0.16444862508152899 0 -0.39387780121335469 -0.16444862508152899 0 -0.3804539816512269 -0.14482329966991631 0 -0.40669002996807779 -0.1495058137550834 0 -0.3804539816512269 -0.14482329966991631 0 -0.39647179587780151 -0.13189450107720049 0 -0.40669002996807779 -0.1495058137550834 0 -0.3804539816512269 -0.14482329966991631 0 -0.40669002996807779 -0.1495058137550834 0 -0.39387780121335469 -0.16444862508152899 0 -0.3804539816512269 -0.14482329966991631 0 -0.3804539816512269 -0.14482329966991631 0 -0.38278168804071749 -0.12940228238898679 0 -0.39647179587780151 -0.13189450107720049 0 -0.3804539816512269 -0.14482329966991631 0 -0.39647179587780151 -0.13189450107720049 0 -0.37212838853434238 -0.11808059788504249 0 -0.37028068739271691 -0.13083580994494901 0 -0.38278168804071749 -0.12940228238898679 0 -0.37028068739271691 -0.13083580994494901 0 -0.3804539816512269 -0.14482329966991631 0 -0.38278168804071749 -0.12940228238898679 0 -0.38278168804071749 -0.12940228238898679 0 -0.39647179587780151 -0.13189450107720049 0 -0.39044023874876249 -0.11757149150947201 0 -0.39647179587780151 -0.13189450107720049 0 -0.40828286160401828 -0.1310364195873514 0 -0.40669002996807779 -0.1495058137550834 0 -0.39647179587780151 -0.13189450107720049 0 -0.40828286160401828 -0.1310364195873514 0 -0.41122993917504558 -0.1199812866788818 0 -0.39647179587780151 -0.13189450107720049 0 -0.41122993917504558 -0.1199812866788818 0 -0.40828286160401828 -0.1310364195873514 0 -0.41930562378398423 -0.12797048681614909 0 -0.41122993917504558 -0.1199812866788818 0 -0.41930562378398423 -0.12797048681614909 0 -0.41533589961201212 -0.13938201891822019 0 -0.4273858072007774 -0.14414008567558009 0 -0.40828286160401828 -0.1310364195873514 0 -0.41533589961201212 -0.13938201891822019 0 -0.40669002996807779 -0.1495058137550834 0 -0.40828286160401828 -0.1310364195873514 0 -0.41930562378398423 -0.12797048681614909 0 -0.41533589961201212 -0.13938201891822019 0 -0.40669002996807779 -0.1495058137550834 0 -0.43166640735559808 -0.1552039120346444 0 -0.4214232379976206 -0.16216052115063159 0 -0.40669002996807779 -0.1495058137550834 0 -0.43166640735559808 -0.1552039120346444 0 -0.41533589961201212 -0.13938201891822019 0 -0.40669002996807779 -0.1495058137550834 0 -0.4273858072007774 -0.14414008567558009 0 -0.40669002996807779 -0.1495058137550834 0 -0.4273858072007774 -0.14414008567558009 0 -0.43166640735559808 -0.1552039120346444 0 -0.43166640735559808 -0.1552039120346444 0 -0.43525592456887258 -0.14374997194848471 0 -0.44410307239699631 -0.15282998285397989 0 -0.4273858072007774 -0.14414008567558009 0 -0.43166640735559808 -0.1552039120346444 0 -0.43525592456887258 -0.14374997194848471 0 -0.41930562378398423 -0.12797048681614909 0 -0.43525592456887258 -0.14374997194848471 0 -0.41930562378398423 -0.12797048681614909 0 -0.4273858072007774 -0.14414008567558009 0 -0.43525592456887258 -0.14374997194848471 0 -0.41930562378398423 -0.12797048681614909 0 -0.4273858072007774 -0.14414008567558009 0 -0.41930562378398423 -0.12797048681614909 0 -0.43525592456887258 -0.14374997194848471 0 -0.43389101300267191 -0.13422730327376839 0 -0.41930562378398423 -0.12797048681614909 0 -0.43389101300267191 -0.13422730327376839 0 -0.4149348530849476 -0.1169905694289516 0 -0.43389101300267191 -0.13422730327376839 0 -0.4149348530849476 -0.1169905694289516 0 -0.43389101300267191 -0.13422730327376839 0 -0.43160182387889101 -0.1187955019330571 0 -0.44085253015216358 -0.1237950587173612 0 -0.43389101300267191 -0.13422730327376839 0 -0.44872577578551592 -0.13320174295465559 0 -0.452847172920396 -0.1514640371185853 0 -0.44872577578551592 -0.13320174295465559 0 -0.45896755277767909 -0.12575633132281341 0 -0.45000974795797011 -0.119430952696417 0 -0.44872577578551592 -0.13320174295465559 0 -0.45000974795797011 -0.119430952696417 0 -0.44085253015216358 -0.1237950587173612 0 -0.43389101300267191 -0.13422730327376839 0 -0.44872577578551592 -0.13320174295465559 0 -0.44085253015216358 -0.1237950587173612 0 -0.43525592456887258 -0.14374997194848471 0 -0.43389101300267191 -0.13422730327376839 0 -0.452847172920396 -0.1514640371185853 0 -0.43525592456887258 -0.14374997194848471 0 -0.44410307239699631 -0.15282998285397989 0 -0.452847172920396 -0.1514640371185853 0 -0.44872577578551592 -0.13320174295465559 0 -0.452847172920396 -0.1514640371185853 0 -0.456386085566235 -0.14096643446963419 0 -0.43389101300267191 -0.13422730327376839 0 -0.452847172920396 -0.1514640371185853 0 -0.44410307239699631 -0.15282998285397989 0 -0.452847172920396 -0.1514640371185853 0 -0.45664278474311831 -0.16090201031420531 0 -0.452847172920396 -0.1514640371185853 0 -0.456386085566235 -0.14096643446963419 0 -0.46738274896045578 -0.15003021006820461 0 -0.452847172920396 -0.1514640371185853 0 -0.46738274896045578 -0.15003021006820461 0 -0.45664278474311831 -0.16090201031420531 0 -0.456386085566235 -0.14096643446963419 0 -0.46738274896045578 -0.15003021006820461 0 -0.47200539146090159 -0.13839174763128981 0 -0.456386085566235 -0.14096643446963419 0 -0.47200539146090159 -0.13839174763128981 0 -0.47750202174635031 -0.1215216316744509 0 -0.456386085566235 -0.14096643446963419 0 -0.45896755277767909 -0.12575633132281341 0 -0.47750202174635031 -0.1215216316744509 0 -0.456386085566235 -0.14096643446963419 0 -0.47750202174635031 -0.1215216316744509 0 -0.44872577578551592 -0.13320174295465559 0 -0.456386085566235 -0.14096643446963419 0 -0.45896755277767909 -0.12575633132281341 0 -0.47200539146090159 -0.13839174763128981 0 -0.48675070957056549 -0.14104871431286931 0 -0.47750202174635031 -0.1215216316744509 0 -0.50000000000000011 -0.12648838757554831 0 -0.48675070957056549 -0.14104871431286931 0 -0.5 -0.15043640832747529 0 -0.50000000000000011 -0.12648838757554831 0 -0.48675070957056549 -0.14104871431286931 0 -0.47750202174635031 -0.1215216316744509 0 -0.48675070957056549 -0.14104871431286931 0 -0.5 -0.15043640832747529 0 -0.48062174440056549 -0.15969986187448909 0 -0.46738274896045578 -0.15003021006820461 0 -0.47200539146090159 -0.13839174763128981 0 -0.48675070957056549 -0.14104871431286931 0 -0.48675070957056549 -0.14104871431286931 0 -0.48062174440056549 -0.15969986187448909 0 -0.46738274896045578 -0.15003021006820461 0 -0.48675070957056549 -0.14104871431286931 0 -0.48062174440056549 -0.15969986187448909 0 -0.48062174440056549 -0.15969986187448909 0 -0.46548313673471758 -0.16971310035941381 0 -0.46753260370971428 -0.1600862956540782 0 -0.46738274896045578 -0.15003021006820461 0 -0.48062174440056549 -0.15969986187448909 0 -0.46753260370971428 -0.1600862956540782 0 -0.48062174440056549 -0.15969986187448909 0 -0.47449277923056221 -0.17835100943610771 0 -0.46548313673471758 -0.16971310035941381 0 -0.48062174440056549 -0.15969986187448909 0 -0.47449277923056221 -0.17835100943610771 0 -0.5 -0.15043640832747529 0 -0.48062174440056549 -0.15969986187448909 0 -0.49999999999999828 -0.17438442907940241 0 -0.48062174440056549 -0.15969986187448909 0 -0.49999999999999828 -0.17438442907940241 0 -0.47449277923056221 -0.17835100943610771 0 -0.49999999999999828 -0.17438442907940241 0 -0.47449277923056221 -0.17835100943610771 0 -0.49999999999999828 -0.17438442907940241 0 -0.47449277923056221 -0.17835100943610771 0 -0.48549376880548989 -0.19132810400505559 0 -0.47449277923056221 -0.17835100943610771 0 -0.46892716456320649 -0.19528781647494389 0 -0.47449277923056221 -0.17835100943610771 0 -0.45952205817714309 -0.18067907836188021 0 -0.46892716456320649 -0.19528781647494389 0 -0.45952205817714309 -0.18067907836188021 0 -0.46548313673471758 -0.16971310035941381 0 -0.45289664290439807 -0.17180374819378549 0 -0.47449277923056221 -0.17835100943610771 0 -0.45952205817714309 -0.18067907836188021 0 -0.47449277923056221 -0.17835100943610771 0 -0.45952205817714309 -0.18067907836188021 0 -0.46548313673471758 -0.16971310035941381 0 -0.46548313673471758 -0.16971310035941381 0 -0.46753260370971428 -0.1600862956540782 0 -0.45664278474311831 -0.16090201031420531 0 -0.46738274896045578 -0.15003021006820461 0 -0.46753260370971428 -0.1600862956540782 0 -0.45664278474311831 -0.16090201031420531 0 -0.46548313673471758 -0.16971310035941381 0 -0.45664278474311831 -0.16090201031420531 0 -0.45289664290439807 -0.17180374819378549 0 -0.45664278474311831 -0.16090201031420531 0 -0.45289664290439807 -0.17180374819378549 0 -0.44219215159727421 -0.16781727210851849 0 -0.43166640735559808 -0.1552039120346444 0 -0.45664278474311831 -0.16090201031420531 0 -0.44219215159727421 -0.16781727210851849 0 -0.43166640735559808 -0.1552039120346444 0 -0.45664278474311831 -0.16090201031420531 0 -0.43166640735559808 -0.1552039120346444 0 -0.44410307239699631 -0.15282998285397989 0 -0.45664278474311831 -0.16090201031420531 0 -0.43495901877196291 -0.17485617288990979 0 -0.44219215159727421 -0.16781727210851849 0 -0.44455133712372419 -0.18300714728765441 0 -0.43099962817645188 -0.18319011649723049 0 -0.44455133712372419 -0.18300714728765441 0 -0.43833565968517207 -0.19112957676178299 0 -0.45952205817714309 -0.18067907836188021 0 -0.44455133712372419 -0.18300714728765441 0 -0.45396471697207569 -0.194241302212698 0 -0.45952205817714309 -0.18067907836188021 0 -0.44455133712372419 -0.18300714728765441 0 -0.45952205817714309 -0.18067907836188021 0 -0.45289664290439807 -0.17180374819378549 0 -0.44455133712372419 -0.18300714728765441 0 -0.45289664290439807 -0.17180374819378549 0 -0.44219215159727421 -0.16781727210851849 0 -0.44455133712372419 -0.18300714728765441 0 -0.44455133712372419 -0.18300714728765441 0 -0.43833565968517207 -0.19112957676178299 0 -0.45396471697207569 -0.194241302212698 0 -0.43833565968517207 -0.19112957676178299 0 -0.44184138868315109 -0.20247798044170351 0 -0.45396471697207569 -0.194241302212698 0 -0.44184138868315109 -0.20247798044170351 0 -0.46336154989584488 -0.2122246235137781 0 -0.45396471697207569 -0.194241302212698 0 -0.44184138868315109 -0.20247798044170351 0 -0.46336154989584488 -0.2122246235137781 0 -0.45338394269579491 -0.2190794284651259 0 -0.43378961613155448 -0.20908682079381441 0 -0.44184138868315109 -0.20247798044170351 0 -0.44166379455333399 -0.21604972156869759 0 -0.44184138868315109 -0.20247798044170351 0 -0.44166379455333399 -0.21604972156869759 0 -0.45338394269579491 -0.2190794284651259 0 -0.44184138868315109 -0.20247798044170351 0 -0.46336154989584488 -0.2122246235137781 0 -0.46336154989584488 -0.2122246235137781 0 -0.46892716456320649 -0.19528781647494389 0 -0.46336154989584488 -0.2122246235137781 0 -0.45396471697207569 -0.194241302212698 0 -0.46892716456320649 -0.19528781647494389 0 -0.45952205817714309 -0.18067907836188021 0 -0.45396471697207569 -0.194241302212698 0 -0.46892716456320649 -0.19528781647494389 0 -0.47449277923056221 -0.17835100943610771 0 -0.46892716456320649 -0.19528781647494389 0 -0.48549376880548989 -0.19132810400505559 0 -0.46892716456320649 -0.19528781647494389 0 -0.48549376880548989 -0.19132810400505559 0 -0.47978640147694102 -0.20418872613165631 0 -0.5 -0.20182215567114031 0 -0.48549376880548989 -0.19132810400505559 0 -0.47978640147694102 -0.20418872613165631 0 -0.49999999999999828 -0.17438442907940241 0 -0.5 -0.20182215567114031 0 -0.48549376880548989 -0.19132810400505559 0 -0.5 -0.20182215567114031 0 -0.48114952412016337 -0.22028093099336349 0 -0.49893749834448198 -0.22833723847294871 0 -0.5 -0.20182215567114031 0 -0.47978640147694102 -0.20418872613165631 0 -0.48114952412016337 -0.22028093099336349 0 -0.46336154989584488 -0.2122246235137781 0 -0.48114952412016337 -0.22028093099336349 0 -0.46336154989584488 -0.2122246235137781 0 -0.47978640147694102 -0.20418872613165631 0 -0.48114952412016337 -0.22028093099336349 0 -0.46336154989584488 -0.2122246235137781 0 -0.46892716456320649 -0.19528781647494389 0 -0.47978640147694102 -0.20418872613165631 0 -0.46336154989584488 -0.2122246235137781 0 -0.48114952412016337 -0.22028093099336349 0 -0.46857810181099829 -0.22486784275082261 0 -0.48114952412016337 -0.22028093099336349 0 -0.48798868478634799 -0.231470988200419 0 -0.47142395938804471 -0.23802335247430181 0 -0.48114952412016337 -0.22028093099336349 0 -0.47142395938804471 -0.23802335247430181 0 -0.46857810181099829 -0.22486784275082261 0 -0.48114952412016337 -0.22028093099336349 0 -0.48798868478634799 -0.231470988200419 0 -0.49893749834448198 -0.22833723847294871 0 -0.48114952412016337 -0.22028093099336349 0 -0.49893749834448198 -0.22833723847294871 0 -0.48798868478634799 -0.231470988200419 0 -0.49893749834448198 -0.22833723847294871 0 -0.4875835208682564 -0.24248539692068891 0 -0.5 -0.25669760885461612 0 -0.49893749834448198 -0.22833723847294871 0 -0.4875835208682564 -0.24248539692068891 0 -0.48798868478634799 -0.231470988200419 0 -0.4875835208682564 -0.24248539692068891 0 -0.47142395938804471 -0.23802335247430181 0 -0.47878778985378329 -0.25835102983948688 0 -0.4875835208682564 -0.24248539692068891 0 -0.47142395938804471 -0.23802335247430181 0 -0.45662330498375908 -0.25656877445722759 0 -0.47142395938804471 -0.23802335247430181 0 -0.45034617445999431 -0.24335722649563979 0 -0.47142395938804471 -0.23802335247430181 0 -0.45735065046854989 -0.23051648340969341 0 -0.45034617445999431 -0.24335722649563979 0 -0.46336154989584488 -0.2122246235137781 0 -0.46857810181099829 -0.22486784275082261 0 -0.45735065046854989 -0.23051648340969341 0 -0.46336154989584488 -0.2122246235137781 0 -0.45735065046854989 -0.23051648340969341 0 -0.47142395938804471 -0.23802335247430181 0 -0.46857810181099829 -0.22486784275082261 0 -0.45735065046854989 -0.23051648340969341 0 -0.46336154989584488 -0.2122246235137781 0 -0.45338394269579491 -0.2190794284651259 0 -0.45735065046854989 -0.23051648340969341 0 -0.45338394269579491 -0.2190794284651259 0 -0.45735065046854989 -0.23051648340969341 0 -0.43806130733353449 -0.23541812032183559 0 -0.44166379455333399 -0.21604972156869759 0 -0.43806130733353449 -0.23541812032183559 0 -0.44166379455333399 -0.21604972156869759 0 -0.45338394269579491 -0.2190794284651259 0 -0.43806130733353449 -0.23541812032183559 0 -0.45735065046854989 -0.23051648340969341 0 -0.45034617445999431 -0.24335722649563979 0 -0.43806130733353449 -0.23541812032183559 0 -0.43445882011373449 -0.25478651907497341 0 -0.45034617445999431 -0.24335722649563979 0 -0.43806130733353449 -0.23541812032183559 0 -0.41324955929443102 -0.038374170610562031 0 -0.41005136228565903 -0.05540387285823338 0 -0.42435348212729052 -0.04457483879584373 0 -0.41324955929443102 -0.038374170610562031 0 -0.41005136228565903 -0.05540387285823338 0 -0.39900851660089293 -0.046429079601448257 0 -0.41324955929443102 -0.038374170610562031 0 -0.40747857107326091 -0.02424585309778798 0 -0.40045416304880688 -0.034240371911693122 0 -0.41005136228565903 -0.05540387285823338 0 -0.4246600563061857 -0.059067830999859447 0 -0.41422906440869389 -0.068128229862373102 0 -0.41005136228565903 -0.05540387285823338 0 -0.4246600563061857 -0.059067830999859447 0 -0.42435348212729052 -0.04457483879584373 0 -0.4246600563061857 -0.059067830999859447 0 -0.42435348212729052 -0.04457483879584373 0 -0.43957367317472601 -0.045089571971719818 0 -0.4246600563061857 -0.059067830999859447 0 -0.43957367317472601 -0.045089571971719818 0 -0.44544580640037118 -0.056213229689383748 0 -0.41324955929443102 -0.038374170610562031 0 -0.42435348212729052 -0.04457483879584373 0 -0.42981912379901888 -0.030443092666165631 0 -0.42435348212729052 -0.04457483879584373 0 -0.42981912379901888 -0.030443092666165631 0 -0.43957367317472601 -0.045089571971719818 0 -0.41302196833726168 -0.01226972299954816 0 -0.4392085005598273 -0.024676348383282701 0 -0.42659341977192161 -0.010103830507352861 0 -0.41302196833726168 -0.01226972299954816 0 -0.4392085005598273 -0.024676348383282701 0 -0.42981912379901888 -0.030443092666165631 0 -0.41673372021425997 -0.022240754673565791 0 -0.4392085005598273 -0.024676348383282701 0 -0.41302196833726168 -0.01226972299954816 0 -0.41673372021425997 -0.022240754673565791 0 -0.4392085005598273 -0.024676348383282701 0 -0.43741768347029059 -0.01288367903972009 0 -0.42659341977192161 -0.010103830507352861 0 -0.4392085005598273 -0.024676348383282701 0 -0.4441818909265971 -0.00998157505946092 0 -0.42578104856505677 0.0031949168855625672 0 -0.43741768347029059 -0.01288367903972009 0 -0.4441818909265971 -0.00998157505946092 0 -0.42578104856505677 0.0031949168855625672 0 -0.43741768347029059 -0.01288367903972009 0 -0.42659341977192161 -0.010103830507352861 0 -0.42578104856505677 0.0031949168855625672 0 -0.43741768347029059 -0.01288367903972009 0 -0.42578104856505677 0.0031949168855625672 0 -0.42659341977192161 -0.010103830507352861 0 -0.41753789792717189 -0.0038843189997757009 0 -0.42578104856505677 0.0031949168855625672 0 -0.42659341977192161 -0.010103830507352861 0 -0.41753789792717189 -0.0038843189997757009 0 -0.41302196833726168 -0.01226972299954816 0 -0.41753789792717189 -0.0038843189997757009 0 -0.41302196833726168 -0.01226972299954816 0 -0.40771050441737638 -0.0035262849216432719 0 -0.41753789792717189 -0.0038843189997757009 0 -0.40771050441737638 -0.0035262849216432719 0 -0.41105156913745711 0.0034129409419674369 0 -0.42981912379901888 -0.030443092666165631 0 -0.40747857107326091 -0.02424585309778798 0 -0.41324955929443102 -0.038374170610562031 0 -0.42981912379901888 -0.030443092666165631 0 -0.40747857107326091 -0.02424585309778798 0 -0.42981912379901888 -0.030443092666165631 0 -0.41673372021425997 -0.022240754673565791 0 -0.40747857107326091 -0.02424585309778798 0 -0.41302196833726168 -0.01226972299954816 0 -0.41673372021425997 -0.022240754673565791 0 -0.40747857107326091 -0.02424585309778798 0 -0.41673372021425997 -0.022240754673565791 0 -0.40747857107326091 -0.02424585309778798 0 -0.40747857107326091 -0.02424585309778798 0 -0.38992317137517202 -0.02804917422583518 0 -0.40747857107326091 -0.02424585309778798 0 -0.38992317137517202 -0.02804917422583518 0 -0.38297625517291389 -0.017448943304264108 0 -0.40747857107326091 -0.02424585309778798 0 -0.38992317137517202 -0.02804917422583518 0 -0.40045416304880688 -0.034240371911693122 0 -0.40747857107326091 -0.02424585309778798 0 -0.39567459441968961 -0.012635194689989219 0 -0.38297625517291389 -0.017448943304264108 0 -0.40747857107326091 -0.02424585309778798 0 -0.38297625517291389 -0.017448943304264108 0 -0.41302196833726168 -0.01226972299954816 0 -0.40747857107326091 -0.02424585309778798 0 -0.39567459441968961 -0.012635194689989219 0 -0.41302196833726168 -0.01226972299954816 0 -0.40771050441737638 -0.0035262849216432719 0 -0.38683543611469601 0.0001369023841863784 0 -0.41302196833726168 -0.01226972299954816 0 -0.39567459441968961 -0.012635194689989219 0 -0.38683543611469601 0.0001369023841863784 0 -0.41302196833726168 -0.01226972299954816 0 -0.38683543611469601 0.0001369023841863784 0 -0.40771050441737638 -0.0035262849216432719 0 -0.38683543611469601 0.0001369023841863784 0 -0.40226596945639398 0.0014711925349297271 0 -0.39567459441968961 -0.012635194689989219 0 -0.38502252263107412 -0.0084426060797158468 0 -0.38683543611469601 0.0001369023841863784 0 -0.39567459441968961 -0.012635194689989219 0 -0.38502252263107412 -0.0084426060797158468 0 -0.38297625517291389 -0.017448943304264108 0 -0.38502252263107412 -0.0084426060797158468 0 -0.38009964520605882 -0.0090403485437739461 0 -0.38297625517291389 -0.017448943304264108 0 -0.37278444596104371 -0.0079457960458173115 0 -0.38009964520605882 -0.0090403485437739461 0 -0.38297625517291389 -0.017448943304264108 0 -0.37474494217865062 -0.0022388935110706832 0 -0.38502252263107412 -0.0084426060797158468 0 -0.38683543611469601 0.0001369023841863784 0 -0.37474494217865062 -0.0022388935110706832 0 -0.38502252263107412 -0.0084426060797158468 0 -0.38009964520605882 -0.0090403485437739461 0 -0.37474494217865062 -0.0022388935110706832 0 -0.37278444596104371 -0.0079457960458173115 0 -0.38009964520605882 -0.0090403485437739461 0 -0.37236777167708351 -0.031852495353884333 0 -0.38992317137517202 -0.02804917422583518 0 -0.37990921189048049 -0.023302515363219579 0 -0.37236777167708351 -0.031852495353884333 0 -0.38992317137517202 -0.02804917422583518 0 -0.38992317137517202 -0.02804917422583518 0 -0.38297625517291389 -0.017448943304264108 0 -0.37990921189048049 -0.023302515363219579 0 -0.3739022591900184 -0.02415390189740213 0 -0.38297625517291389 -0.017448943304264108 0 -0.37990921189048049 -0.023302515363219579 0 -0.37236777167708351 -0.031852495353884333 0 -0.3739022591900184 -0.02415390189740213 0 -0.37990921189048049 -0.023302515363219579 0 -0.37236777167708351 -0.031852495353884333 0 -0.37990921189048049 -0.023302515363219579 0 -0.38458287424021398 -0.039388642062709187 0 -0.39900851660089293 -0.046429079601448257 0 -0.3815482533063424 -0.052412606119804542 0 -0.37355784227175309 -0.045246792894939887 0 -0.37236777167708351 -0.031852495353884333 0 -0.38458287424021398 -0.039388642062709187 0 -0.37236777167708351 -0.031852495353884333 0 -0.38992317137517202 -0.02804917422583518 0 -0.38458287424021398 -0.039388642062709187 0 -0.37355784227175309 -0.045246792894939887 0 -0.38458287424021398 -0.039388642062709187 0 -0.3815482533063424 -0.052412606119804542 0 -0.38458287424021398 -0.039388642062709187 0 -0.39900851660089293 -0.046429079601448257 0 -0.40045416304880688 -0.034240371911693122 0 -0.38992317137517202 -0.02804917422583518 0 -0.38458287424021398 -0.039388642062709187 0 -0.40045416304880688 -0.034240371911693122 0 -0.41324955929443102 -0.038374170610562031 0 -0.39900851660089293 -0.046429079601448257 0 -0.40045416304880688 -0.034240371911693122 0 -0.39900851660089293 -0.046429079601448257 0 -0.39626447370361728 -0.06091275685647668 0 -0.3815482533063424 -0.052412606119804542 0 -0.41005136228565903 -0.05540387285823338 0 -0.39626447370361728 -0.06091275685647668 0 -0.40517181862379281 -0.066558370858305557 0 -0.41005136228565903 -0.05540387285823338 0 -0.39900851660089293 -0.046429079601448257 0 -0.39626447370361728 -0.06091275685647668 0 -0.36862349457690058 -0.057461967220355487 0 -0.3815482533063424 -0.052412606119804542 0 -0.37947166312044489 -0.067272628224985004 0 -0.3815482533063424 -0.052412606119804542 0 -0.37947166312044489 -0.067272628224985004 0 -0.39260231949431601 -0.074533368335879327 0 -0.36882665317829499 -0.078032107790563188 0 -0.39260231949431601 -0.074533368335879327 0 -0.39626447370361728 -0.06091275685647668 0 -0.3815482533063424 -0.052412606119804542 0 -0.39260231949431601 -0.074533368335879327 0 -0.3815482533063424 -0.052412606119804542 0 -0.39260231949431601 -0.074533368335879327 0 -0.36882665317829499 -0.078032107790563188 0 -0.37947166312044489 -0.067272628224985004 0 -0.39260231949431601 -0.074533368335879327 0 -0.36882665317829499 -0.078032107790563188 0 -0.39260231949431601 -0.074533368335879327 0 -0.39002829617667018 -0.099006697234722524 0 -0.36882665317829499 -0.078032107790563188 0 -0.39002829617667018 -0.099006697234722524 0 -0.37367929427193591 -0.1014825750548952 0 -0.36882665317829499 -0.078032107790563188 0 -0.39002829617667018 -0.099006697234722524 0 -0.39260231949431601 -0.074533368335879327 0 -0.39002829617667018 -0.099006697234722524 0 -0.39510370691593599 -0.098958215311000047 0 -0.39260231949431601 -0.074533368335879327 0 -0.40274583300482147 -0.094831984843681591 0 -0.39260231949431601 -0.074533368335879327 0 -0.39510370691593599 -0.098958215311000047 0 -0.40274583300482147 -0.094831984843681591 0 -0.40361170428446441 -0.083317353290434007 0 -0.39260231949431601 -0.074533368335879327 0 -0.40274583300482147 -0.094831984843681591 0 -0.40361170428446441 -0.083317353290434007 0 -0.39867569396630093 -0.073639632925658519 0 -0.40696916935602839 -0.074517235882718885 0 -0.39867569396630093 -0.073639632925658519 0 -0.40517181862379281 -0.066558370858305557 0 -0.40696916935602839 -0.074517235882718885 0 -0.39626447370361728 -0.06091275685647668 0 -0.39867569396630093 -0.073639632925658519 0 -0.40517181862379281 -0.066558370858305557 0 -0.39626447370361728 -0.06091275685647668 0 -0.39867569396630093 -0.073639632925658519 0 -0.39260231949431601 -0.074533368335879327 0 -0.40361170428446441 -0.083317353290434007 0 -0.39867569396630093 -0.073639632925658519 0 -0.39260231949431601 -0.074533368335879327 0 -0.39867569396630093 -0.073639632925658519 0 -0.39260231949431601 -0.074533368335879327 0 -0.37212838853434238 -0.11808059788504249 0 -0.38278168804071749 -0.12940228238898679 0 -0.39044023874876249 -0.11757149150947201 0 -0.37367929427193591 -0.1014825750548952 0 -0.37212838853434238 -0.11808059788504249 0 -0.39044023874876249 -0.11757149150947201 0 -0.37367929427193591 -0.1014825750548952 0 -0.39044023874876249 -0.11757149150947201 0 -0.39002829617667018 -0.099006697234722524 0 -0.39510370691593599 -0.098958215311000047 0 -0.40274583300482147 -0.094831984843681591 0 -0.41288934651532883 -0.11513060135148299 0 -0.39002829617667018 -0.099006697234722524 0 -0.39510370691593599 -0.098958215311000047 0 -0.41122993917504558 -0.1199812866788818 0 -0.39510370691593599 -0.098958215311000047 0 -0.41288934651532883 -0.11513060135148299 0 -0.39647179587780151 -0.13189450107720049 0 -0.39044023874876249 -0.11757149150947201 0 -0.41122993917504558 -0.1199812866788818 0 -0.39002829617667018 -0.099006697234722524 0 -0.41122993917504558 -0.1199812866788818 0 -0.39044023874876249 -0.11757149150947201 0 -0.39002829617667018 -0.099006697234722524 0 -0.41122993917504558 -0.1199812866788818 0 -0.39510370691593599 -0.098958215311000047 0 -0.41122993917504558 -0.1199812866788818 0 -0.41288934651532883 -0.11513060135148299 0 -0.41930562378398423 -0.12797048681614909 0 -0.41122993917504558 -0.1199812866788818 0 -0.4149348530849476 -0.1169905694289516 0 -0.41930562378398423 -0.12797048681614909 0 -0.41122993917504558 -0.1199812866788818 0 -0.41930562378398423 -0.12797048681614909 0 -0.4149348530849476 -0.1169905694289516 0 -0.41122993917504558 -0.1199812866788818 0 -0.41288934651532883 -0.11513060135148299 0 -0.4149348530849476 -0.1169905694289516 0 -0.41122993917504558 -0.1199812866788818 0 -0.4149348530849476 -0.1169905694289516 0 -0.41288934651532883 -0.11513060135148299 0 -0.4149348530849476 -0.1169905694289516 0 -0.41288934651532883 -0.11513060135148299 0 -0.4149348530849476 -0.1169905694289516 0 -0.41458672172207622 -0.10427776634057311 0 -0.40274583300482147 -0.094831984843681591 0 -0.41288934651532883 -0.11513060135148299 0 -0.4149348530849476 -0.1169905694289516 0 -0.41458672172207622 -0.10427776634057311 0 -0.43059848591229039 -0.1043464168163742 0 -0.40274583300482147 -0.094831984843681591 0 -0.41288934651532883 -0.11513060135148299 0 -0.41458672172207622 -0.10427776634057311 0 -0.41458672172207622 -0.10427776634057311 0 -0.41348552386521947 -0.090840815536544176 0 -0.43025813067654672 -0.08737754853092726 0 -0.40274583300482147 -0.094831984843681591 0 -0.41458672172207622 -0.10427776634057311 0 -0.41348552386521947 -0.090840815536544176 0 -0.43059848591229039 -0.1043464168163742 0 -0.43025813067654672 -0.08737754853092726 0 -0.44626211873963212 -0.091702264203795431 0 -0.41458672172207622 -0.10427776634057311 0 -0.43059848591229039 -0.1043464168163742 0 -0.43025813067654672 -0.08737754853092726 0 -0.41458672172207622 -0.10427776634057311 0 -0.43025813067654672 -0.08737754853092726 0 -0.4149348530849476 -0.1169905694289516 0 -0.43059848591229039 -0.1043464168163742 0 -0.43160182387889101 -0.1187955019330571 0 -0.4149348530849476 -0.1169905694289516 0 -0.43059848591229039 -0.1043464168163742 0 -0.43389101300267191 -0.13422730327376839 0 -0.4149348530849476 -0.1169905694289516 0 -0.43160182387889101 -0.1187955019330571 0 -0.43059848591229039 -0.1043464168163742 0 -0.43160182387889101 -0.1187955019330571 0 -0.44003429013576911 -0.11331979272890801 0 -0.43160182387889101 -0.1187955019330571 0 -0.44085253015216358 -0.1237950587173612 0 -0.44003429013576911 -0.11331979272890801 0 -0.41422906440869389 -0.068128229862373102 0 -0.41539885585273961 -0.080089681603359497 0 -0.42594434486026628 -0.073522222089585226 0 -0.4246600563061857 -0.059067830999859447 0 -0.41422906440869389 -0.068128229862373102 0 -0.42594434486026628 -0.073522222089585226 0 -0.41005136228565903 -0.05540387285823338 0 -0.40517181862379281 -0.066558370858305557 0 -0.41422906440869389 -0.068128229862373102 0 -0.40517181862379281 -0.066558370858305557 0 -0.41422906440869389 -0.068128229862373102 0 -0.40696916935602839 -0.074517235882718885 0 -0.41422906440869389 -0.068128229862373102 0 -0.40696916935602839 -0.074517235882718885 0 -0.41539885585273961 -0.080089681603359497 0 -0.41348552386521947 -0.090840815536544176 0 -0.41539885585273961 -0.080089681603359497 0 -0.43025813067654672 -0.08737754853092726 0 -0.40361170428446441 -0.083317353290434007 0 -0.41348552386521947 -0.090840815536544176 0 -0.41539885585273961 -0.080089681603359497 0 -0.40361170428446441 -0.083317353290434007 0 -0.40696916935602839 -0.074517235882718885 0 -0.41539885585273961 -0.080089681603359497 0 -0.40361170428446441 -0.083317353290434007 0 -0.40274583300482147 -0.094831984843681591 0 -0.41348552386521947 -0.090840815536544176 0 -0.41539885585273961 -0.080089681603359497 0 -0.43025813067654672 -0.08737754853092726 0 -0.42594434486026628 -0.073522222089585226 0 -0.4246600563061857 -0.059067830999859447 0 -0.44592953963101739 -0.07047733072128165 0 -0.43025813067654672 -0.08737754853092726 0 -0.42594434486026628 -0.073522222089585226 0 -0.44592953963101739 -0.07047733072128165 0 -0.4246600563061857 -0.059067830999859447 0 -0.42594434486026628 -0.073522222089585226 0 -0.44592953963101739 -0.07047733072128165 0 -0.44592953963101739 -0.07047733072128165 0 -0.45893666683642192 -0.056450303318209168 0 -0.44592953963101739 -0.07047733072128165 0 -0.44626211873963212 -0.091702264203795431 0 -0.46192575156697407 -0.079058111591217034 0 -0.43025813067654672 -0.08737754853092726 0 -0.44592953963101739 -0.07047733072128165 0 -0.43025813067654672 -0.08737754853092726 0 -0.44592953963101739 -0.07047733072128165 0 -0.44626211873963212 -0.091702264203795431 0 -0.44626211873963212 -0.091702264203795431 0 -0.46631049206888459 -0.091444160656324658 0 -0.46192575156697407 -0.079058111591217034 0 -0.44626211873963212 -0.091702264203795431 0 -0.46192575156697407 -0.079058111591217034 0 -0.46631049206888459 -0.091444160656324658 0 -0.46192575156697407 -0.079058111591217034 0 -0.47702460168979111 -0.087157524427869615 0 -0.44592953963101739 -0.07047733072128165 0 -0.46192575156697407 -0.079058111591217034 0 -0.45893666683642192 -0.056450303318209168 0 -0.46192575156697407 -0.079058111591217034 0 -0.47491389520024407 -0.068573693827893439 0 -0.45893666683642192 -0.056450303318209168 0 -0.46192575156697407 -0.079058111591217034 0 -0.47491389520024407 -0.068573693827893439 0 -0.44592953963101739 -0.07047733072128165 0 -0.46192575156697407 -0.079058111591217034 0 -0.45000974795797011 -0.119430952696417 0 -0.44085253015216358 -0.1237950587173612 0 -0.44003429013576911 -0.11331979272890801 0 -0.45000974795797011 -0.119430952696417 0 -0.44003429013576911 -0.11331979272890801 0 -0.44926481423485548 -0.10476542824413421 0 -0.43059848591229039 -0.1043464168163742 0 -0.44626211873963212 -0.091702264203795431 0 -0.43059848591229039 -0.1043464168163742 0 -0.44626211873963212 -0.091702264203795431 0 -0.44926481423485548 -0.10476542824413421 0 -0.43059848591229039 -0.1043464168163742 0 -0.44003429013576911 -0.11331979272890801 0 -0.44926481423485548 -0.10476542824413421 0 -0.44626211873963212 -0.091702264203795431 0 -0.44926481423485548 -0.10476542824413421 0 -0.46153012095291662 -0.1019472767233552 0 -0.44626211873963212 -0.091702264203795431 0 -0.46631049206888459 -0.091444160656324658 0 -0.46153012095291662 -0.1019472767233552 0 -0.46631049206888459 -0.091444160656324658 0 -0.46153012095291662 -0.1019472767233552 0 -0.4710589232177344 -0.098453604121520433 0 -0.46153012095291662 -0.1019472767233552 0 -0.46221413283232399 -0.11366089481890911 0 -0.47430793409480421 -0.10627177682285049 0 -0.44926481423485548 -0.10476542824413421 0 -0.46153012095291662 -0.1019472767233552 0 -0.46221413283232399 -0.11366089481890911 0 -0.45896755277767909 -0.12575633132281341 0 -0.46221413283232399 -0.11366089481890911 0 -0.47750202174635031 -0.1215216316744509 0 -0.45000974795797011 -0.119430952696417 0 -0.44926481423485548 -0.10476542824413421 0 -0.46221413283232399 -0.11366089481890911 0 -0.45896755277767909 -0.12575633132281341 0 -0.45000974795797011 -0.119430952696417 0 -0.46221413283232399 -0.11366089481890911 0 -0.47750202174635031 -0.1215216316744509 0 -0.47430793409480421 -0.10627177682285049 0 -0.48673501487359588 -0.1010237797652184 0 -0.46221413283232399 -0.11366089481890911 0 -0.47750202174635031 -0.1215216316744509 0 -0.47430793409480421 -0.10627177682285049 0 -0.47430793409480421 -0.10627177682285049 0 -0.47745372589702628 -0.099742000537211661 0 -0.48673501487359588 -0.1010237797652184 0 -0.46153012095291662 -0.1019472767233552 0 -0.47430793409480421 -0.10627177682285049 0 -0.4710589232177344 -0.098453604121520433 0 -0.46631049206888459 -0.091444160656324658 0 -0.4710589232177344 -0.098453604121520433 0 -0.47771303140197108 -0.093218841439257433 0 -0.47430793409480421 -0.10627177682285049 0 -0.4710589232177344 -0.098453604121520433 0 -0.47745372589702628 -0.099742000537211661 0 -0.4710589232177344 -0.098453604121520433 0 -0.47745372589702628 -0.099742000537211661 0 -0.47771303140197108 -0.093218841439257433 0 -0.47745372589702628 -0.099742000537211661 0 -0.48673501487359588 -0.1010237797652184 0 -0.47771303140197108 -0.093218841439257433 0 -0.48673501487359588 -0.1010237797652184 0 -0.47771303140197108 -0.093218841439257433 0 -0.47702460168979111 -0.087157524427869615 0 -0.47750202174635031 -0.1215216316744509 0 -0.48673501487359588 -0.1010237797652184 0 -0.4986179579264654 -0.1020768288792674 0 -0.48673501487359588 -0.1010237797652184 0 -0.49842317329231273 -0.098636270432611556 0 -0.47702460168979111 -0.087157524427869615 0 -0.48673501487359588 -0.1010237797652184 0 -0.49842317329231273 -0.098636270432611556 0 -0.4986179579264654 -0.1020768288792674 0 -0.49999999999999939 -0.099482120969144883 0 -0.49842317329231273 -0.098636270432611556 0 -0.4986179579264654 -0.1020768288792674 0 -0.49842317329231273 -0.098636270432611556 0 -0.4986179579264654 -0.1020768288792674 0 -0.49999999999999939 -0.099482120969144883 0 -0.49842317329231273 -0.098636270432611556 0 -0.50000000000000011 -0.12648838757554831 0 -0.47750202174635031 -0.1215216316744509 0 -0.4986179579264654 -0.1020768288792674 0 -0.47750202174635031 -0.1215216316744509 0 -0.4986179579264654 -0.1020768288792674 0 -0.47491389520024407 -0.068573693827893439 0 -0.47702460168979111 -0.087157524427869615 0 -0.4847984782487687 -0.075944598732494498 0 -0.47491389520024407 -0.068573693827893439 0 -0.47702460168979111 -0.087157524427869615 0 -0.47967839073812912 -0.064727650616396362 0 -0.4847984782487687 -0.075944598732494498 0 -0.48794163871831331 -0.064119883023254248 0 -0.47967839073812912 -0.064727650616396362 0 -0.47491389520024407 -0.068573693827893439 0 -0.4847984782487687 -0.075944598732494498 0 -0.47967839073812912 -0.064727650616396362 0 -0.47491389520024407 -0.068573693827893439 0 -0.46192575156697407 -0.079058111591217034 0 -0.47702460168979111 -0.087157524427869615 0 -0.46192575156697407 -0.079058111591217034 0 -0.47491389520024407 -0.068573693827893439 0 -0.47702460168979111 -0.087157524427869615 0 -0.46631049206888459 -0.091444160656324658 0 -0.47771303140197108 -0.093218841439257433 0 -0.47702460168979111 -0.087157524427869615 0 -0.47771303140197108 -0.093218841439257433 0 -0.47702460168979111 -0.087157524427869615 0 -0.49842317329231273 -0.098636270432611556 0 -0.49712708577170861 -0.075742961183477536 0 -0.4847984782487687 -0.075944598732494498 0 -0.49999999999999939 -0.099482120969144883 0 -0.49842317329231273 -0.098636270432611556 0 -0.5 -0.078030389970551228 0 -0.49842317329231273 -0.098636270432611556 0 -0.49712708577170861 -0.075742961183477536 0 -0.49842317329231273 -0.098636270432611556 0 -0.5 -0.078030389970551228 0 -0.49712708577170861 -0.075742961183477536 0 -0.49842317329231273 -0.098636270432611556 0 -0.47702460168979111 -0.087157524427869615 0 -0.4847984782487687 -0.075944598732494498 0 -0.49842317329231273 -0.098636270432611556 0 -0.47702460168979111 -0.087157524427869615 0 -0.5 -0.078030389970551228 0 -0.49712708577170861 -0.075742961183477536 0 -0.49999999999999928 -0.056578658971957581 0 -0.49712708577170861 -0.075742961183477536 0 -0.49583099825110311 -0.052849651934343489 0 -0.49712708577170861 -0.075742961183477536 0 -0.48794163871831331 -0.064119883023254248 0 -0.49583099825110311 -0.052849651934343489 0 -0.49712708577170861 -0.075742961183477536 0 -0.4847984782487687 -0.075944598732494498 0 -0.48794163871831331 -0.064119883023254248 0 -0.49712708577170861 -0.075742961183477536 0 -0.49999999999999928 -0.056578658971957581 0 -0.49583099825110311 -0.052849651934343489 0 -0.49583099825110311 -0.052849651934343489 0 -0.47748890114140963 -0.036443372127734748 0 -0.48227324058185622 -0.051334552649559453 0 -0.49999999999999928 -0.056578658971957581 0 -0.49583099825110311 -0.052849651934343489 0 -0.49999999999999928 -0.056578658971957581 0 -0.50000000000000144 -0.053559852644015388 0 -0.49583099825110311 -0.052849651934343489 0 -0.48794163871831331 -0.064119883023254248 0 -0.49583099825110311 -0.052849651934343489 0 -0.48227324058185622 -0.051334552649559453 0 -0.50000000000000144 -0.053559852644015388 0 -0.49583099825110311 -0.052849651934343489 0 -0.48598145264485831 -0.02728491224803695 0 -0.49583099825110311 -0.052849651934343489 0 -0.47748890114140963 -0.036443372127734748 0 -0.48598145264485831 -0.02728491224803695 0 -0.50000000000000144 -0.053559852644015388 0 -0.48598145264485831 -0.02728491224803695 0 -0.50000000000000144 -0.053559852644015388 0 -0.48598145264485831 -0.02728491224803695 0 -0.5 -0.025161366008633609 0 -0.49583099825110311 -0.052849651934343489 0 -0.47748890114140963 -0.036443372127734748 0 -0.47748890114140963 -0.036443372127734748 0 -0.48598145264485831 -0.02728491224803695 0 -0.47748890114140963 -0.036443372127734748 0 -0.47194379404182718 -0.042423275915137587 0 -0.48227324058185622 -0.051334552649559453 0 -0.47748890114140963 -0.036443372127734748 0 -0.47194379404182718 -0.042423275915137587 0 -0.47748890114140963 -0.036443372127734748 0 -0.47194379404182718 -0.042423275915137587 0 -0.47056077858213702 -0.03024644074295027 0 -0.47194379404182718 -0.042423275915137587 0 -0.46539503278239303 -0.037082973767017267 0 -0.47056077858213702 -0.03024644074295027 0 -0.47194379404182718 -0.042423275915137587 0 -0.47056077858213702 -0.03024644074295027 0 -0.47748890114140963 -0.036443372127734748 0 -0.47056077858213702 -0.03024644074295027 0 -0.47748890114140963 -0.036443372127734748 0 -0.47056077858213702 -0.03024644074295027 0 -0.47745882259212458 -0.028728106929589409 0 -0.47967839073812912 -0.064727650616396362 0 -0.47491389520024407 -0.068573693827893439 0 -0.47194379404182718 -0.042423275915137587 0 -0.47967839073812912 -0.064727650616396362 0 -0.47194379404182718 -0.042423275915137587 0 -0.48227324058185622 -0.051334552649559453 0 -0.47491389520024407 -0.068573693827893439 0 -0.47194379404182718 -0.042423275915137587 0 -0.47967839073812912 -0.064727650616396362 0 -0.48794163871831331 -0.064119883023254248 0 -0.48227324058185622 -0.051334552649559453 0 -0.47491389520024407 -0.068573693827893439 0 -0.47194379404182718 -0.042423275915137587 0 -0.45893666683642192 -0.056450303318209168 0 -0.45893666683642192 -0.056450303318209168 0 -0.45743491846808387 -0.04563500224908737 0 -0.44544580640037118 -0.056213229689383748 0 -0.47194379404182718 -0.042423275915137587 0 -0.45893666683642192 -0.056450303318209168 0 -0.45743491846808387 -0.04563500224908737 0 -0.47194379404182718 -0.042423275915137587 0 -0.45893666683642192 -0.056450303318209168 0 -0.46539503278239303 -0.037082973767017267 0 -0.44890774518284438 -0.02927164544362729 0 -0.46539503278239303 -0.037082973767017267 0 -0.45215967652477718 -0.036640332234541717 0 -0.44890774518284438 -0.02927164544362729 0 -0.46539503278239303 -0.037082973767017267 0 -0.44890774518284438 -0.02927164544362729 0 -0.46189821575704781 -0.02986243911986371 0 -0.47194379404182718 -0.042423275915137587 0 -0.46539503278239303 -0.037082973767017267 0 -0.45743491846808387 -0.04563500224908737 0 -0.46539503278239303 -0.037082973767017267 0 -0.46189821575704781 -0.02986243911986371 0 -0.47056077858213702 -0.03024644074295027 0 -0.46539503278239303 -0.037082973767017267 0 -0.45743491846808387 -0.04563500224908737 0 -0.45215967652477718 -0.036640332234541717 0 -0.42981912379901888 -0.030443092666165631 0 -0.45215967652477718 -0.036640332234541717 0 -0.45743491846808387 -0.04563500224908737 0 -0.45215967652477718 -0.036640332234541717 0 -0.43957367317472601 -0.045089571971719818 0 -0.42981912379901888 -0.030443092666165631 0 -0.45215967652477718 -0.036640332234541717 0 -0.43957367317472601 -0.045089571971719818 0 -0.45743491846808387 -0.04563500224908737 0 -0.43957367317472601 -0.045089571971719818 0 -0.44544580640037118 -0.056213229689383748 0 -0.4246600563061857 -0.059067830999859447 0 -0.44592953963101739 -0.07047733072128165 0 -0.44544580640037118 -0.056213229689383748 0 -0.44592953963101739 -0.07047733072128165 0 -0.45893666683642192 -0.056450303318209168 0 -0.44544580640037118 -0.056213229689383748 0 -0.4441818909265971 -0.00998157505946092 0 -0.45588653083934588 0.00041698580085632909 0 -0.44737850259376799 0.0077656591989471307 0 -0.4441818909265971 -0.00998157505946092 0 -0.4570262928383732 -0.018140378997512391 0 -0.45633913854906122 -0.0094275687658610888 0 -0.4441818909265971 -0.00998157505946092 0 -0.45633913854906122 -0.0094275687658610888 0 -0.45588653083934588 0.00041698580085632909 0 -0.43741768347029059 -0.01288367903972009 0 -0.4441818909265971 -0.00998157505946092 0 -0.44890774518284438 -0.02927164544362729 0 -0.42981912379901888 -0.030443092666165631 0 -0.45215967652477718 -0.036640332234541717 0 -0.4392085005598273 -0.024676348383282701 0 -0.4441818909265971 -0.00998157505946092 0 -0.44890774518284438 -0.02927164544362729 0 -0.46258273328813732 -0.023158067004484729 0 -0.43741768347029059 -0.01288367903972009 0 -0.44890774518284438 -0.02927164544362729 0 -0.43741768347029059 -0.01288367903972009 0 -0.4392085005598273 -0.024676348383282701 0 -0.44890774518284438 -0.02927164544362729 0 -0.4392085005598273 -0.024676348383282701 0 -0.44890774518284438 -0.02927164544362729 0 -0.45215967652477718 -0.036640332234541717 0 -0.4392085005598273 -0.024676348383282701 0 -0.44890774518284438 -0.02927164544362729 0 -0.4441818909265971 -0.00998157505946092 0 -0.46258273328813732 -0.023158067004484729 0 -0.46258273328813732 -0.023158067004484729 0 -0.46826183959192841 -0.01000530680732737 0 -0.47056077858213702 -0.03024644074295027 0 -0.4441818909265971 -0.00998157505946092 0 -0.4570262928383732 -0.018140378997512391 0 -0.46258273328813732 -0.023158067004484729 0 -0.4570262928383732 -0.018140378997512391 0 -0.46258273328813732 -0.023158067004484729 0 -0.44890774518284438 -0.02927164544362729 0 -0.46189821575704781 -0.02986243911986371 0 -0.46258273328813732 -0.023158067004484729 0 -0.46258273328813732 -0.023158067004484729 0 -0.47056077858213702 -0.03024644074295027 0 -0.46189821575704781 -0.02986243911986371 0 -0.46258273328813732 -0.023158067004484729 0 -0.47056077858213702 -0.03024644074295027 0 -0.4570262928383732 -0.018140378997512391 0 -0.46258273328813732 -0.023158067004484729 0 -0.46826183959192841 -0.01000530680732737 0 -0.4570262928383732 -0.018140378997512391 0 -0.46826183959192841 -0.01000530680732737 0 -0.45633913854906122 -0.0094275687658610888 0 -0.46826183959192841 -0.01000530680732737 0 -0.45633913854906122 -0.0094275687658610888 0 -0.45588653083934588 0.00041698580085632909 0 -0.46826183959192841 -0.01000530680732737 0 -0.47597217662329228 -0.0085245425598697612 0 -0.4659629006017233 0.010235827128295859 0 -0.46826183959192841 -0.01000530680732737 0 -0.47597217662329228 -0.0085245425598697612 0 -0.47580415800009379 -0.02093770259963601 0 -0.47597217662329228 -0.0085245425598697612 0 -0.48922725890134677 -0.010453537226696331 0 -0.48082517856277007 0.001845263919603602 0 -0.47597217662329228 -0.0085245425598697612 0 -0.47580415800009379 -0.02093770259963601 0 -0.48598145264485831 -0.02728491224803695 0 -0.47597217662329228 -0.0085245425598697612 0 -0.48598145264485831 -0.02728491224803695 0 -0.46826183959192841 -0.01000530680732737 0 -0.47056077858213702 -0.03024644074295027 0 -0.47580415800009379 -0.02093770259963601 0 -0.47597217662329228 -0.0085245425598697612 0 -0.48598145264485831 -0.02728491224803695 0 -0.4893389393206713 -0.02366416211133009 0 -0.46826183959192841 -0.01000530680732737 0 -0.47056077858213702 -0.03024644074295027 0 -0.47056077858213702 -0.03024644074295027 0 -0.47580415800009379 -0.02093770259963601 0 -0.47745882259212458 -0.028728106929589409 0 -0.47580415800009379 -0.02093770259963601 0 -0.47745882259212458 -0.028728106929589409 0 -0.48598145264485831 -0.02728491224803695 0 -0.47748890114140963 -0.036443372127734748 0 -0.47745882259212458 -0.028728106929589409 0 -0.48598145264485831 -0.02728491224803695 0 -0.48598145264485831 -0.02728491224803695 0 -0.4893389393206713 -0.02366416211133009 0 -0.5 -0.025161366008633609 0 -0.48598145264485831 -0.02728491224803695 0 -0.4893389393206713 -0.02366416211133009 0 -0.4893389393206713 -0.02366416211133009 0 -0.5 -0.025161366008633609 0 -0.48922725890134677 -0.010453537226696331 0 -0.48922725890134677 -0.010453537226696331 0 -0.5 0.0032371206267481911 0 -0.48082517856277007 0.001845263919603602 0 -0.5 -0.025161366008633609 0 -0.48922725890134677 -0.010453537226696331 0 -0.5 0.0032371206267481911 0 -0.47597217662329228 -0.0085245425598697612 0 -0.4893389393206713 -0.02366416211133009 0 -0.48922725890134677 -0.010453537226696331 0 -0.5 0.0032371206267481911 0 -0.48596576445654982 0.01457961489688041 0 -0.48082517856277007 0.001845263919603602 0 -0.48596576445654982 0.01457961489688041 0 -0.47541999506787802 0.025418180444172121 0 -0.5 0.031635607262129987 0 -0.5 0.0032371206267481911 0 -0.48596576445654982 0.01457961489688041 0 -0.5 0.031635607262129987 0 -0.48596576445654982 0.01457961489688041 0 -0.47541999506787802 0.025418180444172121 0 -0.47401658579892991 0.013489912392399149 0 -0.47541999506787802 0.025418180444172121 0 -0.46963945276383978 0.01793989872667965 0 -0.47401658579892991 0.013489912392399149 0 -0.47597217662329228 -0.0085245425598697612 0 -0.48082517856277007 0.001845263919603602 0 -0.4659629006017233 0.010235827128295859 0 -0.47401658579892991 0.013489912392399149 0 -0.48082517856277007 0.001845263919603602 0 -0.4659629006017233 0.010235827128295859 0 -0.46963945276383978 0.01793989872667965 0 -0.47401658579892991 0.013489912392399149 0 -0.4659629006017233 0.010235827128295859 0 -0.47597217662329228 -0.0085245425598697612 0 -0.4659629006017233 0.010235827128295859 0 -0.48596576445654982 0.01457961489688041 0 -0.47401658579892991 0.013489912392399149 0 -0.48082517856277007 0.001845263919603602 0 -0.5 0.060034093897511798 0 -0.47816362815030861 0.043832779932641487 0 -0.48068047186290208 0.063626500276227002 0 -0.47541999506787802 0.025418180444172121 0 -0.5 0.031635607262129987 0 -0.47816362815030861 0.043832779932641487 0 -0.5 0.060034093897511798 0 -0.5 0.031635607262129987 0 -0.47816362815030861 0.043832779932641487 0 -0.47541999506787802 0.025418180444172121 0 -0.47816362815030861 0.043832779932641487 0 -0.46442391639916691 0.036471327701905212 0 -0.47816362815030861 0.043832779932641487 0 -0.46119618507356652 0.049359273152949731 0 -0.48068047186290208 0.063626500276227002 0 -0.46119618507356652 0.049359273152949731 0 -0.46103932749027238 0.064238871702306077 0 -0.48068047186290208 0.063626500276227002 0 -0.46119618507356652 0.049359273152949731 0 -0.44286953411296898 0.045255716157198693 0 -0.46103932749027238 0.064238871702306077 0 -0.47816362815030861 0.043832779932641487 0 -0.46119618507356652 0.049359273152949731 0 -0.46442391639916691 0.036471327701905212 0 -0.46119618507356652 0.049359273152949731 0 -0.46442391639916691 0.036471327701905212 0 -0.45082509298125129 0.038608595210277222 0 -0.46442391639916691 0.036471327701905212 0 -0.45082509298125129 0.038608595210277222 0 -0.4583939967914884 0.024422211169287101 0 -0.45082509298125129 0.038608595210277222 0 -0.4583939967914884 0.024422211169287101 0 -0.46119618507356652 0.049359273152949731 0 -0.45082509298125129 0.038608595210277222 0 -0.44286953411296898 0.045255716157198693 0 -0.45082509298125129 0.038608595210277222 0 -0.4405409619944019 0.035432846457562263 0 -0.4458839614772655 0.023387518650519249 0 -0.45082509298125129 0.038608595210277222 0 -0.4405409619944019 0.035432846457562263 0 -0.44286953411296898 0.045255716157198693 0 -0.4405409619944019 0.035432846457562263 0 -0.44286953411296898 0.045255716157198693 0 -0.43229092530358848 0.04451632412921195 0 -0.44286953411296898 0.045255716157198693 0 -0.44282721760043869 0.062046251170956107 0 -0.46103932749027238 0.064238871702306077 0 -0.44286953411296898 0.045255716157198693 0 -0.44282721760043869 0.062046251170956107 0 -0.43188097302969042 0.056955122555226501 0 -0.44286953411296898 0.045255716157198693 0 -0.46103932749027238 0.064238871702306077 0 -0.46826183959192841 -0.01000530680732737 0 -0.45588653083934588 0.00041698580085632909 0 -0.4659629006017233 0.010235827128295859 0 -0.46826183959192841 -0.01000530680732737 0 -0.4659629006017233 0.010235827128295859 0 -0.45609316173783881 0.014082317838893479 0 -0.45588653083934588 0.00041698580085632909 0 -0.4659629006017233 0.010235827128295859 0 -0.46963945276383978 0.01793989872667965 0 -0.4659629006017233 0.010235827128295859 0 -0.4583939967914884 0.024422211169287101 0 -0.4659629006017233 0.010235827128295859 0 -0.4583939967914884 0.024422211169287101 0 -0.47541999506787802 0.025418180444172121 0 -0.46963945276383978 0.01793989872667965 0 -0.4583939967914884 0.024422211169287101 0 -0.47541999506787802 0.025418180444172121 0 -0.46442391639916691 0.036471327701905212 0 -0.4583939967914884 0.024422211169287101 0 -0.45609316173783881 0.014082317838893479 0 -0.4659629006017233 0.010235827128295859 0 -0.4583939967914884 0.024422211169287101 0 -0.45609316173783881 0.014082317838893479 0 -0.4583939967914884 0.024422211169287101 0 -0.4458839614772655 0.023387518650519249 0 -0.45082509298125129 0.038608595210277222 0 -0.4583939967914884 0.024422211169287101 0 -0.4458839614772655 0.023387518650519249 0 -0.4405409619944019 0.035432846457562263 0 -0.4458839614772655 0.023387518650519249 0 -0.43566193494816191 0.02574822372494872 0 -0.4458839614772655 0.023387518650519249 0 -0.4359559447540089 0.01018896392150693 0 -0.43566193494816191 0.02574822372494872 0 -0.4441818909265971 -0.00998157505946092 0 -0.44737850259376799 0.0077656591989471307 0 -0.4359559447540089 0.01018896392150693 0 -0.4458839614772655 0.023387518650519249 0 -0.44737850259376799 0.0077656591989471307 0 -0.4359559447540089 0.01018896392150693 0 -0.45609316173783881 0.014082317838893479 0 -0.4458839614772655 0.023387518650519249 0 -0.44737850259376799 0.0077656591989471307 0 -0.45609316173783881 0.014082317838893479 0 -0.45588653083934588 0.00041698580085632909 0 -0.44737850259376799 0.0077656591989471307 0 -0.4441818909265971 -0.00998157505946092 0 -0.4359559447540089 0.01018896392150693 0 -0.42578104856505677 0.0031949168855625672 0 -0.42578104856505677 0.0031949168855625672 0 -0.41622595309658328 0.016397403714119251 0 -0.42870406893849561 0.019163111370922251 0 -0.4359559447540089 0.01018896392150693 0 -0.42578104856505677 0.0031949168855625672 0 -0.42870406893849561 0.019163111370922251 0 -0.41753789792717189 -0.0038843189997757009 0 -0.42578104856505677 0.0031949168855625672 0 -0.41105156913745711 0.0034129409419674369 0 -0.42578104856505677 0.0031949168855625672 0 -0.40852807671777941 0.0155494406680463 0 -0.41622595309658328 0.016397403714119251 0 -0.42578104856505677 0.0031949168855625672 0 -0.40852807671777941 0.0155494406680463 0 -0.41105156913745711 0.0034129409419674369 0 -0.42578104856505677 0.0031949168855625672 0 -0.40852807671777941 0.0155494406680463 0 -0.42578104856505677 0.0031949168855625672 0 -0.41622595309658328 0.016397403714119251 0 -0.40852807671777941 0.0155494406680463 0 -0.41105156913745711 0.0034129409419674369 0 -0.40262572535869262 0.0089097845909437267 0 -0.40771050441737638 -0.0035262849216432719 0 -0.41105156913745711 0.0034129409419674369 0 -0.40226596945639398 0.0014711925349297271 0 -0.40667085762811028 0.029599890542676258 0 -0.41622595309658328 0.016397403714119251 0 -0.42870406893849561 0.019163111370922251 0 -0.40667085762811028 0.029599890542676258 0 -0.42870406893849561 0.019163111370922251 0 -0.40667085762811028 0.029599890542676258 0 -0.41990433555607742 0.03061685230769556 0 -0.42870406893849561 0.019163111370922251 0 -0.40852807671777941 0.0155494406680463 0 -0.40667085762811028 0.029599890542676258 0 -0.41622595309658328 0.016397403714119251 0 -0.40667085762811028 0.029599890542676258 0 -0.41622595309658328 0.016397403714119251 0 -0.41990433555607742 0.03061685230769556 0 -0.4284463216954002 0.029357354603554459 0 -0.42870406893849561 0.019163111370922251 0 -0.4359559447540089 0.01018896392150693 0 -0.42870406893849561 0.019163111370922251 0 -0.43566193494816191 0.02574822372494872 0 -0.4284463216954002 0.029357354603554459 0 -0.42870406893849561 0.019163111370922251 0 -0.43566193494816191 0.02574822372494872 0 -0.4284463216954002 0.029357354603554459 0 -0.43566193494816191 0.02574822372494872 0 -0.43264023121812112 0.033917661463996759 0 -0.4405409619944019 0.035432846457562263 0 -0.43264023121812112 0.033917661463996759 0 -0.43229092530358848 0.04451632412921195 0 -0.43264023121812112 0.033917661463996759 0 -0.43229092530358848 0.04451632412921195 0 -0.42532103781614489 0.037340924150209003 0 -0.4405409619944019 0.035432846457562263 0 -0.43566193494816191 0.02574822372494872 0 -0.43264023121812112 0.033917661463996759 0 -0.43229092530358848 0.04451632412921195 0 -0.42532103781614489 0.037340924150209003 0 -0.42042490988599091 0.046091327469671317 0 -0.4284463216954002 0.029357354603554459 0 -0.43264023121812112 0.033917661463996759 0 -0.42532103781614489 0.037340924150209003 0 -0.41990433555607742 0.03061685230769556 0 -0.4284463216954002 0.029357354603554459 0 -0.42532103781614489 0.037340924150209003 0 -0.43229092530358848 0.04451632412921195 0 -0.43188097302969042 0.056955122555226501 0 -0.42585725303016408 0.051510102087770737 0 -0.44286953411296898 0.045255716157198693 0 -0.43229092530358848 0.04451632412921195 0 -0.43188097302969042 0.056955122555226501 0 -0.43229092530358848 0.04451632412921195 0 -0.42585725303016408 0.051510102087770737 0 -0.42042490988599091 0.046091327469671317 0 -0.43188097302969042 0.056955122555226501 0 -0.41883220390138681 0.058477634196973202 0 -0.43131469147834472 0.070632617455275076 0 -0.43188097302969042 0.056955122555226501 0 -0.42585725303016408 0.051510102087770737 0 -0.41883220390138681 0.058477634196973202 0 -0.41883220390138681 0.058477634196973202 0 -0.40840220717331749 0.048304634434869917 0 -0.39985653820026013 0.060860810446949978 0 -0.42585725303016408 0.051510102087770737 0 -0.41883220390138681 0.058477634196973202 0 -0.42042490988599091 0.046091327469671317 0 -0.41883220390138681 0.058477634196973202 0 -0.40840220717331749 0.048304634434869917 0 -0.42042490988599091 0.046091327469671317 0 -0.41990433555607742 0.03061685230769556 0 -0.42532103781614489 0.037340924150209003 0 -0.4122967326089878 0.037821593301397609 0 -0.42532103781614489 0.037340924150209003 0 -0.42042490988599091 0.046091327469671317 0 -0.4122967326089878 0.037821593301397609 0 -0.40840220717331749 0.048304634434869917 0 -0.4122967326089878 0.037821593301397609 0 -0.40579981868685489 0.041495006097714962 0 -0.40840220717331749 0.048304634434869917 0 -0.42042490988599091 0.046091327469671317 0 -0.4122967326089878 0.037821593301397609 0 -0.4122967326089878 0.037821593301397609 0 -0.40278544391907911 0.034968452634622761 0 -0.40579981868685489 0.041495006097714962 0 -0.40667085762811028 0.029599890542676258 0 -0.4122967326089878 0.037821593301397609 0 -0.40278544391907911 0.034968452634622761 0 -0.40667085762811028 0.029599890542676258 0 -0.41990433555607742 0.03061685230769556 0 -0.4122967326089878 0.037821593301397609 0 -0.40667085762811028 0.029599890542676258 0 -0.40278544391907911 0.034968452634622761 0 -0.40667085762811028 0.029599890542676258 0 -0.38856614517843069 0.038175802748282091 0 -0.40667085762811028 0.029599890542676258 0 -0.38856614517843069 0.038175802748282091 0 -0.39127510487050182 0.027903964450529759 0 -0.40667085762811028 0.029599890542676258 0 -0.40278544391907911 0.034968452634622761 0 -0.38856614517843069 0.038175802748282091 0 -0.40278544391907911 0.034968452634622761 0 -0.40579981868685489 0.041495006097714962 0 -0.3977250587697031 0.045015474274426849 0 -0.40840220717331749 0.048304634434869917 0 -0.40579981868685489 0.041495006097714962 0 -0.3977250587697031 0.045015474274426849 0 -0.40278544391907911 0.034968452634622761 0 -0.3977250587697031 0.045015474274426849 0 -0.38856614517843069 0.038175802748282091 0 -0.40840220717331749 0.048304634434869917 0 -0.3977250587697031 0.045015474274426849 0 -0.39985653820026013 0.060860810446949978 0 -0.3977250587697031 0.045015474274426849 0 -0.39985653820026013 0.060860810446949978 0 -0.38472691017257071 0.052921849058569698 0 -0.39985653820026013 0.060860810446949978 0 -0.38472691017257071 0.052921849058569698 0 -0.38510762700538009 0.066428587654483159 0 -0.38472691017257071 0.052921849058569698 0 -0.37046143272875132 0.04675171495388801 0 -0.37000681959492809 0.05831264468359916 0 -0.38472691017257071 0.052921849058569698 0 -0.38510762700538009 0.066428587654483159 0 -0.37000681959492809 0.05831264468359916 0 -0.38856614517843069 0.038175802748282091 0 -0.37871402691879819 0.03757115751491092 0 -0.37046143272875132 0.04675171495388801 0 -0.38856614517843069 0.038175802748282091 0 -0.37046143272875132 0.04675171495388801 0 -0.38472691017257071 0.052921849058569698 0 -0.38856614517843069 0.038175802748282091 0 -0.37046143272875132 0.04675171495388801 0 -0.38856614517843069 0.038175802748282091 0 -0.38315308642314733 0.033917821982192238 0 -0.39127510487050182 0.027903964450529759 0 -0.38856614517843069 0.038175802748282091 0 -0.38315308642314733 0.033917821982192238 0 -0.37871402691879819 0.03757115751491092 0 -0.3977250587697031 0.045015474274426849 0 -0.38472691017257071 0.052921849058569698 0 -0.38856614517843069 0.038175802748282091 0 -0.37871402691879819 0.03757115751491092 0 -0.3764786745208083 0.032098692741998169 0 -0.37046143272875132 0.04675171495388801 0 -0.38315308642314733 0.033917821982192238 0 -0.3764786745208083 0.032098692741998169 0 -0.38155727091044611 0.028316364585127811 0 -0.38315308642314733 0.033917821982192238 0 -0.37871402691879819 0.03757115751491092 0 -0.3764786745208083 0.032098692741998169 0 -0.3764786745208083 0.032098692741998169 0 -0.38155727091044611 0.028316364585127811 0 -0.37960108001976323 0.022263106047543741 0 -0.37960108001976323 0.022263106047543741 0 -0.37998819155715241 0.0057865511937031933 0 -0.37123175334181557 0.027162262264614271 0 -0.3764786745208083 0.032098692741998169 0 -0.37960108001976323 0.022263106047543741 0 -0.37123175334181557 0.027162262264614271 0 -0.38155727091044611 0.028316364585127811 0 -0.38533699425949169 0.022674384769296389 0 -0.37960108001976323 0.022263106047543741 0 -0.38155727091044611 0.028316364585127811 0 -0.38533699425949169 0.022674384769296389 0 -0.39127510487050182 0.027903964450529759 0 -0.38315308642314733 0.033917821982192238 0 -0.38155727091044611 0.028316364585127811 0 -0.39127510487050182 0.027903964450529759 0 -0.39054146691731162 0.018060194648231769 0 -0.38533699425949169 0.022674384769296389 0 -0.39127510487050182 0.027903964450529759 0 -0.38533699425949169 0.022674384769296389 0 -0.3837100485794358 0.01682829411504885 0 -0.37960108001976323 0.022263106047543741 0 -0.39054146691731162 0.018060194648231769 0 -0.38533699425949169 0.022674384769296389 0 -0.3837100485794358 0.01682829411504885 0 -0.3837100485794358 0.01682829411504885 0 -0.37960108001976323 0.022263106047543741 0 -0.37998819155715241 0.0057865511937031933 0 -0.37998819155715241 0.0057865511937031933 0 -0.38683543611469601 0.0001369023841863784 0 -0.36064890389212972 0.0125435277679194 0 -0.37998819155715241 0.0057865511937031933 0 -0.38683543611469601 0.0001369023841863784 0 -0.38901012294298121 0.0062908016400105649 0 -0.38683543611469601 0.0001369023841863784 0 -0.38901012294298121 0.0062908016400105649 0 -0.39501457079486157 0.0055715078560810288 0 -0.37998819155715241 0.0057865511937031933 0 -0.38901012294298121 0.0062908016400105649 0 -0.38744744785130802 0.01185902438546781 0 -0.3837100485794358 0.01682829411504885 0 -0.37998819155715241 0.0057865511937031933 0 -0.38744744785130802 0.01185902438546781 0 -0.38901012294298121 0.0062908016400105649 0 -0.38744744785130802 0.01185902438546781 0 -0.39422738021243581 0.01127211946813913 0 -0.39054146691731162 0.018060194648231769 0 -0.3837100485794358 0.01682829411504885 0 -0.38744744785130802 0.01185902438546781 0 -0.39054146691731162 0.018060194648231769 0 -0.39422738021243581 0.01127211946813913 0 -0.39743955081534421 0.016339100765178138 0 -0.39054146691731162 0.018060194648231769 0 -0.38744744785130802 0.01185902438546781 0 -0.39422738021243581 0.01127211946813913 0 -0.39422738021243581 0.01127211946813913 0 -0.39501457079486157 0.0055715078560810288 0 -0.40262572535869262 0.0089097845909437267 0 -0.39422738021243581 0.01127211946813913 0 -0.40262572535869262 0.0089097845909437267 0 -0.39743955081534421 0.016339100765178138 0 -0.38683543611469601 0.0001369023841863784 0 -0.39501457079486157 0.0055715078560810288 0 -0.40226596945639398 0.0014711925349297271 0 -0.38901012294298121 0.0062908016400105649 0 -0.39422738021243581 0.01127211946813913 0 -0.39501457079486157 0.0055715078560810288 0 -0.41105156913745711 0.0034129409419674369 0 -0.40226596945639398 0.0014711925349297271 0 -0.40262572535869262 0.0089097845909437267 0 -0.39501457079486157 0.0055715078560810288 0 -0.40226596945639398 0.0014711925349297271 0 -0.40262572535869262 0.0089097845909437267 0 -0.40852807671777941 0.0155494406680463 0 -0.40262572535869262 0.0089097845909437267 0 -0.39743955081534421 0.016339100765178138 0 -0.40852807671777941 0.0155494406680463 0 -0.39127510487050182 0.027903964450529759 0 -0.40852807671777941 0.0155494406680463 0 -0.40667085762811028 0.029599890542676258 0 -0.39127510487050182 0.027903964450529759 0 -0.40852807671777941 0.0155494406680463 0 -0.39127510487050182 0.027903964450529759 0 -0.39743955081534421 0.016339100765178138 0 -0.39054146691731162 0.018060194648231769 0 -0.39127510487050182 0.027903964450529759 0 -0.39743955081534421 0.016339100765178138 0 -0.39792088922733271 0.1160922105611595 0 -0.40104213778508202 0.092866093853817611 0 -0.41467909406405851 0.1139188519362445 0 -0.39792088922733271 0.1160922105611595 0 -0.3782625711058698 0.101617738696854 0 -0.40104213778508202 0.092866093853817611 0 -0.3782625711058698 0.101617738696854 0 -0.38372255811484618 0.13025780258704611 0 -0.3782625711058698 0.101617738696854 0 -0.38372255811484618 0.13025780258704611 0 -0.36747352968705388 0.12273486311700831 0 -0.39792088922733271 0.1160922105611595 0 -0.3782625711058698 0.101617738696854 0 -0.38372255811484618 0.13025780258704611 0 -0.39792088922733271 0.1160922105611595 0 -0.3782625711058698 0.101617738696854 0 -0.3782625711058698 0.101617738696854 0 -0.40104213778508202 0.092866093853817611 0 -0.37470600383380392 0.082961959162170973 0 -0.39520328107527708 0.075997639864115257 0 -0.40104213778508202 0.092866093853817611 0 -0.37470600383380392 0.082961959162170973 0 -0.3782625711058698 0.101617738696854 0 -0.37470600383380392 0.082961959162170973 0 -0.40104213778508202 0.092866093853817611 0 -0.37470600383380392 0.082961959162170973 0 -0.38510762700538009 0.066428587654483159 0 -0.37000681959492809 0.05831264468359916 0 -0.37470600383380392 0.082961959162170973 0 -0.38510762700538009 0.066428587654483159 0 -0.39520328107527708 0.075997639864115257 0 -0.37470600383380392 0.082961959162170973 0 -0.39985653820026013 0.060860810446949978 0 -0.39520328107527708 0.075997639864115257 0 -0.41322693425173768 0.074694678089132868 0 -0.39985653820026013 0.060860810446949978 0 -0.38510762700538009 0.066428587654483159 0 -0.39520328107527708 0.075997639864115257 0 -0.39520328107527708 0.075997639864115257 0 -0.40104213778508202 0.092866093853817611 0 -0.41322693425173768 0.074694678089132868 0 -0.40104213778508202 0.092866093853817611 0 -0.41322693425173768 0.074694678089132868 0 -0.42957324029363853 0.085693113452461764 0 -0.41883220390138681 0.058477634196973202 0 -0.41322693425173768 0.074694678089132868 0 -0.43131469147834472 0.070632617455275076 0 -0.41883220390138681 0.058477634196973202 0 -0.39985653820026013 0.060860810446949978 0 -0.41322693425173768 0.074694678089132868 0 -0.43131469147834472 0.070632617455275076 0 -0.42957324029363853 0.085693113452461764 0 -0.4470315618909167 0.073148927984774167 0 -0.41322693425173768 0.074694678089132868 0 -0.43131469147834472 0.070632617455275076 0 -0.42957324029363853 0.085693113452461764 0 -0.44282721760043869 0.062046251170956107 0 -0.43188097302969042 0.056955122555226501 0 -0.43131469147834472 0.070632617455275076 0 -0.42957324029363853 0.085693113452461764 0 -0.42737827173636012 0.1027702285454639 0 -0.44343173260412461 0.097571970950778963 0 -0.40104213778508202 0.092866093853817611 0 -0.42737827173636012 0.1027702285454639 0 -0.41467909406405851 0.1139188519362445 0 -0.40104213778508202 0.092866093853817611 0 -0.42737827173636012 0.1027702285454639 0 -0.40104213778508202 0.092866093853817611 0 -0.42957324029363853 0.085693113452461764 0 -0.42737827173636012 0.1027702285454639 0 -0.39792088922733271 0.1160922105611595 0 -0.41467909406405851 0.1139188519362445 0 -0.417579207348795 0.13056668242546571 0 -0.39792088922733271 0.1160922105611595 0 -0.417579207348795 0.13056668242546571 0 -0.41467909406405851 0.1139188519362445 0 -0.42608096723388439 0.1205091241492761 0 -0.417579207348795 0.13056668242546571 0 -0.42737827173636012 0.1027702285454639 0 -0.41467909406405851 0.1139188519362445 0 -0.42608096723388439 0.1205091241492761 0 -0.42737827173636012 0.1027702285454639 0 -0.42608096723388439 0.1205091241492761 0 -0.43826405507869293 0.1195835460605416 0 -0.42608096723388439 0.1205091241492761 0 -0.43826405507869293 0.1195835460605416 0 -0.43293323699752101 0.1317554923945817 0 -0.43826405507869293 0.1195835460605416 0 -0.45371440568763749 0.1126743632371118 0 -0.44901593584904892 0.12912088192892021 0 -0.42737827173636012 0.1027702285454639 0 -0.43826405507869293 0.1195835460605416 0 -0.45371440568763749 0.1126743632371118 0 -0.4523882543875366 0.10983005993361 0 -0.45371440568763749 0.1126743632371118 0 -0.42737827173636012 0.1027702285454639 0 -0.4523882543875366 0.10983005993361 0 -0.44343173260412461 0.097571970950778963 0 -0.42737827173636012 0.1027702285454639 0 -0.4523882543875366 0.10983005993361 0 -0.45371440568763749 0.1126743632371118 0 -0.42737827173636012 0.1027702285454639 0 -0.45371440568763749 0.1126743632371118 0 -0.44343173260412461 0.097571970950778963 0 -0.45084974973894648 0.096020795281878568 0 -0.45306155814551219 0.1028275296158008 0 -0.44343173260412461 0.097571970950778963 0 -0.45084974973894648 0.096020795281878568 0 -0.44733932132275389 0.088290098875458828 0 -0.4523882543875366 0.10983005993361 0 -0.44343173260412461 0.097571970950778963 0 -0.45306155814551219 0.1028275296158008 0 -0.4523882543875366 0.10983005993361 0 -0.45306155814551219 0.1028275296158008 0 -0.45661100561120399 0.109540819014999 0 -0.45306155814551219 0.1028275296158008 0 -0.46084618436187341 0.10490351706993729 0 -0.45661100561120399 0.109540819014999 0 -0.45306155814551219 0.1028275296158008 0 -0.46084618436187341 0.10490351706993729 0 -0.45799439118323759 0.099220837031069903 0 -0.46084618436187341 0.10490351706993729 0 -0.4635407771028337 0.1124237257980706 0 -0.45661100561120399 0.109540819014999 0 -0.45799439118323759 0.099220837031069903 0 -0.46723244863383712 0.097971273043108306 0 -0.45594156200913483 0.091684632610025046 0 -0.45084974973894648 0.096020795281878568 0 -0.45799439118323759 0.099220837031069903 0 -0.45594156200913483 0.091684632610025046 0 -0.45084974973894648 0.096020795281878568 0 -0.45306155814551219 0.1028275296158008 0 -0.45799439118323759 0.099220837031069903 0 -0.46084618436187341 0.10490351706993729 0 -0.45799439118323759 0.099220837031069903 0 -0.46723244863383712 0.097971273043108306 0 -0.46084618436187341 0.10490351706993729 0 -0.46723244863383712 0.097971273043108306 0 -0.46686982756835349 0.1074114054382402 0 -0.46084618436187341 0.10490351706993729 0 -0.46686982756835349 0.1074114054382402 0 -0.4635407771028337 0.1124237257980706 0 -0.45371440568763749 0.1126743632371118 0 -0.46425598871103851 0.13528374379222011 0 -0.4635407771028337 0.1124237257980706 0 -0.45674497769142258 0.1138140594952527 0 -0.46958882025875243 0.12035793204680111 0 -0.46686982756835349 0.1074114054382402 0 -0.4635407771028337 0.1124237257980706 0 -0.47044075898603932 0.11380610730348489 0 -0.4635407771028337 0.1124237257980706 0 -0.46958882025875243 0.12035793204680111 0 -0.47044075898603932 0.11380610730348489 0 -0.45674497769142258 0.1138140594952527 0 -0.45371440568763749 0.1126743632371118 0 -0.46425598871103851 0.13528374379222011 0 -0.45674497769142258 0.1138140594952527 0 -0.46958882025875243 0.12035793204680111 0 -0.46425598871103851 0.13528374379222011 0 -0.4523882543875366 0.10983005993361 0 -0.45661100561120399 0.109540819014999 0 -0.45371440568763749 0.1126743632371118 0 -0.45674497769142258 0.1138140594952527 0 -0.45661100561120399 0.109540819014999 0 -0.45371440568763749 0.1126743632371118 0 -0.45674497769142258 0.1138140594952527 0 -0.45371440568763749 0.1126743632371118 0 -0.4635407771028337 0.1124237257980706 0 -0.45674497769142258 0.1138140594952527 0 -0.45661100561120399 0.109540819014999 0 -0.44282721760043869 0.062046251170956107 0 -0.4470315618909167 0.073148927984774167 0 -0.46103932749027238 0.064238871702306077 0 -0.44282721760043869 0.062046251170956107 0 -0.43131469147834472 0.070632617455275076 0 -0.4470315618909167 0.073148927984774167 0 -0.42957324029363853 0.085693113452461764 0 -0.44343173260412461 0.097571970950778963 0 -0.44733932132275389 0.088290098875458828 0 -0.42957324029363853 0.085693113452461764 0 -0.4470315618909167 0.073148927984774167 0 -0.44733932132275389 0.088290098875458828 0 -0.4470315618909167 0.073148927984774167 0 -0.44733932132275389 0.088290098875458828 0 -0.46047789149500767 0.082617330138573752 0 -0.45084974973894648 0.096020795281878568 0 -0.44733932132275389 0.088290098875458828 0 -0.45594156200913483 0.091684632610025046 0 -0.44733932132275389 0.088290098875458828 0 -0.45594156200913483 0.091684632610025046 0 -0.46047789149500767 0.082617330138573752 0 -0.46723244863383712 0.097971273043108306 0 -0.45594156200913483 0.091684632610025046 0 -0.46047789149500767 0.082617330138573752 0 -0.46047789149500767 0.082617330138573752 0 -0.46103932749027238 0.064238871702306077 0 -0.47920912086757578 0.083222027247413538 0 -0.4470315618909167 0.073148927984774167 0 -0.46047789149500767 0.082617330138573752 0 -0.46103932749027238 0.064238871702306077 0 -0.46103932749027238 0.064238871702306077 0 -0.48068047186290208 0.063626500276227002 0 -0.47920912086757578 0.083222027247413538 0 -0.46103932749027238 0.064238871702306077 0 -0.47920912086757578 0.083222027247413538 0 -0.46723244863383712 0.097971273043108306 0 -0.46047789149500767 0.082617330138573752 0 -0.47920912086757578 0.083222027247413538 0 -0.48068047186290208 0.063626500276227002 0 -0.47920912086757578 0.083222027247413538 0 -0.5 0.088432580532893601 0 -0.47920912086757578 0.083222027247413538 0 -0.49737891424487929 0.102205182792521 0 -0.47920912086757578 0.083222027247413538 0 -0.5 0.088432580532893601 0 -0.49737891424487929 0.102205182792521 0 -0.5 0.060034093897511798 0 -0.48068047186290208 0.063626500276227002 0 -0.5 0.088432580532893601 0 -0.47827810320487629 0.116675775998883 0 -0.48837893466537508 0.1117690854599766 0 -0.4842723158563047 0.1301441798928954 0 -0.47827810320487629 0.116675775998883 0 -0.47512549980118862 0.10796659812409699 0 -0.48837893466537508 0.1117690854599766 0 -0.47827810320487629 0.116675775998883 0 -0.46958882025875243 0.12035793204680111 0 -0.4842723158563047 0.1301441798928954 0 -0.47827810320487629 0.116675775998883 0 -0.47044075898603932 0.11380610730348489 0 -0.47512549980118862 0.10796659812409699 0 -0.46686982756835349 0.1074114054382402 0 -0.47044075898603932 0.11380610730348489 0 -0.47512549980118862 0.10796659812409699 0 -0.47827810320487629 0.116675775998883 0 -0.46958882025875243 0.12035793204680111 0 -0.47044075898603932 0.11380610730348489 0 -0.46723244863383712 0.097971273043108306 0 -0.47512549980118862 0.10796659812409699 0 -0.48162445158666772 0.1005823670901454 0 -0.46723244863383712 0.097971273043108306 0 -0.47920912086757578 0.083222027247413538 0 -0.48162445158666772 0.1005823670901454 0 -0.46723244863383712 0.097971273043108306 0 -0.46686982756835349 0.1074114054382402 0 -0.47512549980118862 0.10796659812409699 0 -0.47512549980118862 0.10796659812409699 0 -0.48162445158666772 0.1005823670901454 0 -0.48837893466537508 0.1117690854599766 0 -0.48162445158666772 0.1005823670901454 0 -0.49737891424487929 0.102205182792521 0 -0.48837893466537508 0.1117690854599766 0 -0.47920912086757578 0.083222027247413538 0 -0.48162445158666772 0.1005823670901454 0 -0.49737891424487929 0.102205182792521 0 -0.5 0.088432580532893601 0 -0.49737891424487929 0.102205182792521 0 -0.5 0.1168310671682755 0 -0.49737891424487929 0.102205182792521 0 -0.5 0.1168310671682755 0 -0.48837893466537508 0.1117690854599766 0 -0.5 0.1168310671682755 0 -0.48837893466537508 0.1117690854599766 0 -0.4842723158563047 0.1301441798928954 0 -0.5 0.1168310671682755 0 -0.4842723158563047 0.1301441798928954 0 -0.5 0.14522955380365729 0 -0.46958882025875243 0.12035793204680111 0 -0.4842723158563047 0.1301441798928954 0 -0.46425598871103851 0.13528374379222011 0 -0.4842723158563047 0.1301441798928954 0 -0.47479757173443998 0.15789312434732811 0 -0.46425598871103851 0.13528374379222011 0 -0.47479757173443998 0.15789312434732811 0 -0.46425598871103851 0.13528374379222011 0 -0.4842723158563047 0.1301441798928954 0 -0.5 0.14522955380365729 0 -0.47479757173443998 0.15789312434732811 0 -0.5 0.14522955380365729 0 -0.49999999999999972 0.17362804043903909 0 -0.47479757173443998 0.15789312434732811 0 -0.49999999999999972 0.17362804043903909 0 -0.47479757173443998 0.15789312434732811 0 -0.49999999999999972 0.17362804043903909 0 -0.49200992699072321 0.1743962810239672 0 -0.47479757173443998 0.15789312434732811 0 -0.48341269367675271 0.17637066895233999 0 -0.49170634683837577 0.1941587336203292 0 -0.49368671912131301 0.1828531969182482 0 -0.49999999999999972 0.17362804043903909 0 -0.5 0.19278741936367841 0 -0.49368671912131301 0.1828531969182482 0 -0.48341269367675271 0.17637066895233999 0 -0.49170634683837577 0.1941587336203292 0 -0.49368671912131301 0.1828531969182482 0 -0.49999999999999972 0.17362804043903909 0 -0.49200992699072321 0.1743962810239672 0 -0.49200992699072321 0.1743962810239672 0 -0.48341269367675271 0.17637066895233999 0 -0.49368671912131301 0.1828531969182482 0 -0.49200992699072321 0.1743962810239672 0 -0.48341269367675271 0.17637066895233999 0 -0.48341269367675271 0.17637066895233999 0 -0.45591042926964898 0.18268667049205081 0 -0.47274380268756999 0.19288508587190861 0 -0.48341269367675271 0.17637066895233999 0 -0.45591042926964898 0.18268667049205081 0 -0.49200992699072321 0.1743962810239672 0 -0.48341269367675271 0.17637066895233999 0 -0.47479757173443998 0.15789312434732811 0 -0.48341269367675271 0.17637066895233999 0 -0.47479757173443998 0.15789312434732811 0 -0.48341269367675271 0.17637066895233999 0 -0.47479757173443998 0.15789312434732811 0 -0.45723956394668003 0.16387676974864759 0 -0.48341269367675271 0.17637066895233999 0 -0.45723956394668003 0.16387676974864759 0 -0.45591042926964898 0.18268667049205081 0 -0.45591042926964898 0.18268667049205081 0 -0.43992511097516529 0.17411109905454999 0 -0.4284081648625454 0.1890026720317621 0 -0.45591042926964898 0.18268667049205081 0 -0.4284081648625454 0.1890026720317621 0 -0.45723956394668003 0.16387676974864759 0 -0.45591042926964898 0.18268667049205081 0 -0.43992511097516529 0.17411109905454999 0 -0.45723956394668003 0.16387676974864759 0 -0.43992511097516529 0.17411109905454999 0 -0.43892522612619872 0.15930650560997939 0 -0.43892522612619872 0.15930650560997939 0 -0.43796764784210812 0.14528805014891141 0 -0.45386540436598038 0.14482430837095511 0 -0.45723956394668003 0.16387676974864759 0 -0.43892522612619872 0.15930650560997939 0 -0.45386540436598038 0.14482430837095511 0 -0.45386540436598038 0.14482430837095511 0 -0.43293323699752101 0.1317554923945817 0 -0.43826405507869293 0.1195835460605416 0 -0.44901593584904892 0.12912088192892021 0 -0.43293323699752101 0.1317554923945817 0 -0.43796764784210812 0.14528805014891141 0 -0.45386540436598038 0.14482430837095511 0 -0.43293323699752101 0.1317554923945817 0 -0.44901593584904892 0.12912088192892021 0 -0.45386540436598038 0.14482430837095511 0 -0.43293323699752101 0.1317554923945817 0 -0.45371440568763749 0.1126743632371118 0 -0.44901593584904892 0.12912088192892021 0 -0.46425598871103851 0.13528374379222011 0 -0.44901593584904892 0.12912088192892021 0 -0.46425598871103851 0.13528374379222011 0 -0.45386540436598038 0.14482430837095511 0 -0.47479757173443998 0.15789312434732811 0 -0.45723956394668003 0.16387676974864759 0 -0.45386540436598038 0.14482430837095511 0 -0.47479757173443998 0.15789312434732811 0 -0.46425598871103851 0.13528374379222011 0 -0.45386540436598038 0.14482430837095511 0 -0.47479757173443998 0.15789312434732811 0 -0.45386540436598038 0.14482430837095511 0 -0.48226153920099157 0.23766317590200001 0 -0.47864167104372218 0.246590621409366 0 -0.48932095354102823 0.25454658797793611 0 -0.47315400564016008 0.2364435414805684 0 -0.47864167104372218 0.246590621409366 0 -0.46938038244821267 0.25133041049185839 0 -0.47315400564016008 0.2364435414805684 0 -0.48226153920099157 0.23766317590200001 0 -0.47864167104372218 0.246590621409366 0 -0.49106398183666961 0.22759324404760359 0 -0.48932095354102823 0.25454658797793611 0 -0.5 0.23810140997737081 0 -0.49106398183666961 0.22759324404760359 0 -0.48932095354102823 0.25454658797793611 0 -0.48226153920099157 0.23766317590200001 0 -0.49106398183666961 0.22759324404760359 0 -0.48932095354102823 0.25454658797793611 0 -0.5 0.23810140997737081 0 -0.49106398183666961 0.22759324404760359 0 -0.50000000000000022 0.21194679828831781 0 -0.49106398183666961 0.22759324404760359 0 -0.47912708394337772 0.2231418845945258 0 -0.48726644121087642 0.21298690825741631 0 -0.48226153920099157 0.23766317590200001 0 -0.49106398183666961 0.22759324404760359 0 -0.47912708394337772 0.2231418845945258 0 -0.47315400564016008 0.2364435414805684 0 -0.48226153920099157 0.23766317590200001 0 -0.47912708394337772 0.2231418845945258 0 -0.47315400564016008 0.2364435414805684 0 -0.47912708394337772 0.2231418845945258 0 -0.46764368341616458 0.22415830119077751 0 -0.47912708394337772 0.2231418845945258 0 -0.47360767850491831 0.20951316246361981 0 -0.46764368341616458 0.22415830119077751 0 -0.47360767850491831 0.20951316246361981 0 -0.48726644121087642 0.21298690825741631 0 -0.49170634683837577 0.1941587336203292 0 -0.47912708394337772 0.2231418845945258 0 -0.47360767850491831 0.20951316246361981 0 -0.48726644121087642 0.21298690825741631 0 -0.49106398183666961 0.22759324404760359 0 -0.50000000000000022 0.21194679828831781 0 -0.48726644121087642 0.21298690825741631 0 -0.50000000000000022 0.21194679828831781 0 -0.48726644121087642 0.21298690825741631 0 -0.49170634683837577 0.1941587336203292 0 -0.50000000000000022 0.21194679828831781 0 -0.49170634683837577 0.1941587336203292 0 -0.50000000000000022 0.21194679828831781 0 -0.5 0.19278741936367841 0 -0.49170634683837577 0.1941587336203292 0 -0.49368671912131301 0.1828531969182482 0 -0.5 0.19278741936367841 0 -0.49170634683837577 0.1941587336203292 0 -0.48341269367675271 0.17637066895233999 0 -0.49170634683837577 0.1941587336203292 0 -0.47274380268756999 0.19288508587190861 0 -0.47360767850491831 0.20951316246361981 0 -0.49170634683837577 0.1941587336203292 0 -0.47274380268756999 0.19288508587190861 0 -0.47360767850491831 0.20951316246361981 0 -0.47274380268756999 0.19288508587190861 0 -0.45820261548712909 0.20353130823034371 0 -0.45591042926964898 0.18268667049205081 0 -0.47274380268756999 0.19288508587190861 0 -0.45820261548712909 0.20353130823034371 0 -0.45591042926964898 0.18268667049205081 0 -0.43516662619925378 0.20614333559983469 0 -0.4284081648625454 0.1890026720317621 0 -0.45591042926964898 0.18268667049205081 0 -0.45820261548712909 0.20353130823034371 0 -0.43516662619925378 0.20614333559983469 0 -0.44192508753596349 0.22328399916790689 0 -0.43516662619925378 0.20614333559983469 0 -0.45032248765871591 0.2151961798839368 0 -0.44192508753596349 0.22328399916790689 0 -0.43516662619925378 0.20614333559983469 0 -0.45032248765871591 0.2151961798839368 0 -0.45820261548712909 0.20353130823034371 0 -0.43516662619925378 0.20614333559983469 0 -0.45032248765871591 0.2151961798839368 0 -0.46109406183397039 0.21551848415653921 0 -0.45620465585954723 0.2251951411450015 0 -0.45032248765871591 0.2151961798839368 0 -0.45820261548712909 0.20353130823034371 0 -0.46109406183397039 0.21551848415653921 0 -0.47360767850491831 0.20951316246361981 0 -0.45820261548712909 0.20353130823034371 0 -0.46109406183397039 0.21551848415653921 0 -0.47360767850491831 0.20951316246361981 0 -0.46109406183397039 0.21551848415653921 0 -0.46764368341616458 0.22415830119077751 0 -0.47315400564016008 0.2364435414805684 0 -0.46764368341616458 0.22415830119077751 0 -0.45925329591452863 0.2407771106774913 0 -0.46764368341616458 0.22415830119077751 0 -0.45620465585954723 0.2251951411450015 0 -0.45925329591452863 0.2407771106774913 0 -0.46109406183397039 0.21551848415653921 0 -0.46764368341616458 0.22415830119077751 0 -0.45620465585954723 0.2251951411450015 0 -0.45032248765871591 0.2151961798839368 0 -0.45620465585954723 0.2251951411450015 0 -0.44192508753596349 0.22328399916790689 0 -0.44192508753596349 0.22328399916790689 0 -0.44062222049055039 0.24203477259657111 0 -0.43146145522804691 0.2313120115293863 0 -0.45620465585954723 0.2251951411450015 0 -0.44062222049055039 0.24203477259657111 0 -0.45620465585954723 0.2251951411450015 0 -0.44192508753596349 0.22328399916790689 0 -0.44062222049055039 0.24203477259657111 0 -0.44062222049055039 0.24203477259657111 0 -0.45046339488490522 0.249057113070103 0 -0.44442574262614493 0.25832327296872359 0 -0.44062222049055039 0.24203477259657111 0 -0.45046339488490522 0.249057113070103 0 -0.45925329591452863 0.2407771106774913 0 -0.45620465585954723 0.2251951411450015 0 -0.44062222049055039 0.24203477259657111 0 -0.45925329591452863 0.2407771106774913 0 -0.45046339488490522 0.249057113070103 0 -0.45925329591452863 0.2407771106774913 0 -0.45807104112411212 0.25534721177055669 0 -0.45925329591452863 0.2407771106774913 0 -0.46938038244821267 0.25133041049185839 0 -0.45807104112411212 0.25534721177055669 0 -0.47315400564016008 0.2364435414805684 0 -0.45925329591452863 0.2407771106774913 0 -0.46938038244821267 0.25133041049185839 0 -0.4198454647722451 0.23985190764030939 0 -0.40081965837488509 0.24074316727492401 0 -0.40585136056822319 0.25674789398696107 0 -0.4198454647722451 0.23985190764030939 0 -0.405480724964072 0.22581663549259839 0 -0.40081965837488509 0.24074316727492401 0 -0.44062222049055039 0.24203477259657111 0 -0.4198454647722451 0.23985190764030939 0 -0.42503978512155383 0.25887440404814072 0 -0.44062222049055039 0.24203477259657111 0 -0.4198454647722451 0.23985190764030939 0 -0.43146145522804691 0.2313120115293863 0 -0.4198454647722451 0.23985190764030939 0 -0.43146145522804691 0.2313120115293863 0 -0.42370673975344808 0.22056464269113771 0 -0.44192508753596349 0.22328399916790689 0 -0.43146145522804691 0.2313120115293863 0 -0.42370673975344808 0.22056464269113771 0 -0.4198454647722451 0.23985190764030939 0 -0.42370673975344808 0.22056464269113771 0 -0.405480724964072 0.22581663549259839 0 -0.42370673975344808 0.22056464269113771 0 -0.40708390191205951 0.20882890034131879 0 -0.405480724964072 0.22581663549259839 0 -0.42370673975344808 0.22056464269113771 0 -0.40708390191205951 0.20882890034131879 0 -0.42107335870595469 0.2022269477122331 0 -0.44192508753596349 0.22328399916790689 0 -0.42370673975344808 0.22056464269113771 0 -0.43516662619925378 0.20614333559983469 0 -0.42370673975344808 0.22056464269113771 0 -0.43516662619925378 0.20614333559983469 0 -0.42107335870595469 0.2022269477122331 0 -0.43516662619925378 0.20614333559983469 0 -0.4284081648625454 0.1890026720317621 0 -0.42107335870595469 0.2022269477122331 0 -0.43516662619925378 0.20614333559983469 0 -0.4284081648625454 0.1890026720317621 0 -0.4284081648625454 0.1890026720317621 0 -0.40915969581062839 0.19342315750049971 0 -0.4284081648625454 0.1890026720317621 0 -0.42107335870595469 0.2022269477122331 0 -0.40915969581062839 0.19342315750049971 0 -0.40708390191205951 0.20882890034131879 0 -0.42107335870595469 0.2022269477122331 0 -0.40915969581062839 0.19342315750049971 0 -0.40708390191205951 0.20882890034131879 0 -0.40915969581062839 0.19342315750049971 0 -0.38991122675871148 0.19784364296923759 0 -0.40915969581062839 0.19342315750049971 0 -0.38991122675871148 0.19784364296923759 0 -0.40915969581062839 0.19342315750049971 0 -0.38991122675871148 0.19784364296923759 0 -0.39569501158598158 0.17813944679546001 0 -0.39158905321283283 0.2136173787495643 0 -0.38435338999826391 0.22831720607051781 0 -0.36414166766971379 0.2074649771098355 0 -0.38991122675871148 0.19784364296923759 0 -0.39158905321283283 0.2136173787495643 0 -0.36414166766971379 0.2074649771098355 0 -0.40708390191205951 0.20882890034131879 0 -0.39158905321283283 0.2136173787495643 0 -0.405480724964072 0.22581663549259839 0 -0.40708390191205951 0.20882890034131879 0 -0.38991122675871148 0.19784364296923759 0 -0.39158905321283283 0.2136173787495643 0 -0.405480724964072 0.22581663549259839 0 -0.38435338999826391 0.22831720607051781 0 -0.40081965837488509 0.24074316727492401 0 -0.39158905321283283 0.2136173787495643 0 -0.405480724964072 0.22581663549259839 0 -0.38435338999826391 0.22831720607051781 0 -0.37619177155740557 0.24036243622333081 0 -0.38790582398472923 0.24962922847932231 0 -0.36318679658289171 0.25196182354824148 0 -0.38435338999826391 0.22831720607051781 0 -0.37619177155740557 0.24036243622333081 0 -0.38790582398472923 0.24962922847932231 0 -0.38435338999826391 0.22831720607051781 0 -0.38790582398472923 0.24962922847932231 0 -0.40081965837488509 0.24074316727492401 0 -0.38790582398472923 0.24962922847932231 0 -0.40081965837488509 0.24074316727492401 0 -0.40585136056822319 0.25674789398696107 0 -0.40926453963391513 0.14045102348790381 0 -0.42614672387873248 0.14526589422012931 0 -0.41883635224822963 0.16472684775983329 0 -0.40926453963391513 0.14045102348790381 0 -0.41883635224822963 0.16472684775983329 0 -0.40926453963391513 0.14045102348790381 0 -0.41883635224822963 0.16472684775983329 0 -0.40029434983296169 0.15790366282291429 0 -0.40926453963391513 0.14045102348790381 0 -0.417579207348795 0.13056668242546571 0 -0.40026410281127539 0.13237877311027449 0 -0.40926453963391513 0.14045102348790381 0 -0.417579207348795 0.13056668242546571 0 -0.42614672387873248 0.14526589422012931 0 -0.417579207348795 0.13056668242546571 0 -0.43293323699752101 0.1317554923945817 0 -0.42614672387873248 0.14526589422012931 0 -0.42608096723388439 0.1205091241492761 0 -0.417579207348795 0.13056668242546571 0 -0.43293323699752101 0.1317554923945817 0 -0.43796764784210812 0.14528805014891141 0 -0.43293323699752101 0.1317554923945817 0 -0.42614672387873248 0.14526589422012931 0 -0.43892522612619872 0.15930650560997939 0 -0.43796764784210812 0.14528805014891141 0 -0.42614672387873248 0.14526589422012931 0 -0.43892522612619872 0.15930650560997939 0 -0.42614672387873248 0.14526589422012931 0 -0.41883635224822963 0.16472684775983329 0 -0.43992511097516529 0.17411109905454999 0 -0.43892522612619872 0.15930650560997939 0 -0.41883635224822963 0.16472684775983329 0 -0.4284081648625454 0.1890026720317621 0 -0.41883635224822963 0.16472684775983329 0 -0.43992511097516529 0.17411109905454999 0 -0.4284081648625454 0.1890026720317621 0 -0.41883635224822963 0.16472684775983329 0 -0.40915969581062839 0.19342315750049971 0 -0.41883635224822963 0.16472684775983329 0 -0.39569501158598158 0.17813944679546001 0 -0.4284081648625454 0.1890026720317621 0 -0.40915969581062839 0.19342315750049971 0 -0.41883635224822963 0.16472684775983329 0 -0.40029434983296169 0.15790366282291429 0 -0.39569501158598158 0.17813944679546001 0 -0.38484252596519369 0.16167484958157691 0 -0.41883635224822963 0.16472684775983329 0 -0.40029434983296169 0.15790366282291429 0 -0.39569501158598158 0.17813944679546001 0 -0.39569501158598158 0.17813944679546001 0 -0.38484252596519369 0.16167484958157691 0 -0.36525228834216061 0.17922160577889321 0 -0.38991122675871148 0.19784364296923759 0 -0.39569501158598158 0.17813944679546001 0 -0.36525228834216061 0.17922160577889321 0 -0.39283331973148827 0.14452614648979731 0 -0.38372255811484618 0.13025780258704611 0 -0.36636290901460722 0.1509782344479508 0 -0.38484252596519369 0.16167484958157691 0 -0.39283331973148827 0.14452614648979731 0 -0.36636290901460722 0.1509782344479508 0 -0.40029434983296169 0.15790366282291429 0 -0.38484252596519369 0.16167484958157691 0 -0.39283331973148827 0.14452614648979731 0 -0.40926453963391513 0.14045102348790381 0 -0.40029434983296169 0.15790366282291429 0 -0.39283331973148827 0.14452614648979731 0 -0.39283331973148827 0.14452614648979731 0 -0.40026410281127539 0.13237877311027449 0 -0.38372255811484618 0.13025780258704611 0 -0.39792088922733271 0.1160922105611595 0 -0.417579207348795 0.13056668242546571 0 -0.40026410281127539 0.13237877311027449 0 -0.39792088922733271 0.1160922105611595 0 -0.40026410281127539 0.13237877311027449 0 -0.38372255811484618 0.13025780258704611 0 -0.40926453963391513 0.14045102348790381 0 -0.39283331973148827 0.14452614648979731 0 -0.40026410281127539 0.13237877311027449 0 -0.38372255811484618 0.13025780258704611 0 -0.36636290901460722 0.1509782344479508 0 -0.36747352968705388 0.12273486311700831 0 -0.36636290901460722 0.1509782344479508 0 -0.36747352968705388 0.12273486311700831 0 -0.35528769071996391 0.12689780186549679 0 -0.36636290901460722 0.1509782344479508 0 -0.36747352968705388 0.12273486311700831 0 -0.35528769071996391 0.12689780186549679 0 -0.33512599087492562 0.1447950320020088 0 -0.35528769071996391 0.12689780186549679 0 -0.35168351666373848 0.14314256241625531 0 -0.33512599087492562 0.1447950320020088 0 -0.35528769071996391 0.12689780186549679 0 -0.33512599087492562 0.1447950320020088 0 -0.34115039425197219 0.12498493974687711 0 -0.35528769071996391 0.12689780186549679 0 -0.35168351666373848 0.14314256241625531 0 -0.36636290901460722 0.1509782344479508 0 -0.35168351666373848 0.14314256241625531 0 -0.36636290901460722 0.1509782344479508 0 -0.34333519974196419 0.16612441953572921 0 -0.38484252596519369 0.16167484958157691 0 -0.36636290901460722 0.1509782344479508 0 -0.36525228834216061 0.17922160577889321 0 -0.36636290901460722 0.1509782344479508 0 -0.36525228834216061 0.17922160577889321 0 -0.36525228834216061 0.17922160577889321 0 -0.34333519974196419 0.16612441953572921 0 -0.34654591437965571 0.19533490523866279 0 -0.36636290901460722 0.1509782344479508 0 -0.36525228834216061 0.17922160577889321 0 -0.34333519974196419 0.16612441953572921 0 -0.34333519974196419 0.16612441953572921 0 -0.31496429102988749 0.16269226213852109 0 -0.33512599087492562 0.1447950320020088 0 -0.34333519974196419 0.16612441953572921 0 -0.34654591437965571 0.19533490523866279 0 -0.32412519241006588 0.1878495682783011 0 -0.31496429102988749 0.16269226213852109 0 -0.32412519241006588 0.1878495682783011 0 -0.34333519974196419 0.16612441953572921 0 -0.31496429102988749 0.16269226213852109 0 -0.32412519241006588 0.1878495682783011 0 -0.31303823693556859 0.17707572181323081 0 -0.31496429102988749 0.16269226213852109 0 -0.32412519241006588 0.1878495682783011 0 -0.31303823693556859 0.17707572181323081 0 -0.32412519241006588 0.1878495682783011 0 -0.3108046026399135 0.18379038091696129 0 -0.31496429102988749 0.16269226213852109 0 -0.31353256245119709 0.1587605055712967 0 -0.31354631638020197 0.13395604467094269 0 -0.33512599087492562 0.1447950320020088 0 -0.3122891553291075 0.14635758184588041 0 -0.31353256245119709 0.1587605055712967 0 -0.33512599087492562 0.1447950320020088 0 -0.3122891553291075 0.14635758184588041 0 -0.31496429102988749 0.16269226213852109 0 -0.31353256245119709 0.1587605055712967 0 -0.33512599087492562 0.1447950320020088 0 -0.31496429102988749 0.16269226213852109 0 -0.33512599087492562 0.1447950320020088 0 -0.31354631638020197 0.13395604467094269 0 -0.32917568526667751 0.12578156900391591 0 -0.33512599087492562 0.1447950320020088 0 -0.31354631638020197 0.13395604467094269 0 -0.32917568526667751 0.12578156900391591 0 -0.32114709127587232 0.11611322513389059 0 -0.32917568526667751 0.12578156900391591 0 -0.33512599087492562 0.1447950320020088 0 -0.34115039425197219 0.12498493974687711 0 -0.35168351666373848 0.14314256241625531 0 -0.34333519974196419 0.16612441953572921 0 -0.33512599087492562 0.1447950320020088 0 -0.36303104699726713 0.23570834844077809 0 -0.34244699517042121 0.23816418055786151 0 -0.36318679658289171 0.25196182354824148 0 -0.34244699517042121 0.23816418055786151 0 -0.36318679658289171 0.25196182354824148 0 -0.33952374355129727 0.25899057541505788 0 -0.37619177155740557 0.24036243622333081 0 -0.36303104699726713 0.23570834844077809 0 -0.36318679658289171 0.25196182354824148 0 -0.38435338999826391 0.22831720607051781 0 -0.37619177155740557 0.24036243622333081 0 -0.36303104699726713 0.23570834844077809 0 -0.38435338999826391 0.22831720607051781 0 -0.36303104699726713 0.23570834844077809 0 -0.36414166766971379 0.2074649771098355 0 -0.36303104699726713 0.23570834844077809 0 -0.36414166766971379 0.2074649771098355 0 -0.36303104699726713 0.23570834844077809 0 -0.35084793517488477 0.2210857468323085 0 -0.34244699517042121 0.23816418055786151 0 -0.36303104699726713 0.23570834844077809 0 -0.35084793517488477 0.2210857468323085 0 -0.36414166766971379 0.2074649771098355 0 -0.35084793517488477 0.2210857468323085 0 -0.36414166766971379 0.2074649771098355 0 -0.34654591437965571 0.19533490523866279 0 -0.36525228834216061 0.17922160577889321 0 -0.36414166766971379 0.2074649771098355 0 -0.38991122675871148 0.19784364296923759 0 -0.36525228834216061 0.17922160577889321 0 -0.36414166766971379 0.2074649771098355 0 -0.36525228834216061 0.17922160577889321 0 -0.36414166766971379 0.2074649771098355 0 -0.34654591437965571 0.19533490523866279 0 -0.32412519241006588 0.1878495682783011 0 -0.33328609379024349 0.2130068744180813 0 -0.34654591437965571 0.19533490523866279 0 -0.32412519241006588 0.1878495682783011 0 -0.33328609379024349 0.2130068744180813 0 -0.32412519241006588 0.1878495682783011 0 -0.33328609379024349 0.2130068744180813 0 -0.31080006153106382 0.20197173666100501 0 -0.32412519241006588 0.1878495682783011 0 -0.31080006153106382 0.20197173666100501 0 -0.3108046026399135 0.18379038091696129 0 -0.33328609379024349 0.2130068744180813 0 -0.31873218963182409 0.22654972870499029 0 -0.31080006153106382 0.20197173666100501 0 -0.35084793517488477 0.2210857468323085 0 -0.34654591437965571 0.19533490523866279 0 -0.33328609379024349 0.2130068744180813 0 -0.35084793517488477 0.2210857468323085 0 -0.33328609379024349 0.2130068744180813 0 -0.34244699517042121 0.23816418055786151 0 -0.33328609379024349 0.2130068744180813 0 -0.34244699517042121 0.23816418055786151 0 -0.33328609379024349 0.2130068744180813 0 -0.31873218963182409 0.22654972870499029 0 -0.34244699517042121 0.23816418055786151 0 -0.31873218963182409 0.22654972870499029 0 -0.32200613725511351 0.24850726385495631 0 -0.34244699517042121 0.23816418055786151 0 -0.31873218963182409 0.22654972870499029 0 -0.32200613725511351 0.24850726385495631 0 -0.30672251365844311 0.23743048015470111 0 -0.32200613725511351 0.24850726385495631 0 -0.34244699517042121 0.23816418055786151 0 -0.33952374355129727 0.25899057541505788 0 -0.29125564533142001 0.24067530578368901 0 -0.30672251365844311 0.23743048015470111 0 -0.30640548876467488 0.25787073169030861 0 -0.32200613725511351 0.24850726385495631 0 -0.30672251365844311 0.23743048015470111 0 -0.30640548876467488 0.25787073169030861 0 -0.29125564533142001 0.24067530578368901 0 -0.30672251365844311 0.23743048015470111 0 -0.29521310730918271 0.21354937073956171 0 -0.31873218963182409 0.22654972870499029 0 -0.30672251365844311 0.23743048015470111 0 -0.29521310730918271 0.21354937073956171 0 -0.29125564533142001 0.24067530578368901 0 -0.29521310730918271 0.21354937073956171 0 -0.29125564533142001 0.24067530578368901 0 -0.29521310730918271 0.21354937073956171 0 -0.27258595833473342 0.22149207507906341 0 -0.29521310730918271 0.21354937073956171 0 -0.28878760701375322 0.1984352968903606 0 -0.27490594785389072 0.20112241201531189 0 -0.31873218963182409 0.22654972870499029 0 -0.29521310730918271 0.21354937073956171 0 -0.31080006153106382 0.20197173666100501 0 -0.29521310730918271 0.21354937073956171 0 -0.29917056928694541 0.1864234356954344 0 -0.29521310730918271 0.21354937073956171 0 -0.31080006153106382 0.20197173666100501 0 -0.29917056928694541 0.1864234356954344 0 -0.31080006153106382 0.20197173666100501 0 -0.3108046026399135 0.18379038091696129 0 -0.29917056928694541 0.1864234356954344 0 -0.28878760701375322 0.1984352968903606 0 -0.29917056928694541 0.1864234356954344 0 -0.28955343229492791 0.1852490896997587 0 -0.29521310730918271 0.21354937073956171 0 -0.28878760701375322 0.1984352968903606 0 -0.29917056928694541 0.1864234356954344 0 -0.28878760701375322 0.1984352968903606 0 -0.27938784373491388 0.18917199981814359 0 -0.28955343229492791 0.1852490896997587 0 -0.27938784373491388 0.18917199981814359 0 -0.27490594785389072 0.20112241201531189 0 -0.26439180367967152 0.18225540552070321 0 -0.28878760701375322 0.1984352968903606 0 -0.27938784373491388 0.18917199981814359 0 -0.27490594785389072 0.20112241201531189 0 -0.27490594785389072 0.20112241201531189 0 -0.25370102580463139 0.2052288024824625 0 -0.26439180367967152 0.18225540552070321 0 -0.25370102580463139 0.2052288024824625 0 -0.26439180367967152 0.18225540552070321 0 -0.23359887481107691 0.1809086922627815 0 -0.27490594785389072 0.20112241201531189 0 -0.25370102580463139 0.2052288024824625 0 -0.27258595833473342 0.22149207507906341 0 -0.29521310730918271 0.21354937073956171 0 -0.27490594785389072 0.20112241201531189 0 -0.27258595833473342 0.22149207507906341 0 -0.29125564533142001 0.24067530578368901 0 -0.27258595833473342 0.22149207507906341 0 -0.26834113505385238 0.23837358332174549 0 -0.27258595833473342 0.22149207507906341 0 -0.25272375818517617 0.22994970808158929 0 -0.26834113505385238 0.23837358332174549 0 -0.25370102580463139 0.2052288024824625 0 -0.27258595833473342 0.22149207507906341 0 -0.25272375818517617 0.22994970808158929 0 -0.25272375818517617 0.22994970808158929 0 -0.25621817608628389 0.2460965770837312 0 -0.26834113505385238 0.23837358332174549 0 -0.25621817608628389 0.2460965770837312 0 -0.26834113505385238 0.23837358332174549 0 -0.26892213733164849 0.25365425058065472 0 -0.29125564533142001 0.24067530578368901 0 -0.26834113505385238 0.23837358332174549 0 -0.26892213733164849 0.25365425058065472 0 -0.29370567785695612 0.15770531643225719 0 -0.28412418886142132 0.16518528890623771 0 -0.28065913062351988 0.14575155473079041 0 -0.30159211447790629 0.14759241864651959 0 -0.29370567785695612 0.15770531643225719 0 -0.28065913062351988 0.14575155473079041 0 -0.29682817834931757 0.13068013418198679 0 -0.30159211447790629 0.14759241864651959 0 -0.28065913062351988 0.14575155473079041 0 -0.29682817834931757 0.13068013418198679 0 -0.28065913062351988 0.14575155473079041 0 -0.28285123447775751 0.1183560919224374 0 -0.31354631638020197 0.13395604467094269 0 -0.29682817834931757 0.13068013418198679 0 -0.30159211447790629 0.14759241864651959 0 -0.31354631638020197 0.13395604467094269 0 -0.3122891553291075 0.14635758184588041 0 -0.30159211447790629 0.14759241864651959 0 -0.31353256245119709 0.1587605055712967 0 -0.3122891553291075 0.14635758184588041 0 -0.30159211447790629 0.14759241864651959 0 -0.31496429102988749 0.16269226213852109 0 -0.31353256245119709 0.1587605055712967 0 -0.30488677357152572 0.1641353808659653 0 -0.30159211447790629 0.14759241864651959 0 -0.30488677357152572 0.1641353808659653 0 -0.29370567785695612 0.15770531643225719 0 -0.31353256245119709 0.1587605055712967 0 -0.30159211447790629 0.14759241864651959 0 -0.30488677357152572 0.1641353808659653 0 -0.31496429102988749 0.16269226213852109 0 -0.30225886166240762 0.17397067591913981 0 -0.31303823693556859 0.17707572181323081 0 -0.31496429102988749 0.16269226213852109 0 -0.30225886166240762 0.17397067591913981 0 -0.31496429102988749 0.16269226213852109 0 -0.30488677357152572 0.1641353808659653 0 -0.30225886166240762 0.17397067591913981 0 -0.30488677357152572 0.1641353808659653 0 -0.30225886166240762 0.17397067591913981 0 -0.29597535979189887 0.1670989905046398 0 -0.30488677357152572 0.1641353808659653 0 -0.29370567785695612 0.15770531643225719 0 -0.29597535979189887 0.1670989905046398 0 -0.31303823693556859 0.17707572181323081 0 -0.3108046026399135 0.18379038091696129 0 -0.30225886166240762 0.17397067591913981 0 -0.30225886166240762 0.17397067591913981 0 -0.29917056928694541 0.1864234356954344 0 -0.28955343229492791 0.1852490896997587 0 -0.3108046026399135 0.18379038091696129 0 -0.30225886166240762 0.17397067591913981 0 -0.29917056928694541 0.1864234356954344 0 -0.30225886166240762 0.17397067591913981 0 -0.28955343229492791 0.1852490896997587 0 -0.30225886166240762 0.17397067591913981 0 -0.28955343229492791 0.1852490896997587 0 -0.29024545837739651 0.173916500811098 0 -0.28955343229492791 0.1852490896997587 0 -0.29024545837739651 0.173916500811098 0 -0.27889874324695868 0.17762520371433099 0 -0.29024545837739651 0.173916500811098 0 -0.28412418886142132 0.16518528890623771 0 -0.27889874324695868 0.17762520371433099 0 -0.27938784373491388 0.18917199981814359 0 -0.28955343229492791 0.1852490896997587 0 -0.27889874324695868 0.17762520371433099 0 -0.29370567785695612 0.15770531643225719 0 -0.29597535979189887 0.1670989905046398 0 -0.28412418886142132 0.16518528890623771 0 -0.30225886166240762 0.17397067591913981 0 -0.29024545837739651 0.173916500811098 0 -0.29597535979189887 0.1670989905046398 0 -0.29024545837739651 0.173916500811098 0 -0.29597535979189887 0.1670989905046398 0 -0.28412418886142132 0.16518528890623771 0 -0.28412418886142132 0.16518528890623771 0 -0.26844272787379447 0.16268744982768751 0 -0.27889874324695868 0.17762520371433099 0 -0.28412418886142132 0.16518528890623771 0 -0.26844272787379447 0.16268744982768751 0 -0.28065913062351988 0.14575155473079041 0 -0.26844272787379447 0.16268744982768751 0 -0.27889874324695868 0.17762520371433099 0 -0.26439180367967152 0.18225540552070321 0 -0.27938784373491388 0.18917199981814359 0 -0.27889874324695868 0.17762520371433099 0 -0.26439180367967152 0.18225540552070321 0 -0.26844272787379447 0.16268744982768751 0 -0.26439180367967152 0.18225540552070321 0 -0.247018622616726 0.15992587597476091 0 -0.26844272787379447 0.16268744982768751 0 -0.25846103874104392 0.14702121199507179 0 -0.247018622616726 0.15992587597476091 0 -0.26844272787379447 0.16268744982768751 0 -0.25846103874104392 0.14702121199507179 0 -0.28065913062351988 0.14575155473079041 0 -0.25846103874104392 0.14702121199507179 0 -0.28065913062351988 0.14575155473079041 0 -0.25922316449870308 0.12628093809151891 0 -0.28065913062351988 0.14575155473079041 0 -0.25922316449870308 0.12628093809151891 0 -0.28285123447775751 0.1183560919224374 0 -0.25846103874104392 0.14702121199507179 0 -0.25922316449870308 0.12628093809151891 0 -0.2369615480924761 0.1404602413506009 0 -0.25922316449870308 0.12628093809151891 0 -0.25136603029008331 0.1103208693098497 0 -0.26687835675477128 0.1014348965859585 0 -0.25136603029008331 0.1103208693098497 0 -0.26687835675477128 0.1014348965859585 0 -0.24377998071086901 0.096378574065869249 0 -0.26687835675477128 0.1014348965859585 0 -0.28737892951993471 0.098967158637655914 0 -0.27569457229827071 0.081243623470509244 0 -0.26687835675477128 0.1014348965859585 0 -0.28285123447775751 0.1183560919224374 0 -0.28737892951993471 0.098967158637655914 0 -0.25922316449870308 0.12628093809151891 0 -0.26687835675477128 0.1014348965859585 0 -0.28285123447775751 0.1183560919224374 0 -0.29682817834931757 0.13068013418198679 0 -0.28285123447775751 0.1183560919224374 0 -0.30549209578720232 0.10774456093924389 0 -0.28285123447775751 0.1183560919224374 0 -0.28737892951993471 0.098967158637655914 0 -0.30549209578720232 0.10774456093924389 0 -0.28737892951993471 0.098967158637655914 0 -0.30549209578720232 0.10774456093924389 0 -0.29743787519420251 0.08153307720754506 0 -0.30549209578720232 0.10774456093924389 0 -0.29743787519420251 0.08153307720754506 0 -0.31354631638020197 0.13395604467094269 0 -0.29682817834931757 0.13068013418198679 0 -0.30549209578720232 0.10774456093924389 0 -0.31354631638020197 0.13395604467094269 0 -0.30549209578720232 0.10774456093924389 0 -0.29926204670725021 0.066629363318123747 0 -0.30931237829482389 0.073252958087475881 0 -0.31697319293959142 0.061410437985649477 0 -0.29926204670725021 0.066629363318123747 0 -0.30931237829482389 0.073252958087475881 0 -0.29743787519420251 0.08153307720754506 0 -0.30549209578720232 0.10774456093924389 0 -0.29743787519420251 0.08153307720754506 0 -0.31312795334666071 0.083579729522452809 0 -0.30931237829482389 0.073252958087475881 0 -0.29743787519420251 0.08153307720754506 0 -0.31312795334666071 0.083579729522452809 0 -0.28737892951993471 0.098967158637655914 0 -0.29743787519420251 0.08153307720754506 0 -0.27569457229827071 0.081243623470509244 0 -0.29743787519420251 0.08153307720754506 0 -0.28743776060402371 0.060458689408765323 0 -0.28938365460120269 0.05532159347584624 0 -0.29743787519420251 0.08153307720754506 0 -0.28938365460120269 0.05532159347584624 0 -0.29926204670725021 0.066629363318123747 0 -0.29743787519420251 0.08153307720754506 0 -0.28938365460120269 0.05532159347584624 0 -0.29743787519420251 0.08153307720754506 0 -0.27569457229827071 0.081243623470509244 0 -0.28743776060402371 0.060458689408765323 0 -0.27569457229827071 0.081243623470509244 0 -0.26257114212692878 0.06573449919026883 0 -0.28743776060402371 0.060458689408765323 0 -0.26257114212692878 0.06573449919026883 0 -0.28743776060402371 0.060458689408765323 0 -0.26687835675477128 0.1014348965859585 0 -0.25261226255175379 0.080423606239198905 0 -0.24377998071086901 0.096378574065869249 0 -0.26687835675477128 0.1014348965859585 0 -0.27569457229827071 0.081243623470509244 0 -0.25261226255175379 0.080423606239198905 0 -0.26257114212692878 0.06573449919026883 0 -0.23770452364983391 0.071010308971772351 0 -0.25261226255175379 0.080423606239198905 0 -0.26257114212692878 0.06573449919026883 0 -0.23770452364983391 0.071010308971772351 0 -0.27569457229827071 0.081243623470509244 0 -0.25261226255175379 0.080423606239198905 0 -0.26257114212692878 0.06573449919026883 0 -0.2522816967992324 0.037264740289820159 0 -0.27263172987273521 0.051913181220590639 0 -0.24906194248509719 0.058488871325365822 0 -0.26257114212692878 0.06573449919026883 0 -0.27263172987273521 0.051913181220590639 0 -0.24906194248509719 0.058488871325365822 0 -0.2522816967992324 0.037264740289820159 0 -0.2684979789729644 0.03593820420606865 0 -0.27263172987273521 0.051913181220590639 0 -0.2684979789729644 0.03593820420606865 0 -0.27263172987273521 0.051913181220590639 0 -0.28132943400820298 0.02911010974414751 0 -0.27263172987273521 0.051913181220590639 0 -0.28132943400820298 0.02911010974414751 0 -0.28938365460120269 0.05532159347584624 0 -0.26257114212692878 0.06573449919026883 0 -0.27263172987273521 0.051913181220590639 0 -0.28743776060402371 0.060458689408765323 0 -0.25267499080189931 -0.0034516002120552492 0 -0.26909988492935111 -0.0018655285383734981 0 -0.25157722050270093 0.012682655753942951 0 -0.26909988492935111 -0.0018655285383734981 0 -0.25157722050270093 0.012682655753942951 0 -0.27200359261247947 0.017754051058092819 0 -0.2522816967992324 0.037264740289820159 0 -0.25157722050270093 0.012682655753942951 0 -0.27200359261247947 0.017754051058092819 0 -0.2522816967992324 0.037264740289820159 0 -0.2684979789729644 0.03593820420606865 0 -0.27200359261247947 0.017754051058092819 0 -0.2522816967992324 0.037264740289820159 0 -0.27200359261247947 0.017754051058092819 0 -0.27200359261247947 0.017754051058092819 0 -0.28831373269731447 0.017122983851404761 0 -0.28132943400820298 0.02911010974414751 0 -0.2684979789729644 0.03593820420606865 0 -0.27200359261247947 0.017754051058092819 0 -0.28132943400820298 0.02911010974414751 0 -0.26909988492935111 -0.0018655285383734981 0 -0.2917254884257266 -0.0017566381736345419 0 -0.27200359261247947 0.017754051058092819 0 -0.2917254884257266 -0.0017566381736345419 0 -0.27200359261247947 0.017754051058092819 0 -0.28831373269731447 0.017122983851404761 0 -0.2917254884257266 -0.0017566381736345419 0 -0.28831373269731447 0.017122983851404761 0 -0.29997880334656019 0.01439552450637107 0 -0.2917254884257266 -0.0017566381736345419 0 -0.27200359261247947 0.017754051058092819 0 -0.28831373269731447 0.017122983851404761 0 -0.29656482898857922 0.02610767777843559 0 -0.29997880334656019 0.01439552450637107 0 -0.28831373269731447 0.017122983851404761 0 -0.28132943400820298 0.02911010974414751 0 -0.29656482898857922 0.02610767777843559 0 -0.28132943400820298 0.02911010974414751 0 -0.29656482898857922 0.02610767777843559 0 -0.29344050585463782 0.03493273697686209 0 -0.29656482898857922 0.02610767777843559 0 -0.31039051656375261 0.022327184027059441 0 -0.30541723396373921 0.038711125382435783 0 -0.31039051656375261 0.022327184027059441 0 -0.30541723396373921 0.038711125382435783 0 -0.32038394146944787 0.031620215762440292 0 -0.29656482898857922 0.02610767777843559 0 -0.31039051656375261 0.022327184027059441 0 -0.29997880334656019 0.01439552450637107 0 -0.31039051656375261 0.022327184027059441 0 -0.31177688145040278 0.0050359958776742568 0 -0.29997880334656019 0.01439552450637107 0 -0.2917254884257266 -0.0017566381736345419 0 -0.31177688145040278 0.0050359958776742568 0 -0.29997880334656019 0.01439552450637107 0 -0.27263172987273521 0.051913181220590639 0 -0.28743776060402371 0.060458689408765323 0 -0.28938365460120269 0.05532159347584624 0 -0.28938365460120269 0.05532159347584624 0 -0.29045052645802971 0.045802035002429492 0 -0.29738278035354182 0.050541329601553678 0 -0.28938365460120269 0.05532159347584624 0 -0.29738278035354182 0.050541329601553678 0 -0.29780899910201009 0.056562827273038227 0 -0.29926204670725021 0.066629363318123747 0 -0.28938365460120269 0.05532159347584624 0 -0.29780899910201009 0.056562827273038227 0 -0.28132943400820298 0.02911010974414751 0 -0.28938365460120269 0.05532159347584624 0 -0.29045052645802971 0.045802035002429492 0 -0.28132943400820298 0.02911010974414751 0 -0.28938365460120269 0.05532159347584624 0 -0.28132943400820298 0.02911010974414751 0 -0.29344050585463782 0.03493273697686209 0 -0.29045052645802971 0.045802035002429492 0 -0.29344050585463782 0.03493273697686209 0 -0.29045052645802971 0.045802035002429492 0 -0.30541723396373921 0.038711125382435783 0 -0.29045052645802971 0.045802035002429492 0 -0.30541723396373921 0.038711125382435783 0 -0.29738278035354182 0.050541329601553678 0 -0.29045052645802971 0.045802035002429492 0 -0.30541723396373921 0.038711125382435783 0 -0.29656482898857922 0.02610767777843559 0 -0.29344050585463782 0.03493273697686209 0 -0.30541723396373921 0.038711125382435783 0 -0.30541723396373921 0.038711125382435783 0 -0.30520751474604563 0.05375902269662923 0 -0.31780711793698518 0.045521831715634557 0 -0.29926204670725021 0.066629363318123747 0 -0.30520751474604563 0.05375902269662923 0 -0.31697319293959142 0.061410437985649477 0 -0.30541723396373921 0.038711125382435783 0 -0.30520751474604563 0.05375902269662923 0 -0.29738278035354182 0.050541329601553678 0 -0.30520751474604563 0.05375902269662923 0 -0.29738278035354182 0.050541329601553678 0 -0.29780899910201009 0.056562827273038227 0 -0.29926204670725021 0.066629363318123747 0 -0.30520751474604563 0.05375902269662923 0 -0.29780899910201009 0.056562827273038227 0 -0.32553678940662539 0.052415823907368687 0 -0.31780711793698518 0.045521831715634557 0 -0.33422422494732851 0.04449049745268327 0 -0.31697319293959142 0.061410437985649477 0 -0.32553678940662539 0.052415823907368687 0 -0.31780711793698518 0.045521831715634557 0 -0.30520751474604563 0.05375902269662923 0 -0.31697319293959142 0.061410437985649477 0 -0.31780711793698518 0.045521831715634557 0 -0.31697319293959142 0.061410437985649477 0 -0.32808937753058609 0.059947696530402161 0 -0.32553678940662539 0.052415823907368687 0 -0.31780711793698518 0.045521831715634557 0 -0.32038394146944787 0.031620215762440292 0 -0.33422422494732851 0.04449049745268327 0 -0.30541723396373921 0.038711125382435783 0 -0.31780711793698518 0.045521831715634557 0 -0.32038394146944787 0.031620215762440292 0 -0.30541723396373921 0.038711125382435783 0 -0.32038394146944787 0.031620215762440292 0 -0.32038394146944787 0.031620215762440292 0 -0.33422422494732851 0.04449049745268327 0 -0.33422422494732851 0.04449049745268327 0 -0.34051642268078958 0.02208187176518148 0 -0.34924074101412461 0.03711639968071382 0 -0.32038394146944787 0.031620215762440292 0 -0.33422422494732851 0.04449049745268327 0 -0.34051642268078958 0.02208187176518148 0 -0.33422422494732851 0.04449049745268327 0 -0.34715076893326918 0.04673829876922056 0 -0.34924074101412461 0.03711639968071382 0 -0.33422422494732851 0.04449049745268327 0 -0.34806450842520742 0.057360779142928031 0 -0.34715076893326918 0.04673829876922056 0 -0.33422422494732851 0.04449049745268327 0 -0.34806450842520742 0.057360779142928031 0 -0.33422422494732851 0.04449049745268327 0 -0.33482930480244999 0.055095026294593591 0 -0.34806450842520742 0.057360779142928031 0 -0.3407399656121517 0.06083029771636933 0 -0.33482930480244999 0.055095026294593591 0 -0.33440717105718593 0.063083878638897639 0 -0.3407399656121517 0.06083029771636933 0 -0.33482930480244999 0.055095026294593591 0 -0.34806450842520742 0.057360779142928031 0 -0.32808937753058609 0.059947696530402161 0 -0.33482930480244999 0.055095026294593591 0 -0.33440717105718593 0.063083878638897639 0 -0.32808937753058609 0.059947696530402161 0 -0.32553678940662539 0.052415823907368687 0 -0.33482930480244999 0.055095026294593591 0 -0.32553678940662539 0.052415823907368687 0 -0.33422422494732851 0.04449049745268327 0 -0.33482930480244999 0.055095026294593591 0 -0.31039051656375261 0.022327184027059441 0 -0.31177688145040278 0.0050359958776742568 0 -0.3261420213634148 0.01391490981329808 0 -0.32828291010712762 -0.0049346835118845543 0 -0.31177688145040278 0.0050359958776742568 0 -0.3261420213634148 0.01391490981329808 0 -0.31039051656375261 0.022327184027059441 0 -0.32038394146944787 0.031620215762440292 0 -0.3261420213634148 0.01391490981329808 0 -0.31039051656375261 0.022327184027059441 0 -0.32038394146944787 0.031620215762440292 0 -0.32038394146944787 0.031620215762440292 0 -0.34051642268078958 0.02208187176518148 0 -0.32038394146944787 0.031620215762440292 0 -0.3261420213634148 0.01391490981329808 0 -0.34051642268078958 0.02208187176518148 0 -0.3261420213634148 0.01391490981329808 0 -0.34051642268078958 0.02208187176518148 0 -0.34055428987364128 0.0059527955302196532 0 -0.32828291010712762 -0.0049346835118845543 0 -0.3261420213634148 0.01391490981329808 0 -0.34055428987364128 0.0059527955302196532 0 -0.34051642268078958 0.02208187176518148 0 -0.34055428987364128 0.0059527955302196532 0 -0.36064890389212972 0.0125435277679194 0 -0.34718119132474479 -0.01384164818341615 0 -0.34055428987364128 0.0059527955302196532 0 -0.36064890389212972 0.0125435277679194 0 -0.34051642268078958 0.02208187176518148 0 -0.36064890389212972 0.0125435277679194 0 -0.34051642268078958 0.02208187176518148 0 -0.35699945364537122 0.027147445145089769 0 -0.34924074101412461 0.03711639968071382 0 -0.34051642268078958 0.02208187176518148 0 -0.35699945364537122 0.027147445145089769 0 -0.36064890389212972 0.0125435277679194 0 -0.35699945364537122 0.027147445145089769 0 -0.36163302121541668 0.029781402687577421 0 -0.35940737946489582 0.035374977024224222 0 -0.37998819155715241 0.0057865511937031933 0 -0.36738966121720701 0.029980518529024301 0 -0.37123175334181557 0.027162262264614271 0 -0.37998819155715241 0.0057865511937031933 0 -0.36738966121720701 0.029980518529024301 0 -0.3645477689834325 0.020181962352102071 0 -0.37998819155715241 0.0057865511937031933 0 -0.36738966121720701 0.029980518529024301 0 -0.36273559053419291 0.026622670051971411 0 -0.36738966121720701 0.029980518529024301 0 -0.3645477689834325 0.020181962352102071 0 -0.35699945364537122 0.027147445145089769 0 -0.36163302121541668 0.029781402687577421 0 -0.36273559053419291 0.026622670051971411 0 -0.35699945364537122 0.027147445145089769 0 -0.36273559053419291 0.026622670051971411 0 -0.3645477689834325 0.020181962352102071 0 -0.36163302121541668 0.029781402687577421 0 -0.36273559053419291 0.026622670051971411 0 -0.36738966121720701 0.029980518529024301 0 -0.35699945364537122 0.027147445145089769 0 -0.3645477689834325 0.020181962352102071 0 -0.36064890389212972 0.0125435277679194 0 -0.3645477689834325 0.020181962352102071 0 -0.36064890389212972 0.0125435277679194 0 -0.37998819155715241 0.0057865511937031933 0 -0.3645477689834325 0.020181962352102071 0 -0.36064890389212972 0.0125435277679194 0 -0.38683543611469601 0.0001369023841863784 0 -0.36064890389212972 0.0125435277679194 0 -0.37474494217865062 -0.0022388935110706832 0 -0.38683543611469601 0.0001369023841863784 0 -0.36064890389212972 0.0125435277679194 0 -0.37474494217865062 -0.0022388935110706832 0 -0.36307869926690151 -0.00068504054922277494 0 -0.36064890389212972 0.0125435277679194 0 -0.35479113087726238 0.05417448586434577 0 -0.34715076893326918 0.04673829876922056 0 -0.35593663516940488 0.04278932274017315 0 -0.35479113087726238 0.05417448586434577 0 -0.35147867423579721 0.06053566178096708 0 -0.3622197730044176 0.060127746183944272 0 -0.35479113087726238 0.05417448586434577 0 -0.35147867423579721 0.06053566178096708 0 -0.35479113087726238 0.05417448586434577 0 -0.34806450842520742 0.057360779142928031 0 -0.35147867423579721 0.06053566178096708 0 -0.35479113087726238 0.05417448586434577 0 -0.34806450842520742 0.057360779142928031 0 -0.34806450842520742 0.057360779142928031 0 -0.35147867423579721 0.06053566178096708 0 -0.3447014191436914 0.063951910484466787 0 -0.34806450842520742 0.057360779142928031 0 -0.35147867423579721 0.06053566178096708 0 -0.3407399656121517 0.06083029771636933 0 -0.34806450842520742 0.057360779142928031 0 -0.3407399656121517 0.06083029771636933 0 -0.34806450842520742 0.057360779142928031 0 -0.3447014191436914 0.063951910484466787 0 -0.35479113087726238 0.05417448586434577 0 -0.34806450842520742 0.057360779142928031 0 -0.34715076893326918 0.04673829876922056 0 -0.34715076893326918 0.04673829876922056 0 -0.34924074101412461 0.03711639968071382 0 -0.35593663516940488 0.04278932274017315 0 -0.36738966121720701 0.029980518529024301 0 -0.35479113087726238 0.05417448586434577 0 -0.35593663516940488 0.04278932274017315 0 -0.35699945364537122 0.027147445145089769 0 -0.34924074101412461 0.03711639968071382 0 -0.35940737946489582 0.035374977024224222 0 -0.34924074101412461 0.03711639968071382 0 -0.35593663516940488 0.04278932274017315 0 -0.35940737946489582 0.035374977024224222 0 -0.36738966121720701 0.029980518529024301 0 -0.35479113087726238 0.05417448586434577 0 -0.36677646394688163 0.041367990420506082 0 -0.37123175334181557 0.027162262264614271 0 -0.37046143272875132 0.04675171495388801 0 -0.36738966121720701 0.029980518529024301 0 -0.35479113087726238 0.05417448586434577 0 -0.37123175334181557 0.027162262264614271 0 -0.36677646394688163 0.041367990420506082 0 -0.37046143272875132 0.04675171495388801 0 -0.3764786745208083 0.032098692741998169 0 -0.37123175334181557 0.027162262264614271 0 -0.37046143272875132 0.04675171495388801 0 -0.36163302121541668 0.029781402687577421 0 -0.36738966121720701 0.029980518529024301 0 -0.35940737946489582 0.035374977024224222 0 -0.36738966121720701 0.029980518529024301 0 -0.35593663516940488 0.04278932274017315 0 -0.35940737946489582 0.035374977024224222 0 -0.36738966121720701 0.029980518529024301 0 -0.37123175334181557 0.027162262264614271 0 -0.36677646394688163 0.041367990420506082 0 -0.36677646394688163 0.041367990420506082 0 -0.37046143272875132 0.04675171495388801 0 -0.36802302346639398 0.047906750352184523 0 -0.36677646394688163 0.041367990420506082 0 -0.36802302346639398 0.047906750352184523 0 -0.37046143272875132 0.04675171495388801 0 -0.37000681959492809 0.05831264468359916 0 -0.36802302346639398 0.047906750352184523 0 -0.37000681959492809 0.05831264468359916 0 -0.37046143272875132 0.04675171495388801 0 -0.36802302346639398 0.047906750352184523 0 -0.37000681959492809 0.05831264468359916 0 -0.37046143272875132 0.04675171495388801 0 -0.36802302346639398 0.047906750352184523 0 -0.35479113087726238 0.05417448586434577 0 -0.36802302346639398 0.047906750352184523 0 -0.35479113087726238 0.05417448586434577 0 -0.36802302346639398 0.047906750352184523 0 -0.3622197730044176 0.060127746183944272 0 -0.35479113087726238 0.05417448586434577 0 -0.36677646394688163 0.041367990420506082 0 -0.36802302346639398 0.047906750352184523 0 -0.36802302346639398 0.047906750352184523 0 -0.3622197730044176 0.060127746183944272 0 -0.37000681959492809 0.05831264468359916 0 -0.35147867423579721 0.06053566178096708 0 -0.36926886504626422 0.077079019973005369 0 -0.3622197730044176 0.060127746183944272 0 -0.37000681959492809 0.05831264468359916 0 -0.36926886504626422 0.077079019973005369 0 -0.37000681959492809 0.05831264468359916 0 -0.36926886504626422 0.077079019973005369 0 -0.37079498002478778 0.078498176574577722 0 -0.36926886504626422 0.077079019973005369 0 -0.34551673285671652 0.071984855543133663 0 -0.36912013352382872 0.080861301107253064 0 -0.37000681959492809 0.05831264468359916 0 -0.37079498002478778 0.078498176574577722 0 -0.37470600383380392 0.082961959162170973 0 -0.35147867423579721 0.06053566178096708 0 -0.3622197730044176 0.060127746183944272 0 -0.36926886504626422 0.077079019973005369 0 -0.37000681959492809 0.05831264468359916 0 -0.37470600383380392 0.082961959162170973 0 -0.37000681959492809 0.05831264468359916 0 -0.36926886504626422 0.077079019973005369 0 -0.36926886504626422 0.077079019973005369 0 -0.37079498002478778 0.078498176574577722 0 -0.34551673285671652 0.071984855543133663 0 -0.34763839367566191 0.079069075487607554 0 -0.36912013352382872 0.080861301107253064 0 -0.34551673285671652 0.071984855543133663 0 -0.36912013352382872 0.080861301107253064 0 -0.35147867423579721 0.06053566178096708 0 -0.36926886504626422 0.077079019973005369 0 -0.34551673285671652 0.071984855543133663 0 -0.34408269824063842 0.074738747125954852 0 -0.34763839367566191 0.079069075487607554 0 -0.34179116264722731 0.080399472229040897 0 -0.34408269824063842 0.074738747125954852 0 -0.34551673285671652 0.071984855543133663 0 -0.34763839367566191 0.079069075487607554 0 -0.34408269824063842 0.074738747125954852 0 -0.34551673285671652 0.071984855543133663 0 -0.35147867423579721 0.06053566178096708 0 -0.34551673285671652 0.071984855543133663 0 -0.3447014191436914 0.063951910484466787 0 -0.35147867423579721 0.06053566178096708 0 -0.34551673285671652 0.071984855543133663 0 -0.34763839367566191 0.079069075487607554 0 -0.36858415035949882 0.094491491786065696 0 -0.34763839367566191 0.079069075487607554 0 -0.36858415035949882 0.094491491786065696 0 -0.35198293914272999 0.094145145766245733 0 -0.34456144318064219 0.08667329674911145 0 -0.34763839367566191 0.079069075487607554 0 -0.35198293914272999 0.094145145766245733 0 -0.34456144318064219 0.08667329674911145 0 -0.35198293914272999 0.094145145766245733 0 -0.34431035454597703 0.093789606507308373 0 -0.34456144318064219 0.08667329674911145 0 -0.34763839367566191 0.079069075487607554 0 -0.34179116264722731 0.080399472229040897 0 -0.3782625711058698 0.101617738696854 0 -0.37470600383380392 0.082961959162170973 0 -0.36858415035949882 0.094491491786065696 0 -0.34763839367566191 0.079069075487607554 0 -0.36912013352382872 0.080861301107253064 0 -0.36858415035949882 0.094491491786065696 0 -0.36926886504626422 0.077079019973005369 0 -0.37079498002478778 0.078498176574577722 0 -0.36912013352382872 0.080861301107253064 0 -0.36926886504626422 0.077079019973005369 0 -0.36912013352382872 0.080861301107253064 0 -0.36912013352382872 0.080861301107253064 0 -0.37470600383380392 0.082961959162170973 0 -0.37079498002478778 0.078498176574577722 0 -0.36912013352382872 0.080861301107253064 0 -0.37470600383380392 0.082961959162170973 0 -0.36912013352382872 0.080861301107253064 0 -0.37470600383380392 0.082961959162170973 0 -0.36858415035949882 0.094491491786065696 0 -0.36912013352382872 0.080861301107253064 0 -0.36858415035949882 0.094491491786065696 0 -0.36858415035949882 0.094491491786065696 0 -0.36747352968705388 0.12273486311700831 0 -0.3782625711058698 0.101617738696854 0 -0.36858415035949882 0.094491491786065696 0 -0.36858415035949882 0.094491491786065696 0 -0.36006702585218792 0.10838608290929221 0 -0.35198293914272999 0.094145145766245733 0 -0.36858415035949882 0.094491491786065696 0 -0.36006702585218792 0.10838608290929221 0 -0.36747352968705388 0.12273486311700831 0 -0.3782625711058698 0.101617738696854 0 -0.36858415035949882 0.094491491786065696 0 -0.36747352968705388 0.12273486311700831 0 -0.36006702585218792 0.10838608290929221 0 -0.36747352968705388 0.12273486311700831 0 -0.35832203275528268 0.1183511860346923 0 -0.35528769071996391 0.12689780186549679 0 -0.36747352968705388 0.12273486311700831 0 -0.35832203275528268 0.1183511860346923 0 -0.35528769071996391 0.12689780186549679 0 -0.35832203275528268 0.1183511860346923 0 -0.35045988476192508 0.115385996246972 0 -0.36006702585218792 0.10838608290929221 0 -0.35832203275528268 0.1183511860346923 0 -0.35045988476192508 0.115385996246972 0 -0.35045988476192508 0.115385996246972 0 -0.34547580274860562 0.10394098399483009 0 -0.33570271963636877 0.11206429961599181 0 -0.35528769071996391 0.12689780186549679 0 -0.35045988476192508 0.115385996246972 0 -0.34115039425197219 0.12498493974687711 0 -0.36006702585218792 0.10838608290929221 0 -0.35198293914272999 0.094145145766245733 0 -0.34547580274860562 0.10394098399483009 0 -0.36006702585218792 0.10838608290929221 0 -0.35045988476192508 0.115385996246972 0 -0.34547580274860562 0.10394098399483009 0 -0.35198293914272999 0.094145145766245733 0 -0.34547580274860562 0.10394098399483009 0 -0.34431035454597703 0.093789606507308373 0 -0.34547580274860562 0.10394098399483009 0 -0.34431035454597703 0.093789606507308373 0 -0.335413749579693 0.097286071719103154 0 -0.34547580274860562 0.10394098399483009 0 -0.335413749579693 0.097286071719103154 0 -0.33570271963636877 0.11206429961599181 0 -0.335413749579693 0.097286071719103154 0 -0.33570271963636877 0.11206429961599181 0 -0.32444247844199348 0.1047035033472971 0 -0.35045988476192508 0.115385996246972 0 -0.34115039425197219 0.12498493974687711 0 -0.33570271963636877 0.11206429961599181 0 -0.32917568526667751 0.12578156900391591 0 -0.33570271963636877 0.11206429961599181 0 -0.32114709127587232 0.11611322513389059 0 -0.32917568526667751 0.12578156900391591 0 -0.34115039425197219 0.12498493974687711 0 -0.33570271963636877 0.11206429961599181 0 -0.31354631638020197 0.13395604467094269 0 -0.30549209578720232 0.10774456093924389 0 -0.32114709127587232 0.11611322513389059 0 -0.30549209578720232 0.10774456093924389 0 -0.32114709127587232 0.11611322513389059 0 -0.32444247844199348 0.1047035033472971 0 -0.33570271963636877 0.11206429961599181 0 -0.32114709127587232 0.11611322513389059 0 -0.32444247844199348 0.1047035033472971 0 -0.30549209578720232 0.10774456093924389 0 -0.32444247844199348 0.1047035033472971 0 -0.32445673593083119 0.090309359328255762 0 -0.30549209578720232 0.10774456093924389 0 -0.32445673593083119 0.090309359328255762 0 -0.31312795334666071 0.083579729522452809 0 -0.335413749579693 0.097286071719103154 0 -0.32444247844199348 0.1047035033472971 0 -0.32445673593083119 0.090309359328255762 0 -0.32445673593083119 0.090309359328255762 0 -0.3275606083710243 0.080211281293741998 0 -0.31312795334666071 0.083579729522452809 0 -0.3275606083710243 0.080211281293741998 0 -0.31312795334666071 0.083579729522452809 0 -0.31976082328641481 0.073112182403608325 0 -0.30931237829482389 0.073252958087475881 0 -0.31312795334666071 0.083579729522452809 0 -0.31976082328641481 0.073112182403608325 0 -0.30931237829482389 0.073252958087475881 0 -0.31697319293959142 0.061410437985649477 0 -0.31976082328641481 0.073112182403608325 0 -0.31697319293959142 0.061410437985649477 0 -0.31976082328641481 0.073112182403608325 0 -0.32886731949388731 0.069155273298144179 0 -0.31697319293959142 0.061410437985649477 0 -0.32808937753058609 0.059947696530402161 0 -0.32886731949388731 0.069155273298144179 0 -0.3275606083710243 0.080211281293741998 0 -0.31976082328641481 0.073112182403608325 0 -0.32886731949388731 0.069155273298144179 0 -0.32886731949388731 0.069155273298144179 0 -0.33770721458858299 0.069047958238937293 0 -0.336378655355973 0.076693290193422539 0 -0.3275606083710243 0.080211281293741998 0 -0.32886731949388731 0.069155273298144179 0 -0.336378655355973 0.076693290193422539 0 -0.33440717105718593 0.063083878638897639 0 -0.32886731949388731 0.069155273298144179 0 -0.33770721458858299 0.069047958238937293 0 -0.32808937753058609 0.059947696530402161 0 -0.33440717105718593 0.063083878638897639 0 -0.32886731949388731 0.069155273298144179 0 -0.3407399656121517 0.06083029771636933 0 -0.33440717105718593 0.063083878638897639 0 -0.33770721458858299 0.069047958238937293 0 -0.3407399656121517 0.06083029771636933 0 -0.3447014191436914 0.063951910484466787 0 -0.33770721458858299 0.069047958238937293 0 -0.34551673285671652 0.071984855543133663 0 -0.3447014191436914 0.063951910484466787 0 -0.33770721458858299 0.069047958238937293 0 -0.34408269824063842 0.074738747125954852 0 -0.33770721458858299 0.069047958238937293 0 -0.336378655355973 0.076693290193422539 0 -0.34408269824063842 0.074738747125954852 0 -0.34551673285671652 0.071984855543133663 0 -0.33770721458858299 0.069047958238937293 0 -0.34551673285671652 0.071984855543133663 0 -0.33770721458858299 0.069047958238937293 0 -0.34408269824063842 0.074738747125954852 0 -0.336378655355973 0.076693290193422539 0 -0.34179116264722731 0.080399472229040897 0 -0.336378655355973 0.076693290193422539 0 -0.34179116264722731 0.080399472229040897 0 -0.33708436589161489 0.085963183755354639 0 -0.34456144318064219 0.08667329674911145 0 -0.34179116264722731 0.080399472229040897 0 -0.33708436589161489 0.085963183755354639 0 -0.34456144318064219 0.08667329674911145 0 -0.34431035454597703 0.093789606507308373 0 -0.33708436589161489 0.085963183755354639 0 -0.34431035454597703 0.093789606507308373 0 -0.335413749579693 0.097286071719103154 0 -0.33708436589161489 0.085963183755354639 0 -0.335413749579693 0.097286071719103154 0 -0.32445673593083119 0.090309359328255762 0 -0.33708436589161489 0.085963183755354639 0 -0.32445673593083119 0.090309359328255762 0 -0.3275606083710243 0.080211281293741998 0 -0.33708436589161489 0.085963183755354639 0 -0.3275606083710243 0.080211281293741998 0 -0.336378655355973 0.076693290193422539 0 -0.33708436589161489 0.085963183755354639 0 -0.38891458820749281 0.47713565504117422 0 -0.42172655890518862 0.5 0 -0.3640375775585698 0.5 0 -0.38891458820749281 0.47713565504117422 0 -0.37103467036260362 0.45695891695805302 0 -0.36943712044780219 0.47475959506207249 0 -0.39694697642853649 0.45370639251272787 0 -0.37103467036260362 0.45695891695805302 0 -0.38891458820749281 0.47713565504117422 0 -0.39694697642853649 0.45370639251272787 0 -0.37103467036260362 0.45695891695805302 0 -0.38249991962136642 0.44345487931465249 0 -0.39694697642853649 0.45370639251272787 0 -0.37103467036260362 0.45695891695805302 0 -0.38249991962136642 0.44345487931465249 0 -0.39694697642853649 0.45370639251272787 0 -0.40464661760035381 0.43350824459614162 0 -0.38891458820749281 0.47713565504117422 0 -0.39694697642853649 0.45370639251272787 0 -0.41631826774707797 0.4711213942969617 0 -0.39694697642853649 0.45370639251272787 0 -0.42285928249446952 0.45045386806740279 0 -0.41631826774707797 0.4711213942969617 0 -0.42285928249446952 0.45045386806740279 0 -0.42501824733507809 0.43459816807542118 0 -0.40464661760035381 0.43350824459614162 0 -0.39694697642853649 0.45370639251272787 0 -0.42285928249446952 0.45045386806740279 0 -0.39694697642853649 0.45370639251272787 0 -0.42285928249446952 0.45045386806740279 0 -0.40464661760035381 0.43350824459614162 0 -0.42285928249446952 0.45045386806740279 0 -0.43521244088076849 0.46107148678855758 0 -0.44877158856040261 0.44720134362207808 0 -0.42285928249446952 0.45045386806740279 0 -0.44877158856040261 0.44720134362207808 0 -0.42285928249446952 0.45045386806740279 0 -0.43592409671607729 0.44045812782560079 0 -0.44877158856040261 0.44720134362207808 0 -0.42285928249446952 0.45045386806740279 0 -0.43592409671607729 0.44045812782560079 0 -0.42501824733507809 0.43459816807542118 0 -0.42285928249446952 0.45045386806740279 0 -0.43521244088076849 0.46107148678855758 0 -0.41631826774707797 0.4711213942969617 0 -0.41631826774707797 0.4711213942969617 0 -0.42172655890518862 0.5 0 -0.43935827984199688 0.47473889959161758 0 -0.43521244088076849 0.46107148678855758 0 -0.41631826774707797 0.4711213942969617 0 -0.43935827984199688 0.47473889959161758 0 -0.38891458820749281 0.47713565504117422 0 -0.41631826774707797 0.4711213942969617 0 -0.42172655890518862 0.5 0 -0.42172655890518862 0.5 0 -0.43935827984199688 0.47473889959161758 0 -0.47784082473980471 0.47626967285504462 0 -0.42172655890518862 0.5 0 -0.5 0.5 0 -0.47784082473980471 0.47626967285504462 0 -0.43935827984199688 0.47473889959161758 0 -0.47784082473980471 0.47626967285504462 0 -0.4487547857598953 0.46184192836472759 0 -0.5 0.5 0 -0.47784082473980471 0.47626967285504462 0 -0.49999999999999589 0.44077113011354369 0 -0.47784082473980471 0.47626967285504462 0 -0.47438579428019922 0.44398623686781052 0 -0.4627013265822788 0.4545376326069438 0 -0.47784082473980471 0.47626967285504462 0 -0.49999999999999589 0.44077113011354369 0 -0.47438579428019922 0.44398623686781052 0 -0.49999999999999589 0.44077113011354369 0 -0.47438579428019922 0.44398623686781052 0 -0.48180565015534738 0.42787197640755792 0 -0.49999999999999589 0.44077113011354369 0 -0.47438579428019922 0.44398623686781052 0 -0.47438579428019922 0.44398623686781052 0 -0.4627013265822788 0.4545376326069438 0 -0.44877158856040261 0.44720134362207808 0 -0.47438579428019922 0.44398623686781052 0 -0.44877158856040261 0.44720134362207808 0 -0.47438579428019922 0.44398623686781052 0 -0.44877158856040261 0.44720134362207808 0 -0.46289485375526918 0.43579199928955081 0 -0.44877158856040261 0.44720134362207808 0 -0.44878504691792248 0.43547483269414872 0 -0.46289485375526918 0.43579199928955081 0 -0.47784082473980471 0.47626967285504462 0 -0.4627013265822788 0.4545376326069438 0 -0.4487547857598953 0.46184192836472759 0 -0.4627013265822788 0.4545376326069438 0 -0.4487547857598953 0.46184192836472759 0 -0.44877158856040261 0.44720134362207808 0 -0.4487547857598953 0.46184192836472759 0 -0.44877158856040261 0.44720134362207808 0 -0.43521244088076849 0.46107148678855758 0 -0.4487547857598953 0.46184192836472759 0 -0.44877158856040261 0.44720134362207808 0 -0.43521244088076849 0.46107148678855758 0 -0.43935827984199688 0.47473889959161758 0 -0.4487547857598953 0.46184192836472759 0 -0.44877158856040261 0.44720134362207808 0 -0.44508566455651338 0.43839632914573512 0 -0.44878504691792248 0.43547483269414872 0 -0.44877158856040261 0.44720134362207808 0 -0.44878504691792248 0.43547483269414872 0 -0.43592409671607729 0.44045812782560079 0 -0.44877158856040261 0.44720134362207808 0 -0.44508566455651338 0.43839632914573512 0 -0.44531233658805403 0.42513554986162888 0 -0.44878504691792248 0.43547483269414872 0 -0.44880957839306629 0.41410011360809668 0 -0.44878504691792248 0.43547483269414872 0 -0.44880957839306629 0.41410011360809668 0 -0.43788570063392329 0.43164093021736671 0 -0.44531233658805403 0.42513554986162888 0 -0.44878504691792248 0.43547483269414872 0 -0.43592409671607729 0.44045812782560079 0 -0.44508566455651338 0.43839632914573512 0 -0.43788570063392329 0.43164093021736671 0 -0.44508566455651338 0.43839632914573512 0 -0.43788570063392329 0.43164093021736671 0 -0.44878504691792248 0.43547483269414872 0 -0.44508566455651338 0.43839632914573512 0 -0.44878504691792248 0.43547483269414872 0 -0.44531233658805403 0.42513554986162888 0 -0.44880957839306629 0.41410011360809668 0 -0.42391867717568832 0.41711337076656618 0 -0.44880957839306629 0.41410011360809668 0 -0.46585669794528167 0.42199291516666237 0 -0.4641229039382897 0.40091036417177778 0 -0.44878504691792248 0.43547483269414872 0 -0.46585669794528167 0.42199291516666237 0 -0.44878504691792248 0.43547483269414872 0 -0.44880957839306629 0.41410011360809668 0 -0.46585669794528167 0.42199291516666237 0 -0.44878504691792248 0.43547483269414872 0 -0.46585669794528167 0.42199291516666237 0 -0.46289485375526918 0.43579199928955081 0 -0.47438579428019922 0.44398623686781052 0 -0.46289485375526918 0.43579199928955081 0 -0.48180565015534738 0.42787197640755792 0 -0.46585669794528167 0.42199291516666237 0 -0.46289485375526918 0.43579199928955081 0 -0.48180565015534738 0.42787197640755792 0 -0.46585669794528167 0.42199291516666237 0 -0.48292834897264081 0.4085109976391762 0 -0.4641229039382897 0.40091036417177778 0 -0.46585669794528167 0.42199291516666237 0 -0.48292834897264081 0.4085109976391762 0 -0.46585669794528167 0.42199291516666237 0 -0.48180565015534738 0.42787197640755792 0 -0.48292834897264081 0.4085109976391762 0 -0.48292834897264081 0.4085109976391762 0 -0.5 0.41790010511261683 0 -0.5 0.39502908011169002 0 -0.48180565015534738 0.42787197640755792 0 -0.48292834897264081 0.4085109976391762 0 -0.5 0.41790010511261683 0 -0.49999999999999589 0.44077113011354369 0 -0.48180565015534738 0.42787197640755792 0 -0.5 0.41790010511261683 0 -0.48850556386005051 0.3766603246979251 0 -0.5 0.39502908011169002 0 -0.47832653283541199 0.38608194873200979 0 -0.48850556386005051 0.3766603246979251 0 -0.5 0.39502908011169002 0 -0.5 0.36887446842263683 0 -0.48292834897264081 0.4085109976391762 0 -0.5 0.39502908011169002 0 -0.47832653283541199 0.38608194873200979 0 -0.48292834897264081 0.4085109976391762 0 -0.5 0.39502908011169002 0 -0.48292834897264081 0.4085109976391762 0 -0.47832653283541199 0.38608194873200979 0 -0.4641229039382897 0.40091036417177778 0 -0.48850556386005051 0.3766603246979251 0 -0.47832653283541199 0.38608194873200979 0 -0.48259334700195489 0.36409898273387958 0 -0.47832653283541199 0.38608194873200979 0 -0.46059005399087027 0.38292215568240928 0 -0.4641229039382897 0.40091036417177778 0 -0.47832653283541199 0.38608194873200979 0 -0.46059005399087027 0.38292215568240928 0 -0.46572599417265398 0.36772482908493609 0 -0.44880957839306629 0.41410011360809668 0 -0.4641229039382897 0.40091036417177778 0 -0.44883410986820999 0.3927253945220448 0 -0.46059005399087027 0.38292215568240928 0 -0.4641229039382897 0.40091036417177778 0 -0.44883410986820999 0.3927253945220448 0 -0.44880957839306629 0.41410011360809668 0 -0.44883410986820999 0.3927253945220448 0 -0.43699833754743561 0.40294499431243458 0 -0.44880957839306629 0.41410011360809668 0 -0.44883410986820999 0.3927253945220448 0 -0.44883410986820999 0.3927253945220448 0 -0.43978391516082421 0.3912231797547942 0 -0.43699833754743561 0.40294499431243458 0 -0.44883410986820999 0.3927253945220448 0 -0.43978391516082421 0.3912231797547942 0 -0.44802713623065987 0.37645115623263098 0 -0.44883410986820999 0.3927253945220448 0 -0.44885864134335329 0.37135067543599282 0 -0.44883410986820999 0.3927253945220448 0 -0.44802713623065987 0.37645115623263098 0 -0.44885864134335329 0.37135067543599282 0 -0.43978391516082421 0.3912231797547942 0 -0.44802713623065987 0.37645115623263098 0 -0.42527607699699133 0.39277117395206662 0 -0.46059005399087027 0.38292215568240928 0 -0.44883410986820999 0.3927253945220448 0 -0.44885864134335329 0.37135067543599282 0 -0.44802713623065987 0.37645115623263098 0 -0.4250431626101242 0.37647010748543319 0 -0.42527607699699133 0.39277117395206662 0 -0.44802713623065987 0.37645115623263098 0 -0.42527607699699133 0.39277117395206662 0 -0.4250431626101242 0.37647010748543319 0 -0.4134887672477453 0.38574914578498593 0 -0.40122768387689522 0.38158953953487368 0 -0.4250431626101242 0.37647010748543319 0 -0.40122768387689522 0.38158953953487368 0 -0.4250431626101242 0.37647010748543319 0 -0.4134887672477453 0.38574914578498593 0 -0.42527607699699133 0.39277117395206662 0 -0.4250431626101242 0.37647010748543319 0 -0.40122768387689522 0.38158953953487368 0 -0.40086489287733429 0.37467411733839928 0 -0.4134887672477453 0.38574914578498593 0 -0.40798835104355652 0.39359067917546098 0 -0.40557429982823212 0.38794008425198068 0 -0.4134887672477453 0.38574914578498593 0 -0.40122768387689522 0.38158953953487368 0 -0.40557429982823212 0.38794008425198068 0 -0.40798835104355652 0.39359067917546098 0 -0.42527607699699133 0.39277117395206662 0 -0.40252501776332311 0.40909119167150271 0 -0.42527607699699133 0.39277117395206662 0 -0.40252501776332311 0.40909119167150271 0 -0.4134887672477453 0.38574914578498593 0 -0.40798835104355652 0.39359067917546098 0 -0.42527607699699133 0.39277117395206662 0 -0.42527607699699133 0.39277117395206662 0 -0.43699833754743561 0.40294499431243458 0 -0.42391867717568832 0.41711337076656618 0 -0.43978391516082421 0.3912231797547942 0 -0.42527607699699133 0.39277117395206662 0 -0.43699833754743561 0.40294499431243458 0 -0.44880957839306629 0.41410011360809668 0 -0.43699833754743561 0.40294499431243458 0 -0.42391867717568832 0.41711337076656618 0 -0.44531233658805403 0.42513554986162888 0 -0.42391867717568832 0.41711337076656618 0 -0.43788570063392329 0.43164093021736671 0 -0.44531233658805403 0.42513554986162888 0 -0.42391867717568832 0.41711337076656618 0 -0.43788570063392329 0.43164093021736671 0 -0.42391867717568832 0.41711337076656618 0 -0.42501824733507809 0.43459816807542118 0 -0.43592409671607729 0.44045812782560079 0 -0.43788570063392329 0.43164093021736671 0 -0.42501824733507809 0.43459816807542118 0 -0.42391867717568832 0.41711337076656618 0 -0.42501824733507809 0.43459816807542118 0 -0.40464661760035381 0.43350824459614162 0 -0.42527607699699133 0.39277117395206662 0 -0.42391867717568832 0.41711337076656618 0 -0.40252501776332311 0.40909119167150271 0 -0.42391867717568832 0.41711337076656618 0 -0.40252501776332311 0.40909119167150271 0 -0.40464661760035381 0.43350824459614162 0 -0.42391867717568832 0.41711337076656618 0 -0.40252501776332311 0.40909119167150271 0 -0.40252501776332311 0.40909119167150271 0 -0.37875820238401509 0.42613984176471847 0 -0.40252501776332311 0.40909119167150271 0 -0.40464661760035381 0.43350824459614162 0 -0.37875820238401509 0.42613984176471847 0 -0.38249991962136642 0.44345487931465249 0 -0.40464661760035381 0.43350824459614162 0 -0.37875820238401509 0.42613984176471847 0 -0.40252501776332311 0.40909119167150271 0 -0.37875820238401509 0.42613984176471847 0 -0.37769092578324193 0.39977892163450779 0 -0.37769092578324193 0.39977892163450779 0 -0.38963770449155072 0.39285491215608792 0 -0.37686086334024771 0.38257038446795849 0 -0.40252501776332311 0.40909119167150271 0 -0.37769092578324193 0.39977892163450779 0 -0.38963770449155072 0.39285491215608792 0 -0.40252501776332311 0.40909119167150271 0 -0.37769092578324193 0.39977892163450779 0 -0.37686086334024771 0.38257038446795849 0 -0.39363670834615189 0.38450398520198442 0 -0.40086489287733429 0.37467411733839928 0 -0.38963770449155072 0.39285491215608792 0 -0.37686086334024771 0.38257038446795849 0 -0.39363670834615189 0.38450398520198442 0 -0.37686086334024771 0.38257038446795849 0 -0.40086489287733429 0.37467411733839928 0 -0.37686086334024771 0.38257038446795849 0 -0.40086489287733429 0.37467411733839928 0 -0.39033592763893787 0.37070590072739279 0 -0.39363670834615189 0.38450398520198442 0 -0.40122768387689522 0.38158953953487368 0 -0.39959239714473138 0.39083097251260251 0 -0.38963770449155072 0.39285491215608792 0 -0.39363670834615189 0.38450398520198442 0 -0.39959239714473138 0.39083097251260251 0 -0.39363670834615189 0.38450398520198442 0 -0.40122768387689522 0.38158953953487368 0 -0.40086489287733429 0.37467411733839928 0 -0.40122768387689522 0.38158953953487368 0 -0.40557429982823212 0.38794008425198068 0 -0.39959239714473138 0.39083097251260251 0 -0.40798835104355652 0.39359067917546098 0 -0.40557429982823212 0.38794008425198068 0 -0.39959239714473138 0.39083097251260251 0 -0.40252501776332311 0.40909119167150271 0 -0.38963770449155072 0.39285491215608792 0 -0.39959239714473138 0.39083097251260251 0 -0.40798835104355652 0.39359067917546098 0 -0.40252501776332311 0.40909119167150271 0 -0.39959239714473138 0.39083097251260251 0 -0.3926828114571661 0.35541775914535301 0 -0.40105078960399698 0.34662517948293931 0 -0.40586906590548888 0.3393029225754271 0 -0.3926828114571661 0.35541775914535301 0 -0.39400561065841477 0.34382680172727831 0 -0.40586906590548888 0.3393029225754271 0 -0.3926828114571661 0.35541775914535301 0 -0.40586906590548888 0.3393029225754271 0 -0.3926828114571661 0.35541775914535301 0 -0.39969836615416421 0.35756427730283669 0 -0.39341808057325789 0.36431669671432632 0 -0.3926828114571661 0.35541775914535301 0 -0.40105078960399698 0.34662517948293931 0 -0.39969836615416421 0.35756427730283669 0 -0.3926828114571661 0.35541775914535301 0 -0.39400561065841477 0.34382680172727831 0 -0.38539473684528258 0.34837828204789067 0 -0.40105078960399698 0.34662517948293931 0 -0.40525205349158999 0.35429039595711992 0 -0.40888688292129022 0.34941903462410451 0 -0.40105078960399698 0.34662517948293931 0 -0.4080564418273247 0.34368885170405422 0 -0.40888688292129022 0.34941903462410451 0 -0.40105078960399698 0.34662517948293931 0 -0.40525205349158999 0.35429039595711992 0 -0.39969836615416421 0.35756427730283669 0 -0.40525205349158999 0.35429039595711992 0 -0.39969836615416421 0.35756427730283669 0 -0.40553625032349627 0.36037170931698131 0 -0.40553625032349627 0.36037170931698131 0 -0.40544017780568847 0.3661562974108753 0 -0.40025021147547779 0.36436392320030081 0 -0.40544017780568847 0.3661562974108753 0 -0.40025021147547779 0.36436392320030081 0 -0.397742957241214 0.36844985128713797 0 -0.39969836615416421 0.35756427730283669 0 -0.40553625032349627 0.36037170931698131 0 -0.40025021147547779 0.36436392320030081 0 -0.40544017780568847 0.3661562974108753 0 -0.40086489287733429 0.37467411733839928 0 -0.397742957241214 0.36844985128713797 0 -0.40086489287733429 0.37467411733839928 0 -0.397742957241214 0.36844985128713797 0 -0.39033592763893787 0.37070590072739279 0 -0.397742957241214 0.36844985128713797 0 -0.39341808057325789 0.36431669671432632 0 -0.39033592763893787 0.37070590072739279 0 -0.39969836615416421 0.35756427730283669 0 -0.40025021147547779 0.36436392320030081 0 -0.39341808057325789 0.36431669671432632 0 -0.40025021147547779 0.36436392320030081 0 -0.397742957241214 0.36844985128713797 0 -0.39341808057325789 0.36431669671432632 0 -0.3926828114571661 0.35541775914535301 0 -0.39341808057325789 0.36431669671432632 0 -0.37949655700884349 0.37153259571527891 0 -0.37949655700884349 0.37153259571527891 0 -0.37823932191431281 0.35548757599615399 0 -0.37024808467873749 0.36543132639488701 0 -0.3926828114571661 0.35541775914535301 0 -0.37949655700884349 0.37153259571527891 0 -0.37823932191431281 0.35548757599615399 0 -0.3926828114571661 0.35541775914535301 0 -0.37949655700884349 0.37153259571527891 0 -0.39341808057325789 0.36431669671432632 0 -0.39033592763893787 0.37070590072739279 0 -0.37949655700884349 0.37153259571527891 0 -0.37686086334024771 0.38257038446795849 0 -0.39033592763893787 0.37070590072739279 0 -0.37949655700884349 0.37153259571527891 0 -0.37823932191431281 0.35548757599615399 0 -0.38539473684528258 0.34837828204789067 0 -0.3787015959315434 0.33902802614693439 0 -0.3926828114571661 0.35541775914535301 0 -0.37823932191431281 0.35548757599615399 0 -0.38539473684528258 0.34837828204789067 0 -0.3787015959315434 0.33902802614693439 0 -0.37816355277066899 0.32985684687273281 0 -0.39158393304450312 0.32769252248945308 0 -0.39400561065841477 0.34382680172727831 0 -0.38539473684528258 0.34837828204789067 0 -0.3787015959315434 0.33902802614693439 0 -0.39158393304450312 0.32769252248945308 0 -0.37442838800096029 0.32044424157556423 0 -0.37816355277066899 0.32985684687273281 0 -0.39158393304450312 0.32769252248945308 0 -0.37442838800096029 0.32044424157556423 0 -0.38613629988198012 0.31665983269396758 0 -0.39158393304450312 0.32769252248945308 0 -0.37442838800096029 0.32044424157556423 0 -0.38613629988198012 0.31665983269396758 0 -0.37442838800096029 0.32044424157556423 0 -0.37415321332832258 0.31386652142517069 0 -0.39158393304450312 0.32769252248945308 0 -0.4039094095666334 0.320812311378052 0 -0.40925887999808552 0.33516025262174892 0 -0.38613629988198012 0.31665983269396758 0 -0.39830358576524327 0.31266849694114901 0 -0.39158393304450312 0.32769252248945308 0 -0.39830358576524327 0.31266849694114901 0 -0.39158393304450312 0.32769252248945308 0 -0.4039094095666334 0.320812311378052 0 -0.39830358576524327 0.31266849694114901 0 -0.4039094095666334 0.320812311378052 0 -0.40826549608127172 0.31275764886218971 0 -0.3787015959315434 0.33902802614693439 0 -0.40777024278950652 0.33697950655941222 0 -0.39158393304450312 0.32769252248945308 0 -0.40925887999808552 0.33516025262174892 0 -0.39158393304450312 0.32769252248945308 0 -0.40777024278950652 0.33697950655941222 0 -0.40925887999808552 0.33516025262174892 0 -0.3787015959315434 0.33902802614693439 0 -0.39158393304450312 0.32769252248945308 0 -0.40777024278950652 0.33697950655941222 0 -0.39400561065841477 0.34382680172727831 0 -0.3787015959315434 0.33902802614693439 0 -0.40777024278950652 0.33697950655941222 0 -0.39400561065841477 0.34382680172727831 0 -0.40586906590548888 0.3393029225754271 0 -0.40777024278950652 0.33697950655941222 0 -0.40105078960399698 0.34662517948293931 0 -0.40586906590548888 0.3393029225754271 0 -0.40105078960399698 0.34662517948293931 0 -0.40586906590548888 0.3393029225754271 0 -0.4080564418273247 0.34368885170405422 0 -0.4080564418273247 0.34368885170405422 0 -0.41125860555200922 0.34134685969384471 0 -0.40895905381070002 0.33957121871677393 0 -0.40586906590548888 0.3393029225754271 0 -0.4080564418273247 0.34368885170405422 0 -0.40895905381070002 0.33957121871677393 0 -0.4080564418273247 0.34368885170405422 0 -0.41125860555200922 0.34134685969384471 0 -0.41366919887348358 0.34576378073699821 0 -0.41125860555200922 0.34134685969384471 0 -0.41273643032526569 0.33662953043248711 0 -0.41433336845197538 0.3415594658204692 0 -0.41125860555200922 0.34134685969384471 0 -0.41433336845197538 0.3415594658204692 0 -0.41366919887348358 0.34576378073699821 0 -0.41125860555200922 0.34134685969384471 0 -0.41273643032526569 0.33662953043248711 0 -0.40895905381070002 0.33957121871677393 0 -0.41273643032526569 0.33662953043248711 0 -0.40777024278950652 0.33697950655941222 0 -0.41273643032526569 0.33662953043248711 0 -0.40895905381070002 0.33957121871677393 0 -0.40777024278950652 0.33697950655941222 0 -0.41273643032526569 0.33662953043248711 0 -0.40777024278950652 0.33697950655941222 0 -0.40925887999808552 0.33516025262174892 0 -0.40777024278950652 0.33697950655941222 0 -0.40925887999808552 0.33516025262174892 0 -0.40586906590548888 0.3393029225754271 0 -0.40895905381070002 0.33957121871677393 0 -0.40777024278950652 0.33697950655941222 0 -0.40586906590548888 0.3393029225754271 0 -0.40777024278950652 0.33697950655941222 0 -0.41273643032526569 0.33662953043248711 0 -0.40925887999808552 0.33516025262174892 0 -0.40925887999808552 0.33516025262174892 0 -0.42024067891477529 0.32173946694831868 0 -0.40925887999808552 0.33516025262174892 0 -0.42071708592719742 0.33131558094746122 0 -0.42024067891477529 0.32173946694831868 0 -0.41273643032526569 0.33662953043248711 0 -0.40925887999808552 0.33516025262174892 0 -0.42071708592719742 0.33131558094746122 0 -0.41273643032526569 0.33662953043248711 0 -0.4199209072431685 0.34318781838679219 0 -0.41433336845197538 0.3415594658204692 0 -0.4199209072431685 0.34318781838679219 0 -0.41433336845197538 0.3415594658204692 0 -0.41366919887348358 0.34576378073699821 0 -0.40925887999808552 0.33516025262174892 0 -0.41892768793075841 0.31754462100172592 0 -0.42141481873501418 0.31567829233095179 0 -0.40925887999808552 0.33516025262174892 0 -0.411263050936583 0.31954773430139438 0 -0.41892768793075841 0.31754462100172592 0 -0.40925887999808552 0.33516025262174892 0 -0.42141481873501418 0.31567829233095179 0 -0.40925887999808552 0.33516025262174892 0 -0.42024067891477529 0.32173946694831868 0 -0.42141481873501418 0.31567829233095179 0 -0.411263050936583 0.31954773430139438 0 -0.40826549608127172 0.31275764886218971 0 -0.41647318301620623 0.31168328686166002 0 -0.4039094095666334 0.320812311378052 0 -0.411263050936583 0.31954773430139438 0 -0.40826549608127172 0.31275764886218971 0 -0.4039094095666334 0.320812311378052 0 -0.40925887999808552 0.33516025262174892 0 -0.411263050936583 0.31954773430139438 0 -0.411263050936583 0.31954773430139438 0 -0.41892768793075841 0.31754462100172592 0 -0.41647318301620623 0.31168328686166002 0 -0.41892768793075841 0.31754462100172592 0 -0.42141481873501418 0.31567829233095179 0 -0.41892768793075841 0.31754462100172592 0 -0.42141481873501418 0.31567829233095179 0 -0.41647318301620623 0.31168328686166002 0 -0.42024067891477529 0.32173946694831868 0 -0.43790895006943947 0.32081412042189511 0 -0.43122247783146522 0.30831868127488848 0 -0.42024067891477529 0.32173946694831868 0 -0.42938605365092247 0.3272194948190838 0 -0.43790895006943947 0.32081412042189511 0 -0.42024067891477529 0.32173946694831868 0 -0.42141481873501418 0.31567829233095179 0 -0.43122247783146522 0.30831868127488848 0 -0.42024067891477529 0.32173946694831868 0 -0.43122247783146522 0.30831868127488848 0 -0.42071708592719742 0.33131558094746122 0 -0.42024067891477529 0.32173946694831868 0 -0.42938605365092247 0.3272194948190838 0 -0.42938605365092247 0.3272194948190838 0 -0.43674098495811231 0.33493788649063261 0 -0.43790895006943947 0.32081412042189511 0 -0.43790895006943947 0.32081412042189511 0 -0.4401847358662575 0.3127477530096977 0 -0.43122247783146522 0.30831868127488848 0 -0.41273643032526569 0.33662953043248711 0 -0.43674098495811231 0.33493788649063261 0 -0.42071708592719742 0.33131558094746122 0 -0.42938605365092247 0.3272194948190838 0 -0.43674098495811231 0.33493788649063261 0 -0.41273643032526569 0.33662953043248711 0 -0.4199209072431685 0.34318781838679219 0 -0.43385085243219867 0.34555045147446217 0 -0.41273643032526569 0.33662953043248711 0 -0.42071708592719742 0.33131558094746122 0 -0.43674098495811231 0.33493788649063261 0 -0.41273643032526569 0.33662953043248711 0 -0.43385085243219867 0.34555045147446217 0 -0.41273643032526569 0.33662953043248711 0 -0.43674098495811231 0.33493788649063261 0 -0.43385085243219867 0.34555045147446217 0 -0.43385085243219867 0.34555045147446217 0 -0.4302486007270056 0.35272204188882378 0 -0.42573384958437638 0.34916959158482058 0 -0.43385085243219867 0.34555045147446217 0 -0.43539550265875948 0.35741731211322858 0 -0.44110397924445488 0.35756373905142852 0 -0.43539550265875948 0.35741731211322858 0 -0.4302486007270056 0.35272204188882378 0 -0.42757171946388478 0.35850981688022993 0 -0.43385085243219867 0.34555045147446217 0 -0.43539550265875948 0.35741731211322858 0 -0.4302486007270056 0.35272204188882378 0 -0.4302486007270056 0.35272204188882378 0 -0.42480748600639012 0.35482075793933809 0 -0.42573384958437638 0.34916959158482058 0 -0.4302486007270056 0.35272204188882378 0 -0.42757171946388478 0.35850981688022993 0 -0.42480748600639012 0.35482075793933809 0 -0.42757171946388478 0.35850981688022993 0 -0.42480748600639012 0.35482075793933809 0 -0.42195212413097077 0.36043988011418487 0 -0.4199209072431685 0.34318781838679219 0 -0.43385085243219867 0.34555045147446217 0 -0.42573384958437638 0.34916959158482058 0 -0.42480748600639012 0.35482075793933809 0 -0.42573384958437638 0.34916959158482058 0 -0.41984140151311927 0.3495668882346864 0 -0.4199209072431685 0.34318781838679219 0 -0.42573384958437638 0.34916959158482058 0 -0.41984140151311927 0.3495668882346864 0 -0.4199209072431685 0.34318781838679219 0 -0.41984140151311927 0.3495668882346864 0 -0.41366919887348358 0.34576378073699821 0 -0.41984140151311927 0.3495668882346864 0 -0.41366919887348358 0.34576378073699821 0 -0.41404230344944593 0.35073751764187411 0 -0.42480748600639012 0.35482075793933809 0 -0.41984140151311927 0.3495668882346864 0 -0.41755863725870102 0.35684421707679032 0 -0.42480748600639012 0.35482075793933809 0 -0.41755863725870102 0.35684421707679032 0 -0.42195212413097077 0.36043988011418487 0 -0.41984140151311927 0.3495668882346864 0 -0.41755863725870102 0.35684421707679032 0 -0.41404230344944593 0.35073751764187411 0 -0.41755863725870102 0.35684421707679032 0 -0.41125051028190041 0.35540848222164118 0 -0.41404230344944593 0.35073751764187411 0 -0.41125051028190041 0.35540848222164118 0 -0.40888688292129022 0.34941903462410451 0 -0.41404230344944593 0.35073751764187411 0 -0.41755863725870102 0.35684421707679032 0 -0.41125051028190041 0.35540848222164118 0 -0.41142088061722581 0.36176204086772412 0 -0.40553625032349627 0.36037170931698131 0 -0.41125051028190041 0.35540848222164118 0 -0.41142088061722581 0.36176204086772412 0 -0.40525205349158999 0.35429039595711992 0 -0.40553625032349627 0.36037170931698131 0 -0.41125051028190041 0.35540848222164118 0 -0.40525205349158999 0.35429039595711992 0 -0.41125051028190041 0.35540848222164118 0 -0.40888688292129022 0.34941903462410451 0 -0.4080564418273247 0.34368885170405422 0 -0.40888688292129022 0.34941903462410451 0 -0.41366919887348358 0.34576378073699821 0 -0.40888688292129022 0.34941903462410451 0 -0.41366919887348358 0.34576378073699821 0 -0.41404230344944593 0.35073751764187411 0 -0.4250431626101242 0.37647010748543319 0 -0.40086489287733429 0.37467411733839928 0 -0.42486892241442098 0.36677785020884007 0 -0.40086489287733429 0.37467411733839928 0 -0.42486892241442098 0.36677785020884007 0 -0.40086489287733429 0.37467411733839928 0 -0.41378193274770297 0.36450427419225789 0 -0.42486892241442098 0.36677785020884007 0 -0.40544017780568847 0.3661562974108753 0 -0.40086489287733429 0.37467411733839928 0 -0.41378193274770297 0.36450427419225789 0 -0.40544017780568847 0.3661562974108753 0 -0.41142088061722581 0.36176204086772412 0 -0.41378193274770297 0.36450427419225789 0 -0.40553625032349627 0.36037170931698131 0 -0.40544017780568847 0.3661562974108753 0 -0.41142088061722581 0.36176204086772412 0 -0.41755863725870102 0.35684421707679032 0 -0.41378193274770297 0.36450427419225789 0 -0.42195212413097077 0.36043988011418487 0 -0.41378193274770297 0.36450427419225789 0 -0.42486892241442098 0.36677785020884007 0 -0.42195212413097077 0.36043988011418487 0 -0.41755863725870102 0.35684421707679032 0 -0.41142088061722581 0.36176204086772412 0 -0.41378193274770297 0.36450427419225789 0 -0.4250431626101242 0.37647010748543319 0 -0.44885864134335329 0.37135067543599282 0 -0.4250431626101242 0.37647010748543319 0 -0.42486892241442098 0.36677785020884007 0 -0.44885864134335329 0.37135067543599282 0 -0.42486892241442098 0.36677785020884007 0 -0.448872951951507 0.35888158307927881 0 -0.43539550265875948 0.35741731211322858 0 -0.42486892241442098 0.36677785020884007 0 -0.44110397924445488 0.35756373905142852 0 -0.43539550265875948 0.35741731211322858 0 -0.42757171946388478 0.35850981688022993 0 -0.42486892241442098 0.36677785020884007 0 -0.42757171946388478 0.35850981688022993 0 -0.42486892241442098 0.36677785020884007 0 -0.42195212413097077 0.36043988011418487 0 -0.42486892241442098 0.36677785020884007 0 -0.44885864134335329 0.37135067543599282 0 -0.448872951951507 0.35888158307927881 0 -0.44802713623065987 0.37645115623263098 0 -0.4250431626101242 0.37647010748543319 0 -0.44885864134335329 0.37135067543599282 0 -0.42486892241442098 0.36677785020884007 0 -0.44110397924445488 0.35756373905142852 0 -0.448872951951507 0.35888158307927881 0 -0.44885864134335329 0.37135067543599282 0 -0.448872951951507 0.35888158307927881 0 -0.44885864134335329 0.37135067543599282 0 -0.448872951951507 0.35888158307927881 0 -0.45634368000688869 0.36512471152292858 0 -0.43385085243219867 0.34555045147446217 0 -0.45496527453913199 0.35447137251643651 0 -0.44889299330712729 0.34242966823447613 0 -0.43385085243219867 0.34555045147446217 0 -0.45496527453913199 0.35447137251643651 0 -0.43385085243219867 0.34555045147446217 0 -0.44887533288597797 0.35680703170406669 0 -0.45496527453913199 0.35447137251643651 0 -0.43385085243219867 0.34555045147446217 0 -0.44110397924445488 0.35756373905142852 0 -0.44887533288597797 0.35680703170406669 0 -0.44110397924445488 0.35756373905142852 0 -0.44887533288597797 0.35680703170406669 0 -0.448872951951507 0.35888158307927881 0 -0.44887533288597797 0.35680703170406669 0 -0.448872951951507 0.35888158307927881 0 -0.44887533288597797 0.35680703170406669 0 -0.448872951951507 0.35888158307927881 0 -0.45496527453913199 0.35447137251643651 0 -0.448872951951507 0.35888158307927881 0 -0.45496527453913199 0.35447137251643651 0 -0.47186707529616939 0.3513175305497272 0 -0.448872951951507 0.35888158307927881 0 -0.47186707529616939 0.3513175305497272 0 -0.448872951951507 0.35888158307927881 0 -0.45634368000688869 0.36512471152292858 0 -0.47186707529616939 0.3513175305497272 0 -0.45911772068334677 0.34536620346235469 0 -0.45496527453913199 0.35447137251643651 0 -0.47186707529616939 0.3513175305497272 0 -0.45911772068334677 0.34536620346235469 0 -0.45496527453913199 0.35447137251643651 0 -0.44889299330712729 0.34242966823447613 0 -0.46572599417265398 0.36772482908493609 0 -0.45634368000688869 0.36512471152292858 0 -0.47186707529616939 0.3513175305497272 0 -0.46059005399087027 0.38292215568240928 0 -0.44885864134335329 0.37135067543599282 0 -0.46572599417265398 0.36772482908493609 0 -0.44885864134335329 0.37135067543599282 0 -0.46572599417265398 0.36772482908493609 0 -0.44885864134335329 0.37135067543599282 0 -0.46572599417265398 0.36772482908493609 0 -0.45634368000688869 0.36512471152292858 0 -0.47832653283541199 0.38608194873200979 0 -0.46572599417265398 0.36772482908493609 0 -0.48259334700195489 0.36409898273387958 0 -0.46572599417265398 0.36772482908493609 0 -0.48259334700195489 0.36409898273387958 0 -0.47186707529616939 0.3513175305497272 0 -0.46572599417265398 0.36772482908493609 0 -0.48259334700195489 0.36409898273387958 0 -0.47186707529616939 0.3513175305497272 0 -0.494861198640831 0.34375347802017348 0 -0.47186707529616939 0.3513175305497272 0 -0.48536711719674469 0.35339641184703091 0 -0.494861198640831 0.34375347802017348 0 -0.48259334700195489 0.36409898273387958 0 -0.47186707529616939 0.3513175305497272 0 -0.48536711719674469 0.35339641184703091 0 -0.48259334700195489 0.36409898273387958 0 -0.49214684784802371 0.35441565608434311 0 -0.48536711719674469 0.35339641184703091 0 -0.49214684784802371 0.35441565608434311 0 -0.5 0.36887446842263683 0 -0.5 0.34271985673358363 0 -0.49214684784802371 0.35441565608434311 0 -0.48536711719674469 0.35339641184703091 0 -0.494861198640831 0.34375347802017348 0 -0.49214684784802371 0.35441565608434311 0 -0.494861198640831 0.34375347802017348 0 -0.5 0.34271985673358363 0 -0.48850556386005051 0.3766603246979251 0 -0.48259334700195489 0.36409898273387958 0 -0.5 0.36887446842263683 0 -0.48259334700195489 0.36409898273387958 0 -0.49214684784802371 0.35441565608434311 0 -0.5 0.36887446842263683 0 -0.485708092488497 0.3189911195031831 0 -0.5 0.31656524504453032 0 -0.48475009422380527 0.3315545986069256 0 -0.485708092488497 0.3189911195031831 0 -0.5 0.31656524504453032 0 -0.48583489694974541 0.30845327583860088 0 -0.5 0.31656524504453032 0 -0.5 0.34271985673358363 0 -0.48475009422380527 0.3315545986069256 0 -0.494861198640831 0.34375347802017348 0 -0.5 0.34271985673358363 0 -0.48475009422380527 0.3315545986069256 0 -0.48475009422380527 0.3315545986069256 0 -0.46074553959095882 0.3332462425487791 0 -0.47186707529616939 0.3513175305497272 0 -0.494861198640831 0.34375347802017348 0 -0.48475009422380527 0.3315545986069256 0 -0.47186707529616939 0.3513175305497272 0 -0.48475009422380527 0.3315545986069256 0 -0.46074553959095882 0.3332462425487791 0 -0.48475009422380527 0.3315545986069256 0 -0.47224737878043732 0.31939135852267558 0 -0.46074553959095882 0.3332462425487791 0 -0.485708092488497 0.3189911195031831 0 -0.48475009422380527 0.3315545986069256 0 -0.47224737878043732 0.31939135852267558 0 -0.485708092488497 0.3189911195031831 0 -0.47224737878043732 0.31939135852267558 0 -0.48583489694974541 0.30845327583860088 0 -0.47224737878043732 0.31939135852267558 0 -0.46258830912673421 0.31343425170936878 0 -0.46074553959095882 0.3332462425487791 0 -0.46258830912673421 0.31343425170936878 0 -0.46074553959095882 0.3332462425487791 0 -0.45107709460752138 0.31557533431346357 0 -0.45911772068334677 0.34536620346235469 0 -0.47186707529616939 0.3513175305497272 0 -0.46074553959095882 0.3332462425487791 0 -0.45911772068334677 0.34536620346235469 0 -0.46074553959095882 0.3332462425487791 0 -0.44889299330712729 0.34242966823447613 0 -0.43674098495811231 0.33493788649063261 0 -0.46074553959095882 0.3332462425487791 0 -0.43674098495811231 0.33493788649063261 0 -0.46074553959095882 0.3332462425487791 0 -0.44889299330712729 0.34242966823447613 0 -0.43674098495811231 0.33493788649063261 0 -0.46074553959095882 0.3332462425487791 0 -0.43790895006943947 0.32081412042189511 0 -0.43674098495811231 0.33493788649063261 0 -0.43385085243219867 0.34555045147446217 0 -0.44889299330712729 0.34242966823447613 0 -0.46074553959095882 0.3332462425487791 0 -0.45107709460752138 0.31557533431346357 0 -0.43790895006943947 0.32081412042189511 0 -0.45107709460752138 0.31557533431346357 0 -0.43790895006943947 0.32081412042189511 0 -0.4401847358662575 0.3127477530096977 0 -0.44444415583193408 0.29216055381020578 0 -0.43122247783146522 0.30831868127488848 0 -0.44810052680614793 0.29565349026271098 0 -0.43122247783146522 0.30831868127488848 0 -0.44368336155109173 0.30649675881006838 0 -0.44810052680614793 0.29565349026271098 0 -0.43122247783146522 0.30831868127488848 0 -0.4401847358662575 0.3127477530096977 0 -0.44368336155109173 0.30649675881006838 0 -0.43122247783146522 0.30831868127488848 0 -0.44444415583193408 0.29216055381020578 0 -0.44810052680614793 0.29565349026271098 0 -0.43122247783146522 0.30831868127488848 0 -0.45107709460752138 0.31557533431346357 0 -0.4401847358662575 0.3127477530096977 0 -0.44368336155109173 0.30649675881006838 0 -0.44368336155109173 0.30649675881006838 0 -0.44996115485610377 0.3015940899144034 0 -0.4551770389262465 0.30483297142504889 0 -0.44368336155109173 0.30649675881006838 0 -0.44996115485610377 0.3015940899144034 0 -0.44810052680614793 0.29565349026271098 0 -0.45288369214092922 0.29939313915978533 0 -0.44996115485610377 0.3015940899144034 0 -0.44810052680614793 0.29565349026271098 0 -0.45288369214092922 0.29939313915978533 0 -0.44996115485610377 0.3015940899144034 0 -0.4551770389262465 0.30483297142504889 0 -0.45107709460752138 0.31557533431346357 0 -0.44368336155109173 0.30649675881006838 0 -0.4551770389262465 0.30483297142504889 0 -0.44702735364695217 0.27675533545947301 0 -0.43422108619098299 0.29621681389521232 0 -0.44444415583193408 0.29216055381020578 0 -0.44702735364695217 0.27675533545947301 0 -0.43422108619098299 0.29621681389521232 0 -0.44702735364695217 0.27675533545947301 0 -0.43274811138672559 0.28469846643612018 0 -0.43422108619098299 0.29621681389521232 0 -0.44810052680614793 0.29565349026271098 0 -0.4493542421043164 0.28919027156790111 0 -0.45395006383388498 0.28587005882998617 0 -0.44444415583193408 0.29216055381020578 0 -0.44810052680614793 0.29565349026271098 0 -0.4493542421043164 0.28919027156790111 0 -0.44444415583193408 0.29216055381020578 0 -0.4493542421043164 0.28919027156790111 0 -0.44702735364695217 0.27675533545947301 0 -0.4493542421043164 0.28919027156790111 0 -0.45395006383388498 0.28587005882998617 0 -0.44702735364695217 0.27675533545947301 0 -0.44810052680614793 0.29565349026271098 0 -0.45395006383388498 0.28587005882998617 0 -0.46497857578083068 0.28298829925053381 0 -0.44810052680614793 0.29565349026271098 0 -0.4593999708052337 0.29480301670676529 0 -0.46497857578083068 0.28298829925053381 0 -0.44810052680614793 0.29565349026271098 0 -0.46497857578083068 0.28298829925053381 0 -0.45288369214092922 0.29939313915978533 0 -0.44810052680614793 0.29565349026271098 0 -0.4593999708052337 0.29480301670676529 0 -0.4593999708052337 0.29480301670676529 0 -0.46827174088950307 0.29409138505043392 0 -0.46497857578083068 0.28298829925053381 0 -0.46258830912673421 0.31343425170936878 0 -0.45107709460752138 0.31557533431346357 0 -0.4551770389262465 0.30483297142504889 0 -0.45288369214092922 0.29939313915978533 0 -0.4593999708052337 0.29480301670676529 0 -0.4551770389262465 0.30483297142504889 0 -0.4593999708052337 0.29480301670676529 0 -0.4551770389262465 0.30483297142504889 0 -0.46625021185001803 0.30380681263807602 0 -0.4593999708052337 0.29480301670676529 0 -0.46827174088950307 0.29409138505043392 0 -0.46625021185001803 0.30380681263807602 0 -0.47224737878043732 0.31939135852267558 0 -0.46258830912673421 0.31343425170936878 0 -0.46625021185001803 0.30380681263807602 0 -0.46258830912673421 0.31343425170936878 0 -0.4551770389262465 0.30483297142504889 0 -0.46625021185001803 0.30380681263807602 0 -0.47551717359816043 0.30301602212345602 0 -0.4769183937012712 0.29196404103452073 0 -0.48583489694974541 0.30845327583860088 0 -0.47224737878043732 0.31939135852267558 0 -0.46625021185001803 0.30380681263807602 0 -0.47551717359816043 0.30301602212345602 0 -0.47224737878043732 0.31939135852267558 0 -0.47551717359816043 0.30301602212345602 0 -0.48583489694974541 0.30845327583860088 0 -0.46827174088950307 0.29409138505043392 0 -0.46625021185001803 0.30380681263807602 0 -0.47551717359816043 0.30301602212345602 0 -0.46827174088950307 0.29409138505043392 0 -0.46497857578083068 0.28298829925053381 0 -0.4769183937012712 0.29196404103452073 0 -0.4769183937012712 0.29196404103452073 0 -0.48757792524538679 0.2814999319082685 0 -0.48583489694974541 0.30845327583860088 0 -0.46827174088950307 0.29409138505043392 0 -0.47551717359816043 0.30301602212345602 0 -0.4769183937012712 0.29196404103452073 0 -0.46497857578083068 0.28298829925053381 0 -0.47783287987075052 0.28169384510791978 0 -0.4769183937012712 0.29196404103452073 0 -0.47783287987075052 0.28169384510791978 0 -0.4769183937012712 0.29196404103452073 0 -0.48757792524538679 0.2814999319082685 0 -0.5 0.29041063335547701 0 -0.48757792524538679 0.2814999319082685 0 -0.48583489694974541 0.30845327583860088 0 -0.48757792524538679 0.2814999319082685 0 -0.48583489694974541 0.30845327583860088 0 -0.5 0.31656524504453032 0 -0.5 0.29041063335547701 0 -0.48583489694974541 0.30845327583860088 0 -0.5 0.23810140997737081 0 -0.5 0.26425602166642381 0 -0.48932095354102823 0.25454658797793611 0 -0.48757792524538679 0.2814999319082685 0 -0.48932095354102823 0.25454658797793611 0 -0.48366697684514259 0.26703881783025729 0 -0.48757792524538679 0.2814999319082685 0 -0.5 0.26425602166642381 0 -0.48932095354102823 0.25454658797793611 0 -0.48757792524538679 0.2814999319082685 0 -0.48932095354102823 0.25454658797793611 0 -0.5 0.29041063335547701 0 -0.48757792524538679 0.2814999319082685 0 -0.5 0.26425602166642381 0 -0.46497857578083068 0.28298829925053381 0 -0.48185662475551339 0.27032310823835648 0 -0.46497857578083068 0.28298829925053381 0 -0.47783287987075052 0.28169384510791978 0 -0.48185662475551339 0.27032310823835648 0 -0.48366697684514259 0.26703881783025729 0 -0.45893043448094739 0.2699305570534084 0 -0.48757792524538679 0.2814999319082685 0 -0.48366697684514259 0.26703881783025729 0 -0.48185662475551339 0.27032310823835648 0 -0.48366697684514259 0.26703881783025729 0 -0.48185662475551339 0.27032310823835648 0 -0.47235815296560851 0.27257019559313889 0 -0.46497857578083068 0.28298829925053381 0 -0.48185662475551339 0.27032310823835648 0 -0.47235815296560851 0.27257019559313889 0 -0.48366697684514259 0.26703881783025729 0 -0.46959483388743167 0.25994315597580908 0 -0.45893043448094739 0.2699305570534084 0 -0.48366697684514259 0.26703881783025729 0 -0.47235815296560851 0.27257019559313889 0 -0.45893043448094739 0.2699305570534084 0 -0.47783287987075052 0.28169384510791978 0 -0.48757792524538679 0.2814999319082685 0 -0.48185662475551339 0.27032310823835648 0 -0.48932095354102823 0.25454658797793611 0 -0.48366697684514259 0.26703881783025729 0 -0.47792533453874358 0.25606878273296479 0 -0.48366697684514259 0.26703881783025729 0 -0.46959483388743167 0.25994315597580908 0 -0.47792533453874358 0.25606878273296479 0 -0.47864167104372218 0.246590621409366 0 -0.48932095354102823 0.25454658797793611 0 -0.47792533453874358 0.25606878273296479 0 -0.47864167104372218 0.246590621409366 0 -0.47792533453874358 0.25606878273296479 0 -0.46938038244821267 0.25133041049185839 0 -0.46959483388743167 0.25994315597580908 0 -0.47792533453874358 0.25606878273296479 0 -0.46938038244821267 0.25133041049185839 0 -0.46959483388743167 0.25994315597580908 0 -0.46938038244821267 0.25133041049185839 0 -0.45807104112411212 0.25534721177055669 0 -0.46959483388743167 0.25994315597580908 0 -0.45807104112411212 0.25534721177055669 0 -0.45893043448094739 0.2699305570534084 0 -0.45807104112411212 0.25534721177055669 0 -0.45893043448094739 0.2699305570534084 0 -0.44442574262614493 0.25832327296872359 0 -0.45395006383388498 0.28587005882998617 0 -0.46497857578083068 0.28298829925053381 0 -0.45893043448094739 0.2699305570534084 0 -0.45395006383388498 0.28587005882998617 0 -0.45893043448094739 0.2699305570534084 0 -0.44702735364695217 0.27675533545947301 0 -0.46497857578083068 0.28298829925053381 0 -0.47235815296560851 0.27257019559313889 0 -0.45893043448094739 0.2699305570534084 0 -0.45893043448094739 0.2699305570534084 0 -0.43419389211675241 0.27282229627655952 0 -0.45893043448094739 0.2699305570534084 0 -0.44442574262614493 0.25832327296872359 0 -0.43419389211675241 0.27282229627655952 0 -0.45893043448094739 0.2699305570534084 0 -0.44702735364695217 0.27675533545947301 0 -0.43419389211675241 0.27282229627655952 0 -0.44702735364695217 0.27675533545947301 0 -0.43419389211675241 0.27282229627655952 0 -0.43274811138672559 0.28469846643612018 0 -0.45046339488490522 0.249057113070103 0 -0.45807104112411212 0.25534721177055669 0 -0.44442574262614493 0.25832327296872359 0 -0.44062222049055039 0.24203477259657111 0 -0.44442574262614493 0.25832327296872359 0 -0.42503978512155383 0.25887440404814072 0 -0.44062222049055039 0.24203477259657111 0 -0.42503978512155383 0.25887440404814072 0 -0.44442574262614493 0.25832327296872359 0 -0.42503978512155383 0.25887440404814072 0 -0.43419389211675241 0.27282229627655952 0 -0.42503978512155383 0.25887440404814072 0 -0.40945734975255721 0.27571403549971041 0 -0.40585136056822319 0.25674789398696107 0 -0.4198454647722451 0.23985190764030939 0 -0.42503978512155383 0.25887440404814072 0 -0.40585136056822319 0.25674789398696107 0 -0.40945734975255721 0.27571403549971041 0 -0.43419389211675241 0.27282229627655952 0 -0.42503978512155383 0.25887440404814072 0 -0.40945734975255721 0.27571403549971041 0 -0.42503978512155383 0.25887440404814072 0 -0.40945734975255721 0.27571403549971041 0 -0.43419389211675241 0.27282229627655952 0 -0.40945734975255721 0.27571403549971041 0 -0.43419389211675241 0.27282229627655952 0 -0.4229835889384117 0.28415291652507912 0 -0.43419389211675241 0.27282229627655952 0 -0.43274811138672559 0.28469846643612018 0 -0.4229835889384117 0.28415291652507912 0 -0.43274811138672559 0.28469846643612018 0 -0.43422108619098299 0.29621681389521232 0 -0.42519236151645012 0.29288975242762622 0 -0.43274811138672559 0.28469846643612018 0 -0.42519236151645012 0.29288975242762622 0 -0.4229835889384117 0.28415291652507912 0 -0.42141481873501418 0.31567829233095179 0 -0.43422108619098299 0.29621681389521232 0 -0.42141481873501418 0.31567829233095179 0 -0.43422108619098299 0.29621681389521232 0 -0.42237726971740519 0.30236741203524931 0 -0.44444415583193408 0.29216055381020578 0 -0.43422108619098299 0.29621681389521232 0 -0.43122247783146522 0.30831868127488848 0 -0.42141481873501418 0.31567829233095179 0 -0.43422108619098299 0.29621681389521232 0 -0.43122247783146522 0.30831868127488848 0 -0.43422108619098299 0.29621681389521232 0 -0.42519236151645012 0.29288975242762622 0 -0.42237726971740519 0.30236741203524931 0 -0.42141481873501418 0.31567829233095179 0 -0.43122247783146522 0.30831868127488848 0 -0.42237726971740519 0.30236741203524931 0 -0.41647318301620623 0.31168328686166002 0 -0.40812109447663159 0.30329838776079099 0 -0.42141481873501418 0.31567829233095179 0 -0.42237726971740519 0.30236741203524931 0 -0.41647318301620623 0.31168328686166002 0 -0.42237726971740519 0.30236741203524931 0 -0.40812109447663159 0.30329838776079099 0 -0.41256551749876041 0.29129965580367562 0 -0.40826549608127172 0.31275764886218971 0 -0.41647318301620623 0.31168328686166002 0 -0.40812109447663159 0.30329838776079099 0 -0.40945734975255721 0.27571403549971041 0 -0.4229835889384117 0.28415291652507912 0 -0.41256551749876041 0.29129965580367562 0 -0.42519236151645012 0.29288975242762622 0 -0.4229835889384117 0.28415291652507912 0 -0.41256551749876041 0.29129965580367562 0 -0.42519236151645012 0.29288975242762622 0 -0.42237726971740519 0.30236741203524931 0 -0.41256551749876041 0.29129965580367562 0 -0.40945734975255721 0.27571403549971041 0 -0.39180528154043992 0.29479027846244049 0 -0.39350738277932218 0.27757861076756318 0 -0.40945734975255721 0.27571403549971041 0 -0.39180528154043992 0.29479027846244049 0 -0.40812109447663159 0.30329838776079099 0 -0.41256551749876041 0.29129965580367562 0 -0.39180528154043992 0.29479027846244049 0 -0.40945734975255721 0.27571403549971041 0 -0.41256551749876041 0.29129965580367562 0 -0.39180528154043992 0.29479027846244049 0 -0.38613629988198012 0.31665983269396758 0 -0.39830358576524327 0.31266849694114901 0 -0.39180528154043992 0.29479027846244049 0 -0.39830358576524327 0.31266849694114901 0 -0.40812109447663159 0.30329838776079099 0 -0.39180528154043992 0.29479027846244049 0 -0.39830358576524327 0.31266849694114901 0 -0.40826549608127172 0.31275764886218971 0 -0.40812109447663159 0.30329838776079099 0 -0.39180528154043992 0.29479027846244049 0 -0.37819889022761238 0.29924868842846319 0 -0.37415321332832258 0.31386652142517069 0 -0.38613629988198012 0.31665983269396758 0 -0.39180528154043992 0.29479027846244049 0 -0.37415321332832258 0.31386652142517069 0 -0.39180528154043992 0.29479027846244049 0 -0.37415321332832258 0.31386652142517069 0 -0.39180528154043992 0.29479027846244049 0 -0.37819889022761238 0.29924868842846319 0 -0.37870614451813112 0.28175948497688769 0 -0.39180528154043992 0.29479027846244049 0 -0.37870614451813112 0.28175948497688769 0 -0.39350738277932218 0.27757861076756318 0 -0.37870614451813112 0.28175948497688769 0 -0.37647038179830861 0.26645711442365799 0 -0.39350738277932218 0.27757861076756318 0 -0.37647038179830861 0.26645711442365799 0 -0.39336972403141229 0.26369738761855421 0 -0.39350738277932218 0.27757861076756318 0 -0.38790582398472923 0.24962922847932231 0 -0.37647038179830861 0.26645711442365799 0 -0.39336972403141229 0.26369738761855421 0 -0.38790582398472923 0.24962922847932231 0 -0.37647038179830861 0.26645711442365799 0 -0.36318679658289171 0.25196182354824148 0 -0.40945734975255721 0.27571403549971041 0 -0.40585136056822319 0.25674789398696107 0 -0.39336972403141229 0.26369738761855421 0 -0.38790582398472923 0.24962922847932231 0 -0.40585136056822319 0.25674789398696107 0 -0.39336972403141229 0.26369738761855421 0 -0.40945734975255721 0.27571403549971041 0 -0.39336972403141229 0.26369738761855421 0 -0.39350738277932218 0.27757861076756318 0 -0.40945734975255721 0.27571403549971041 0 -0.39350738277932218 0.27757861076756318 0 -0.35583614606747688 0.27501819518035592 0 -0.36318679658289171 0.25196182354824148 0 -0.33952374355129727 0.25899057541505788 0 -0.37647038179830861 0.26645711442365799 0 -0.35583614606747688 0.27501819518035592 0 -0.36318679658289171 0.25196182354824148 0 -0.37870614451813112 0.28175948497688769 0 -0.37647038179830861 0.26645711442365799 0 -0.35583614606747688 0.27501819518035592 0 -0.37819889022761238 0.29924868842846319 0 -0.37870614451813112 0.28175948497688769 0 -0.36775571630023218 0.2927315942663431 0 -0.37870614451813112 0.28175948497688769 0 -0.35583614606747688 0.27501819518035592 0 -0.36775571630023218 0.2927315942663431 0 -0.37819889022761238 0.29924868842846319 0 -0.36899777432263853 0.30469822459034263 0 -0.37415321332832258 0.31386652142517069 0 -0.36899777432263853 0.30469822459034263 0 -0.36272901898995358 0.31473918551029578 0 -0.37415321332832258 0.31386652142517069 0 -0.37819889022761238 0.29924868842846319 0 -0.36775571630023218 0.2927315942663431 0 -0.36899777432263853 0.30469822459034263 0 -0.36775571630023218 0.2927315942663431 0 -0.36899777432263853 0.30469822459034263 0 -0.35931620367806588 0.30475084950198522 0 -0.36775571630023218 0.2927315942663431 0 -0.35931620367806588 0.30475084950198522 0 -0.35261706249820868 0.29381533636168528 0 -0.36899777432263853 0.30469822459034263 0 -0.35931620367806588 0.30475084950198522 0 -0.36272901898995358 0.31473918551029578 0 -0.35931620367806588 0.30475084950198522 0 -0.35261706249820868 0.29381533636168528 0 -0.34344143829887858 0.30736403781452232 0 -0.35931620367806588 0.30475084950198522 0 -0.34344143829887858 0.30736403781452232 0 -0.35467675850453528 0.31743756764607989 0 -0.35931620367806588 0.30475084950198522 0 -0.35467675850453528 0.31743756764607989 0 -0.36272901898995358 0.31473918551029578 0 -0.35583614606747688 0.27501819518035592 0 -0.36775571630023218 0.2927315942663431 0 -0.35261706249820868 0.29381533636168528 0 -0.35583614606747688 0.27501819518035592 0 -0.35261706249820868 0.29381533636168528 0 -0.33673580814638959 0.28921200504521999 0 -0.35261706249820868 0.29381533636168528 0 -0.33673580814638959 0.28921200504521999 0 -0.34344143829887858 0.30736403781452232 0 -0.33673580814638959 0.28921200504521999 0 -0.32075162894010661 0.28280614760534989 0 -0.33379142081270979 0.2734424933293601 0 -0.34344143829887858 0.30736403781452232 0 -0.31699951866320542 0.30755322334125379 0 -0.34344143829887858 0.30736403781452232 0 -0.31699951866320542 0.30755322334125379 0 -0.33459812393413729 0.32207732583041709 0 -0.33673580814638959 0.28921200504521999 0 -0.34344143829887858 0.30736403781452232 0 -0.31699951866320542 0.30755322334125379 0 -0.33673580814638959 0.28921200504521999 0 -0.31699951866320542 0.30755322334125379 0 -0.32075162894010661 0.28280614760534989 0 -0.31699951866320542 0.30755322334125379 0 -0.32075162894010661 0.28280614760534989 0 -0.30493521127791462 0.28695781074044469 0 -0.32075162894010661 0.28280614760534989 0 -0.31931282352829687 0.26617321261290411 0 -0.33379142081270979 0.2734424933293601 0 -0.32075162894010661 0.28280614760534989 0 -0.31931282352829687 0.26617321261290411 0 -0.30493521127791462 0.28695781074044469 0 -0.35583614606747688 0.27501819518035592 0 -0.33673580814638959 0.28921200504521999 0 -0.33379142081270979 0.2734424933293601 0 -0.35583614606747688 0.27501819518035592 0 -0.33379142081270979 0.2734424933293601 0 -0.33952374355129727 0.25899057541505788 0 -0.31931282352829687 0.26617321261290411 0 -0.33379142081270979 0.2734424933293601 0 -0.33952374355129727 0.25899057541505788 0 -0.32200613725511351 0.24850726385495631 0 -0.31931282352829687 0.26617321261290411 0 -0.33952374355129727 0.25899057541505788 0 -0.32200613725511351 0.24850726385495631 0 -0.31931282352829687 0.26617321261290411 0 -0.30640548876467488 0.25787073169030861 0 -0.31931282352829687 0.26617321261290411 0 -0.30640548876467488 0.25787073169030861 0 -0.3010630097917536 0.27273037638764702 0 -0.31931282352829687 0.26617321261290411 0 -0.3010630097917536 0.27273037638764702 0 -0.30493521127791462 0.28695781074044469 0 -0.31931282352829687 0.26617321261290411 0 -0.30493521127791462 0.28695781074044469 0 -0.3010630097917536 0.27273037638764702 0 -0.29309283898050847 0.28048055459605348 0 -0.30493521127791462 0.28695781074044469 0 -0.3010630097917536 0.27273037638764702 0 -0.29309283898050847 0.28048055459605348 0 -0.28156868640737281 0.27216957229852412 0 -0.30640548876467488 0.25787073169030861 0 -0.3010630097917536 0.27273037638764702 0 -0.28156868640737281 0.27216957229852412 0 -0.30640548876467488 0.25787073169030861 0 -0.28156868640737281 0.27216957229852412 0 -0.28729818335365731 0.26780124082781631 0 -0.28156868640737281 0.27216957229852412 0 -0.28729818335365731 0.26780124082781631 0 -0.27880962639343299 0.26078065685839158 0 -0.29309283898050847 0.28048055459605348 0 -0.28156868640737281 0.27216957229852412 0 -0.28401529333418091 0.28255904946725641 0 -0.30640548876467488 0.25787073169030861 0 -0.28156868640737281 0.27216957229852412 0 -0.29125564533142001 0.24067530578368901 0 -0.30640548876467488 0.25787073169030861 0 -0.28729818335365731 0.26780124082781631 0 -0.29125564533142001 0.24067530578368901 0 -0.28729818335365731 0.26780124082781631 0 -0.27880962639343299 0.26078065685839158 0 -0.29125564533142001 0.24067530578368901 0 -0.28729818335365731 0.26780124082781631 0 -0.29125564533142001 0.24067530578368901 0 -0.26892213733164849 0.25365425058065472 0 -0.27880962639343299 0.26078065685839158 0 -0.26892213733164849 0.25365425058065472 0 -0.27880962639343299 0.26078065685839158 0 -0.26500347954306669 0.26960291480127369 0 -0.28156868640737281 0.27216957229852412 0 -0.25673188405007052 0.28646841290673969 0 -0.28156868640737281 0.27216957229852412 0 -0.26500347954306669 0.26960291480127369 0 -0.25673188405007052 0.28646841290673969 0 -0.28156868640737281 0.27216957229852412 0 -0.27880962639343299 0.26078065685839158 0 -0.26500347954306669 0.26960291480127369 0 -0.28156868640737281 0.27216957229852412 0 -0.27479408276187339 0.28687287199942368 0 -0.28401529333418091 0.28255904946725641 0 -0.26500347954306669 0.26960291480127369 0 -0.25265925142613249 0.26128234508680298 0 -0.25673188405007052 0.28646841290673969 0 -0.26892213733164849 0.25365425058065472 0 -0.26500347954306669 0.26960291480127369 0 -0.25265925142613249 0.26128234508680298 0 -0.25621817608628389 0.2460965770837312 0 -0.26892213733164849 0.25365425058065472 0 -0.25265925142613249 0.26128234508680298 0 -0.25505401324638421 0.30366623925853881 0 -0.26661761067819428 0.2958317928062858 0 -0.26721257633701828 0.30790943684761429 0 -0.25505401324638421 0.30366623925853881 0 -0.26721257633701828 0.30790943684761429 0 -0.25901197930261888 0.31383205914145501 0 -0.26721257633701828 0.30790943684761429 0 -0.25901197930261888 0.31383205914145501 0 -0.26528599585519008 0.31471464054907522 0 -0.25505401324638421 0.30366623925853881 0 -0.25901197930261888 0.31383205914145501 0 -0.24885494741763489 0.31718848033418301 0 -0.25505401324638421 0.30366623925853881 0 -0.25673188405007052 0.28646841290673969 0 -0.26661761067819428 0.2958317928062858 0 -0.26661761067819428 0.2958317928062858 0 -0.27573637841232751 0.29432500902679382 0 -0.27326763327687947 0.30016750757533939 0 -0.28156868640737281 0.27216957229852412 0 -0.25673188405007052 0.28646841290673969 0 -0.27479408276187339 0.28687287199942368 0 -0.26661761067819428 0.2958317928062858 0 -0.27479408276187339 0.28687287199942368 0 -0.27573637841232751 0.29432500902679382 0 -0.25673188405007052 0.28646841290673969 0 -0.26661761067819428 0.2958317928062858 0 -0.27479408276187339 0.28687287199942368 0 -0.27479408276187339 0.28687287199942368 0 -0.28401529333418091 0.28255904946725641 0 -0.28313816676434478 0.29069510378855717 0 -0.27479408276187339 0.28687287199942368 0 -0.27573637841232751 0.29432500902679382 0 -0.28313816676434478 0.29069510378855717 0 -0.27573637841232751 0.29432500902679382 0 -0.28086439858034518 0.29805776896436298 0 -0.28313816676434478 0.29069510378855717 0 -0.28086439858034518 0.29805776896436298 0 -0.27753065875984329 0.30327410754998058 0 -0.28274061889410179 0.30278083970340541 0 -0.27753065875984329 0.30327410754998058 0 -0.27514776209796898 0.30785266251660498 0 -0.28274061889410179 0.30278083970340541 0 -0.27753065875984329 0.30327410754998058 0 -0.27326763327687947 0.30016750757533939 0 -0.27348155140824082 0.30658246875079598 0 -0.28086439858034518 0.29805776896436298 0 -0.27753065875984329 0.30327410754998058 0 -0.27326763327687947 0.30016750757533939 0 -0.27573637841232751 0.29432500902679382 0 -0.28086439858034518 0.29805776896436298 0 -0.27326763327687947 0.30016750757533939 0 -0.26661761067819428 0.2958317928062858 0 -0.27326763327687947 0.30016750757533939 0 -0.26721257633701828 0.30790943684761429 0 -0.26721257633701828 0.30790943684761429 0 -0.27514776209796898 0.30785266251660498 0 -0.27123720609067609 0.3158529302113221 0 -0.26721257633701828 0.30790943684761429 0 -0.27348155140824082 0.30658246875079598 0 -0.27514776209796898 0.30785266251660498 0 -0.26721257633701828 0.30790943684761429 0 -0.27514776209796898 0.30785266251660498 0 -0.27326763327687947 0.30016750757533939 0 -0.26721257633701828 0.30790943684761429 0 -0.27348155140824082 0.30658246875079598 0 -0.27514776209796898 0.30785266251660498 0 -0.2851872012256097 0.31550597615259851 0 -0.27753065875984329 0.30327410754998058 0 -0.27348155140824082 0.30658246875079598 0 -0.27514776209796898 0.30785266251660498 0 -0.27348155140824082 0.30658246875079598 0 -0.27514776209796898 0.30785266251660498 0 -0.27514776209796898 0.30785266251660498 0 -0.2905575990275322 0.30774240886798532 0 -0.27514776209796898 0.30785266251660498 0 -0.2905575990275322 0.30774240886798532 0 -0.2851872012256097 0.31550597615259851 0 -0.2896026760048197 0.2969772506180926 0 -0.2905575990275322 0.30774240886798532 0 -0.30493521127791462 0.28695781074044469 0 -0.27514776209796898 0.30785266251660498 0 -0.28274061889410179 0.30278083970340541 0 -0.2905575990275322 0.30774240886798532 0 -0.2905575990275322 0.30774240886798532 0 -0.2851872012256097 0.31550597615259851 0 -0.28274061889410179 0.30278083970340541 0 -0.2896026760048197 0.2969772506180926 0 -0.2905575990275322 0.30774240886798532 0 -0.28086439858034518 0.29805776896436298 0 -0.28274061889410179 0.30278083970340541 0 -0.2896026760048197 0.2969772506180926 0 -0.28401529333418091 0.28255904946725641 0 -0.28313816676434478 0.29069510378855717 0 -0.29095683727235372 0.28753395384208091 0 -0.28086439858034518 0.29805776896436298 0 -0.2896026760048197 0.2969772506180926 0 -0.28313816676434478 0.29069510378855717 0 -0.2896026760048197 0.2969772506180926 0 -0.28313816676434478 0.29069510378855717 0 -0.29095683727235372 0.28753395384208091 0 -0.2896026760048197 0.2969772506180926 0 -0.29095683727235372 0.28753395384208091 0 -0.30493521127791462 0.28695781074044469 0 -0.29309283898050847 0.28048055459605348 0 -0.29095683727235372 0.28753395384208091 0 -0.30493521127791462 0.28695781074044469 0 -0.29309283898050847 0.28048055459605348 0 -0.28401529333418091 0.28255904946725641 0 -0.29095683727235372 0.28753395384208091 0 -0.31699951866320542 0.30755322334125379 0 -0.2905575990275322 0.30774240886798532 0 -0.30563014257680821 0.31779627416788381 0 -0.31699951866320542 0.30755322334125379 0 -0.2905575990275322 0.30774240886798532 0 -0.2905575990275322 0.30774240886798532 0 -0.30493521127791462 0.28695781074044469 0 -0.31699951866320542 0.30755322334125379 0 -0.2905575990275322 0.30774240886798532 0 -0.30493521127791462 0.28695781074044469 0 -0.30538608464820588 0.33090408634228141 0 -0.28942706780696309 0.31873813168532672 0 -0.30563014257680821 0.31779627416788381 0 -0.30538608464820588 0.33090408634228141 0 -0.31811651498789978 0.32488887006413791 0 -0.30563014257680821 0.31779627416788381 0 -0.30538608464820588 0.33090408634228141 0 -0.2937791937433501 0.31637108240395312 0 -0.30538608464820588 0.33090408634228141 0 -0.3017933608705089 0.344447887165377 0 -0.32134510148944728 0.34307004099923799 0 -0.30538608464820588 0.33090408634228141 0 -0.29093013722955491 0.33661105704622479 0 -0.3017933608705089 0.344447887165377 0 -0.30538608464820588 0.33090408634228141 0 -0.29093013722955491 0.33661105704622479 0 -0.2885751077852815 0.32830696870384862 0 -0.29093013722955491 0.33661105704622479 0 -0.28224162025157051 0.34582573333151501 0 -0.3017933608705089 0.344447887165377 0 -0.2885751077852815 0.32830696870384862 0 -0.28146834572906437 0.33465123959114113 0 -0.2790455690922089 0.3243844570517187 0 -0.29093013722955491 0.33661105704622479 0 -0.2885751077852815 0.32830696870384862 0 -0.28146834572906437 0.33465123959114113 0 -0.29093013722955491 0.33661105704622479 0 -0.28146834572906437 0.33465123959114113 0 -0.28224162025157051 0.34582573333151501 0 -0.30538608464820588 0.33090408634228141 0 -0.2885751077852815 0.32830696870384862 0 -0.28942706780696309 0.31873813168532672 0 -0.30538608464820588 0.33090408634228141 0 -0.28942706780696309 0.31873813168532672 0 -0.2937791937433501 0.31637108240395312 0 -0.28942706780696309 0.31873813168532672 0 -0.2937791937433501 0.31637108240395312 0 -0.2851872012256097 0.31550597615259851 0 -0.2905575990275322 0.30774240886798532 0 -0.30563014257680821 0.31779627416788381 0 -0.2937791937433501 0.31637108240395312 0 -0.2905575990275322 0.30774240886798532 0 -0.2937791937433501 0.31637108240395312 0 -0.2851872012256097 0.31550597615259851 0 -0.28942706780696309 0.31873813168532672 0 -0.2937791937433501 0.31637108240395312 0 -0.2885751077852815 0.32830696870384862 0 -0.28942706780696309 0.31873813168532672 0 -0.2790455690922089 0.3243844570517187 0 -0.28942706780696309 0.31873813168532672 0 -0.2790455690922089 0.3243844570517187 0 -0.2851872012256097 0.31550597615259851 0 -0.2790455690922089 0.3243844570517187 0 -0.28942706780696309 0.31873813168532672 0 -0.2851872012256097 0.31550597615259851 0 -0.2790455690922089 0.3243844570517187 0 -0.28942706780696309 0.31873813168532672 0 -0.2851872012256097 0.31550597615259851 0 -0.27514776209796898 0.30785266251660498 0 -0.2851872012256097 0.31550597615259851 0 -0.27699557949655113 0.31645322234696882 0 -0.2851872012256097 0.31550597615259851 0 -0.27699557949655113 0.31645322234696882 0 -0.2790455690922089 0.3243844570517187 0 -0.27514776209796898 0.30785266251660498 0 -0.27699557949655113 0.31645322234696882 0 -0.27123720609067609 0.3158529302113221 0 -0.27001263578126711 0.32263717043347712 0 -0.2790455690922089 0.3243844570517187 0 -0.25910260253645218 0.33523110656146687 0 -0.26721257633701828 0.30790943684761429 0 -0.27123720609067609 0.3158529302113221 0 -0.26528599585519008 0.31471464054907522 0 -0.27699557949655113 0.31645322234696882 0 -0.27123720609067609 0.3158529302113221 0 -0.27001263578126711 0.32263717043347712 0 -0.27123720609067609 0.3158529302113221 0 -0.26528599585519008 0.31471464054907522 0 -0.26368222169044719 0.32126413599590953 0 -0.27123720609067609 0.3158529302113221 0 -0.27001263578126711 0.32263717043347712 0 -0.26368222169044719 0.32126413599590953 0 -0.27699557949655113 0.31645322234696882 0 -0.27001263578126711 0.32263717043347712 0 -0.2790455690922089 0.3243844570517187 0 -0.2790455690922089 0.3243844570517187 0 -0.25910260253645218 0.33523110656146687 0 -0.2790455690922089 0.3243844570517187 0 -0.26824012707650141 0.34000504592112352 0 -0.28146834572906437 0.33465123959114113 0 -0.2790455690922089 0.3243844570517187 0 -0.26824012707650141 0.34000504592112352 0 -0.2790455690922089 0.3243844570517187 0 -0.26824012707650141 0.34000504592112352 0 -0.25910260253645218 0.33523110656146687 0 -0.28146834572906437 0.33465123959114113 0 -0.26824012707650141 0.34000504592112352 0 -0.28224162025157051 0.34582573333151501 0 -0.25910260253645218 0.33523110656146687 0 -0.25407523553642281 0.3497448278934856 0 -0.23915963598069589 0.34607775607121571 0 -0.25910260253645218 0.33523110656146687 0 -0.25407523553642281 0.3497448278934856 0 -0.26309588156361569 0.34576168367824162 0 -0.26824012707650141 0.34000504592112352 0 -0.25910260253645218 0.33523110656146687 0 -0.26309588156361569 0.34576168367824162 0 -0.25910260253645218 0.33523110656146687 0 -0.25451497659773847 0.32559442806853028 0 -0.24843663428782739 0.33758714710907461 0 -0.25451497659773847 0.32559442806853028 0 -0.25901197930261888 0.31383205914145501 0 -0.24885494741763489 0.31718848033418301 0 -0.25451497659773847 0.32559442806853028 0 -0.25901197930261888 0.31383205914145501 0 -0.26368222169044719 0.32126413599590953 0 -0.25901197930261888 0.31383205914145501 0 -0.26528599585519008 0.31471464054907522 0 -0.26368222169044719 0.32126413599590953 0 -0.27001263578126711 0.32263717043347712 0 -0.25910260253645218 0.33523110656146687 0 -0.26368222169044719 0.32126413599590953 0 -0.25910260253645218 0.33523110656146687 0 -0.25451497659773847 0.32559442806853028 0 -0.26368222169044719 0.32126413599590953 0 -0.26470209097228098 0.37140351159401941 0 -0.25562758441007077 0.36194187249828802 0 -0.266880351992417 0.3582272519812631 0 -0.26470209097228098 0.37140351159401941 0 -0.25213085833087667 0.37355178257669552 0 -0.25562758441007077 0.36194187249828802 0 -0.25213085833087667 0.37355178257669552 0 -0.25562758441007077 0.36194187249828802 0 -0.24329038266145239 0.36134909741814653 0 -0.25562758441007077 0.36194187249828802 0 -0.25407523553642281 0.3497448278934856 0 -0.24329038266145239 0.36134909741814653 0 -0.25407523553642281 0.3497448278934856 0 -0.26309588156361569 0.34576168367824162 0 -0.266880351992417 0.3582272519812631 0 -0.25562758441007077 0.36194187249828802 0 -0.25407523553642281 0.3497448278934856 0 -0.266880351992417 0.3582272519812631 0 -0.266880351992417 0.3582272519812631 0 -0.27640009279511962 0.35155878343443242 0 -0.28837447244510311 0.36628710188532532 0 -0.26309588156361569 0.34576168367824162 0 -0.266880351992417 0.3582272519812631 0 -0.27640009279511962 0.35155878343443242 0 -0.26824012707650141 0.34000504592112352 0 -0.26309588156361569 0.34576168367824162 0 -0.27640009279511962 0.35155878343443242 0 -0.26824012707650141 0.34000504592112352 0 -0.27640009279511962 0.35155878343443242 0 -0.28224162025157051 0.34582573333151501 0 -0.266880351992417 0.3582272519812631 0 -0.28837447244510311 0.36628710188532532 0 -0.266880351992417 0.3582272519812631 0 -0.28837447244510311 0.36628710188532532 0 -0.27747916353329311 0.37529003384729942 0 -0.26470209097228098 0.37140351159401941 0 -0.266880351992417 0.3582272519812631 0 -0.27747916353329311 0.37529003384729942 0 -0.28837447244510311 0.36628710188532532 0 -0.28714059247178902 0.37543321948423419 0 -0.27747916353329311 0.37529003384729942 0 -0.28837447244510311 0.36628710188532532 0 -0.28956810344150979 0.35324588380912608 0 -0.30292150033679799 0.36018321991941088 0 -0.28837447244510311 0.36628710188532532 0 -0.29874239202075642 0.37528196759933868 0 -0.28714059247178902 0.37543321948423419 0 -0.28224162025157051 0.34582573333151501 0 -0.3017933608705089 0.344447887165377 0 -0.28224162025157051 0.34582573333151501 0 -0.28956810344150979 0.35324588380912608 0 -0.3017933608705089 0.344447887165377 0 -0.27640009279511962 0.35155878343443242 0 -0.28224162025157051 0.34582573333151501 0 -0.28956810344150979 0.35324588380912608 0 -0.27640009279511962 0.35155878343443242 0 -0.28837447244510311 0.36628710188532532 0 -0.28956810344150979 0.35324588380912608 0 -0.3017933608705089 0.344447887165377 0 -0.31193410579265052 0.3536039280541286 0 -0.30292150033679799 0.36018321991941088 0 -0.28956810344150979 0.35324588380912608 0 -0.3017933608705089 0.344447887165377 0 -0.30292150033679799 0.36018321991941088 0 -0.3017933608705089 0.344447887165377 0 -0.32134510148944728 0.34307004099923799 0 -0.3017933608705089 0.344447887165377 0 -0.31193410579265052 0.3536039280541286 0 -0.32134510148944728 0.34307004099923799 0 -0.31193410579265052 0.3536039280541286 0 -0.30292150033679799 0.36018321991941088 0 -0.31340485972314069 0.36375751913665871 0 -0.28837447244510311 0.36628710188532532 0 -0.30292150033679799 0.36018321991941088 0 -0.30986859289778912 0.37434695178938759 0 -0.28837447244510311 0.36628710188532532 0 -0.30986859289778912 0.37434695178938759 0 -0.28837447244510311 0.36628710188532532 0 -0.30986859289778912 0.37434695178938759 0 -0.29874239202075642 0.37528196759933868 0 -0.30292150033679799 0.36018321991941088 0 -0.30986859289778912 0.37434695178938759 0 -0.31340485972314069 0.36375751913665871 0 -0.30986859289778912 0.37434695178938759 0 -0.31340485972314069 0.36375751913665871 0 -0.32167824364597858 0.36970754211250728 0 -0.31340485972314069 0.36375751913665871 0 -0.32243327870136801 0.35950699838777223 0 -0.32167824364597858 0.36970754211250728 0 -0.32243327870136801 0.35950699838777223 0 -0.32167824364597858 0.36970754211250728 0 -0.33132177355711989 0.36851943955526861 0 -0.32167824364597858 0.36970754211250728 0 -0.33132177355711989 0.36851943955526861 0 -0.33136271335047512 0.38240680169344993 0 -0.32243327870136801 0.35950699838777223 0 -0.33132177355711989 0.36851943955526861 0 -0.33989838930305449 0.35721367281084643 0 -0.33132177355711989 0.36851943955526861 0 -0.34304766554360439 0.37232322735168022 0 -0.33136271335047512 0.38240680169344993 0 -0.33132177355711989 0.36851943955526861 0 -0.34304766554360439 0.37232322735168022 0 -0.33989838930305449 0.35721367281084643 0 -0.33989838930305449 0.35721367281084643 0 -0.32134510148944728 0.34307004099923799 0 -0.33989838930305449 0.35721367281084643 0 -0.32134510148944728 0.34307004099923799 0 -0.3500233487104954 0.34104903357308669 0 -0.32243327870136801 0.35950699838777223 0 -0.33989838930305449 0.35721367281084643 0 -0.32134510148944728 0.34307004099923799 0 -0.31193410579265052 0.3536039280541286 0 -0.32243327870136801 0.35950699838777223 0 -0.32134510148944728 0.34307004099923799 0 -0.31193410579265052 0.3536039280541286 0 -0.31340485972314069 0.36375751913665871 0 -0.32243327870136801 0.35950699838777223 0 -0.30538608464820588 0.33090408634228141 0 -0.32134510148944728 0.34307004099923799 0 -0.30538608464820588 0.33090408634228141 0 -0.32134510148944728 0.34307004099923799 0 -0.31811651498789978 0.32488887006413791 0 -0.32134510148944728 0.34307004099923799 0 -0.31811651498789978 0.32488887006413791 0 -0.33459812393413729 0.32207732583041709 0 -0.31699951866320542 0.30755322334125379 0 -0.30563014257680821 0.31779627416788381 0 -0.31811651498789978 0.32488887006413791 0 -0.31699951866320542 0.30755322334125379 0 -0.31811651498789978 0.32488887006413791 0 -0.33459812393413729 0.32207732583041709 0 -0.32134510148944728 0.34307004099923799 0 -0.34342889555096417 0.33131534648734451 0 -0.3500233487104954 0.34104903357308669 0 -0.32134510148944728 0.34307004099923799 0 -0.33459812393413729 0.32207732583041709 0 -0.34342889555096417 0.33131534648734451 0 -0.32134510148944728 0.34307004099923799 0 -0.3500233487104954 0.34104903357308669 0 -0.3500233487104954 0.34104903357308669 0 -0.35650114511620551 0.33294276438790088 0 -0.36794029410566942 0.33226259727897972 0 -0.34342889555096417 0.33131534648734451 0 -0.3500233487104954 0.34104903357308669 0 -0.35650114511620551 0.33294276438790088 0 -0.33459812393413729 0.32207732583041709 0 -0.34342889555096417 0.33131534648734451 0 -0.35467675850453528 0.31743756764607989 0 -0.34344143829887858 0.30736403781452232 0 -0.33459812393413729 0.32207732583041709 0 -0.35467675850453528 0.31743756764607989 0 -0.35650114511620551 0.33294276438790088 0 -0.35467675850453528 0.31743756764607989 0 -0.36272901898995358 0.31473918551029578 0 -0.34342889555096417 0.33131534648734451 0 -0.35650114511620551 0.33294276438790088 0 -0.35467675850453528 0.31743756764607989 0 -0.35650114511620551 0.33294276438790088 0 -0.36272901898995358 0.31473918551029578 0 -0.37415321332832258 0.31386652142517069 0 -0.35650114511620551 0.33294276438790088 0 -0.37415321332832258 0.31386652142517069 0 -0.35650114511620551 0.33294276438790088 0 -0.37442838800096029 0.32044424157556423 0 -0.37415321332832258 0.31386652142517069 0 -0.37816355277066899 0.32985684687273281 0 -0.37442838800096029 0.32044424157556423 0 -0.36794029410566942 0.33226259727897972 0 -0.3787015959315434 0.33902802614693439 0 -0.3500233487104954 0.34104903357308669 0 -0.36794029410566942 0.33226259727897972 0 -0.35650114511620551 0.33294276438790088 0 -0.37442838800096029 0.32044424157556423 0 -0.36794029410566942 0.33226259727897972 0 -0.3787015959315434 0.33902802614693439 0 -0.3500233487104954 0.34104903357308669 0 -0.3787015959315434 0.33902802614693439 0 -0.37816355277066899 0.32985684687273281 0 -0.36794029410566942 0.33226259727897972 0 -0.3787015959315434 0.33902802614693439 0 -0.3500233487104954 0.34104903357308669 0 -0.36501658974902518 0.35367198233662939 0 -0.37823932191431281 0.35548757599615399 0 -0.3787015959315434 0.33902802614693439 0 -0.36501658974902518 0.35367198233662939 0 -0.37823932191431281 0.35548757599615399 0 -0.36501658974902518 0.35367198233662939 0 -0.37024808467873749 0.36543132639488701 0 -0.36501658974902518 0.35367198233662939 0 -0.37024808467873749 0.36543132639488701 0 -0.35845167711666143 0.37135730462245548 0 -0.37949655700884349 0.37153259571527891 0 -0.37024808467873749 0.36543132639488701 0 -0.36758280318953013 0.37627165255961892 0 -0.37024808467873749 0.36543132639488701 0 -0.35845167711666143 0.37135730462245548 0 -0.36758280318953013 0.37627165255961892 0 -0.36501658974902518 0.35367198233662939 0 -0.35845167711666143 0.37135730462245548 0 -0.35334750121980912 0.35582299833575448 0 -0.34304766554360439 0.37232322735168022 0 -0.33989838930305449 0.35721367281084643 0 -0.35845167711666143 0.37135730462245548 0 -0.33989838930305449 0.35721367281084643 0 -0.35845167711666143 0.37135730462245548 0 -0.35334750121980912 0.35582299833575448 0 -0.33989838930305449 0.35721367281084643 0 -0.35845167711666143 0.37135730462245548 0 -0.33989838930305449 0.35721367281084643 0 -0.3500233487104954 0.34104903357308669 0 -0.35334750121980912 0.35582299833575448 0 -0.3500233487104954 0.34104903357308669 0 -0.36501658974902518 0.35367198233662939 0 -0.35334750121980912 0.35582299833575448 0 -0.35285683380316007 0.39046665159751448 0 -0.36027192889352422 0.40897543894708011 0 -0.34270265381785459 0.40768080501023862 0 -0.34304766554360439 0.37232322735168022 0 -0.35845167711666143 0.37135730462245548 0 -0.35285683380316007 0.39046665159751448 0 -0.37686086334024771 0.38257038446795849 0 -0.35285683380316007 0.39046665159751448 0 -0.37686086334024771 0.38257038446795849 0 -0.35285683380316007 0.39046665159751448 0 -0.36758280318953013 0.37627165255961892 0 -0.35845167711666143 0.37135730462245548 0 -0.35285683380316007 0.39046665159751448 0 -0.36758280318953013 0.37627165255961892 0 -0.37686086334024771 0.38257038446795849 0 -0.37949655700884349 0.37153259571527891 0 -0.36758280318953013 0.37627165255961892 0 -0.37769092578324193 0.39977892163450779 0 -0.35285683380316007 0.39046665159751448 0 -0.37769092578324193 0.39977892163450779 0 -0.37686086334024771 0.38257038446795849 0 -0.35285683380316007 0.39046665159751448 0 -0.37769092578324193 0.39977892163450779 0 -0.35285683380316007 0.39046665159751448 0 -0.36027192889352422 0.40897543894708011 0 -0.37875820238401509 0.42613984176471847 0 -0.37769092578324193 0.39977892163450779 0 -0.36027192889352422 0.40897543894708011 0 -0.37875820238401509 0.42613984176471847 0 -0.36027192889352422 0.40897543894708011 0 -0.36048507512927641 0.42545129427310208 0 -0.37875820238401509 0.42613984176471847 0 -0.36048507512927641 0.42545129427310208 0 -0.35499138700470761 0.44318849185793469 0 -0.37875820238401509 0.42613984176471847 0 -0.35499138700470761 0.44318849185793469 0 -0.34691622899781399 0.42161541908905831 0 -0.33223168701086447 0.43660936806356893 0 -0.35499138700470761 0.44318849185793469 0 -0.36048507512927641 0.42545129427310208 0 -0.34691622899781399 0.42161541908905831 0 -0.35499138700470761 0.44318849185793469 0 -0.36027192889352422 0.40897543894708011 0 -0.34691622899781399 0.42161541908905831 0 -0.34270265381785459 0.40768080501023862 0 -0.36027192889352422 0.40897543894708011 0 -0.36048507512927641 0.42545129427310208 0 -0.34691622899781399 0.42161541908905831 0 -0.34270265381785459 0.40768080501023862 0 -0.32841174735063311 0.41773478988879181 0 -0.32505653004414181 0.39961172552874852 0 -0.34691622899781399 0.42161541908905831 0 -0.34270265381785459 0.40768080501023862 0 -0.32841174735063311 0.41773478988879181 0 -0.34691622899781399 0.42161541908905831 0 -0.32841174735063311 0.41773478988879181 0 -0.33223168701086447 0.43660936806356893 0 -0.32841174735063311 0.41773478988879181 0 -0.33223168701086447 0.43660936806356893 0 -0.31148998866141242 0.43181261152586448 0 -0.32841174735063311 0.41773478988879181 0 -0.31441363705571701 0.41408607272300291 0 -0.32505653004414181 0.39961172552874852 0 -0.32841174735063311 0.41773478988879181 0 -0.31441363705571701 0.41408607272300291 0 -0.31148998866141242 0.43181261152586448 0 -0.32505653004414181 0.39961172552874852 0 -0.31219235154091651 0.39185403334122892 0 -0.30619500853749271 0.39725637532293351 0 -0.32505653004414181 0.39961172552874852 0 -0.31778050989885959 0.38527433798844479 0 -0.31219235154091651 0.39185403334122892 0 -0.35285683380316007 0.39046665159751448 0 -0.32505653004414181 0.39961172552874852 0 -0.33136271335047512 0.38240680169344993 0 -0.35285683380316007 0.39046665159751448 0 -0.34270265381785459 0.40768080501023862 0 -0.32505653004414181 0.39961172552874852 0 -0.35285683380316007 0.39046665159751448 0 -0.32505653004414181 0.39961172552874852 0 -0.35285683380316007 0.39046665159751448 0 -0.33136271335047512 0.38240680169344993 0 -0.34304766554360439 0.37232322735168022 0 -0.35285683380316007 0.39046665159751448 0 -0.33136271335047512 0.38240680169344993 0 -0.30986859289778912 0.37434695178938759 0 -0.32167824364597858 0.36970754211250728 0 -0.33136271335047512 0.38240680169344993 0 -0.30986859289778912 0.37434695178938759 0 -0.33136271335047512 0.38240680169344993 0 -0.32505653004414181 0.39961172552874852 0 -0.33136271335047512 0.38240680169344993 0 -0.31778050989885959 0.38527433798844479 0 -0.30986859289778912 0.37434695178938759 0 -0.33136271335047512 0.38240680169344993 0 -0.31778050989885959 0.38527433798844479 0 -0.30986859289778912 0.37434695178938759 0 -0.31778050989885959 0.38527433798844479 0 -0.30574515252343709 0.38648905476423068 0 -0.30986859289778912 0.37434695178938759 0 -0.30574515252343709 0.38648905476423068 0 -0.29874239202075642 0.37528196759933868 0 -0.30574515252343709 0.38648905476423068 0 -0.29874239202075642 0.37528196759933868 0 -0.29146244090030071 0.40289140707507309 0 -0.31778050989885959 0.38527433798844479 0 -0.30574515252343709 0.38648905476423068 0 -0.31219235154091651 0.39185403334122892 0 -0.32505653004414181 0.39961172552874852 0 -0.30619500853749271 0.39725637532293351 0 -0.29725622628512233 0.40875679945997928 0 -0.32505653004414181 0.39961172552874852 0 -0.29725622628512233 0.40875679945997928 0 -0.30574515252343709 0.38648905476423068 0 -0.30619500853749271 0.39725637532293351 0 -0.29146244090030071 0.40289140707507309 0 -0.30574515252343709 0.38648905476423068 0 -0.31219235154091651 0.39185403334122892 0 -0.30619500853749271 0.39725637532293351 0 -0.30619500853749271 0.39725637532293351 0 -0.29146244090030071 0.40289140707507309 0 -0.29725622628512233 0.40875679945997928 0 -0.29146244090030071 0.40289140707507309 0 -0.2882496590958894 0.39023794275143442 0 -0.278827461574497 0.39790462172635238 0 -0.28396634188800352 0.38487377460497352 0 -0.2882496590958894 0.39023794275143442 0 -0.278827461574497 0.39790462172635238 0 -0.29146244090030071 0.40289140707507309 0 -0.278827461574497 0.39790462172635238 0 -0.27940045790464241 0.41220012044695847 0 -0.29874239202075642 0.37528196759933868 0 -0.29146244090030071 0.40289140707507309 0 -0.29874239202075642 0.37528196759933868 0 -0.29146244090030071 0.40289140707507309 0 -0.2882496590958894 0.39023794275143442 0 -0.29874239202075642 0.37528196759933868 0 -0.28396634188800352 0.38487377460497352 0 -0.28714059247178902 0.37543321948423419 0 -0.29874239202075642 0.37528196759933868 0 -0.28396634188800352 0.38487377460497352 0 -0.2882496590958894 0.39023794275143442 0 -0.28396634188800352 0.38487377460497352 0 -0.28714059247178902 0.37543321948423419 0 -0.27747916353329311 0.37529003384729942 0 -0.28396634188800352 0.38487377460497352 0 -0.27747916353329311 0.37529003384729942 0 -0.26775424033426293 0.38456849691175748 0 -0.28396634188800352 0.38487377460497352 0 -0.26775424033426293 0.38456849691175748 0 -0.278827461574497 0.39790462172635238 0 -0.26470209097228098 0.37140351159401941 0 -0.27747916353329311 0.37529003384729942 0 -0.26775424033426293 0.38456849691175748 0 -0.278827461574497 0.39790462172635238 0 -0.26298604578065232 0.3973558675440883 0 -0.2677584473194361 0.40899541659639099 0 -0.26775424033426293 0.38456849691175748 0 -0.278827461574497 0.39790462172635238 0 -0.26298604578065232 0.3973558675440883 0 -0.26298604578065232 0.3973558675440883 0 -0.25152819264859128 0.38883491631829081 0 -0.2490618870264745 0.40647588616764979 0 -0.26298604578065232 0.3973558675440883 0 -0.2677584473194361 0.40899541659639099 0 -0.2490618870264745 0.40647588616764979 0 -0.25213085833087667 0.37355178257669552 0 -0.26775424033426293 0.38456849691175748 0 -0.25152819264859128 0.38883491631829081 0 -0.26775424033426293 0.38456849691175748 0 -0.26298604578065232 0.3973558675440883 0 -0.25152819264859128 0.38883491631829081 0 -0.26470209097228098 0.37140351159401941 0 -0.25213085833087667 0.37355178257669552 0 -0.26775424033426293 0.38456849691175748 0 -0.2572482915111563 0.42152384209731297 0 -0.26330490497154813 0.43976041958731371 0 -0.24092688658692171 0.43286849171069308 0 -0.2572482915111563 0.42152384209731297 0 -0.27163392734069919 0.42205675226444578 0 -0.26330490497154813 0.43976041958731371 0 -0.2572482915111563 0.42152384209731297 0 -0.2677584473194361 0.40899541659639099 0 -0.2490618870264745 0.40647588616764979 0 -0.2572482915111563 0.42152384209731297 0 -0.2677584473194361 0.40899541659639099 0 -0.27163392734069919 0.42205675226444578 0 -0.27940045790464241 0.41220012044695847 0 -0.27163392734069919 0.42205675226444578 0 -0.28418248977984512 0.43050084655080739 0 -0.2677584473194361 0.40899541659639099 0 -0.27940045790464241 0.41220012044695847 0 -0.27163392734069919 0.42205675226444578 0 -0.278827461574497 0.39790462172635238 0 -0.2677584473194361 0.40899541659639099 0 -0.27940045790464241 0.41220012044695847 0 -0.27163392734069919 0.42205675226444578 0 -0.28418248977984512 0.43050084655080739 0 -0.26330490497154813 0.43976041958731371 0 -0.28418248977984512 0.43050084655080739 0 -0.29943060469912958 0.42576946359573847 0 -0.28981068171355151 0.44369098771903792 0 -0.29146244090030071 0.40289140707507309 0 -0.28418248977984512 0.43050084655080739 0 -0.29146244090030071 0.40289140707507309 0 -0.27940045790464241 0.41220012044695847 0 -0.28418248977984512 0.43050084655080739 0 -0.28418248977984512 0.43050084655080739 0 -0.29725622628512233 0.40875679945997928 0 -0.29943060469912958 0.42576946359573847 0 -0.29146244090030071 0.40289140707507309 0 -0.28418248977984512 0.43050084655080739 0 -0.29725622628512233 0.40875679945997928 0 -0.31441363705571701 0.41408607272300291 0 -0.32505653004414181 0.39961172552874852 0 -0.29725622628512233 0.40875679945997928 0 -0.31441363705571701 0.41408607272300291 0 -0.29725622628512233 0.40875679945997928 0 -0.29943060469912958 0.42576946359573847 0 -0.31441363705571701 0.41408607272300291 0 -0.29943060469912958 0.42576946359573847 0 -0.31148998866141242 0.43181261152586448 0 -0.29943060469912958 0.42576946359573847 0 -0.31148998866141242 0.43181261152586448 0 -0.28981068171355151 0.44369098771903792 0 -0.31148998866141242 0.43181261152586448 0 -0.30120616623050861 0.45239726712555162 0 -0.31718999816658727 0.45065056632578487 0 -0.31148998866141242 0.43181261152586448 0 -0.30120616623050861 0.45239726712555162 0 -0.31148998866141242 0.43181261152586448 0 -0.30120616623050861 0.45239726712555162 0 -0.28981068171355151 0.44369098771903792 0 -0.30120616623050861 0.45239726712555162 0 -0.29092234379960469 0.47298192272523881 0 -0.30745775624609217 0.47728579204436761 0 -0.30120616623050861 0.45239726712555162 0 -0.30745775624609217 0.47728579204436761 0 -0.31718999816658727 0.45065056632578487 0 -0.2852957606144535 0.45730244818253718 0 -0.28186649269177161 0.46567885888970018 0 -0.29092234379960469 0.47298192272523881 0 -0.30120616623050861 0.45239726712555162 0 -0.29092234379960469 0.47298192272523881 0 -0.30120616623050861 0.45239726712555162 0 -0.2852957606144535 0.45730244818253718 0 -0.29092234379960469 0.47298192272523881 0 -0.2852957606144535 0.45730244818253718 0 -0.28186649269177161 0.46567885888970018 0 -0.27690253865938408 0.45811028602654041 0 -0.28418248977984512 0.43050084655080739 0 -0.28981068171355151 0.44369098771903792 0 -0.27690253865938408 0.45811028602654041 0 -0.30120616623050861 0.45239726712555162 0 -0.2852957606144535 0.45730244818253718 0 -0.28981068171355151 0.44369098771903792 0 -0.2852957606144535 0.45730244818253718 0 -0.28981068171355151 0.44369098771903792 0 -0.27690253865938408 0.45811028602654041 0 -0.28418248977984512 0.43050084655080739 0 -0.27690253865938408 0.45811028602654041 0 -0.28418248977984512 0.43050084655080739 0 -0.27690253865938408 0.45811028602654041 0 -0.26330490497154813 0.43976041958731371 0 -0.2852957606144535 0.45730244818253718 0 -0.27690253865938408 0.45811028602654041 0 -0.28186649269177161 0.46567885888970018 0 -0.27690253865938408 0.45811028602654041 0 -0.27835780074514338 0.47366975871288508 0 -0.27690253865938408 0.45811028602654041 0 -0.25345677561811758 0.46036691342989022 0 -0.27690253865938408 0.45811028602654041 0 -0.25345677561811758 0.46036691342989022 0 -0.26590293397843329 0.47057525233348851 0 -0.25345677561811758 0.46036691342989022 0 -0.25315469521642581 0.4750486889203015 0 -0.26590293397843329 0.47057525233348851 0 -0.25345677561811758 0.46036691342989022 0 -0.26330490497154813 0.43976041958731371 0 -0.24129970279445639 0.44943490890582899 0 -0.27690253865938408 0.45811028602654041 0 -0.25345677561811758 0.46036691342989022 0 -0.26330490497154813 0.43976041958731371 0 -0.26169037092037989 0.4910190989046625 0 -0.25397816739109252 0.5 0 -0.27113802145370669 0.49283981386083792 0 -0.26169037092037989 0.4910190989046625 0 -0.25474868654415728 0.48692894813519849 0 -0.26689660829256312 0.48430763362261348 0 -0.26169037092037989 0.4910190989046625 0 -0.25397816739109252 0.5 0 -0.25474868654415728 0.48692894813519849 0 -0.25315469521642581 0.4750486889203015 0 -0.26689660829256312 0.48430763362261348 0 -0.25315469521642581 0.4750486889203015 0 -0.26689660829256312 0.48430763362261348 0 -0.26590293397843329 0.47057525233348851 0 -0.25474868654415728 0.48692894813519849 0 -0.25315469521642581 0.4750486889203015 0 -0.26689660829256312 0.48430763362261348 0 -0.27690253865938408 0.45811028602654041 0 -0.26590293397843329 0.47057525233348851 0 -0.26946370716205509 0.4860372782758946 0 -0.27690253865938408 0.45811028602654041 0 -0.26946370716205509 0.4860372782758946 0 -0.27690253865938408 0.45811028602654041 0 -0.27835780074514338 0.47366975871288508 0 -0.26946370716205509 0.4860372782758946 0 -0.26689660829256312 0.48430763362261348 0 -0.26590293397843329 0.47057525233348851 0 -0.26946370716205509 0.4860372782758946 0 -0.28186649269177161 0.46567885888970018 0 -0.27835780074514338 0.47366975871288508 0 -0.28298297564177088 0.4743823417855309 0 -0.27835780074514338 0.47366975871288508 0 -0.2798907507987049 0.48286402398659151 0 -0.28298297564177088 0.4743823417855309 0 -0.27835780074514338 0.47366975871288508 0 -0.2798907507987049 0.48286402398659151 0 -0.26946370716205509 0.4860372782758946 0 -0.26946370716205509 0.4860372782758946 0 -0.28063852136870049 0.49356657832492562 0 -0.26946370716205509 0.4860372782758946 0 -0.27113802145370669 0.49283981386083792 0 -0.28063852136870049 0.49356657832492562 0 -0.2798907507987049 0.48286402398659151 0 -0.26946370716205509 0.4860372782758946 0 -0.28063852136870049 0.49356657832492562 0 -0.25397816739109252 0.5 0 -0.27113802145370669 0.49283981386083792 0 -0.27742446875513049 0.50000000000000155 0 -0.26689660829256312 0.48430763362261348 0 -0.26946370716205509 0.4860372782758946 0 -0.27113802145370669 0.49283981386083792 0 -0.26169037092037989 0.4910190989046625 0 -0.26689660829256312 0.48430763362261348 0 -0.27113802145370669 0.49283981386083792 0 -0.26689660829256312 0.48430763362261348 0 -0.26946370716205509 0.4860372782758946 0 -0.27113802145370669 0.49283981386083792 0 -0.28063852136870049 0.49356657832492562 0 -0.27742446875513049 0.50000000000000155 0 -0.28063852136870049 0.49356657832492562 0 -0.27742446875513049 0.50000000000000155 0 -0.28063852136870049 0.49356657832492562 0 -0.27742446875513049 0.50000000000000155 0 -0.29018685806186229 0.50000000000000122 0 -0.28063852136870049 0.49356657832492562 0 -0.29018685806186229 0.50000000000000122 0 -0.29092234379960469 0.47298192272523881 0 -0.28063852136870049 0.49356657832492562 0 -0.29018685806186229 0.50000000000000122 0 -0.29018685806186229 0.50000000000000122 0 -0.29092234379960469 0.47298192272523881 0 -0.30745775624609217 0.47728579204436761 0 -0.28063852136870049 0.49356657832492562 0 -0.29092234379960469 0.47298192272523881 0 -0.2798907507987049 0.48286402398659151 0 -0.28063852136870049 0.49356657832492562 0 -0.29092234379960469 0.47298192272523881 0 -0.28186649269177161 0.46567885888970018 0 -0.28298297564177088 0.4743823417855309 0 -0.29092234379960469 0.47298192272523881 0 -0.2798907507987049 0.48286402398659151 0 -0.28298297564177088 0.4743823417855309 0 -0.29092234379960469 0.47298192272523881 0 -0.29018685806186229 0.50000000000000122 0 -0.30745775624609217 0.47728579204436761 0 -0.3640375775585698 0.5 0 -0.30745775624609217 0.47728579204436761 0 -0.33122457162539992 0.46023714195115112 0 -0.3640375775585698 0.5 0 -0.30745775624609217 0.47728579204436761 0 -0.33122457162539992 0.46023714195115112 0 -0.30745775624609217 0.47728579204436761 0 -0.31718999816658727 0.45065056632578487 0 -0.33122457162539992 0.46023714195115112 0 -0.33223168701086447 0.43660936806356893 0 -0.31148998866141242 0.43181261152586448 0 -0.31718999816658727 0.45065056632578487 0 -0.33223168701086447 0.43660936806356893 0 -0.31718999816658727 0.45065056632578487 0 -0.33122457162539992 0.46023714195115112 0 -0.33122457162539992 0.46023714195115112 0 -0.35499138700470761 0.44318849185793469 0 -0.33223168701086447 0.43660936806356893 0 -0.33122457162539992 0.46023714195115112 0 -0.35499138700470761 0.44318849185793469 0 -0.33122457162539992 0.46023714195115112 0 -0.35376164566254242 0.46494380824906301 0 -0.35499138700470761 0.44318849185793469 0 -0.38249991962136642 0.44345487931465249 0 -0.35499138700470761 0.44318849185793469 0 -0.37103467036260362 0.45695891695805302 0 -0.38249991962136642 0.44345487931465249 0 -0.37875820238401509 0.42613984176471847 0 -0.35499138700470761 0.44318849185793469 0 -0.35376164566254242 0.46494380824906301 0 -0.35499138700470761 0.44318849185793469 0 -0.37103467036260362 0.45695891695805302 0 -0.35376164566254242 0.46494380824906301 0 -0.37103467036260362 0.45695891695805302 0 -0.36943712044780219 0.47475959506207249 0 -0.33122457162539992 0.46023714195115112 0 -0.35376164566254242 0.46494380824906301 0 -0.3640375775585698 0.5 0 -0.38891458820749281 0.47713565504117422 0 -0.36943712044780219 0.47475959506207249 0 -0.3640375775585698 0.5 0 -0.35376164566254242 0.46494380824906301 0 -0.36943712044780219 0.47475959506207249 0 -0.3640375775585698 0.5 0 -0.1410608215807003 0.47118489318428192 0 -0.1506389915883973 0.47451242435581331 0 -0.15779819732271971 0.4695739402503486 0 -0.1410608215807003 0.47118489318428192 0 -0.15779819732271971 0.4695739402503486 0 -0.1455325599989582 0.47665965757352818 0 -0.14983465253105441 0.48099067897208148 0 -0.1405957742956809 0.47995063378193648 0 -0.14983465253105441 0.48099067897208148 0 -0.14427471349546869 0.48965289008050411 0 -0.1405957742956809 0.47995063378193648 0 -0.1455325599989582 0.47665965757352818 0 -0.1410608215807003 0.47118489318428192 0 -0.1506389915883973 0.47451242435581331 0 -0.1455325599989582 0.47665965757352818 0 -0.1410608215807003 0.47118489318428192 0 -0.1405957742956809 0.47995063378193648 0 -0.1506389915883973 0.47451242435581331 0 -0.15682389603308189 0.47748605108520858 0 -0.15779819732271971 0.4695739402503486 0 -0.1506389915883973 0.47451242435581331 0 -0.14983465253105441 0.48099067897208148 0 -0.15682389603308189 0.47748605108520858 0 -0.1455325599989582 0.47665965757352818 0 -0.1506389915883973 0.47451242435581331 0 -0.14983465253105441 0.48099067897208148 0 -0.14983465253105441 0.48099067897208148 0 -0.1558122254133027 0.48316327461493752 0 -0.15682389603308189 0.47748605108520858 0 -0.14983465253105441 0.48099067897208148 0 -0.1558122254133027 0.48316327461493752 0 -0.15140604362779489 0.486968875654338 0 -0.1558122254133027 0.48316327461493752 0 -0.15140604362779489 0.486968875654338 0 -0.15545271364459581 0.49281799385228547 0 -0.14983465253105441 0.48099067897208148 0 -0.15140604362779489 0.486968875654338 0 -0.14427471349546869 0.48965289008050411 0 -0.15140604362779489 0.486968875654338 0 -0.15545271364459581 0.49281799385228547 0 -0.14427471349546869 0.48965289008050411 0 -0.15453849507163009 0.5 0 -0.14427471349546869 0.48965289008050411 0 -0.12543772684428189 0.5 0 -0.15453849507163009 0.5 0 -0.15545271364459581 0.49281799385228547 0 -0.14427471349546869 0.48965289008050411 0 -0.14427471349546869 0.48965289008050411 0 -0.12543772684428189 0.5 0 -0.13178312884530541 0.48627570230508688 0 -0.14427471349546869 0.48965289008050411 0 -0.13178312884530541 0.48627570230508688 0 -0.1405957742956809 0.47995063378193648 0 -0.13178312884530541 0.48627570230508688 0 -0.1317912103042716 0.47600940211286807 0 -0.11642361318749669 0.48420448820259387 0 -0.1317912103042716 0.47600940211286807 0 -0.14083201439797821 0.46516349611765162 0 -0.12052644250191399 0.4682622397032008 0 -0.13178312884530541 0.48627570230508688 0 -0.1405957742956809 0.47995063378193648 0 -0.1317912103042716 0.47600940211286807 0 -0.1410608215807003 0.47118489318428192 0 -0.1405957742956809 0.47995063378193648 0 -0.1317912103042716 0.47600940211286807 0 -0.1410608215807003 0.47118489318428192 0 -0.1317912103042716 0.47600940211286807 0 -0.14083201439797821 0.46516349611765162 0 -0.12618187852634369 0.45882241462805679 0 -0.14083201439797821 0.46516349611765162 0 -0.12052644250191399 0.4682622397032008 0 -0.14083201439797821 0.46516349611765162 0 -0.12052644250191399 0.4682622397032008 0 -0.12618187852634369 0.45882241462805679 0 -0.13621980461969219 0.45775649261309698 0 -0.13482926781972801 0.45201676164804122 0 -0.13621980461969219 0.45775649261309698 0 -0.13482926781972801 0.45201676164804122 0 -0.1430360577347192 0.45502329805863873 0 -0.13621980461969219 0.45775649261309698 0 -0.14083201439797821 0.46516349611765162 0 -0.1430360577347192 0.45502329805863873 0 -0.12618187852634369 0.45882241462805679 0 -0.13621980461969219 0.45775649261309698 0 -0.14083201439797821 0.46516349611765162 0 -0.12618187852634369 0.45882241462805679 0 -0.13482926781972801 0.45201676164804122 0 -0.1248743097581413 0.44162978393037222 0 -0.13482926781972801 0.45201676164804122 0 -0.13973201497409549 0.44099892737807922 0 -0.1415241139788854 0.4488412036993919 0 -0.13482926781972801 0.45201676164804122 0 -0.1415241139788854 0.4488412036993919 0 -0.1430360577347192 0.45502329805863873 0 -0.13973201497409549 0.44099892737807922 0 -0.13491063247587859 0.43073185275000708 0 -0.1248743097581413 0.44162978393037222 0 -0.13482926781972801 0.45201676164804122 0 -0.13973201497409549 0.44099892737807922 0 -0.1248743097581413 0.44162978393037222 0 -0.13973201497409549 0.44099892737807922 0 -0.14849911538699881 0.44732582771280882 0 -0.14949031039727409 0.43903968606904947 0 -0.14849911538699881 0.44732582771280882 0 -0.1430360577347192 0.45502329805863873 0 -0.15230793746503779 0.45507497120342549 0 -0.13973201497409549 0.44099892737807922 0 -0.1415241139788854 0.4488412036993919 0 -0.14849911538699881 0.44732582771280882 0 -0.1415241139788854 0.4488412036993919 0 -0.14849911538699881 0.44732582771280882 0 -0.1430360577347192 0.45502329805863873 0 -0.14849911538699881 0.44732582771280882 0 -0.15230793746503779 0.45507497120342549 0 -0.15767924869329919 0.44641741059368378 0 -0.14949031039727409 0.43903968606904947 0 -0.15767924869329919 0.44641741059368378 0 -0.15912083936695831 0.4347249498771325 0 -0.14849911538699881 0.44732582771280882 0 -0.14949031039727409 0.43903968606904947 0 -0.15767924869329919 0.44641741059368378 0 -0.14083201439797821 0.46516349611765162 0 -0.16113758629404229 0.46206475253210239 0 -0.15779819732271971 0.4695739402503486 0 -0.1410608215807003 0.47118489318428192 0 -0.14083201439797821 0.46516349611765162 0 -0.15779819732271971 0.4695739402503486 0 -0.14083201439797821 0.46516349611765162 0 -0.16113758629404229 0.46206475253210239 0 -0.14083201439797821 0.46516349611765162 0 -0.15230793746503779 0.45507497120342549 0 -0.16113758629404229 0.46206475253210239 0 -0.14083201439797821 0.46516349611765162 0 -0.1430360577347192 0.45502329805863873 0 -0.15230793746503779 0.45507497120342549 0 -0.16113758629404229 0.46206475253210239 0 -0.16940388650370539 0.44815354093755089 0 -0.18144315819010631 0.45896600894655282 0 -0.16113758629404229 0.46206475253210239 0 -0.18144315819010631 0.45896600894655282 0 -0.16113758629404229 0.46206475253210239 0 -0.17453557306473899 0.46796298731641428 0 -0.15779819732271971 0.4695739402503486 0 -0.15230793746503779 0.45507497120342549 0 -0.16113758629404229 0.46206475253210239 0 -0.16013216473902109 0.45292766881669072 0 -0.16113758629404229 0.46206475253210239 0 -0.16013216473902109 0.45292766881669072 0 -0.16940388650370539 0.44815354093755089 0 -0.15767924869329919 0.44641741059368378 0 -0.16940388650370539 0.44815354093755089 0 -0.15912083936695831 0.4347249498771325 0 -0.15230793746503779 0.45507497120342549 0 -0.16013216473902109 0.45292766881669072 0 -0.15767924869329919 0.44641741059368378 0 -0.16013216473902109 0.45292766881669072 0 -0.15767924869329919 0.44641741059368378 0 -0.16940388650370539 0.44815354093755089 0 -0.1829590266345629 0.45699162349075462 0 -0.18255950863604661 0.43173185523385532 0 -0.1829590266345629 0.45699162349075462 0 -0.19557533522393281 0.44055915781337712 0 -0.18255950863604661 0.43173185523385532 0 -0.16940388650370539 0.44815354093755089 0 -0.1829590266345629 0.45699162349075462 0 -0.18255950863604661 0.43173185523385532 0 -0.16113758629404229 0.46206475253210239 0 -0.17453557306473899 0.46796298731641428 0 -0.18144315819010631 0.45896600894655282 0 -0.17453557306473899 0.46796298731641428 0 -0.18144315819010631 0.45896600894655282 0 -0.17453557306473899 0.46796298731641428 0 -0.18311948649431831 0.46713679563994498 0 -0.16940388650370539 0.44815354093755089 0 -0.18144315819010631 0.45896600894655282 0 -0.1829590266345629 0.45699162349075462 0 -0.18144315819010631 0.45896600894655282 0 -0.1829590266345629 0.45699162349075462 0 -0.18144315819010631 0.45896600894655282 0 -0.1829865290739871 0.45873048193697258 0 -0.1829590266345629 0.45699162349075462 0 -0.18144315819010631 0.45896600894655282 0 -0.1829865290739871 0.45873048193697258 0 -0.1829865290739871 0.45873048193697258 0 -0.1829590266345629 0.45699162349075462 0 -0.17453557306473899 0.46796298731641428 0 -0.18144315819010631 0.45896600894655282 0 -0.18311948649431831 0.46713679563994498 0 -0.1829865290739871 0.45873048193697258 0 -0.18311948649431831 0.46713679563994498 0 -0.18144315819010631 0.45896600894655282 0 -0.1829865290739871 0.45873048193697258 0 -0.18311948649431831 0.46713679563994498 0 -0.18311948649431831 0.46713679563994498 0 -0.18337937489664821 0.48356839781997168 0 -0.19511197543601369 0.47606725323690458 0 -0.18311948649431831 0.46713679563994498 0 -0.18337937489664821 0.48356839781997168 0 -0.18311948649431831 0.46713679563994498 0 -0.18337937489664821 0.48356839781997168 0 -0.17485937494801759 0.47808814193434568 0 -0.17453557306473899 0.46796298731641428 0 -0.18311948649431831 0.46713679563994498 0 -0.17485937494801759 0.47808814193434568 0 -0.17453557306473899 0.46796298731641428 0 -0.15779819732271971 0.4695739402503486 0 -0.17453557306473899 0.46796298731641428 0 -0.16499414335466689 0.48039049058434952 0 -0.17453557306473899 0.46796298731641428 0 -0.16499414335466689 0.48039049058434952 0 -0.15779819732271971 0.4695739402503486 0 -0.17453557306473899 0.46796298731641428 0 -0.17485937494801759 0.47808814193434568 0 -0.16499414335466689 0.48039049058434952 0 -0.17485937494801759 0.47808814193434568 0 -0.16499414335466689 0.48039049058434952 0 -0.1699453859209171 0.49288017845899518 0 -0.1558122254133027 0.48316327461493752 0 -0.16499414335466689 0.48039049058434952 0 -0.15682389603308189 0.47748605108520858 0 -0.16499414335466689 0.48039049058434952 0 -0.15682389603308189 0.47748605108520858 0 -0.15779819732271971 0.4695739402503486 0 -0.15453849507163009 0.5 0 -0.1699453859209171 0.49288017845899518 0 -0.18363926329897839 0.49999999999999828 0 -0.15453849507163009 0.5 0 -0.15545271364459581 0.49281799385228547 0 -0.1699453859209171 0.49288017845899518 0 -0.15545271364459581 0.49281799385228547 0 -0.16499414335466689 0.48039049058434952 0 -0.1699453859209171 0.49288017845899518 0 -0.15545271364459581 0.49281799385228547 0 -0.16499414335466689 0.48039049058434952 0 -0.1558122254133027 0.48316327461493752 0 -0.15545271364459581 0.49281799385228547 0 -0.16499414335466689 0.48039049058434952 0 -0.18337937489664821 0.48356839781997168 0 -0.18363926329897839 0.49999999999999828 0 -0.18337937489664821 0.48356839781997168 0 -0.1699453859209171 0.49288017845899518 0 -0.18363926329897839 0.49999999999999828 0 -0.18337937489664821 0.48356839781997168 0 -0.17485937494801759 0.47808814193434568 0 -0.1699453859209171 0.49288017845899518 0 -0.18337937489664821 0.48356839781997168 0 -0.18363926329897839 0.49999999999999828 0 -0.19848883175809501 0.48685236178056529 0 -0.18363926329897839 0.49999999999999828 0 -0.19848883175809501 0.48685236178056529 0 -0.20708556466301639 0.5 0 -0.18311948649431831 0.46713679563994498 0 -0.19511197543601369 0.47606725323690458 0 -0.20656524953558469 0.46488016823659339 0 -0.18337937489664821 0.48356839781997168 0 -0.19848883175809501 0.48685236178056529 0 -0.19511197543601369 0.47606725323690458 0 -0.19848883175809501 0.48685236178056529 0 -0.19511197543601369 0.47606725323690458 0 -0.206747867840962 0.47700509082497228 0 -0.19511197543601369 0.47606725323690458 0 -0.206747867840962 0.47700509082497228 0 -0.20656524953558469 0.46488016823659339 0 -0.19848883175809501 0.48685236178056529 0 -0.206747867840962 0.47700509082497228 0 -0.21585796601610141 0.48648558657266339 0 -0.206747867840962 0.47700509082497228 0 -0.21852396914967101 0.47285401242330122 0 -0.20656524953558469 0.46488016823659339 0 -0.206747867840962 0.47700509082497228 0 -0.21852396914967101 0.47285401242330122 0 -0.21585796601610141 0.48648558657266339 0 -0.20708556466301639 0.5 0 -0.21585796601610141 0.48648558657266339 0 -0.23053186602705439 0.5 0 -0.19848883175809501 0.48685236178056529 0 -0.20708556466301639 0.5 0 -0.21585796601610141 0.48648558657266339 0 -0.21585796601610141 0.48648558657266339 0 -0.23053186602705439 0.5 0 -0.2373192826940049 0.48342253064983348 0 -0.21852396914967101 0.47285401242330122 0 -0.2373192826940049 0.48342253064983348 0 -0.23001101257685119 0.46262354083324181 0 -0.21852396914967101 0.47285401242330122 0 -0.21585796601610141 0.48648558657266339 0 -0.2373192826940049 0.48342253064983348 0 -0.25474868654415728 0.48692894813519849 0 -0.25315469521642581 0.4750486889203015 0 -0.2373192826940049 0.48342253064983348 0 -0.25315469521642581 0.4750486889203015 0 -0.2373192826940049 0.48342253064983348 0 -0.23001101257685119 0.46262354083324181 0 -0.25397816739109252 0.5 0 -0.23053186602705439 0.5 0 -0.2373192826940049 0.48342253064983348 0 -0.25397816739109252 0.5 0 -0.25474868654415728 0.48692894813519849 0 -0.2373192826940049 0.48342253064983348 0 -0.26330490497154813 0.43976041958731371 0 -0.24129970279445639 0.44943490890582899 0 -0.24092688658692171 0.43286849171069308 0 -0.24129970279445639 0.44943490890582899 0 -0.2242493546558077 0.44235471361969553 0 -0.24092688658692171 0.43286849171069308 0 -0.25345677561811758 0.46036691342989022 0 -0.23001101257685119 0.46262354083324181 0 -0.25345677561811758 0.46036691342989022 0 -0.24129970279445639 0.44943490890582899 0 -0.23001101257685119 0.46262354083324181 0 -0.25345677561811758 0.46036691342989022 0 -0.25315469521642581 0.4750486889203015 0 -0.23001101257685119 0.46262354083324181 0 -0.24129970279445639 0.44943490890582899 0 -0.23001101257685119 0.46262354083324181 0 -0.2242493546558077 0.44235471361969553 0 -0.23001101257685119 0.46262354083324181 0 -0.2242493546558077 0.44235471361969553 0 -0.2144914677851314 0.45380351874251162 0 -0.2242493546558077 0.44235471361969553 0 -0.20880164963731279 0.443380440886459 0 -0.2144914677851314 0.45380351874251162 0 -0.20880164963731279 0.443380440886459 0 -0.2144914677851314 0.45380351874251162 0 -0.20415969833182021 0.45549933815243238 0 -0.23001101257685119 0.46262354083324181 0 -0.2144914677851314 0.45380351874251162 0 -0.20656524953558469 0.46488016823659339 0 -0.21852396914967101 0.47285401242330122 0 -0.23001101257685119 0.46262354083324181 0 -0.20656524953558469 0.46488016823659339 0 -0.23001101257685119 0.46262354083324181 0 -0.20656524953558469 0.46488016823659339 0 -0.2144914677851314 0.45380351874251162 0 -0.20415969833182021 0.45549933815243238 0 -0.20656524953558469 0.46488016823659339 0 -0.1829865290739871 0.45873048193697258 0 -0.1829590266345629 0.45699162349075462 0 -0.20415969833182021 0.45549933815243238 0 -0.1829865290739871 0.45873048193697258 0 -0.20415969833182021 0.45549933815243238 0 -0.18311948649431831 0.46713679563994498 0 -0.20415969833182021 0.45549933815243238 0 -0.20656524953558469 0.46488016823659339 0 -0.1829865290739871 0.45873048193697258 0 -0.18311948649431831 0.46713679563994498 0 -0.20415969833182021 0.45549933815243238 0 -0.18311948649431831 0.46713679563994498 0 -0.20656524953558469 0.46488016823659339 0 -0.1829590266345629 0.45699162349075462 0 -0.19557533522393281 0.44055915781337712 0 -0.1829590266345629 0.45699162349075462 0 -0.20415969833182021 0.45549933815243238 0 -0.19557533522393281 0.44055915781337712 0 -0.20880164963731279 0.443380440886459 0 -0.20415969833182021 0.45549933815243238 0 -0.19557533522393281 0.44055915781337712 0 -0.19557533522393281 0.44055915781337712 0 -0.20819164381331129 0.42412669213600601 0 -0.19557533522393281 0.44055915781337712 0 -0.19413142888046839 0.4217351031076268 0 -0.18255950863604661 0.43173185523385532 0 -0.19557533522393281 0.44055915781337712 0 -0.19413142888046839 0.4217351031076268 0 -0.20819164381331129 0.42412669213600601 0 -0.19413142888046839 0.4217351031076268 0 -0.20819164381331129 0.42412669213600601 0 -0.2021706660915297 0.40578572337793972 0 -0.19413142888046839 0.4217351031076268 0 -0.2021706660915297 0.40578572337793972 0 -0.18215999063752189 0.40647208697695608 0 -0.20819164381331129 0.42412669213600601 0 -0.22405449890785839 0.40643558214578251 0 -0.2021706660915297 0.40578572337793972 0 -0.20880164963731279 0.443380440886459 0 -0.19557533522393281 0.44055915781337712 0 -0.20819164381331129 0.42412669213600601 0 -0.2242493546558077 0.44235471361969553 0 -0.20880164963731279 0.443380440886459 0 -0.20819164381331129 0.42412669213600601 0 -0.2242493546558077 0.44235471361969553 0 -0.20819164381331129 0.42412669213600601 0 -0.22600929792909111 0.42518400498706249 0 -0.2242493546558077 0.44235471361969553 0 -0.22600929792909111 0.42518400498706249 0 -0.24092688658692171 0.43286849171069308 0 -0.20819164381331129 0.42412669213600601 0 -0.22600929792909111 0.42518400498706249 0 -0.22405449890785839 0.40643558214578251 0 -0.22600929792909111 0.42518400498706249 0 -0.22405449890785839 0.40643558214578251 0 -0.2382988550227183 0.41778448946306668 0 -0.2572482915111563 0.42152384209731297 0 -0.2382988550227183 0.41778448946306668 0 -0.2490618870264745 0.40647588616764979 0 -0.22405449890785839 0.40643558214578251 0 -0.2382988550227183 0.41778448946306668 0 -0.2490618870264745 0.40647588616764979 0 -0.2572482915111563 0.42152384209731297 0 -0.2382988550227183 0.41778448946306668 0 -0.24092688658692171 0.43286849171069308 0 -0.22600929792909111 0.42518400498706249 0 -0.2382988550227183 0.41778448946306668 0 -0.24092688658692171 0.43286849171069308 0 -0.24000210142933509 0.37809552861286783 0 -0.23801773827758249 0.39392053259368742 0 -0.22567210936962789 0.38582584627882549 0 -0.25152819264859128 0.38883491631829081 0 -0.24000210142933509 0.37809552861286783 0 -0.23801773827758249 0.39392053259368742 0 -0.25213085833087667 0.37355178257669552 0 -0.25152819264859128 0.38883491631829081 0 -0.24000210142933509 0.37809552861286783 0 -0.25152819264859128 0.38883491631829081 0 -0.2490618870264745 0.40647588616764979 0 -0.23801773827758249 0.39392053259368742 0 -0.22405449890785839 0.40643558214578251 0 -0.2490618870264745 0.40647588616764979 0 -0.23801773827758249 0.39392053259368742 0 -0.22405449890785839 0.40643558214578251 0 -0.22567210936962789 0.38582584627882549 0 -0.2099895612515065 0.38861519238670661 0 -0.22405449890785839 0.40643558214578251 0 -0.23801773827758249 0.39392053259368742 0 -0.22567210936962789 0.38582584627882549 0 -0.22567210936962789 0.38582584627882549 0 -0.21752164111765379 0.37637519474985792 0 -0.23054114355980421 0.3681661286558337 0 -0.24000210142933509 0.37809552861286783 0 -0.22567210936962789 0.38582584627882549 0 -0.23054114355980421 0.3681661286558337 0 -0.22567210936962789 0.38582584627882549 0 -0.21752164111765379 0.37637519474985792 0 -0.2099895612515065 0.38861519238670661 0 -0.21752164111765379 0.37637519474985792 0 -0.2099895612515065 0.38861519238670661 0 -0.20825127389149589 0.37038948781896619 0 -0.2099895612515065 0.38861519238670661 0 -0.1956253707180633 0.37355818799515828 0 -0.20825127389149589 0.37038948781896619 0 -0.22405449890785839 0.40643558214578251 0 -0.2099895612515065 0.38861519238670661 0 -0.2021706660915297 0.40578572337793972 0 -0.2021706660915297 0.40578572337793972 0 -0.19434121226752371 0.39112870189136351 0 -0.18215999063752189 0.40647208697695608 0 -0.2099895612515065 0.38861519238670661 0 -0.2021706660915297 0.40578572337793972 0 -0.19434121226752371 0.39112870189136351 0 -0.2099895612515065 0.38861519238670661 0 -0.19434121226752371 0.39112870189136351 0 -0.1956253707180633 0.37355818799515828 0 -0.19434121226752371 0.39112870189136351 0 -0.18176047263899719 0.38121231872005679 0 -0.1956253707180633 0.37355818799515828 0 -0.18176047263899719 0.38121231872005679 0 -0.16585623702428451 0.39107516703040651 0 -0.16689278400863089 0.37048631692620287 0 -0.16585623702428451 0.39107516703040651 0 -0.1532541744773912 0.375434017343177 0 -0.15169756500005979 0.38990146883471011 0 -0.16585623702428451 0.39107516703040651 0 -0.1532541744773912 0.375434017343177 0 -0.16689278400863089 0.37048631692620287 0 -0.16585623702428451 0.39107516703040651 0 -0.1665369108918931 0.40914444316194981 0 -0.1556916669008335 0.40278409093046019 0 -0.16585623702428451 0.39107516703040651 0 -0.18215999063752189 0.40647208697695608 0 -0.1665369108918931 0.40914444316194981 0 -0.16585623702428451 0.39107516703040651 0 -0.15169756500005979 0.38990146883471011 0 -0.1556916669008335 0.40278409093046019 0 -0.18176047263899719 0.38121231872005679 0 -0.16585623702428451 0.39107516703040651 0 -0.18215999063752189 0.40647208697695608 0 -0.18176047263899719 0.38121231872005679 0 -0.18215999063752189 0.40647208697695608 0 -0.19434121226752371 0.39112870189136351 0 -0.18176047263899719 0.38121231872005679 0 -0.18215999063752189 0.40647208697695608 0 -0.18215999063752189 0.40647208697695608 0 -0.18255950863604661 0.43173185523385532 0 -0.18215999063752189 0.40647208697695608 0 -0.16958367679162159 0.42493542776846188 0 -0.1665369108918931 0.40914444316194981 0 -0.19413142888046839 0.4217351031076268 0 -0.18215999063752189 0.40647208697695608 0 -0.18255950863604661 0.43173185523385532 0 -0.18215999063752189 0.40647208697695608 0 -0.18255950863604661 0.43173185523385532 0 -0.16958367679162159 0.42493542776846188 0 -0.16940388650370539 0.44815354093755089 0 -0.18255950863604661 0.43173185523385532 0 -0.16958367679162159 0.42493542776846188 0 -0.16940388650370539 0.44815354093755089 0 -0.16958367679162159 0.42493542776846188 0 -0.15912083936695831 0.4347249498771325 0 -0.16958367679162159 0.42493542776846188 0 -0.15912083936695831 0.4347249498771325 0 -0.15604886632200479 0.41831593774319042 0 -0.16958367679162159 0.42493542776846188 0 -0.1665369108918931 0.40914444316194981 0 -0.15604886632200479 0.41831593774319042 0 -0.1665369108918931 0.40914444316194981 0 -0.15604886632200479 0.41831593774319042 0 -0.1556916669008335 0.40278409093046019 0 -0.15604886632200479 0.41831593774319042 0 -0.14768726638806501 0.40958107086639878 0 -0.1556916669008335 0.40278409093046019 0 -0.15604886632200479 0.41831593774319042 0 -0.1455440964649429 0.41771164433310332 0 -0.14575226394851429 0.42876386523653243 0 -0.15604886632200479 0.41831593774319042 0 -0.1455440964649429 0.41771164433310332 0 -0.14768726638806501 0.40958107086639878 0 -0.1455440964649429 0.41771164433310332 0 -0.14768726638806501 0.40958107086639878 0 -0.13820848934052041 0.41088683445876423 0 -0.15912083936695831 0.4347249498771325 0 -0.15604886632200479 0.41831593774319042 0 -0.14575226394851429 0.42876386523653243 0 -0.14949031039727409 0.43903968606904947 0 -0.15912083936695831 0.4347249498771325 0 -0.14575226394851429 0.42876386523653243 0 -0.1455440964649429 0.41771164433310332 0 -0.14575226394851429 0.42876386523653243 0 -0.13557398954387551 0.42076075412316039 0 -0.13973201497409549 0.44099892737807922 0 -0.14949031039727409 0.43903968606904947 0 -0.14575226394851429 0.42876386523653243 0 -0.13491063247587859 0.43073185275000708 0 -0.1242188050129694 0.42501783294758849 0 -0.1248743097581413 0.44162978393037222 0 -0.13973201497409549 0.44099892737807922 0 -0.14575226394851429 0.42876386523653243 0 -0.13491063247587859 0.43073185275000708 0 -0.14575226394851429 0.42876386523653243 0 -0.13491063247587859 0.43073185275000708 0 -0.13557398954387551 0.42076075412316039 0 -0.13491063247587859 0.43073185275000708 0 -0.13557398954387551 0.42076075412316039 0 -0.1242188050129694 0.42501783294758849 0 -0.13820848934052041 0.41088683445876423 0 -0.13557398954387551 0.42076075412316039 0 -0.12623023605756489 0.41143854881348008 0 -0.1455440964649429 0.41771164433310332 0 -0.13820848934052041 0.41088683445876423 0 -0.13557398954387551 0.42076075412316039 0 -0.13557398954387551 0.42076075412316039 0 -0.12623023605756489 0.41143854881348008 0 -0.1242188050129694 0.42501783294758849 0 -0.13820848934052041 0.41088683445876423 0 -0.12623023605756489 0.41143854881348008 0 -0.13398515235888339 0.40371564514020769 0 -0.12997925716256209 0.39431640422262348 0 -0.14074253368576661 0.38200722200303072 0 -0.1429432129120235 0.39820684686647628 0 -0.12623023605756489 0.41143854881348008 0 -0.13398515235888339 0.40371564514020769 0 -0.12997925716256209 0.39431640422262348 0 -0.13398515235888339 0.40371564514020769 0 -0.12997925716256209 0.39431640422262348 0 -0.1429432129120235 0.39820684686647628 0 -0.13820848934052041 0.41088683445876423 0 -0.13398515235888339 0.40371564514020769 0 -0.1429432129120235 0.39820684686647628 0 -0.12997925716256209 0.39431640422262348 0 -0.14074253368576661 0.38200722200303072 0 -0.12523428666698541 0.37069662222368049 0 -0.12997925716256209 0.39431640422262348 0 -0.12523428666698541 0.37069662222368049 0 -0.12103247972044499 0.39311621374447298 0 -0.14074253368576661 0.38200722200303072 0 -0.15169756500005979 0.38990146883471011 0 -0.1429432129120235 0.39820684686647628 0 -0.14074253368576661 0.38200722200303072 0 -0.1532541744773912 0.375434017343177 0 -0.15169756500005979 0.38990146883471011 0 -0.15169756500005979 0.38990146883471011 0 -0.1556916669008335 0.40278409093046019 0 -0.1429432129120235 0.39820684686647628 0 -0.14768726638806501 0.40958107086639878 0 -0.1556916669008335 0.40278409093046019 0 -0.1429432129120235 0.39820684686647628 0 -0.14768726638806501 0.40958107086639878 0 -0.13820848934052041 0.41088683445876423 0 -0.1429432129120235 0.39820684686647628 0 -0.14407255521749979 0.34403263722221961 0 -0.15504053286571459 0.3545366000593369 0 -0.14129669608781389 0.36249735492572199 0 -0.14407255521749979 0.34403263722221961 0 -0.15504053286571459 0.3545366000593369 0 -0.1549481930100888 0.34056708499864929 0 -0.14074253368576661 0.38200722200303072 0 -0.1532541744773912 0.375434017343177 0 -0.14129669608781389 0.36249735492572199 0 -0.1532541744773912 0.375434017343177 0 -0.15504053286571459 0.3545366000593369 0 -0.14129669608781389 0.36249735492572199 0 -0.14129669608781389 0.36249735492572199 0 -0.12523428666698541 0.37069662222368049 0 -0.1294360936135257 0.3482770307028879 0 -0.12523428666698541 0.37069662222368049 0 -0.1294360936135257 0.3482770307028879 0 -0.14074253368576661 0.38200722200303072 0 -0.14129669608781389 0.36249735492572199 0 -0.12523428666698541 0.37069662222368049 0 -0.14407255521749979 0.34403263722221961 0 -0.14129669608781389 0.36249735492572199 0 -0.1294360936135257 0.3482770307028879 0 -0.1294360936135257 0.3482770307028879 0 -0.13363790056006589 0.32585743918209531 0 -0.14407255521749979 0.34403263722221961 0 -0.1294360936135257 0.3482770307028879 0 -0.13363790056006589 0.32585743918209531 0 -0.1294360936135257 0.3482770307028879 0 -0.13363790056006589 0.32585743918209531 0 -0.1154499742120704 0.34086754873962172 0 -0.12722248981549561 0.3181430308760943 0 -0.13363790056006589 0.32585743918209531 0 -0.1360408951285694 0.3130357752318072 0 -0.12722248981549561 0.3181430308760943 0 -0.1360408951285694 0.3130357752318072 0 -0.12136448477009221 0.30951812845445109 0 -0.12722248981549561 0.3181430308760943 0 -0.13363790056006589 0.32585743918209531 0 -0.12142985306419619 0.32461006626398298 0 -0.13363790056006589 0.32585743918209531 0 -0.12142985306419619 0.32461006626398298 0 -0.13363790056006589 0.32585743918209531 0 -0.1360408951285694 0.3130357752318072 0 -0.14290423209994971 0.32095809222069871 0 -0.13363790056006589 0.32585743918209531 0 -0.1360408951285694 0.3130357752318072 0 -0.14290423209994971 0.32095809222069871 0 -0.1532404752523272 0.32269894785805692 0 -0.1464174014568787 0.29836992735667278 0 -0.13363790056006589 0.32585743918209531 0 -0.14290423209994971 0.32095809222069871 0 -0.15729966860100811 0.32827511069417059 0 -0.13363790056006589 0.32585743918209531 0 -0.15729966860100811 0.32827511069417059 0 -0.14290423209994971 0.32095809222069871 0 -0.1532404752523272 0.32269894785805692 0 -0.15729966860100811 0.32827511069417059 0 -0.1532404752523272 0.32269894785805692 0 -0.15943794807189979 0.31595908059817063 0 -0.1547819877644892 0.3091453549012102 0 -0.14407255521749979 0.34403263722221961 0 -0.13363790056006589 0.32585743918209531 0 -0.14748957934716561 0.33468306802428371 0 -0.13363790056006589 0.32585743918209531 0 -0.14748957934716561 0.33468306802428371 0 -0.15729966860100811 0.32827511069417059 0 -0.14748957934716561 0.33468306802428371 0 -0.1549481930100888 0.34056708499864929 0 -0.15729966860100811 0.32827511069417059 0 -0.14407255521749979 0.34403263722221961 0 -0.14748957934716561 0.33468306802428371 0 -0.1549481930100888 0.34056708499864929 0 -0.15729966860100811 0.32827511069417059 0 -0.18096143664194889 0.33069278220625808 0 -0.1549481930100888 0.34056708499864929 0 -0.15729966860100811 0.32827511069417059 0 -0.16781010436956259 0.34240718275037813 0 -0.15729966860100811 0.32827511069417059 0 -0.16781010436956259 0.34240718275037813 0 -0.18096143664194889 0.33069278220625808 0 -0.15729966860100811 0.32827511069417059 0 -0.17028988351433311 0.32233995817617028 0 -0.18096143664194889 0.33069278220625808 0 -0.15943794807189979 0.31595908059817063 0 -0.16495134068588049 0.31685297469802859 0 -0.1638395481514221 0.30983277085387728 0 -0.1532404752523272 0.32269894785805692 0 -0.15943794807189979 0.31595908059817063 0 -0.16037638850537991 0.32126535467967993 0 -0.15943794807189979 0.31595908059817063 0 -0.16037638850537991 0.32126535467967993 0 -0.16495134068588049 0.31685297469802859 0 -0.15729966860100811 0.32827511069417059 0 -0.16037638850537991 0.32126535467967993 0 -0.17028988351433311 0.32233995817617028 0 -0.1532404752523272 0.32269894785805692 0 -0.15729966860100811 0.32827511069417059 0 -0.16037638850537991 0.32126535467967993 0 -0.16495134068588049 0.31685297469802859 0 -0.17285953122972289 0.31090601179704258 0 -0.1638395481514221 0.30983277085387728 0 -0.17028988351433311 0.32233995817617028 0 -0.16495134068588049 0.31685297469802859 0 -0.17285953122972289 0.31090601179704258 0 -0.16037638850537991 0.32126535467967993 0 -0.17028988351433311 0.32233995817617028 0 -0.16495134068588049 0.31685297469802859 0 -0.18077272512400111 0.31876138179813301 0 -0.17285953122972289 0.31090601179704258 0 -0.17028988351433311 0.32233995817617028 0 -0.18077272512400111 0.31876138179813301 0 -0.17285953122972289 0.31090601179704258 0 -0.17028988351433311 0.32233995817617028 0 -0.18077272512400111 0.31876138179813301 0 -0.18096143664194889 0.33069278220625808 0 -0.18077272512400111 0.31876138179813301 0 -0.19386790912735871 0.33176087567547108 0 -0.18077272512400111 0.31876138179813301 0 -0.18096143664194889 0.33069278220625808 0 -0.18077272512400111 0.31876138179813301 0 -0.18096143664194889 0.33069278220625808 0 -0.19386790912735871 0.33176087567547108 0 -0.18096143664194889 0.33069278220625808 0 -0.1813609546404725 0.35595255046315749 0 -0.18096143664194889 0.33069278220625808 0 -0.1813609546404725 0.35595255046315749 0 -0.19258948339875709 0.33633707034479371 0 -0.16781010436956259 0.34240718275037813 0 -0.18096143664194889 0.33069278220625808 0 -0.1813609546404725 0.35595255046315749 0 -0.18096143664194889 0.33069278220625808 0 -0.19386790912735871 0.33176087567547108 0 -0.15504053286571459 0.3545366000593369 0 -0.16781010436956259 0.34240718275037813 0 -0.1813609546404725 0.35595255046315749 0 -0.15504053286571459 0.3545366000593369 0 -0.1549481930100888 0.34056708499864929 0 -0.16781010436956259 0.34240718275037813 0 -0.1532541744773912 0.375434017343177 0 -0.15504053286571459 0.3545366000593369 0 -0.16689278400863089 0.37048631692620287 0 -0.15504053286571459 0.3545366000593369 0 -0.1813609546404725 0.35595255046315749 0 -0.16689278400863089 0.37048631692620287 0 -0.18176047263899719 0.38121231872005679 0 -0.1813609546404725 0.35595255046315749 0 -0.18176047263899719 0.38121231872005679 0 -0.1813609546404725 0.35595255046315749 0 -0.1956253707180633 0.37355818799515828 0 -0.18176047263899719 0.38121231872005679 0 -0.1813609546404725 0.35595255046315749 0 -0.16689278400863089 0.37048631692620287 0 -0.1813609546404725 0.35595255046315749 0 -0.1956253707180633 0.37355818799515828 0 -0.2000380028121157 0.35856944723279938 0 -0.1956253707180633 0.37355818799515828 0 -0.2000380028121157 0.35856944723279938 0 -0.20825127389149589 0.37038948781896619 0 -0.1813609546404725 0.35595255046315749 0 -0.1951678646333711 0.34883535218340811 0 -0.19258948339875709 0.33633707034479371 0 -0.1813609546404725 0.35595255046315749 0 -0.1951678646333711 0.34883535218340811 0 -0.2000380028121157 0.35856944723279938 0 -0.1951678646333711 0.34883535218340811 0 -0.2000380028121157 0.35856944723279938 0 -0.20668301768213909 0.34448234069288158 0 -0.20668301768213909 0.34448234069288158 0 -0.2120127789660084 0.36084248239747968 0 -0.21921666942493959 0.3569244055809645 0 -0.2000380028121157 0.35856944723279938 0 -0.20668301768213909 0.34448234069288158 0 -0.2120127789660084 0.36084248239747968 0 -0.2120127789660084 0.36084248239747968 0 -0.21921666942493959 0.3569244055809645 0 -0.20668301768213909 0.34448234069288158 0 -0.21921666942493959 0.3569244055809645 0 -0.22158808080033929 0.34557455345049992 0 -0.20668301768213909 0.34448234069288158 0 -0.21921666942493959 0.3569244055809645 0 -0.2000380028121157 0.35856944723279938 0 -0.20825127389149589 0.37038948781896619 0 -0.2120127789660084 0.36084248239747968 0 -0.2120127789660084 0.36084248239747968 0 -0.2199937556016836 0.36693485901855288 0 -0.21921666942493959 0.3569244055809645 0 -0.20825127389149589 0.37038948781896619 0 -0.2120127789660084 0.36084248239747968 0 -0.2199937556016836 0.36693485901855288 0 -0.21752164111765379 0.37637519474985792 0 -0.20825127389149589 0.37038948781896619 0 -0.2199937556016836 0.36693485901855288 0 -0.21752164111765379 0.37637519474985792 0 -0.23054114355980421 0.3681661286558337 0 -0.2199937556016836 0.36693485901855288 0 -0.23054114355980421 0.3681661286558337 0 -0.21921666942493959 0.3569244055809645 0 -0.23305195790672301 0.35812934693154008 0 -0.23054114355980421 0.3681661286558337 0 -0.2199937556016836 0.36693485901855288 0 -0.21921666942493959 0.3569244055809645 0 -0.23054114355980421 0.3681661286558337 0 -0.21921666942493959 0.3569244055809645 0 -0.21921666942493959 0.3569244055809645 0 -0.22158808080033929 0.34557455345049992 0 -0.23915963598069589 0.34607775607121571 0 -0.21921666942493959 0.3569244055809645 0 -0.23915963598069589 0.34607775607121571 0 -0.21921666942493959 0.3569244055809645 0 -0.23305195790672301 0.35812934693154008 0 -0.23915963598069589 0.34607775607121571 0 -0.23305195790672301 0.35812934693154008 0 -0.23915963598069589 0.34607775607121571 0 -0.24329038266145239 0.36134909741814653 0 -0.25407523553642281 0.3497448278934856 0 -0.23915963598069589 0.34607775607121571 0 -0.24329038266145239 0.36134909741814653 0 -0.25213085833087667 0.37355178257669552 0 -0.24000210142933509 0.37809552861286783 0 -0.24329038266145239 0.36134909741814653 0 -0.24000210142933509 0.37809552861286783 0 -0.23054114355980421 0.3681661286558337 0 -0.24329038266145239 0.36134909741814653 0 -0.23054114355980421 0.3681661286558337 0 -0.23305195790672301 0.35812934693154008 0 -0.24329038266145239 0.36134909741814653 0 -0.23582541811145999 0.32679902143390172 0 -0.24885494741763489 0.31718848033418301 0 -0.23189508169276829 0.30076725351495531 0 -0.23582541811145999 0.32679902143390172 0 -0.24885494741763489 0.31718848033418301 0 -0.24633099797708269 0.32737693631841108 0 -0.25451497659773847 0.32559442806853028 0 -0.24885494741763489 0.31718848033418301 0 -0.24633099797708269 0.32737693631841108 0 -0.24843663428782739 0.33758714710907461 0 -0.22129300011358269 0.33481371145693772 0 -0.25451497659773847 0.32559442806853028 0 -0.24633099797708269 0.32737693631841108 0 -0.24843663428782739 0.33758714710907461 0 -0.25910260253645218 0.33523110656146687 0 -0.23915963598069589 0.34607775607121571 0 -0.23582541811145999 0.32679902143390172 0 -0.24633099797708269 0.32737693631841108 0 -0.24843663428782739 0.33758714710907461 0 -0.25910260253645218 0.33523110656146687 0 -0.23915963598069589 0.34607775607121571 0 -0.24843663428782739 0.33758714710907461 0 -0.23582541811145999 0.32679902143390172 0 -0.24843663428782739 0.33758714710907461 0 -0.22129300011358269 0.33481371145693772 0 -0.23915963598069589 0.34607775607121571 0 -0.24843663428782739 0.33758714710907461 0 -0.22129300011358269 0.33481371145693772 0 -0.22158808080033929 0.34557455345049992 0 -0.23915963598069589 0.34607775607121571 0 -0.22129300011358269 0.33481371145693772 0 -0.23582541811145999 0.32679902143390172 0 -0.21954464392232159 0.31820766509236142 0 -0.23189508169276829 0.30076725351495531 0 -0.23582541811145999 0.32679902143390172 0 -0.22129300011358269 0.33481371145693772 0 -0.21954464392232159 0.31820766509236142 0 -0.21954464392232159 0.31820766509236142 0 -0.20492818889453221 0.32276220977772679 0 -0.20060783596013981 0.3076349397264902 0 -0.22129300011358269 0.33481371145693772 0 -0.21954464392232159 0.31820766509236142 0 -0.20492818889453221 0.32276220977772679 0 -0.22129300011358269 0.33481371145693772 0 -0.20492818889453221 0.32276220977772679 0 -0.19386790912735871 0.33176087567547108 0 -0.22129300011358269 0.33481371145693772 0 -0.19386790912735871 0.33176087567547108 0 -0.20668301768213909 0.34448234069288158 0 -0.22129300011358269 0.33481371145693772 0 -0.19386790912735871 0.33176087567547108 0 -0.20668301768213909 0.34448234069288158 0 -0.22158808080033929 0.34557455345049992 0 -0.22129300011358269 0.33481371145693772 0 -0.20668301768213909 0.34448234069288158 0 -0.19386790912735871 0.33176087567547108 0 -0.19258948339875709 0.33633707034479371 0 -0.20668301768213909 0.34448234069288158 0 -0.19386790912735871 0.33176087567547108 0 -0.1951678646333711 0.34883535218340811 0 -0.20668301768213909 0.34448234069288158 0 -0.19258948339875709 0.33633707034479371 0 -0.18096143664194889 0.33069278220625808 0 -0.19386790912735871 0.33176087567547108 0 -0.19258948339875709 0.33633707034479371 0 -0.19386790912735871 0.33176087567547108 0 -0.19258948339875709 0.33633707034479371 0 -0.18077272512400111 0.31876138179813301 0 -0.19386790912735871 0.33176087567547108 0 -0.20060783596013981 0.3076349397264902 0 -0.20492818889453221 0.32276220977772679 0 -0.19386790912735871 0.33176087567547108 0 -0.20060783596013981 0.3076349397264902 0 -0.19386790912735871 0.33176087567547108 0 -0.20060783596013981 0.3076349397264902 0 -0.20060783596013981 0.3076349397264902 0 -0.20734776279292019 0.28350900377750898 0 -0.23189508169276829 0.30076725351495531 0 -0.21954464392232159 0.31820766509236142 0 -0.20060783596013981 0.3076349397264902 0 -0.23189508169276829 0.30076725351495531 0 -0.20060783596013981 0.3076349397264902 0 -0.20734776279292019 0.28350900377750898 0 -0.18034630435624241 0.29180066960649809 0 -0.20734776279292019 0.28350900377750898 0 -0.19375927737912041 0.2730469699042487 0 -0.18034630435624241 0.29180066960649809 0 -0.20060783596013981 0.3076349397264902 0 -0.20734776279292019 0.28350900377750898 0 -0.20734776279292019 0.28350900377750898 0 -0.23189508169276829 0.30076725351495531 0 -0.22396762922540969 0.27514125130055722 0 -0.23189508169276829 0.30076725351495531 0 -0.2378434694439332 0.28391349183279069 0 -0.22396762922540969 0.27514125130055722 0 -0.25673188405007052 0.28646841290673969 0 -0.23189508169276829 0.30076725351495531 0 -0.2378434694439332 0.28391349183279069 0 -0.25673188405007052 0.28646841290673969 0 -0.23189508169276829 0.30076725351495531 0 -0.25505401324638421 0.30366623925853881 0 -0.25673188405007052 0.28646841290673969 0 -0.23189508169276829 0.30076725351495531 0 -0.25505401324638421 0.30366623925853881 0 -0.24885494741763489 0.31718848033418301 0 -0.23189508169276829 0.30076725351495531 0 -0.25265925142613249 0.26128234508680298 0 -0.23885305679183191 0.2684477152547543 0 -0.23951274761537589 0.2474853768326048 0 -0.23885305679183191 0.2684477152547543 0 -0.22811192938500721 0.25829645972706228 0 -0.23951274761537589 0.2474853768326048 0 -0.25621817608628389 0.2460965770837312 0 -0.25265925142613249 0.26128234508680298 0 -0.23951274761537589 0.2474853768326048 0 -0.25673188405007052 0.28646841290673969 0 -0.2378434694439332 0.28391349183279069 0 -0.23885305679183191 0.2684477152547543 0 -0.25265925142613249 0.26128234508680298 0 -0.25673188405007052 0.28646841290673969 0 -0.23885305679183191 0.2684477152547543 0 -0.23885305679183191 0.2684477152547543 0 -0.22396762922540969 0.27514125130055722 0 -0.22811192938500721 0.25829645972706228 0 -0.2378434694439332 0.28391349183279069 0 -0.23885305679183191 0.2684477152547543 0 -0.22396762922540969 0.27514125130055722 0 -0.22811192938500721 0.25829645972706228 0 -0.22371849106378741 0.2462845034026982 0 -0.23951274761537589 0.2474853768326048 0 -0.22396762922540969 0.27514125130055722 0 -0.22811192938500721 0.25829645972706228 0 -0.21408768962570049 0.25938306782852782 0 -0.22811192938500721 0.25829645972706228 0 -0.21408768962570049 0.25938306782852782 0 -0.22371849106378741 0.2462845034026982 0 -0.21408768962570049 0.25938306782852782 0 -0.19928355658839081 0.25766712263582692 0 -0.2066863838603582 0.24242880758937649 0 -0.21408768962570049 0.25938306782852782 0 -0.20163280817849061 0.26608937016207479 0 -0.19928355658839081 0.25766712263582692 0 -0.20734776279292019 0.28350900377750898 0 -0.21408768962570049 0.25938306782852782 0 -0.20734776279292019 0.28350900377750898 0 -0.22396762922540969 0.27514125130055722 0 -0.21408768962570049 0.25938306782852782 0 -0.20734776279292019 0.28350900377750898 0 -0.21408768962570049 0.25938306782852782 0 -0.20163280817849061 0.26608937016207479 0 -0.20734776279292019 0.28350900377750898 0 -0.20163280817849061 0.26608937016207479 0 -0.19375927737912041 0.2730469699042487 0 -0.20163280817849061 0.26608937016207479 0 -0.19375927737912041 0.2730469699042487 0 -0.19160269433399771 0.26436194023610149 0 -0.19375927737912041 0.2730469699042487 0 -0.19160269433399771 0.26436194023610149 0 -0.17991988358848049 0.26483995741486333 0 -0.19928355658839081 0.25766712263582692 0 -0.18259587964237009 0.2606558300825601 0 -0.2066863838603582 0.24242880758937649 0 -0.18259587964237009 0.2606558300825601 0 -0.19333963139412971 0.24385714112684301 0 -0.19928355658839081 0.25766712263582692 0 -0.19160269433399771 0.26436194023610149 0 -0.18259587964237009 0.2606558300825601 0 -0.18259587964237009 0.2606558300825601 0 -0.2066863838603582 0.24242880758937649 0 -0.20163280817849061 0.26608937016207479 0 -0.19928355658839081 0.25766712263582692 0 -0.19160269433399771 0.26436194023610149 0 -0.17991988358848049 0.26483995741486333 0 -0.17951502337729761 0.2392424245160312 0 -0.17991988358848049 0.26483995741486333 0 -0.17042143569771079 0.26099360542817968 0 -0.17951502337729761 0.2392424245160312 0 -0.18259587964237009 0.2606558300825601 0 -0.17991988358848049 0.26483995741486333 0 -0.17951502337729761 0.2392424245160312 0 -0.19160269433399771 0.26436194023610149 0 -0.18259587964237009 0.2606558300825601 0 -0.17991988358848049 0.26483995741486333 0 -0.18259587964237009 0.2606558300825601 0 -0.17991988358848049 0.26483995741486333 0 -0.17991988358848049 0.26483995741486333 0 -0.17042143569771079 0.26099360542817968 0 -0.17716480609589361 0.26914773470870201 0 -0.17042143569771079 0.26099360542817968 0 -0.1627301728603629 0.26968240911070368 0 -0.1532221513837192 0.25419418888983192 0 -0.17042143569771079 0.26099360542817968 0 -0.1532221513837192 0.25419418888983192 0 -0.17951502337729761 0.2392424245160312 0 -0.1627301728603629 0.26968240911070368 0 -0.1620479085915319 0.28265904931380531 0 -0.15271877240598841 0.27446820953958367 0 -0.17042143569771079 0.26099360542817968 0 -0.1627301728603629 0.26968240911070368 0 -0.1699765768805111 0.26885491792894611 0 -0.1627301728603629 0.26968240911070368 0 -0.1699765768805111 0.26885491792894611 0 -0.16860704672851359 0.27535934789532951 0 -0.1627301728603629 0.26968240911070368 0 -0.16860704672851359 0.27535934789532951 0 -0.1620479085915319 0.28265904931380531 0 -0.16860704672851359 0.27535934789532951 0 -0.17077339862397739 0.28423195702734899 0 -0.1620479085915319 0.28265904931380531 0 -0.17991988358848049 0.26483995741486333 0 -0.18034630435624241 0.29180066960649809 0 -0.17991988358848049 0.26483995741486333 0 -0.17716480609589361 0.26914773470870201 0 -0.18034630435624241 0.29180066960649809 0 -0.16860704672851359 0.27535934789532951 0 -0.17716480609589361 0.26914773470870201 0 -0.17077339862397739 0.28423195702734899 0 -0.19375927737912041 0.2730469699042487 0 -0.17991988358848049 0.26483995741486333 0 -0.18034630435624241 0.29180066960649809 0 -0.17042143569771079 0.26099360542817968 0 -0.1699765768805111 0.26885491792894611 0 -0.17716480609589361 0.26914773470870201 0 -0.1699765768805111 0.26885491792894611 0 -0.16860704672851359 0.27535934789532951 0 -0.17716480609589361 0.26914773470870201 0 -0.17991988358848049 0.26483995741486333 0 -0.17716480609589361 0.26914773470870201 0 -0.17716480609589361 0.26914773470870201 0 -0.18034630435624241 0.29180066960649809 0 -0.17077339862397739 0.28423195702734899 0 -0.18034630435624241 0.29180066960649809 0 -0.16501618616712291 0.29775164083812761 0 -0.17077339862397739 0.28423195702734899 0 -0.18077272512400111 0.31876138179813301 0 -0.18034630435624241 0.29180066960649809 0 -0.18077272512400111 0.31876138179813301 0 -0.18034630435624241 0.29180066960649809 0 -0.17285953122972289 0.31090601179704258 0 -0.18034630435624241 0.29180066960649809 0 -0.17285953122972289 0.31090601179704258 0 -0.16501618616712291 0.29775164083812761 0 -0.18077272512400111 0.31876138179813301 0 -0.20060783596013981 0.3076349397264902 0 -0.18034630435624241 0.29180066960649809 0 -0.16501618616712291 0.29775164083812761 0 -0.15329008091572741 0.28945008379417048 0 -0.1547819877644892 0.3091453549012102 0 -0.17285953122972289 0.31090601179704258 0 -0.16501618616712291 0.29775164083812761 0 -0.1638395481514221 0.30983277085387728 0 -0.16501618616712291 0.29775164083812761 0 -0.1638395481514221 0.30983277085387728 0 -0.1547819877644892 0.3091453549012102 0 -0.15943794807189979 0.31595908059817063 0 -0.1638395481514221 0.30983277085387728 0 -0.1547819877644892 0.3091453549012102 0 -0.16501618616712291 0.29775164083812761 0 -0.17077339862397739 0.28423195702734899 0 -0.1620479085915319 0.28265904931380531 0 -0.16501618616712291 0.29775164083812761 0 -0.1620479085915319 0.28265904931380531 0 -0.15329008091572741 0.28945008379417048 0 -0.1464174014568787 0.29836992735667278 0 -0.13959432766143021 0.2740409068552887 0 -0.1620479085915319 0.28265904931380531 0 -0.15329008091572741 0.28945008379417048 0 -0.15271877240598841 0.27446820953958367 0 -0.15329008091572741 0.28945008379417048 0 -0.1464174014568787 0.29836992735667278 0 -0.13959432766143021 0.2740409068552887 0 -0.15329008091572741 0.28945008379417048 0 -0.1464174014568787 0.29836992735667278 0 -0.1547819877644892 0.3091453549012102 0 -0.1532404752523272 0.32269894785805692 0 -0.1464174014568787 0.29836992735667278 0 -0.1360408951285694 0.3130357752318072 0 -0.14290423209994971 0.32095809222069871 0 -0.1464174014568787 0.29836992735667278 0 -0.1532404752523272 0.32269894785805692 0 -0.1464174014568787 0.29836992735667278 0 -0.1547819877644892 0.3091453549012102 0 -0.1360408951285694 0.3130357752318072 0 -0.1264253840414637 0.29528772621663357 0 -0.12136448477009221 0.30951812845445109 0 -0.1360408951285694 0.3130357752318072 0 -0.1464174014568787 0.29836992735667278 0 -0.1264253840414637 0.29528772621663357 0 -0.1464174014568787 0.29836992735667278 0 -0.1264253840414637 0.29528772621663357 0 -0.13959432766143021 0.2740409068552887 0 -0.1264253840414637 0.29528772621663357 0 -0.13959432766143021 0.2740409068552887 0 -0.1185373796182298 0.27837978510360878 0 -0.13959432766143021 0.2740409068552887 0 -0.1327712538659816 0.24971188635390451 0 -0.13959432766143021 0.2740409068552887 0 -0.116744543106582 0.25728181003509248 0 -0.1327712538659816 0.24971188635390451 0 -0.13959432766143021 0.2740409068552887 0 -0.1532221513837192 0.25419418888983192 0 -0.1327712538659816 0.24971188635390451 0 -0.1627301728603629 0.26968240911070368 0 -0.1532221513837192 0.25419418888983192 0 -0.15271877240598841 0.27446820953958367 0 -0.13959432766143021 0.2740409068552887 0 -0.1532221513837192 0.25419418888983192 0 -0.15271877240598841 0.27446820953958367 0 -0.15329008091572741 0.28945008379417048 0 -0.13959432766143021 0.2740409068552887 0 -0.15271877240598841 0.27446820953958367 0 -0.1061606963602142 0.26761343855331338 0 -0.1001789302111205 0.27974269320078388 0 -0.1185373796182298 0.27837978510360878 0 -0.1061606963602142 0.26761343855331338 0 -0.1001789302111205 0.27974269320078388 0 -0.092613028744971265 0.26767711662392979 0 -0.1061606963602142 0.26761343855331338 0 -0.10005120432924321 0.25626016583208688 0 -0.116744543106582 0.25728181003509248 0 -0.1061606963602142 0.26761343855331338 0 -0.10005120432924321 0.25626016583208688 0 -0.092613028744971265 0.26767711662392979 0 -0.10005120432924321 0.25626016583208688 0 -0.116744543106582 0.25728181003509248 0 -0.1045487088169635 0.24438495162540061 0 -0.13959432766143021 0.2740409068552887 0 -0.116744543106582 0.25728181003509248 0 -0.1185373796182298 0.27837978510360878 0 -0.1061606963602142 0.26761343855331338 0 -0.116744543106582 0.25728181003509248 0 -0.1185373796182298 0.27837978510360878 0 -0.1264253840414637 0.29528772621663357 0 -0.1127724140037699 0.30190213115774378 0 -0.1091517300735869 0.29135078386346752 0 -0.1264253840414637 0.29528772621663357 0 -0.1185373796182298 0.27837978510360878 0 -0.1091517300735869 0.29135078386346752 0 -0.1264253840414637 0.29528772621663357 0 -0.12136448477009221 0.30951812845445109 0 -0.1127724140037699 0.30190213115774378 0 -0.12136448477009221 0.30951812845445109 0 -0.1127724140037699 0.30190213115774378 0 -0.1061991548417472 0.31213959050036899 0 -0.1127724140037699 0.30190213115774378 0 -0.1061991548417472 0.31213959050036899 0 -0.1005146973405663 0.30141191014932889 0 -0.1127724140037699 0.30190213115774378 0 -0.1005146973405663 0.30141191014932889 0 -0.1091517300735869 0.29135078386346752 0 -0.1005146973405663 0.30141191014932889 0 -0.094430836728355921 0.29177030977787999 0 -0.089068024122243669 0.30112896568664949 0 -0.1061991548417472 0.31213959050036899 0 -0.1005146973405663 0.30141191014932889 0 -0.090928135519314904 0.31087631578889069 0 -0.1001789302111205 0.27974269320078388 0 -0.1185373796182298 0.27837978510360878 0 -0.1091517300735869 0.29135078386346752 0 -0.1005146973405663 0.30141191014932889 0 -0.1091517300735869 0.29135078386346752 0 -0.094430836728355921 0.29177030977787999 0 -0.1001789302111205 0.27974269320078388 0 -0.1091517300735869 0.29135078386346752 0 -0.094430836728355921 0.29177030977787999 0 -0.1001789302111205 0.27974269320078388 0 -0.094430836728355921 0.29177030977787999 0 -0.086145563619835275 0.2816538088019015 0 -0.094430836728355921 0.29177030977787999 0 -0.086145563619835275 0.2816538088019015 0 -0.081526075002782958 0.29533369696514911 0 -0.094430836728355921 0.29177030977787999 0 -0.081526075002782958 0.29533369696514911 0 -0.089068024122243669 0.30112896568664949 0 -0.086145563619835275 0.2816538088019015 0 -0.081526075002782958 0.29533369696514911 0 -0.070830210313899522 0.29195808219782299 0 -0.090928135519314904 0.31087631578889069 0 -0.079482369404140468 0.30560554845979909 0 -0.074915307566508993 0.31649039264194578 0 -0.090928135519314904 0.31087631578889069 0 -0.089068024122243669 0.30112896568664949 0 -0.079482369404140468 0.30560554845979909 0 -0.1005146973405663 0.30141191014932889 0 -0.090928135519314904 0.31087631578889069 0 -0.089068024122243669 0.30112896568664949 0 -0.081526075002782958 0.29533369696514911 0 -0.089068024122243669 0.30112896568664949 0 -0.079482369404140468 0.30560554845979909 0 -0.054647974243728172 0.30430181459310768 0 -0.074915307566508993 0.31649039264194578 0 -0.079482369404140468 0.30560554845979909 0 -0.068661557073843291 0.3005821027458685 0 -0.074915307566508993 0.31649039264194578 0 -0.068661557073843291 0.3005821027458685 0 -0.054647974243728172 0.30430181459310768 0 -0.074915307566508993 0.31649039264194578 0 -0.081526075002782958 0.29533369696514911 0 -0.079482369404140468 0.30560554845979909 0 -0.068661557073843291 0.3005821027458685 0 -0.070830210313899522 0.29195808219782299 0 -0.067453711470644842 0.27023673344429472 0 -0.052574645638654917 0.28480468584225688 0 -0.081526075002782958 0.29533369696514911 0 -0.068661557073843291 0.3005821027458685 0 -0.070830210313899522 0.29195808219782299 0 -0.068661557073843291 0.3005821027458685 0 -0.070830210313899522 0.29195808219782299 0 -0.068661557073843291 0.3005821027458685 0 -0.070830210313899522 0.29195808219782299 0 -0.059610011597539182 0.29372125904316332 0 -0.086145563619835275 0.2816538088019015 0 -0.070830210313899522 0.29195808219782299 0 -0.077256670317037021 0.26667642926106078 0 -0.070830210313899522 0.29195808219782299 0 -0.067453711470644842 0.27023673344429472 0 -0.070830210313899522 0.29195808219782299 0 -0.077256670317037021 0.26667642926106078 0 -0.070830210313899522 0.29195808219782299 0 -0.067453711470644842 0.27023673344429472 0 -0.077256670317037021 0.26667642926106078 0 -0.086145563619835275 0.2816538088019015 0 -0.077256670317037021 0.26667642926106078 0 -0.092613028744971265 0.26767711662392979 0 -0.1001789302111205 0.27974269320078388 0 -0.086145563619835275 0.2816538088019015 0 -0.092613028744971265 0.26767711662392979 0 -0.077256670317037021 0.26667642926106078 0 -0.086302411784292182 0.25447467192259482 0 -0.083666647235009842 0.24139059785004849 0 -0.077256670317037021 0.26667642926106078 0 -0.083666647235009842 0.24139059785004849 0 -0.10005120432924321 0.25626016583208688 0 -0.086302411784292182 0.25447467192259482 0 -0.094679029848152713 0.24609146959404629 0 -0.10005120432924321 0.25626016583208688 0 -0.092613028744971265 0.26767711662392979 0 -0.086302411784292182 0.25447467192259482 0 -0.077256670317037021 0.26667642926106078 0 -0.092613028744971265 0.26767711662392979 0 -0.086302411784292182 0.25447467192259482 0 -0.077256670317037021 0.26667642926106078 0 -0.064077212627390134 0.24851538469076631 0 -0.083666647235009842 0.24139059785004849 0 -0.067453711470644842 0.27023673344429472 0 -0.077256670317037021 0.26667642926106078 0 -0.064077212627390134 0.24851538469076631 0 -0.067453711470644842 0.27023673344429472 0 -0.064077212627390134 0.24851538469076631 0 -0.067453711470644842 0.27023673344429472 0 -0.04634179854296408 0.26632715615711849 0 -0.064077212627390134 0.24851538469076631 0 -0.04634179854296408 0.26632715615711849 0 -0.064077212627390134 0.24851538469076631 0 -0.046578861792199937 0.24361118962503389 0 -0.067453711470644842 0.27023673344429472 0 -0.04634179854296408 0.26632715615711849 0 -0.052574645638654917 0.28480468584225688 0 -0.04634179854296408 0.26632715615711849 0 -0.034380640920947357 0.29211323654426968 0 -0.052574645638654917 0.28480468584225688 0 -0.04634179854296408 0.26632715615711849 0 -0.022607631921228569 0.27169805167723737 0 -0.034380640920947357 0.29211323654426968 0 -0.04634179854296408 0.26632715615711849 0 -0.03068766995985707 0.25286978792993342 0 -0.022607631921228569 0.27169805167723737 0 -0.04634179854296408 0.26632715615711849 0 -0.03068766995985707 0.25286978792993342 0 -0.046578861792199937 0.24361118962503389 0 -0.03068766995985707 0.25286978792993342 0 -0.022607631921228569 0.27169805167723737 0 -0.0098044441781452579 0.25473951632571468 0 -0.022607631921228569 0.27169805167723737 0 -0.015153941911089409 0.29208252597919021 0 3.3590645499582607e-05 0.27236849017123349 0 -0.022607631921228569 0.27169805167723737 0 -0.0098044441781452579 0.25473951632571468 0 3.3590645499582607e-05 0.27236849017123349 0 -0.0098044441781452579 0.25473951632571468 0 0.0073806355134042019 0.25529449578482938 0 3.3590645499582607e-05 0.27236849017123349 0 -0.0088759444352828343 0.31092800175718183 0 -0.015153941911089409 0.29208252597919021 0 0.0083336089875100904 0.29343585490586271 0 -0.015153941911089409 0.29208252597919021 0 0.0083336089875100904 0.29343585490586271 0 3.3590645499582607e-05 0.27236849017123349 0 -0.022607631921228569 0.27169805167723737 0 -0.015153941911089409 0.29208252597919021 0 -0.034380640920947357 0.29211323654426968 0 -0.0088759444352828343 0.31092800175718183 0 -0.015153941911089409 0.29208252597919021 0 -0.03508050583840458 0.3127012881250415 0 -0.015153941911089409 0.29208252597919021 0 -0.034380640920947357 0.29211323654426968 0 -0.03508050583840458 0.3127012881250415 0 -0.034380640920947357 0.29211323654426968 0 -0.054647974243728172 0.30430181459310768 0 -0.034380640920947357 0.29211323654426968 0 -0.054647974243728172 0.30430181459310768 0 -0.03508050583840458 0.3127012881250415 0 -0.034380640920947357 0.29211323654426968 0 -0.052574645638654917 0.28480468584225688 0 -0.054647974243728172 0.30430181459310768 0 -0.052574645638654917 0.28480468584225688 0 -0.059610011597539182 0.29372125904316332 0 -0.054647974243728172 0.30430181459310768 0 -0.070830210313899522 0.29195808219782299 0 -0.052574645638654917 0.28480468584225688 0 -0.059610011597539182 0.29372125904316332 0 -0.068661557073843291 0.3005821027458685 0 -0.059610011597539182 0.29372125904316332 0 -0.054647974243728172 0.30430181459310768 0 -0.058679851530075752 0.32054224196392622 0 -0.045885169747561752 0.33132665820789581 0 -0.073191842414501496 0.33174208285196288 0 -0.054647974243728172 0.30430181459310768 0 -0.058679851530075752 0.32054224196392622 0 -0.03508050583840458 0.3127012881250415 0 -0.045885169747561752 0.33132665820789581 0 -0.067541502003893042 0.3482616942848048 0 -0.073191842414501496 0.33174208285196288 0 -0.045885169747561752 0.33132665820789581 0 -0.073191842414501496 0.33174208285196288 0 -0.045885169747561752 0.33132665820789581 0 -0.018578497080621779 0.33091123356382868 0 -0.045885169747561752 0.33132665820789581 0 -0.03508050583840458 0.3127012881250415 0 -0.018578497080621779 0.33091123356382868 0 -0.058679851530075752 0.32054224196392622 0 -0.045885169747561752 0.33132665820789581 0 -0.03508050583840458 0.3127012881250415 0 -0.0088759444352828343 0.31092800175718183 0 -0.03508050583840458 0.3127012881250415 0 -0.018578497080621779 0.33091123356382868 0 -0.018578497080621779 0.33091123356382868 0 -0.0050552824635438226 0.34569829691311771 0 -0.02749858990914332 0.35301881799134821 0 -0.045885169747561752 0.33132665820789581 0 -0.018578497080621779 0.33091123356382868 0 -0.02749858990914332 0.35301881799134821 0 -0.018578497080621779 0.33091123356382868 0 -0.0050552824635438226 0.34569829691311771 0 0.0064742168078369342 0.3347740657525386 0 -0.018578497080621779 0.33091123356382868 0 0.0087281755863181168 0.33049580891976171 0 -0.018578497080621779 0.33091123356382868 0 0.0064742168078369342 0.3347740657525386 0 0.0087281755863181168 0.33049580891976171 0 -0.018578497080621779 0.33091123356382868 0 -0.003280447873963227 0.32161399115684158 0 0.0087281755863181168 0.33049580891976171 0 -0.0088759444352828343 0.31092800175718183 0 -0.018578497080621779 0.33091123356382868 0 -0.003280447873963227 0.32161399115684158 0 -0.0088759444352828343 0.31092800175718183 0 -0.003280447873963227 0.32161399115684158 0 0.0056044744337335906 0.31412092038659428 0 -0.0052616759920083916 0.36132776784546622 0 -0.0045342830833226501 0.3863935686212247 0 -0.0052616759920083916 0.36132776784546622 0 -0.024169526760701381 0.37267007813580277 0 -0.0045342830833226501 0.3863935686212247 0 -0.0052616759920083916 0.36132776784546622 0 -0.0045342830833226501 0.3863935686212247 0 0.0079023355216259559 0.37348921158265391 0 -0.0052616759920083916 0.36132776784546622 0 -0.0050552824635438226 0.34569829691311771 0 0.0061318462344260851 0.35417601161121459 0 -0.0052616759920083916 0.36132776784546622 0 -0.0050552824635438226 0.34569829691311771 0 -0.02749858990914332 0.35301881799134821 0 -0.02749858990914332 0.35301881799134821 0 -0.024169526760701381 0.37267007813580277 0 -0.04149310004589906 0.37124785083274592 0 -0.0052616759920083916 0.36132776784546622 0 -0.02749858990914332 0.35301881799134821 0 -0.024169526760701381 0.37267007813580277 0 -0.02749858990914332 0.35301881799134821 0 -0.04149310004589906 0.37124785083274592 0 -0.051818441616049399 0.35735321764765782 0 -0.045885169747561752 0.33132665820789581 0 -0.02749858990914332 0.35301881799134821 0 -0.051818441616049399 0.35735321764765782 0 -0.045885169747561752 0.33132665820789581 0 -0.051818441616049399 0.35735321764765782 0 -0.067541502003893042 0.3482616942848048 0 -0.04149310004589906 0.37124785083274592 0 -0.051818441616049399 0.35735321764765782 0 -0.056875823715872062 0.37631267096962301 0 -0.051818441616049399 0.35735321764765782 0 -0.069616273344600341 0.3650636543096733 0 -0.056875823715872062 0.37631267096962301 0 -0.069616273344600341 0.3650636543096733 0 -0.085055645225370236 0.37193713089684588 0 -0.071788917171084016 0.3809272333041443 0 -0.069616273344600341 0.3650636543096733 0 -0.071788917171084016 0.3809272333041443 0 -0.056875823715872062 0.37631267096962301 0 -0.069616273344600341 0.3650636543096733 0 -0.085055645225370236 0.37193713089684588 0 -0.084100884505446297 0.3554636863979832 0 -0.085055645225370236 0.37193713089684588 0 -0.084100884505446297 0.3554636863979832 0 -0.1008292236537022 0.36036332390371462 0 -0.084100884505446297 0.3554636863979832 0 -0.067541502003893042 0.3482616942848048 0 -0.085709514220790303 0.34113927750747819 0 -0.084100884505446297 0.3554636863979832 0 -0.085709514220790303 0.34113927750747819 0 -0.099722393067727538 0.34687368244968458 0 -0.069616273344600341 0.3650636543096733 0 -0.084100884505446297 0.3554636863979832 0 -0.067541502003893042 0.3482616942848048 0 -0.051818441616049399 0.35735321764765782 0 -0.069616273344600341 0.3650636543096733 0 -0.067541502003893042 0.3482616942848048 0 -0.067541502003893042 0.3482616942848048 0 -0.073191842414501496 0.33174208285196288 0 -0.085709514220790303 0.34113927750747819 0 -0.058679851530075752 0.32054224196392622 0 -0.073191842414501496 0.33174208285196288 0 -0.074915307566508993 0.31649039264194578 0 -0.054647974243728172 0.30430181459310768 0 -0.058679851530075752 0.32054224196392622 0 -0.074915307566508993 0.31649039264194578 0 -0.073191842414501496 0.33174208285196288 0 -0.074915307566508993 0.31649039264194578 0 -0.095182640889289766 0.32867897069078372 0 -0.090928135519314904 0.31087631578889069 0 -0.074915307566508993 0.31649039264194578 0 -0.095182640889289766 0.32867897069078372 0 -0.074915307566508993 0.31649039264194578 0 -0.095182640889289766 0.32867897069078372 0 -0.073191842414501496 0.33174208285196288 0 -0.085709514220790303 0.34113927750747819 0 -0.095182640889289766 0.32867897069078372 0 -0.085709514220790303 0.34113927750747819 0 -0.095182640889289766 0.32867897069078372 0 -0.099722393067727538 0.34687368244968458 0 -0.095182640889289766 0.32867897069078372 0 -0.1154499742120704 0.34086754873962172 0 -0.095182640889289766 0.32867897069078372 0 -0.1098512680755149 0.32470257897991811 0 -0.1154499742120704 0.34086754873962172 0 -0.095182640889289766 0.32867897069078372 0 -0.1154499742120704 0.34086754873962172 0 -0.099722393067727538 0.34687368244968458 0 -0.1061991548417472 0.31213959050036899 0 -0.090928135519314904 0.31087631578889069 0 -0.095182640889289766 0.32867897069078372 0 -0.1061991548417472 0.31213959050036899 0 -0.095182640889289766 0.32867897069078372 0 -0.1098512680755149 0.32470257897991811 0 -0.1061991548417472 0.31213959050036899 0 -0.115330384384618 0.31728312261503783 0 -0.1098512680755149 0.32470257897991811 0 -0.12136448477009221 0.30951812845445109 0 -0.1061991548417472 0.31213959050036899 0 -0.115330384384618 0.31728312261503783 0 -0.115330384384618 0.31728312261503783 0 -0.1098512680755149 0.32470257897991811 0 -0.12142985306419619 0.32461006626398298 0 -0.12722248981549561 0.3181430308760943 0 -0.115330384384618 0.31728312261503783 0 -0.12142985306419619 0.32461006626398298 0 -0.12722248981549561 0.3181430308760943 0 -0.12136448477009221 0.30951812845445109 0 -0.115330384384618 0.31728312261503783 0 -0.1098512680755149 0.32470257897991811 0 -0.12142985306419619 0.32461006626398298 0 -0.1154499742120704 0.34086754873962172 0 -0.13363790056006589 0.32585743918209531 0 -0.12142985306419619 0.32461006626398298 0 -0.1154499742120704 0.34086754873962172 0 -0.12523428666698541 0.37069662222368049 0 -0.1294360936135257 0.3482770307028879 0 -0.1154159689866658 0.35521970897278921 0 -0.1154499742120704 0.34086754873962172 0 -0.1154159689866658 0.35521970897278921 0 -0.099722393067727538 0.34687368244968458 0 -0.1294360936135257 0.3482770307028879 0 -0.1154499742120704 0.34086754873962172 0 -0.1154159689866658 0.35521970897278921 0 -0.12523428666698541 0.37069662222368049 0 -0.1154159689866658 0.35521970897278921 0 -0.11117961403065831 0.36839673047223442 0 -0.12523428666698541 0.37069662222368049 0 -0.11117961403065831 0.36839673047223442 0 -0.1123930043347208 0.38073562172137532 0 -0.11117961403065831 0.36839673047223442 0 -0.1008292236537022 0.36036332390371462 0 -0.09970079949094271 0.37763208900548878 0 -0.1154159689866658 0.35521970897278921 0 -0.11117961403065831 0.36839673047223442 0 -0.1008292236537022 0.36036332390371462 0 -0.085055645225370236 0.37193713089684588 0 -0.1008292236537022 0.36036332390371462 0 -0.09970079949094271 0.37763208900548878 0 -0.084100884505446297 0.3554636863979832 0 -0.1008292236537022 0.36036332390371462 0 -0.099722393067727538 0.34687368244968458 0 -0.1154159689866658 0.35521970897278921 0 -0.1008292236537022 0.36036332390371462 0 -0.099722393067727538 0.34687368244968458 0 -0.1036554482544351 0.39516830989393792 0 -0.1102807352191843 0.41378788895710661 0 -0.09259379641793411 0.40948313349934218 0 -0.1036554482544351 0.39516830989393792 0 -0.09970079949094271 0.37763208900548878 0 -0.1123930043347208 0.38073562172137532 0 -0.1036554482544351 0.39516830989393792 0 -0.09970079949094271 0.37763208900548878 0 -0.084297773186445962 0.39217279846007119 0 -0.11117961403065831 0.36839673047223442 0 -0.09970079949094271 0.37763208900548878 0 -0.1123930043347208 0.38073562172137532 0 -0.12523428666698541 0.37069662222368049 0 -0.1123930043347208 0.38073562172137532 0 -0.12103247972044499 0.39311621374447298 0 -0.1036554482544351 0.39516830989393792 0 -0.1123930043347208 0.38073562172137532 0 -0.12103247972044499 0.39311621374447298 0 -0.12523428666698541 0.37069662222368049 0 -0.12103247972044499 0.39311621374447298 0 -0.1036554482544351 0.39516830989393792 0 -0.12103247972044499 0.39311621374447298 0 -0.1102807352191843 0.41378788895710661 0 -0.12997925716256209 0.39431640422262348 0 -0.1102807352191843 0.41378788895710661 0 -0.12997925716256209 0.39431640422262348 0 -0.12103247972044499 0.39311621374447298 0 -0.1102807352191843 0.41378788895710661 0 -0.12623023605756489 0.41143854881348008 0 -0.1102807352191843 0.41378788895710661 0 -0.1242188050129694 0.42501783294758849 0 -0.12623023605756489 0.41143854881348008 0 -0.12997925716256209 0.39431640422262348 0 -0.1102807352191843 0.41378788895710661 0 -0.1102807352191843 0.41378788895710661 0 -0.1104760497445479 0.43296770510105842 0 -0.1242188050129694 0.42501783294758849 0 -0.1104760497445479 0.43296770510105842 0 -0.1242188050129694 0.42501783294758849 0 -0.1248743097581413 0.44162978393037222 0 -0.1102807352191843 0.41378788895710661 0 -0.090582213275806372 0.43325937369158968 0 -0.1102807352191843 0.41378788895710661 0 -0.1104760497445479 0.43296770510105842 0 -0.090582213275806372 0.43325937369158968 0 -0.1102807352191843 0.41378788895710661 0 -0.09259379641793411 0.40948313349934218 0 -0.090582213275806372 0.43325937369158968 0 -0.09259379641793411 0.40948313349934218 0 -0.090582213275806372 0.43325937369158968 0 -0.074152812153798875 0.41302729649400538 0 -0.090582213275806372 0.43325937369158968 0 -0.066022972602334681 0.42956105407568013 0 -0.074152812153798875 0.41302729649400538 0 -0.066022972602334681 0.42956105407568013 0 -0.074152812153798875 0.41302729649400538 0 -0.049329429094603867 0.41198700835812702 0 -0.074152812153798875 0.41302729649400538 0 -0.063154715464804681 0.39516467689365731 0 -0.084297773186445962 0.39217279846007119 0 -0.09259379641793411 0.40948313349934218 0 -0.074152812153798875 0.41302729649400538 0 -0.084297773186445962 0.39217279846007119 0 -0.1036554482544351 0.39516830989393792 0 -0.09259379641793411 0.40948313349934218 0 -0.084297773186445962 0.39217279846007119 0 -0.085055645225370236 0.37193713089684588 0 -0.09970079949094271 0.37763208900548878 0 -0.084297773186445962 0.39217279846007119 0 -0.085055645225370236 0.37193713089684588 0 -0.084297773186445962 0.39217279846007119 0 -0.071788917171084016 0.3809272333041443 0 -0.063154715464804681 0.39516467689365731 0 -0.084297773186445962 0.39217279846007119 0 -0.071788917171084016 0.3809272333041443 0 -0.063154715464804681 0.39516467689365731 0 -0.071788917171084016 0.3809272333041443 0 -0.056875823715872062 0.37631267096962301 0 -0.04149310004589906 0.37124785083274592 0 -0.056875823715872062 0.37631267096962301 0 -0.04338349465279491 0.38811939282985902 0 -0.063154715464804681 0.39516467689365731 0 -0.056875823715872062 0.37631267096962301 0 -0.04338349465279491 0.38811939282985902 0 -0.063154715464804681 0.39516467689365731 0 -0.04338349465279491 0.38811939282985902 0 -0.049329429094603867 0.41198700835812702 0 -0.04338349465279491 0.38811939282985902 0 -0.024844401122877391 0.39948633252540261 0 -0.049329429094603867 0.41198700835812702 0 -0.024169526760701381 0.37267007813580277 0 -0.04149310004589906 0.37124785083274592 0 -0.04338349465279491 0.38811939282985902 0 -0.024169526760701381 0.37267007813580277 0 -0.04338349465279491 0.38811939282985902 0 -0.024844401122877391 0.39948633252540261 0 -0.024169526760701381 0.37267007813580277 0 -0.024844401122877391 0.39948633252540261 0 -0.0045342830833226501 0.3863935686212247 0 -0.024844401122877391 0.39948633252540261 0 -0.0045342830833226501 0.3863935686212247 0 -0.0038092142255275289 0.41137928311071797 0 -0.0045342830833226501 0.3863935686212247 0 -0.0038092142255275289 0.41137928311071797 0 -0.024169526760701381 0.37267007813580277 0 -0.0045342830833226501 0.3863935686212247 0 -0.0030841453677343121 0.43636499760021141 0 -0.0038092142255275289 0.41137928311071797 0 -0.026324668085478481 0.42779129271708288 0 -0.0030841453677343121 0.43636499760021141 0 -0.0038092142255275289 0.41137928311071797 0 -0.024844401122877391 0.39948633252540261 0 -0.0038092142255275289 0.41137928311071797 0 -0.026324668085478481 0.42779129271708288 0 -0.026324668085478481 0.42779129271708288 0 -0.049329429094603867 0.41198700835812702 0 -0.049413859365407042 0.43472239834070731 0 -0.024844401122877391 0.39948633252540261 0 -0.026324668085478481 0.42779129271708288 0 -0.049329429094603867 0.41198700835812702 0 -0.074152812153798875 0.41302729649400538 0 -0.063154715464804681 0.39516467689365731 0 -0.049329429094603867 0.41198700835812702 0 -0.066022972602334681 0.42956105407568013 0 -0.049329429094603867 0.41198700835812702 0 -0.049413859365407042 0.43472239834070731 0 -0.066022972602334681 0.42956105407568013 0 -0.049413859365407042 0.43472239834070731 0 -0.0708836913324285 0.45273085842607269 0 -0.0393713920190637 0.45112048084748302 0 -0.052402143273794041 0.47435943831340011 0 -0.0708836913324285 0.45273085842607269 0 -0.049413859365407042 0.43472239834070731 0 -0.0393713920190637 0.45112048084748302 0 -0.0708836913324285 0.45273085842607269 0 -0.0393713920190637 0.45112048084748302 0 -0.02876560419008364 0.47203163756026523 0 -0.052402143273794041 0.47435943831340011 0 -0.026324668085478481 0.42779129271708288 0 -0.049413859365407042 0.43472239834070731 0 -0.0393713920190637 0.45112048084748302 0 -0.0030841453677343121 0.43636499760021141 0 -0.026324668085478481 0.42779129271708288 0 -0.01888650882967766 0.45329231687868837 0 -0.026324668085478481 0.42779129271708288 0 -0.0393713920190637 0.45112048084748302 0 -0.01888650882967766 0.45329231687868837 0 -0.0393713920190637 0.45112048084748302 0 -0.01888650882967766 0.45329231687868837 0 -0.02876560419008364 0.47203163756026523 0 -0.01888650882967766 0.45329231687868837 0 -0.01341416680576474 0.47109478045738301 0 -0.02876560419008364 0.47203163756026523 0 -0.01888650882967766 0.45329231687868837 0 -0.002359076509941094 0.46135071208970457 0 -0.01341416680576474 0.47109478045738301 0 -0.0030841453677343121 0.43636499760021141 0 -0.01888650882967766 0.45329231687868837 0 -0.002359076509941094 0.46135071208970457 0 -0.0030841453677343121 0.43636499760021141 0 -0.002359076509941094 0.46135071208970457 0 -0.0090346539348886701 0.5 0 -0.0016340076521478781 0.48633642657919801 0 -0.017460482120078509 0.48648722646036041 0 -0.0016340076521478781 0.48633642657919801 0 -0.01341416680576474 0.47109478045738301 0 -0.017460482120078509 0.48648722646036041 0 -0.002359076509941094 0.46135071208970457 0 -0.0016340076521478781 0.48633642657919801 0 -0.01341416680576474 0.47109478045738301 0 -0.002359076509941094 0.46135071208970457 0 -0.0016340076521478781 0.48633642657919801 0 -0.002359076509941094 0.46135071208970457 0 -0.0016340076521478781 0.48633642657919801 0 0.0036787250480955699 0.47408322248379448 0 -0.01341416680576474 0.47109478045738301 0 -0.02876560419008364 0.47203163756026523 0 -0.017460482120078509 0.48648722646036041 0 -0.02876560419008364 0.47203163756026523 0 -0.017460482120078509 0.48648722646036041 0 -0.038135422162237087 0.5 0 -0.0090346539348886701 0.5 0 -0.017460482120078509 0.48648722646036041 0 -0.038135422162237087 0.5 0 -0.02876560419008364 0.47203163756026523 0 -0.038135422162237087 0.5 0 -0.052402143273794041 0.47435943831340011 0 -0.038135422162237087 0.5 0 -0.052402143273794041 0.47435943831340011 0 -0.067236190389585393 0.5 0 -0.052402143273794041 0.47435943831340011 0 -0.067236190389585393 0.5 0 -0.073349005429332273 0.47921852398434828 0 -0.067236190389585393 0.5 0 -0.073349005429332273 0.47921852398434828 0 -0.096336958616933588 0.5 0 -0.073349005429332273 0.47921852398434828 0 -0.096336958616933588 0.5 0 -0.093805091172543903 0.47224368257650851 0 -0.052402143273794041 0.47435943831340011 0 -0.073349005429332273 0.47921852398434828 0 -0.0708836913324285 0.45273085842607269 0 -0.0708836913324285 0.45273085842607269 0 -0.1043361340672995 0.45358667135048331 0 -0.093805091172543903 0.47224368257650851 0 -0.090582213275806372 0.43325937369158968 0 -0.0708836913324285 0.45273085842607269 0 -0.1043361340672995 0.45358667135048331 0 -0.090582213275806372 0.43325937369158968 0 -0.066022972602334681 0.42956105407568013 0 -0.0708836913324285 0.45273085842607269 0 -0.090582213275806372 0.43325937369158968 0 -0.0708836913324285 0.45273085842607269 0 -0.073349005429332273 0.47921852398434828 0 -0.0708836913324285 0.45273085842607269 0 -0.093805091172543903 0.47224368257650851 0 -0.1043361340672995 0.45358667135048331 0 -0.12052644250191399 0.4682622397032008 0 -0.093805091172543903 0.47224368257650851 0 -0.1104760497445479 0.43296770510105842 0 -0.090582213275806372 0.43325937369158968 0 -0.1043361340672995 0.45358667135048331 0 -0.12618187852634369 0.45882241462805679 0 -0.1043361340672995 0.45358667135048331 0 -0.1248743097581413 0.44162978393037222 0 -0.1104760497445479 0.43296770510105842 0 -0.1043361340672995 0.45358667135048331 0 -0.1248743097581413 0.44162978393037222 0 -0.12618187852634369 0.45882241462805679 0 -0.1043361340672995 0.45358667135048331 0 -0.12052644250191399 0.4682622397032008 0 -0.1317912103042716 0.47600940211286807 0 -0.12052644250191399 0.4682622397032008 0 -0.11642361318749669 0.48420448820259387 0 -0.12052644250191399 0.4682622397032008 0 -0.11642361318749669 0.48420448820259387 0 -0.093805091172543903 0.47224368257650851 0 -0.12543772684428189 0.5 0 -0.11642361318749669 0.48420448820259387 0 -0.096336958616933588 0.5 0 -0.12543772684428189 0.5 0 -0.13178312884530541 0.48627570230508688 0 -0.11642361318749669 0.48420448820259387 0 -0.11642361318749669 0.48420448820259387 0 -0.096336958616933588 0.5 0 -0.093805091172543903 0.47224368257650851 0 -0.1693268494853358 0.079538523923443544 0 -0.16945340910355561 0.089496265134995978 0 -0.1618062267740645 0.07958177760614682 0 -0.16945340910355561 0.089496265134995978 0 -0.1618062267740645 0.07958177760614682 0 -0.1616157516695074 0.095139316102685473 0 -0.1618062267740645 0.07958177760614682 0 -0.1616157516695074 0.095139316102685473 0 -0.14767322655010931 0.084806545451415583 0 -0.1618062267740645 0.07958177760614682 0 -0.16640070467345031 0.07104807823334372 0 -0.15517576509654349 0.068304766057398533 0 -0.16640070467345031 0.07104807823334372 0 -0.15517576509654349 0.068304766057398533 0 -0.16451238623864939 0.061110077383343737 0 -0.16640070467345031 0.07104807823334372 0 -0.17354141001077031 0.063798093567348918 0 -0.16451238623864939 0.061110077383343737 0 -0.17157411485926041 0.074087910936242465 0 -0.16640070467345031 0.07104807823334372 0 -0.17354141001077031 0.063798093567348918 0 -0.1693268494853358 0.079538523923443544 0 -0.17157411485926041 0.074087910936242465 0 -0.16640070467345031 0.07104807823334372 0 -0.1693268494853358 0.079538523923443544 0 -0.1618062267740645 0.07958177760614682 0 -0.16640070467345031 0.07104807823334372 0 -0.17354141001077031 0.063798093567348918 0 -0.17702749526748529 0.081966948020833708 0 -0.17656426821359539 0.052679136019797047 0 -0.18185637422210199 0.067243003367259677 0 -0.17702749526748529 0.081966948020833708 0 -0.17656426821359539 0.052679136019797047 0 -0.17702749526748529 0.081966948020833708 0 -0.17656426821359539 0.052679136019797047 0 -0.17157411485926041 0.074087910936242465 0 -0.17354141001077031 0.063798093567348918 0 -0.17702749526748529 0.081966948020833708 0 -0.18185637422210199 0.067243003367259677 0 -0.1853153676200878 0.058850167416455039 0 -0.18892740292417859 0.064703221589215376 0 -0.18185637422210199 0.067243003367259677 0 -0.19050021368002351 0.072419239531055349 0 -0.18892740292417859 0.064703221589215376 0 -0.18185637422210199 0.067243003367259677 0 -0.18141962227324601 0.075216957450553817 0 -0.17702749526748529 0.081966948020833708 0 -0.18185637422210199 0.067243003367259677 0 -0.18141962227324601 0.075216957450553817 0 -0.19050021368002351 0.072419239531055349 0 -0.18141962227324601 0.075216957450553817 0 -0.1867192510276118 0.077748512173410014 0 -0.19050021368002351 0.072419239531055349 0 -0.18141962227324601 0.075216957450553817 0 -0.1867192510276118 0.077748512173410014 0 -0.1819129998543452 0.079414551687582866 0 -0.18248563084903771 0.082725789105533951 0 -0.17702749526748529 0.081966948020833708 0 -0.17749072232138041 0.1112547600218704 0 -0.1867192510276118 0.077748512173410014 0 -0.18248563084903771 0.082725789105533951 0 -0.1819129998543452 0.079414551687582866 0 -0.18141962227324601 0.075216957450553817 0 -0.1819129998543452 0.079414551687582866 0 -0.17702749526748529 0.081966948020833708 0 -0.18248563084903771 0.082725789105533951 0 -0.1819129998543452 0.079414551687582866 0 -0.17702749526748529 0.081966948020833708 0 -0.1693268494853358 0.079538523923443544 0 -0.16945340910355561 0.089496265134995978 0 -0.17702749526748529 0.081966948020833708 0 -0.1693268494853358 0.079538523923443544 0 -0.17157411485926041 0.074087910936242465 0 -0.17702749526748529 0.081966948020833708 0 -0.17702749526748529 0.081966948020833708 0 -0.17749072232138041 0.1112547600218704 0 -0.16945340910355561 0.089496265134995978 0 -0.17702749526748529 0.081966948020833708 0 -0.17749072232138041 0.1112547600218704 0 -0.17749072232138041 0.1112547600218704 0 -0.1951643137470572 0.093770439387570487 0 -0.18248563084903771 0.082725789105533951 0 -0.17749072232138041 0.1112547600218704 0 -0.1951643137470572 0.093770439387570487 0 -0.17749072232138041 0.1112547600218704 0 -0.19150979458678249 0.1243728737611647 0 -0.17789558253256721 0.1368522929207025 0 -0.17749072232138041 0.1112547600218704 0 -0.17789558253256721 0.1368522929207025 0 -0.17749072232138041 0.1112547600218704 0 -0.16113979031376621 0.12743058591966341 0 -0.17749072232138041 0.1112547600218704 0 -0.15084139672814201 0.110160429760413 0 -0.16113979031376621 0.12743058591966341 0 -0.17749072232138041 0.1112547600218704 0 -0.1616157516695074 0.095139316102685473 0 -0.15084139672814201 0.110160429760413 0 -0.16945340910355561 0.089496265134995978 0 -0.17749072232138041 0.1112547600218704 0 -0.1616157516695074 0.095139316102685473 0 -0.1616157516695074 0.095139316102685473 0 -0.15084139672814201 0.110160429760413 0 -0.14767322655010931 0.084806545451415583 0 -0.15084139672814201 0.110160429760413 0 -0.1348328660863515 0.097215266237156234 0 -0.14767322655010931 0.084806545451415583 0 -0.15084139672814201 0.110160429760413 0 -0.13137241316615089 0.11357835761918721 0 -0.14300315410871919 0.1253406317882016 0 -0.15084139672814201 0.110160429760413 0 -0.16113979031376621 0.12743058591966341 0 -0.14300315410871919 0.1253406317882016 0 -0.13137241316615089 0.11357835761918721 0 -0.14300315410871919 0.1253406317882016 0 -0.12687331202938101 0.13192737382428379 0 -0.13137241316615089 0.11357835761918721 0 -0.1348328660863515 0.097215266237156234 0 -0.1198812247159142 0.095002477965890675 0 -0.15084139672814201 0.110160429760413 0 -0.13137241316615089 0.11357835761918721 0 -0.1348328660863515 0.097215266237156234 0 -0.1348328660863515 0.097215266237156234 0 -0.12533951967512769 0.078274991835817334 0 -0.1198812247159142 0.095002477965890675 0 -0.1348328660863515 0.097215266237156234 0 -0.12533951967512769 0.078274991835817334 0 -0.14767322655010931 0.084806545451415583 0 -0.1618062267740645 0.07958177760614682 0 -0.14767322655010931 0.084806545451415583 0 -0.15517576509654349 0.068304766057398533 0 -0.14767322655010931 0.084806545451415583 0 -0.15517576509654349 0.068304766057398533 0 -0.14001017723872511 0.063978020277280875 0 -0.12533951967512769 0.078274991835817334 0 -0.14767322655010931 0.084806545451415583 0 -0.14001017723872511 0.063978020277280875 0 -0.12533951967512769 0.078274991835817334 0 -0.14001017723872511 0.063978020277280875 0 -0.1248745965026067 0.059896082918310993 0 -0.14001017723872511 0.063978020277280875 0 -0.13626681081840961 0.042829268155062397 0 -0.1248745965026067 0.059896082918310993 0 -0.13626681081840961 0.042829268155062397 0 -0.1339340902388827 0.022300844741854581 0 -0.1180188049733784 0.030804183747700629 0 -0.13626681081840961 0.042829268155062397 0 -0.1339340902388827 0.022300844741854581 0 -0.15968783393996419 0.037567277286728401 0 -0.13626681081840961 0.042829268155062397 0 -0.15351002702878311 0.053877414325468623 0 -0.15968783393996419 0.037567277286728401 0 -0.13626681081840961 0.042829268155062397 0 -0.15968783393996419 0.037567277286728401 0 -0.14001017723872511 0.063978020277280875 0 -0.13626681081840961 0.042829268155062397 0 -0.15351002702878311 0.053877414325468623 0 -0.15517576509654349 0.068304766057398533 0 -0.14001017723872511 0.063978020277280875 0 -0.15351002702878311 0.053877414325468623 0 -0.12735709500343681 0.004015926865657337 0 -0.15177498865293759 0.016606981474429749 0 -0.12735709500343681 0.004015926865657337 0 -0.1339340902388827 0.022300844741854581 0 -0.15177498865293759 0.016606981474429749 0 -0.12735709500343681 0.004015926865657337 0 -0.1339340902388827 0.022300844741854581 0 -0.11835839359799651 0.016938700943610479 0 -0.1339340902388827 0.022300844741854581 0 -0.15177498865293759 0.016606981474429749 0 -0.15968783393996419 0.037567277286728401 0 -0.1339340902388827 0.022300844741854581 0 -0.15968783393996419 0.037567277286728401 0 -0.12735709500343681 0.004015926865657337 0 -0.15177498865293759 0.016606981474429749 0 -0.14801408494475049 0.0031182785745780331 0 -0.15177498865293759 0.016606981474429749 0 -0.14801408494475049 0.0031182785745780331 0 -0.1619193683370386 0.0066468078375689294 0 -0.15773416148281841 -0.0035868741371463562 0 -0.14801408494475049 0.0031182785745780331 0 -0.1619193683370386 0.0066468078375689294 0 -0.15177498865293759 0.016606981474429749 0 -0.1619193683370386 0.0066468078375689294 0 -0.16760309597538539 0.015861310899326669 0 -0.16716832075785379 -0.0032078365625175 0 -0.1619193683370386 0.0066468078375689294 0 -0.17584419881677341 0.0071523107965592754 0 -0.1619193683370386 0.0066468078375689294 0 -0.16760309597538539 0.015861310899326669 0 -0.17584419881677341 0.0071523107965592754 0 -0.15177498865293759 0.016606981474429749 0 -0.17619288230243149 0.029198036083215671 0 -0.15177498865293759 0.016606981474429749 0 -0.17619288230243149 0.029198036083215671 0 -0.15968783393996419 0.037567277286728401 0 -0.15177498865293759 0.016606981474429749 0 -0.16760309597538539 0.015861310899326669 0 -0.17619288230243149 0.029198036083215671 0 -0.17619288230243149 0.029198036083215671 0 -0.1852069371874478 0.015311100034367831 0 -0.17584419881677341 0.0071523107965592754 0 -0.17619288230243149 0.029198036083215671 0 -0.17584419881677341 0.0071523107965592754 0 -0.16760309597538539 0.015861310899326669 0 -0.17619288230243149 0.029198036083215671 0 -0.17584419881677341 0.0071523107965592754 0 -0.17619288230243149 0.029198036083215671 0 -0.19572946351785711 0.039272048382664133 0 -0.19029700863621521 0.024089069561314659 0 -0.17619288230243149 0.029198036083215671 0 -0.1852069371874478 0.015311100034367831 0 -0.19029700863621521 0.024089069561314659 0 -0.1852069371874478 0.015311100034367831 0 -0.18717715497560061 0.0062623078557712403 0 -0.17584419881677341 0.0071523107965592754 0 -0.18154179604087481 -0.0036104187285780349 0 -0.18717715497560061 0.0062623078557712403 0 -0.17584419881677341 0.0071523107965592754 0 -0.15351002702878311 0.053877414325468623 0 -0.1659033968134131 0.050269055427132232 0 -0.15968783393996419 0.037567277286728401 0 -0.1659033968134131 0.050269055427132232 0 -0.16451238623864939 0.061110077383343737 0 -0.17656426821359539 0.052679136019797047 0 -0.17354141001077031 0.063798093567348918 0 -0.16451238623864939 0.061110077383343737 0 -0.17656426821359539 0.052679136019797047 0 -0.16451238623864939 0.061110077383343737 0 -0.17656426821359539 0.052679136019797047 0 -0.15351002702878311 0.053877414325468623 0 -0.1659033968134131 0.050269055427132232 0 -0.16451238623864939 0.061110077383343737 0 -0.15517576509654349 0.068304766057398533 0 -0.15351002702878311 0.053877414325468623 0 -0.16451238623864939 0.061110077383343737 0 -0.15968783393996419 0.037567277286728401 0 -0.1762663423330757 0.033842591165095401 0 -0.1659033968134131 0.050269055427132232 0 -0.15968783393996419 0.037567277286728401 0 -0.1764827173319595 0.047523031967639129 0 -0.17619288230243149 0.029198036083215671 0 -0.15968783393996419 0.037567277286728401 0 -0.1762663423330757 0.033842591165095401 0 -0.15968783393996419 0.037567277286728401 0 -0.1764827173319595 0.047523031967639129 0 -0.15968783393996419 0.037567277286728401 0 -0.1762663423330757 0.033842591165095401 0 -0.1764827173319595 0.047523031967639129 0 -0.17619288230243149 0.029198036083215671 0 -0.19572946351785711 0.039272048382664133 0 -0.181281627628781 0.040827380692469641 0 -0.18051660755046151 0.049914261515807259 0 -0.1764827173319595 0.047523031967639129 0 -0.17619288230243149 0.029198036083215671 0 -0.1762663423330757 0.033842591165095401 0 -0.19572946351785711 0.039272048382664133 0 -0.1762663423330757 0.033842591165095401 0 -0.181281627628781 0.040827380692469641 0 -0.19572946351785711 0.039272048382664133 0 -0.1762663423330757 0.033842591165095401 0 -0.181281627628781 0.040827380692469641 0 -0.1764827173319595 0.047523031967639129 0 -0.1762663423330757 0.033842591165095401 0 -0.1764827173319595 0.047523031967639129 0 -0.17619288230243149 0.029198036083215671 0 -0.1762663423330757 0.033842591165095401 0 -0.181281627628781 0.040827380692469641 0 -0.18051660755046151 0.049914261515807259 0 -0.19572946351785711 0.039272048382664133 0 -0.18051660755046151 0.049914261515807259 0 -0.17656426821359539 0.052679136019797047 0 -0.1853153676200878 0.058850167416455039 0 -0.18051660755046151 0.049914261515807259 0 -0.1764827173319595 0.047523031967639129 0 -0.1764827173319595 0.047523031967639129 0 -0.17656426821359539 0.052679136019797047 0 -0.1659033968134131 0.050269055427132232 0 -0.1764827173319595 0.047523031967639129 0 -0.17656426821359539 0.052679136019797047 0 -0.18051660755046151 0.049914261515807259 0 -0.1764827173319595 0.047523031967639129 0 -0.17656426821359539 0.052679136019797047 0 -0.18051660755046151 0.049914261515807259 0 -0.17656426821359539 0.052679136019797047 0 -0.18185637422210199 0.067243003367259677 0 -0.17656426821359539 0.052679136019797047 0 -0.1853153676200878 0.058850167416455039 0 -0.1853153676200878 0.058850167416455039 0 -0.19803765617450109 0.060300476042091433 0 -0.18892740292417859 0.064703221589215376 0 -0.18051660755046151 0.049914261515807259 0 -0.19803765617450109 0.060300476042091433 0 -0.1977866825790292 0.05007637869738242 0 -0.18051660755046151 0.049914261515807259 0 -0.1853153676200878 0.058850167416455039 0 -0.19803765617450109 0.060300476042091433 0 -0.18051660755046151 0.049914261515807259 0 -0.19803765617450109 0.060300476042091433 0 -0.19803765617450109 0.060300476042091433 0 -0.1977866825790292 0.05007637869738242 0 -0.2066297839190599 0.054855205218219752 0 -0.18051660755046151 0.049914261515807259 0 -0.1977866825790292 0.05007637869738242 0 -0.19572946351785711 0.039272048382664133 0 -0.18051660755046151 0.049914261515807259 0 -0.19572946351785711 0.039272048382664133 0 -0.19572946351785711 0.039272048382664133 0 -0.2098237389609823 0.029412342647955388 0 -0.1977866825790292 0.05007637869738242 0 -0.19572946351785711 0.039272048382664133 0 -0.2073344650466164 0.045256152092875389 0 -0.19572946351785711 0.039272048382664133 0 -0.2073344650466164 0.045256152092875389 0 -0.2073344650466164 0.045256152092875389 0 -0.21702036639386221 0.038769314305699548 0 -0.2098237389609823 0.029412342647955388 0 -0.19572946351785711 0.039272048382664133 0 -0.2073344650466164 0.045256152092875389 0 -0.2098237389609823 0.029412342647955388 0 -0.21702036639386221 0.038769314305699548 0 -0.2098237389609823 0.029412342647955388 0 -0.2284051488343061 0.035137669629428533 0 -0.2073344650466164 0.045256152092875389 0 -0.21702036639386221 0.038769314305699548 0 -0.22251811273354419 0.045271092852538893 0 -0.2073344650466164 0.045256152092875389 0 -0.21769334509658461 0.055951218203848879 0 -0.22251811273354419 0.045271092852538893 0 -0.21769334509658461 0.055951218203848879 0 -0.20947987249717179 0.060448397508133619 0 -0.2066297839190599 0.054855205218219752 0 -0.21769334509658461 0.055951218203848879 0 -0.20947987249717179 0.060448397508133619 0 -0.2155587047985415 0.070686690568374386 0 -0.19803765617450109 0.060300476042091433 0 -0.20947987249717179 0.060448397508133619 0 -0.2066297839190599 0.054855205218219752 0 -0.1977866825790292 0.05007637869738242 0 -0.2073344650466164 0.045256152092875389 0 -0.2066297839190599 0.054855205218219752 0 -0.2073344650466164 0.045256152092875389 0 -0.21769334509658461 0.055951218203848879 0 -0.2066297839190599 0.054855205218219752 0 -0.1989264366345522 -0.0080023544535597537 0 -0.1965234412062255 0.0098537758749781944 0 -0.20713549204565579 6.5395444916274768e-05 0 -0.19066530249761049 -0.0041303576494283751 0 -0.18717715497560061 0.0062623078557712403 0 -0.1965234412062255 0.0098537758749781944 0 -0.1852069371874478 0.015311100034367831 0 -0.18717715497560061 0.0062623078557712403 0 -0.1965234412062255 0.0098537758749781944 0 -0.1965234412062255 0.0098537758749781944 0 -0.20113962024173071 0.02227838771243261 0 -0.2107847094499361 0.011405203725301251 0 -0.19572946351785711 0.039272048382664133 0 -0.20113962024173071 0.02227838771243261 0 -0.2098237389609823 0.029412342647955388 0 -0.19572946351785711 0.039272048382664133 0 -0.20113962024173071 0.02227838771243261 0 -0.19029700863621521 0.024089069561314659 0 -0.1965234412062255 0.0098537758749781944 0 -0.20113962024173071 0.02227838771243261 0 -0.19029700863621521 0.024089069561314659 0 -0.1852069371874478 0.015311100034367831 0 -0.1965234412062255 0.0098537758749781944 0 -0.19029700863621521 0.024089069561314659 0 -0.2098237389609823 0.029412342647955388 0 -0.2107847094499361 0.011405203725301251 0 -0.22391801440410891 0.019552636913248388 0 -0.20113962024173071 0.02227838771243261 0 -0.2098237389609823 0.029412342647955388 0 -0.2107847094499361 0.011405203725301251 0 -0.2098237389609823 0.029412342647955388 0 -0.22391801440410891 0.019552636913248388 0 -0.21702438745170211 -0.0043907958627755336 0 -0.2107847094499361 0.011405203725301251 0 -0.20713549204565579 6.5395444916274768e-05 0 -0.21702438745170211 -0.0043907958627755336 0 -0.2107847094499361 0.011405203725301251 0 -0.22391801440410891 0.019552636913248388 0 -0.1965234412062255 0.0098537758749781944 0 -0.2107847094499361 0.011405203725301251 0 -0.20713549204565579 6.5395444916274768e-05 0 -0.22867745033346079 0.0038692188645070222 0 -0.22391801440410891 0.019552636913248388 0 -0.2344599051246074 0.012178015861532989 0 -0.21702438745170211 -0.0043907958627755336 0 -0.22391801440410891 0.019552636913248388 0 -0.21702438745170211 -0.0043907958627755336 0 -0.22867745033346079 0.0038692188645070222 0 -0.22391801440410891 0.019552636913248388 0 -0.22391801440410891 0.019552636913248388 0 -0.2403792472176362 0.02548084658656756 0 -0.2344599051246074 0.012178015861532989 0 -0.2098237389609823 0.029412342647955388 0 -0.22391801440410891 0.019552636913248388 0 -0.2284051488343061 0.035137669629428533 0 -0.22391801440410891 0.019552636913248388 0 -0.2403792472176362 0.02548084658656756 0 -0.2284051488343061 0.035137669629428533 0 -0.22391801440410891 0.019552636913248388 0 -0.2344599051246074 0.012178015861532989 0 -0.22391801440410891 0.019552636913248388 0 -0.2284051488343061 0.035137669629428533 0 -0.2522816967992324 0.037264740289820159 0 -0.25157722050270093 0.012682655753942951 0 -0.2403792472176362 0.02548084658656756 0 -0.25157722050270093 0.012682655753942951 0 -0.2403792472176362 0.02548084658656756 0 -0.2344599051246074 0.012178015861532989 0 -0.25267499080189931 -0.0034516002120552492 0 -0.25157722050270093 0.012682655753942951 0 -0.2401015516947359 0.00075261550232862703 0 -0.25157722050270093 0.012682655753942951 0 -0.2344599051246074 0.012178015861532989 0 -0.2401015516947359 0.00075261550232862703 0 -0.22867745033346079 0.0038692188645070222 0 -0.2344599051246074 0.012178015861532989 0 -0.2401015516947359 0.00075261550232862703 0 -0.21769334509658461 0.055951218203848879 0 -0.23255980098598539 0.056775429521547523 0 -0.2155587047985415 0.070686690568374386 0 -0.23289228326450309 0.050722702345608793 0 -0.22641588552015429 0.052180110730886013 0 -0.22251811273354419 0.045271092852538893 0 -0.23289228326450309 0.050722702345608793 0 -0.23255980098598539 0.056775429521547523 0 -0.22641588552015429 0.052180110730886013 0 -0.21769334509658461 0.055951218203848879 0 -0.23255980098598539 0.056775429521547523 0 -0.22641588552015429 0.052180110730886013 0 -0.21769334509658461 0.055951218203848879 0 -0.22641588552015429 0.052180110730886013 0 -0.22251811273354419 0.045271092852538893 0 -0.21702036639386221 0.038769314305699548 0 -0.22251811273354419 0.045271092852538893 0 -0.2284051488343061 0.035137669629428533 0 -0.23289228326450309 0.050722702345608793 0 -0.22251811273354419 0.045271092852538893 0 -0.2284051488343061 0.035137669629428533 0 -0.23289228326450309 0.050722702345608793 0 -0.2284051488343061 0.035137669629428533 0 -0.2522816967992324 0.037264740289820159 0 -0.2403792472176362 0.02548084658656756 0 -0.2284051488343061 0.035137669629428533 0 -0.2522816967992324 0.037264740289820159 0 -0.23289228326450309 0.050722702345608793 0 -0.2284051488343061 0.035137669629428533 0 -0.2522816967992324 0.037264740289820159 0 -0.23289228326450309 0.050722702345608793 0 -0.23255980098598539 0.056775429521547523 0 -0.2522816967992324 0.037264740289820159 0 -0.23255980098598539 0.056775429521547523 0 -0.2522816967992324 0.037264740289820159 0 -0.23255980098598539 0.056775429521547523 0 -0.24906194248509719 0.058488871325365822 0 -0.23255980098598539 0.056775429521547523 0 -0.24906194248509719 0.058488871325365822 0 -0.23770452364983391 0.071010308971772351 0 -0.26257114212692878 0.06573449919026883 0 -0.24906194248509719 0.058488871325365822 0 -0.23770452364983391 0.071010308971772351 0 -0.25261226255175379 0.080423606239198905 0 -0.23770452364983391 0.071010308971772351 0 -0.23158356521460469 0.085326977986282804 0 -0.25261226255175379 0.080423606239198905 0 -0.23158356521460469 0.085326977986282804 0 -0.24377998071086901 0.096378574065869249 0 -0.23158356521460469 0.085326977986282804 0 -0.21283790517273879 0.076286118753275345 0 -0.22135706029896429 0.097751395037259853 0 -0.23158356521460469 0.085326977986282804 0 -0.22135706029896429 0.097751395037259853 0 -0.24377998071086901 0.096378574065869249 0 -0.23255980098598539 0.056775429521547523 0 -0.21283790517273879 0.076286118753275345 0 -0.23770452364983391 0.071010308971772351 0 -0.23158356521460469 0.085326977986282804 0 -0.21283790517273879 0.076286118753275345 0 -0.23255980098598539 0.056775429521547523 0 -0.23770452364983391 0.071010308971772351 0 -0.21283790517273879 0.076286118753275345 0 -0.23255980098598539 0.056775429521547523 0 -0.21283790517273879 0.076286118753275345 0 -0.2155587047985415 0.070686690568374386 0 -0.23770452364983391 0.071010308971772351 0 -0.21283790517273879 0.076286118753275345 0 -0.19803765617450109 0.060300476042091433 0 -0.20947987249717179 0.060448397508133619 0 -0.2155587047985415 0.070686690568374386 0 -0.19803765617450109 0.060300476042091433 0 -0.20333782300263301 0.070680183335342567 0 -0.2155587047985415 0.070686690568374386 0 -0.19803765617450109 0.060300476042091433 0 -0.2155587047985415 0.070686690568374386 0 -0.21283790517273879 0.076286118753275345 0 -0.19766176801088831 0.079505953929404904 0 -0.20333782300263301 0.070680183335342567 0 -0.21283790517273879 0.076286118753275345 0 -0.19766176801088831 0.079505953929404904 0 -0.20333782300263301 0.070680183335342567 0 -0.21283790517273879 0.076286118753275345 0 -0.2155587047985415 0.070686690568374386 0 -0.21283790517273879 0.076286118753275345 0 -0.1951643137470572 0.093770439387570487 0 -0.22135706029896429 0.097751395037259853 0 -0.21283790517273879 0.076286118753275345 0 -0.1951643137470572 0.093770439387570487 0 -0.21283790517273879 0.076286118753275345 0 -0.19766176801088831 0.079505953929404904 0 -0.1951643137470572 0.093770439387570487 0 -0.18248563084903771 0.082725789105533951 0 -0.19766176801088831 0.079505953929404904 0 -0.1951643137470572 0.093770439387570487 0 -0.1867192510276118 0.077748512173410014 0 -0.18248563084903771 0.082725789105533951 0 -0.19766176801088831 0.079505953929404904 0 -0.18248563084903771 0.082725789105533951 0 -0.19766176801088831 0.079505953929404904 0 -0.1867192510276118 0.077748512173410014 0 -0.19766176801088831 0.079505953929404904 0 -0.19050021368002351 0.072419239531055349 0 -0.19803765617450109 0.060300476042091433 0 -0.19050021368002351 0.072419239531055349 0 -0.18892740292417859 0.064703221589215376 0 -0.19803765617450109 0.060300476042091433 0 -0.20333782300263301 0.070680183335342567 0 -0.19050021368002351 0.072419239531055349 0 -0.20333782300263301 0.070680183335342567 0 -0.19766176801088831 0.079505953929404904 0 -0.19050021368002351 0.072419239531055349 0 -0.17749072232138041 0.1112547600218704 0 -0.19150979458678249 0.1243728737611647 0 -0.1951643137470572 0.093770439387570487 0 -0.19150979458678249 0.1243728737611647 0 -0.1951643137470572 0.093770439387570487 0 -0.20994497012605751 0.11823125198409511 0 -0.1951643137470572 0.093770439387570487 0 -0.20994497012605751 0.11823125198409511 0 -0.22135706029896429 0.097751395037259853 0 -0.20994497012605751 0.11823125198409511 0 -0.2348316268224595 0.11651500804646669 0 -0.2235388627286797 0.12965651036182041 0 -0.20994497012605751 0.11823125198409511 0 -0.22135706029896429 0.097751395037259853 0 -0.2348316268224595 0.11651500804646669 0 -0.22135706029896429 0.097751395037259853 0 -0.24377998071086901 0.096378574065869249 0 -0.2348316268224595 0.11651500804646669 0 -0.25136603029008331 0.1103208693098497 0 -0.24377998071086901 0.096378574065869249 0 -0.2348316268224595 0.11651500804646669 0 -0.25922316449870308 0.12628093809151891 0 -0.25136603029008331 0.1103208693098497 0 -0.2348316268224595 0.11651500804646669 0 -0.25922316449870308 0.12628093809151891 0 -0.2348316268224595 0.11651500804646669 0 -0.2369615480924761 0.1404602413506009 0 -0.2369615480924761 0.1404602413506009 0 -0.2235388627286797 0.12965651036182041 0 -0.2124173058737257 0.14341954006611901 0 -0.2348316268224595 0.11651500804646669 0 -0.2369615480924761 0.1404602413506009 0 -0.2235388627286797 0.12965651036182041 0 -0.2369615480924761 0.1404602413506009 0 -0.22679867445049531 0.16064067306310431 0 -0.2124173058737257 0.14341954006611901 0 -0.2369615480924761 0.1404602413506009 0 -0.247018622616726 0.15992587597476091 0 -0.22679867445049531 0.16064067306310431 0 -0.25846103874104392 0.14702121199507179 0 -0.2369615480924761 0.1404602413506009 0 -0.247018622616726 0.15992587597476091 0 -0.247018622616726 0.15992587597476091 0 -0.23359887481107691 0.1809086922627815 0 -0.247018622616726 0.15992587597476091 0 -0.23359887481107691 0.1809086922627815 0 -0.22679867445049531 0.16064067306310431 0 -0.26439180367967152 0.18225540552070321 0 -0.247018622616726 0.15992587597476091 0 -0.23359887481107691 0.1809086922627815 0 -0.23359887481107691 0.1809086922627815 0 -0.20517995294037331 0.17379218369948349 0 -0.2201791270054278 0.2018915085508021 0 -0.23359887481107691 0.1809086922627815 0 -0.22679867445049531 0.16064067306310431 0 -0.20517995294037331 0.17379218369948349 0 -0.22679867445049531 0.16064067306310431 0 -0.20517995294037331 0.17379218369948349 0 -0.2124173058737257 0.14341954006611901 0 -0.20517995294037331 0.17379218369948349 0 -0.19274338499996449 0.14807478539393409 0 -0.17830044274374979 0.16244982581953471 0 -0.19150979458678249 0.1243728737611647 0 -0.19274338499996449 0.14807478539393409 0 -0.2124173058737257 0.14341954006611901 0 -0.20994497012605751 0.11823125198409511 0 -0.2235388627286797 0.12965651036182041 0 -0.2124173058737257 0.14341954006611901 0 -0.19150979458678249 0.1243728737611647 0 -0.20994497012605751 0.11823125198409511 0 -0.2124173058737257 0.14341954006611901 0 -0.20517995294037331 0.17379218369948349 0 -0.19274338499996449 0.14807478539393409 0 -0.2124173058737257 0.14341954006611901 0 -0.22371849106378741 0.2462845034026982 0 -0.23019370483249479 0.22382880503591951 0 -0.2066863838603582 0.24242880758937649 0 -0.22371849106378741 0.2462845034026982 0 -0.23951274761537589 0.2474853768326048 0 -0.23019370483249479 0.22382880503591951 0 -0.25272375818517617 0.22994970808158929 0 -0.25621817608628389 0.2460965770837312 0 -0.23951274761537589 0.2474853768326048 0 -0.25370102580463139 0.2052288024824625 0 -0.25272375818517617 0.22994970808158929 0 -0.23019370483249479 0.22382880503591951 0 -0.25272375818517617 0.22994970808158929 0 -0.23951274761537589 0.2474853768326048 0 -0.23019370483249479 0.22382880503591951 0 -0.25370102580463139 0.2052288024824625 0 -0.23359887481107691 0.1809086922627815 0 -0.2201791270054278 0.2018915085508021 0 -0.25370102580463139 0.2052288024824625 0 -0.23019370483249479 0.22382880503591951 0 -0.2201791270054278 0.2018915085508021 0 -0.23019370483249479 0.22382880503591951 0 -0.2201791270054278 0.2018915085508021 0 -0.20675937919977869 0.22287432483882261 0 -0.25370102580463139 0.2052288024824625 0 -0.23019370483249479 0.22382880503591951 0 -0.23359887481107691 0.1809086922627815 0 -0.2201791270054278 0.2018915085508021 0 -0.20517995294037331 0.17379218369948349 0 -0.2201791270054278 0.2018915085508021 0 -0.19686056424972551 0.20437535499954981 0 -0.20517995294037331 0.17379218369948349 0 -0.19686056424972551 0.20437535499954981 0 -0.17870530295493239 0.18804735871836689 0 -0.19686056424972551 0.20437535499954981 0 -0.20675937919977869 0.22287432483882261 0 -0.19122946023172571 0.22600186257262461 0 -0.19686056424972551 0.20437535499954981 0 -0.19122946023172571 0.22600186257262461 0 -0.179110163166115 0.21364489161719899 0 -0.2201791270054278 0.2018915085508021 0 -0.19686056424972551 0.20437535499954981 0 -0.20675937919977869 0.22287432483882261 0 -0.2201791270054278 0.2018915085508021 0 -0.20675937919977869 0.22287432483882261 0 -0.23019370483249479 0.22382880503591951 0 -0.2066863838603582 0.24242880758937649 0 -0.23019370483249479 0.22382880503591951 0 -0.20675937919977869 0.22287432483882261 0 -0.2066863838603582 0.24242880758937649 0 -0.20675937919977869 0.22287432483882261 0 -0.19333963139412971 0.24385714112684301 0 -0.20675937919977869 0.22287432483882261 0 -0.19122946023172571 0.22600186257262461 0 -0.19333963139412971 0.24385714112684301 0 -0.19122946023172571 0.22600186257262461 0 -0.19333963139412971 0.24385714112684301 0 -0.17951502337729761 0.2392424245160312 0 -0.20675937919977869 0.22287432483882261 0 -0.19333963139412971 0.24385714112684301 0 -0.2066863838603582 0.24242880758937649 0 -0.18259587964237009 0.2606558300825601 0 -0.19333963139412971 0.24385714112684301 0 -0.2066863838603582 0.24242880758937649 0 -0.21408768962570049 0.25938306782852782 0 -0.22371849106378741 0.2462845034026982 0 -0.2066863838603582 0.24242880758937649 0 -0.1532221513837192 0.25419418888983192 0 -0.17951502337729761 0.2392424245160312 0 -0.15110003921584569 0.22881829817408891 0 -0.18259587964237009 0.2606558300825601 0 -0.19333963139412971 0.24385714112684301 0 -0.17951502337729761 0.2392424245160312 0 -0.17951502337729761 0.2392424245160312 0 -0.1619547442009632 0.2162214427956837 0 -0.179110163166115 0.21364489161719899 0 -0.19122946023172571 0.22600186257262461 0 -0.17951502337729761 0.2392424245160312 0 -0.179110163166115 0.21364489161719899 0 -0.17951502337729761 0.2392424245160312 0 -0.179110163166115 0.21364489161719899 0 -0.17951502337729761 0.2392424245160312 0 -0.1619547442009632 0.2162214427956837 0 -0.15110003921584569 0.22881829817408891 0 -0.1619547442009632 0.2162214427956837 0 -0.179110163166115 0.21364489161719899 0 -0.17870530295493239 0.18804735871836689 0 -0.19686056424972551 0.20437535499954981 0 -0.179110163166115 0.21364489161719899 0 -0.17870530295493239 0.18804735871836689 0 -0.179110163166115 0.21364489161719899 0 -0.17870530295493239 0.18804735871836689 0 -0.1619547442009632 0.2162214427956837 0 -0.17870530295493239 0.18804735871836689 0 -0.15775407484820861 0.18727827749961631 0 -0.14804225966403101 0.20585853828705919 0 -0.15775407484820861 0.18727827749961631 0 -0.13876353146598761 0.18223131465273959 0 -0.1619547442009632 0.2162214427956837 0 -0.14804225966403101 0.20585853828705919 0 -0.15775407484820861 0.18727827749961631 0 -0.13876353146598761 0.18223131465273959 0 -0.1245765098090509 0.17966052017845999 0 -0.1190175871807343 0.20067046473278771 0 -0.14804225966403101 0.20585853828705919 0 -0.13876353146598761 0.18223131465273959 0 -0.1190175871807343 0.20067046473278771 0 -0.14804225966403101 0.20585853828705919 0 -0.13479108425045189 0.2189379304695287 0 -0.1190175871807343 0.20067046473278771 0 -0.13479108425045189 0.2189379304695287 0 -0.12594818007053379 0.2253828658525201 0 -0.1190175871807343 0.20067046473278771 0 -0.1619547442009632 0.2162214427956837 0 -0.14804225966403101 0.20585853828705919 0 -0.15110003921584569 0.22881829817408891 0 -0.14804225966403101 0.20585853828705919 0 -0.15110003921584569 0.22881829817408891 0 -0.13479108425045189 0.2189379304695287 0 -0.15110003921584569 0.22881829817408891 0 -0.13479108425045189 0.2189379304695287 0 -0.1378537507735782 0.22769286600650679 0 -0.15110003921584569 0.22881829817408891 0 -0.1378537507735782 0.22769286600650679 0 -0.13827307027013019 0.2362506378269415 0 -0.13479108425045189 0.2189379304695287 0 -0.12594818007053379 0.2253828658525201 0 -0.1378537507735782 0.22769286600650679 0 -0.12594818007053379 0.2253828658525201 0 -0.1378537507735782 0.22769286600650679 0 -0.13827307027013019 0.2362506378269415 0 -0.12594818007053379 0.2253828658525201 0 -0.13827307027013019 0.2362506378269415 0 -0.1327712538659816 0.24971188635390451 0 -0.12594818007053379 0.2253828658525201 0 -0.1327712538659816 0.24971188635390451 0 -0.1532221513837192 0.25419418888983192 0 -0.15110003921584569 0.22881829817408891 0 -0.13827307027013019 0.2362506378269415 0 -0.1532221513837192 0.25419418888983192 0 -0.13827307027013019 0.2362506378269415 0 -0.1327712538659816 0.24971188635390451 0 -0.16317411874061041 0.14897554401654969 0 -0.16113979031376621 0.12743058591966341 0 -0.1447888583061562 0.1436064118174607 0 -0.16317411874061041 0.14897554401654969 0 -0.16113979031376621 0.12743058591966341 0 -0.17789558253256721 0.1368522929207025 0 -0.17749072232138041 0.1112547600218704 0 -0.16113979031376621 0.12743058591966341 0 -0.17789558253256721 0.1368522929207025 0 -0.19150979458678249 0.1243728737611647 0 -0.19274338499996449 0.14807478539393409 0 -0.17789558253256721 0.1368522929207025 0 -0.16317411874061041 0.14897554401654969 0 -0.17789558253256721 0.1368522929207025 0 -0.17830044274374979 0.16244982581953471 0 -0.17789558253256721 0.1368522929207025 0 -0.17830044274374979 0.16244982581953471 0 -0.19274338499996449 0.14807478539393409 0 -0.17789558253256721 0.1368522929207025 0 -0.17830044274374979 0.16244982581953471 0 -0.20517995294037331 0.17379218369948349 0 -0.17870530295493239 0.18804735871836689 0 -0.17830044274374979 0.16244982581953471 0 -0.17870530295493239 0.18804735871836689 0 -0.17830044274374979 0.16244982581953471 0 -0.17870530295493239 0.18804735871836689 0 -0.17830044274374979 0.16244982581953471 0 -0.15775407484820861 0.18727827749961631 0 -0.17830044274374979 0.16244982581953471 0 -0.15775407484820861 0.18727827749961631 0 -0.15245232938168229 0.1648839185887534 0 -0.16317411874061041 0.14897554401654969 0 -0.17830044274374979 0.16244982581953471 0 -0.15245232938168229 0.1648839185887534 0 -0.15775407484820861 0.18727827749961631 0 -0.15245232938168229 0.1648839185887534 0 -0.13876353146598761 0.18223131465273959 0 -0.13876353146598761 0.18223131465273959 0 -0.12843792629854631 0.15978223771525801 0 -0.1245765098090509 0.17966052017845999 0 -0.15245232938168229 0.1648839185887534 0 -0.13876353146598761 0.18223131465273959 0 -0.12843792629854631 0.15978223771525801 0 -0.12843792629854631 0.15978223771525801 0 -0.1447888583061562 0.1436064118174607 0 -0.12843792629854631 0.15978223771525801 0 -0.1447888583061562 0.1436064118174607 0 -0.1204435081575875 0.14623213693654391 0 -0.16317411874061041 0.14897554401654969 0 -0.15245232938168229 0.1648839185887534 0 -0.1447888583061562 0.1436064118174607 0 -0.15245232938168229 0.1648839185887534 0 -0.12843792629854631 0.15978223771525801 0 -0.1447888583061562 0.1436064118174607 0 -0.16113979031376621 0.12743058591966341 0 -0.1447888583061562 0.1436064118174607 0 -0.14300315410871919 0.1253406317882016 0 -0.16113979031376621 0.12743058591966341 0 -0.1447888583061562 0.1436064118174607 0 -0.1447888583061562 0.1436064118174607 0 -0.12687331202938101 0.13192737382428379 0 -0.1204435081575875 0.14623213693654391 0 -0.1447888583061562 0.1436064118174607 0 -0.14300315410871919 0.1253406317882016 0 -0.12687331202938101 0.13192737382428379 0 -0.12687331202938101 0.13192737382428379 0 -0.1130049083687871 0.13722853083192951 0 -0.10667563132183119 0.1260080396076822 0 -0.12687331202938101 0.13192737382428379 0 -0.1130049083687871 0.13722853083192951 0 -0.1204435081575875 0.14623213693654391 0 -0.10667563132183119 0.1260080396076822 0 -0.081978849477511453 0.1384377215961772 0 -0.096577670607123245 0.1239972751083621 0 -0.10667563132183119 0.1260080396076822 0 -0.1008242758955458 0.1385116675773613 0 -0.081978849477511453 0.1384377215961772 0 -0.10667563132183119 0.1260080396076822 0 -0.081978849477511453 0.1384377215961772 0 -0.1130049083687871 0.13722853083192951 0 -0.10667563132183119 0.1260080396076822 0 -0.1008242758955458 0.1385116675773613 0 -0.1130049083687871 0.13722853083192951 0 -0.1008242758955458 0.1385116675773613 0 -0.1078791741402548 0.14587794917826699 0 -0.094422293866394627 0.1556947047027778 0 -0.094582816169344081 0.14500609667275041 0 -0.1078791741402548 0.14587794917826699 0 -0.1008242758955458 0.1385116675773613 0 -0.094582816169344081 0.14500609667275041 0 -0.1078791741402548 0.14587794917826699 0 -0.12843792629854631 0.15978223771525801 0 -0.1204435081575875 0.14623213693654391 0 -0.1073217141416921 0.15896651377475199 0 -0.1078791741402548 0.14587794917826699 0 -0.1204435081575875 0.14623213693654391 0 -0.1073217141416921 0.15896651377475199 0 -0.1130049083687871 0.13722853083192951 0 -0.1078791741402548 0.14587794917826699 0 -0.1204435081575875 0.14623213693654391 0 -0.12843792629854631 0.15978223771525801 0 -0.1245765098090509 0.17966052017845999 0 -0.1120869942909358 0.17595806361305491 0 -0.1120869942909358 0.17595806361305491 0 -0.1073217141416921 0.15896651377475199 0 -0.12843792629854631 0.15978223771525801 0 -0.1120869942909358 0.17595806361305491 0 -0.12843792629854631 0.15978223771525801 0 -0.1120869942909358 0.17595806361305491 0 -0.1073217141416921 0.15896651377475199 0 -0.1245765098090509 0.17966052017845999 0 -0.1120869942909358 0.17595806361305491 0 -0.1190175871807343 0.20067046473278771 0 -0.1120869942909358 0.17595806361305491 0 -0.1020860412129876 0.1687304780430319 0 -0.095149617161195271 0.19271405424946009 0 -0.1020860412129876 0.1687304780430319 0 -0.095149617161195271 0.19271405424946009 0 -0.1120869942909358 0.17595806361305491 0 -0.095149617161195271 0.19271405424946009 0 -0.1020860412129876 0.1687304780430319 0 -0.093279947424905002 0.17994671451597891 0 -0.095149617161195271 0.19271405424946009 0 -0.1020860412129876 0.1687304780430319 0 -0.089956478385260899 0.16811851343374709 0 -0.093279947424905002 0.17994671451597891 0 -0.094422293866394627 0.1556947047027778 0 -0.1078791741402548 0.14587794917826699 0 -0.1020860412129876 0.1687304780430319 0 -0.1078791741402548 0.14587794917826699 0 -0.1073217141416921 0.15896651377475199 0 -0.1020860412129876 0.1687304780430319 0 -0.1120869942909358 0.17595806361305491 0 -0.1073217141416921 0.15896651377475199 0 -0.1020860412129876 0.1687304780430319 0 -0.1078791741402548 0.14587794917826699 0 -0.1020860412129876 0.1687304780430319 0 -0.094422293866394627 0.1556947047027778 0 -0.1020860412129876 0.1687304780430319 0 -0.089956478385260899 0.16811851343374709 0 -0.094422293866394627 0.1556947047027778 0 -0.089956478385260899 0.16811851343374709 0 -0.084742563178951485 0.15922574422532609 0 -0.089956478385260899 0.16811851343374709 0 -0.080023232193096983 0.1657260639694961 0 -0.084742563178951485 0.15922574422532609 0 -0.089956478385260899 0.16811851343374709 0 -0.080023232193096983 0.1657260639694961 0 -0.081293191825158789 0.17801619480298669 0 -0.080023232193096983 0.1657260639694961 0 -0.084742563178951485 0.15922574422532609 0 -0.074930767296401246 0.15918989644816289 0 -0.081293191825158789 0.17801619480298669 0 -0.095149617161195271 0.19271405424946009 0 -0.073474196407973841 0.19079473501472519 0 -0.081293191825158789 0.17801619480298669 0 -0.095149617161195271 0.19271405424946009 0 -0.093279947424905002 0.17994671451597891 0 -0.081293191825158789 0.17801619480298669 0 -0.095149617161195271 0.19271405424946009 0 -0.089956478385260899 0.16811851343374709 0 -0.093279947424905002 0.17994671451597891 0 -0.081293191825158789 0.17801619480298669 0 -0.064604308801312821 0.18244611143699499 0 -0.069549912031587807 0.17131438064227461 0 -0.073474196407973841 0.19079473501472519 0 -0.081293191825158789 0.17801619480298669 0 -0.069549912031587807 0.17131438064227461 0 -0.073474196407973841 0.19079473501472519 0 -0.069549912031587807 0.17131438064227461 0 -0.073474196407973841 0.19079473501472519 0 -0.064604308801312821 0.18244611143699499 0 -0.069549912031587807 0.17131438064227461 0 -0.062041409668937363 0.1723934095439342 0 -0.084742563178951485 0.15922574422532609 0 -0.074930767296401246 0.15918989644816289 0 -0.074588176879671189 0.15080810715310269 0 -0.080023232193096983 0.1657260639694961 0 -0.074930767296401246 0.15918989644816289 0 -0.06743676648912228 0.16331833535651319 0 -0.081293191825158789 0.17801619480298669 0 -0.069549912031587807 0.17131438064227461 0 -0.06743676648912228 0.16331833535651319 0 -0.080023232193096983 0.1657260639694961 0 -0.081293191825158789 0.17801619480298669 0 -0.06743676648912228 0.16331833535651319 0 -0.081293191825158789 0.17801619480298669 0 -0.06743676648912228 0.16331833535651319 0 -0.069549912031587807 0.17131438064227461 0 -0.062031688412593149 0.16441565219234799 0 -0.062041409668937363 0.1723934095439342 0 -0.069549912031587807 0.17131438064227461 0 -0.06743676648912228 0.16331833535651319 0 -0.062031688412593149 0.16441565219234799 0 -0.06743676648912228 0.16331833535651319 0 -0.06725389334219653 0.15771987894696021 0 -0.062031688412593149 0.16441565219234799 0 -0.074930767296401246 0.15918989644816289 0 -0.06743676648912228 0.16331833535651319 0 -0.06725389334219653 0.15771987894696021 0 -0.081978849477511453 0.1384377215961772 0 -0.05728206763319247 0.1508674035846734 0 -0.06725389334219653 0.15771987894696021 0 -0.074588176879671189 0.15080810715310269 0 -0.05728206763319247 0.1508674035846734 0 -0.074588176879671189 0.15080810715310269 0 -0.081978849477511453 0.1384377215961772 0 -0.05728206763319247 0.1508674035846734 0 -0.081978849477511453 0.1384377215961772 0 -0.06070043620975589 0.134524720015781 0 -0.05728206763319247 0.1508674035846734 0 -0.074930767296401246 0.15918989644816289 0 -0.06725389334219653 0.15771987894696021 0 -0.074588176879671189 0.15080810715310269 0 -0.071786582042575819 0.1280585334591178 0 -0.081978849477511453 0.1384377215961772 0 -0.08034823769671974 0.121089655777625 0 -0.071786582042575819 0.1280585334591178 0 -0.081978849477511453 0.1384377215961772 0 -0.06070043620975589 0.134524720015781 0 -0.071786582042575819 0.1280585334591178 0 -0.06070043620975589 0.134524720015781 0 -0.06411880478631618 0.11818203644688791 0 -0.081978849477511453 0.1384377215961772 0 -0.08034823769671974 0.121089655777625 0 -0.096577670607123245 0.1239972751083621 0 -0.1008242758955458 0.1385116675773613 0 -0.094582816169344081 0.14500609667275041 0 -0.081978849477511453 0.1384377215961772 0 -0.094582816169344081 0.14500609667275041 0 -0.081978849477511453 0.1384377215961772 0 -0.0854808471676783 0.14892295327365951 0 -0.094422293866394627 0.1556947047027778 0 -0.084742563178951485 0.15922574422532609 0 -0.0854808471676783 0.14892295327365951 0 -0.094422293866394627 0.1556947047027778 0 -0.094582816169344081 0.14500609667275041 0 -0.0854808471676783 0.14892295327365951 0 -0.084742563178951485 0.15922574422532609 0 -0.074588176879671189 0.15080810715310269 0 -0.0854808471676783 0.14892295327365951 0 -0.074588176879671189 0.15080810715310269 0 -0.081978849477511453 0.1384377215961772 0 -0.0854808471676783 0.14892295327365951 0 -0.1045487088169635 0.24438495162540061 0 -0.11455994162881621 0.23631135170566109 0 -0.098826177075254387 0.23394696074010041 0 -0.10005120432924321 0.25626016583208688 0 -0.094679029848152713 0.24609146959404629 0 -0.1045487088169635 0.24438495162540061 0 -0.094679029848152713 0.24609146959404629 0 -0.1045487088169635 0.24438495162540061 0 -0.098826177075254387 0.23394696074010041 0 -0.116744543106582 0.25728181003509248 0 -0.1045487088169635 0.24438495162540061 0 -0.11455994162881621 0.23631135170566109 0 -0.116744543106582 0.25728181003509248 0 -0.1327712538659816 0.24971188635390451 0 -0.11455994162881621 0.23631135170566109 0 -0.12594818007053379 0.2253828658525201 0 -0.1327712538659816 0.24971188635390451 0 -0.11455994162881621 0.23631135170566109 0 -0.11455994162881621 0.23631135170566109 0 -0.1144435087069731 0.2232582902708152 0 -0.1063794885369051 0.22193246116811141 0 -0.12594818007053379 0.2253828658525201 0 -0.1144435087069731 0.2232582902708152 0 -0.1108864245916369 0.20940648235696879 0 -0.12594818007053379 0.2253828658525201 0 -0.11455994162881621 0.23631135170566109 0 -0.1144435087069731 0.2232582902708152 0 -0.11455994162881621 0.23631135170566109 0 -0.1063794885369051 0.22193246116811141 0 -0.098826177075254387 0.23394696074010041 0 -0.1063794885369051 0.22193246116811141 0 -0.098826177075254387 0.23394696074010041 0 -0.089950704149474564 0.21660149084549701 0 -0.1063794885369051 0.22193246116811141 0 -0.089950704149474564 0.21660149084549701 0 -0.10053720550511509 0.21148400771379949 0 -0.095149617161195271 0.19271405424946009 0 -0.089950704149474564 0.21660149084549701 0 -0.1063794885369051 0.22193246116811141 0 -0.10053720550511509 0.21148400771379949 0 -0.089950704149474564 0.21660149084549701 0 -0.10053720550511509 0.21148400771379949 0 -0.1108864245916369 0.20940648235696879 0 -0.095149617161195271 0.19271405424946009 0 -0.1063794885369051 0.22193246116811141 0 -0.10053720550511509 0.21148400771379949 0 -0.1108864245916369 0.20940648235696879 0 -0.12594818007053379 0.2253828658525201 0 -0.1190175871807343 0.20067046473278771 0 -0.12594818007053379 0.2253828658525201 0 -0.1108864245916369 0.20940648235696879 0 -0.1190175871807343 0.20067046473278771 0 -0.12594818007053379 0.2253828658525201 0 -0.1108864245916369 0.20940648235696879 0 -0.1144435087069731 0.2232582902708152 0 -0.1063794885369051 0.22193246116811141 0 -0.1108864245916369 0.20940648235696879 0 -0.1120869942909358 0.17595806361305491 0 -0.1190175871807343 0.20067046473278771 0 -0.1108864245916369 0.20940648235696879 0 -0.1190175871807343 0.20067046473278771 0 -0.10682171669235439 0.1942096232944058 0 -0.1120869942909358 0.17595806361305491 0 -0.1190175871807343 0.20067046473278771 0 -0.10682171669235439 0.1942096232944058 0 -0.1108864245916369 0.20940648235696879 0 -0.095149617161195271 0.19271405424946009 0 -0.1108864245916369 0.20940648235696879 0 -0.10682171669235439 0.1942096232944058 0 -0.095149617161195271 0.19271405424946009 0 -0.1120869942909358 0.17595806361305491 0 -0.10682171669235439 0.1942096232944058 0 -0.095149617161195271 0.19271405424946009 0 -0.095149617161195271 0.19271405424946009 0 -0.077398480784349299 0.2102750893871779 0 -0.095149617161195271 0.19271405424946009 0 -0.073474196407973841 0.19079473501472519 0 -0.077398480784349299 0.2102750893871779 0 -0.095149617161195271 0.19271405424946009 0 -0.077398480784349299 0.2102750893871779 0 -0.087241526055590657 0.20514135106535239 0 -0.073474196407973841 0.19079473501472519 0 -0.077398480784349299 0.2102750893871779 0 -0.073474196407973841 0.19079473501472519 0 -0.077398480784349299 0.2102750893871779 0 -0.068984895145132993 0.20348567813270921 0 -0.064604308801312821 0.18244611143699499 0 -0.073474196407973841 0.19079473501472519 0 -0.062951628171730722 0.19451437844324071 0 -0.073474196407973841 0.19079473501472519 0 -0.062951628171730722 0.19451437844324071 0 -0.068984895145132993 0.20348567813270921 0 -0.062951628171730722 0.19451437844324071 0 -0.068984895145132993 0.20348567813270921 0 -0.057478398324341332 0.20606456403591589 0 -0.068984895145132993 0.20348567813270921 0 -0.075683327299925024 0.21197187487555791 0 -0.057478398324341332 0.20606456403591589 0 -0.075683327299925024 0.21197187487555791 0 -0.060700713784132942 0.2267940359372384 0 -0.057478398324341332 0.20606456403591589 0 -0.075683327299925024 0.21197187487555791 0 -0.057478398324341332 0.20606456403591589 0 -0.077398480784349299 0.2102750893871779 0 -0.068984895145132993 0.20348567813270921 0 -0.075683327299925024 0.21197187487555791 0 -0.075683327299925024 0.21197187487555791 0 -0.077884159070199604 0.2126860219832131 0 -0.060700713784132942 0.2267940359372384 0 -0.075683327299925024 0.21197187487555791 0 -0.077884159070199604 0.2126860219832131 0 -0.077398480784349299 0.2102750893871779 0 -0.075683327299925024 0.21197187487555791 0 -0.077884159070199604 0.2126860219832131 0 -0.077398480784349299 0.2102750893871779 0 -0.077884159070199604 0.2126860219832131 0 -0.077398480784349299 0.2102750893871779 0 -0.075683327299925024 0.21197187487555791 0 -0.077884159070199604 0.2126860219832131 0 -0.089950704149474564 0.21660149084549701 0 -0.077884159070199604 0.2126860219832131 0 -0.087241526055590657 0.20514135106535239 0 -0.089950704149474564 0.21660149084549701 0 -0.095149617161195271 0.19271405424946009 0 -0.087241526055590657 0.20514135106535239 0 -0.089950704149474564 0.21660149084549701 0 -0.095149617161195271 0.19271405424946009 0 -0.089950704149474564 0.21660149084549701 0 -0.077398480784349299 0.2102750893871779 0 -0.077884159070199604 0.2126860219832131 0 -0.087241526055590657 0.20514135106535239 0 -0.077884159070199604 0.2126860219832131 0 -0.083666647235009842 0.24139059785004849 0 -0.089950704149474564 0.21660149084549701 0 -0.083666647235009842 0.24139059785004849 0 -0.077884159070199604 0.2126860219832131 0 -0.089950704149474564 0.21660149084549701 0 -0.083666647235009842 0.24139059785004849 0 -0.098826177075254387 0.23394696074010041 0 -0.089950704149474564 0.21660149084549701 0 -0.083666647235009842 0.24139059785004849 0 -0.077884159070199604 0.2126860219832131 0 -0.083666647235009842 0.24139059785004849 0 -0.060700713784132942 0.2267940359372384 0 -0.075683327299925024 0.21197187487555791 0 -0.060700713784132942 0.2267940359372384 0 -0.064077212627390134 0.24851538469076631 0 -0.083666647235009842 0.24139059785004849 0 -0.060700713784132942 0.2267940359372384 0 -0.086302411784292182 0.25447467192259482 0 -0.083666647235009842 0.24139059785004849 0 -0.094679029848152713 0.24609146959404629 0 -0.098826177075254387 0.23394696074010041 0 -0.083666647235009842 0.24139059785004849 0 -0.086302411784292182 0.25447467192259482 0 -0.094679029848152713 0.24609146959404629 0 -0.083666647235009842 0.24139059785004849 0 -0.03068766995985707 0.25286978792993342 0 -0.034335222642673788 0.23481172099035691 0 -0.046578861792199937 0.24361118962503389 0 -0.034335222642673788 0.23481172099035691 0 -0.046578861792199937 0.24361118962503389 0 -0.045510089746351297 0.2289623102588538 0 -0.064077212627390134 0.24851538469076631 0 -0.046578861792199937 0.24361118962503389 0 -0.055802081643016588 0.23164020743468811 0 -0.064077212627390134 0.24851538469076631 0 -0.055802081643016588 0.23164020743468811 0 -0.060700713784132942 0.2267940359372384 0 -0.064077212627390134 0.24851538469076631 0 -0.060700713784132942 0.2267940359372384 0 -0.046578861792199937 0.24361118962503389 0 -0.055802081643016588 0.23164020743468811 0 -0.045510089746351297 0.2289623102588538 0 -0.055802081643016588 0.23164020743468811 0 -0.053252725762674542 0.2222055350902031 0 -0.045510089746351297 0.2289623102588538 0 -0.055802081643016588 0.23164020743468811 0 -0.060700713784132942 0.2267940359372384 0 -0.053252725762674542 0.2222055350902031 0 -0.055802081643016588 0.23164020743468811 0 -0.060700713784132942 0.2267940359372384 0 -0.053252725762674542 0.2222055350902031 0 -0.045510089746351297 0.2289623102588538 0 -0.046772345315528908 0.21756655778431969 0 -0.045510089746351297 0.2289623102588538 0 -0.036443083940353373 0.22210497005765251 0 -0.046772345315528908 0.21756655778431969 0 -0.034335222642673788 0.23481172099035691 0 -0.045510089746351297 0.2289623102588538 0 -0.036443083940353373 0.22210497005765251 0 -0.034335222642673788 0.23481172099035691 0 -0.036443083940353373 0.22210497005765251 0 -0.024866254401544021 0.22078734426404351 0 -0.036443083940353373 0.22210497005765251 0 -0.046772345315528908 0.21756655778431969 0 -0.031637039445344017 0.19767931081015269 0 -0.046772345315528908 0.21756655778431969 0 -0.057478398324341332 0.20606456403591589 0 -0.031637039445344017 0.19767931081015269 0 -0.060700713784132942 0.2267940359372384 0 -0.053252725762674542 0.2222055350902031 0 -0.057478398324341332 0.20606456403591589 0 -0.060700713784132942 0.2267940359372384 0 -0.057478398324341332 0.20606456403591589 0 -0.053252725762674542 0.2222055350902031 0 -0.046772345315528908 0.21756655778431969 0 -0.057478398324341332 0.20606456403591589 0 -0.062951628171730722 0.19451437844324071 0 -0.057478398324341332 0.20606456403591589 0 -0.054948738746262903 0.1897910154656581 0 -0.057478398324341332 0.20606456403591589 0 -0.054948738746262903 0.1897910154656581 0 -0.031637039445344017 0.19767931081015269 0 -0.057478398324341332 0.20606456403591589 0 -0.054948738746262903 0.1897910154656581 0 -0.054948738746262903 0.1897910154656581 0 -0.031637039445344017 0.19767931081015269 0 -0.039999697082172873 0.18418677263352329 0 -0.057478398324341332 0.20606456403591589 0 -0.031637039445344017 0.19767931081015269 0 -0.031637039445344017 0.19767931081015269 0 -0.0057956805663459468 0.1892940575843915 0 -0.031637039445344017 0.19767931081015269 0 -0.0057956805663459468 0.1892940575843915 0 -0.024775833668462071 0.17590936267321361 0 -0.031637039445344017 0.19767931081015269 0 -0.0057956805663459468 0.1892940575843915 0 -0.01019634689217482 0.20814994011246479 0 -0.0057956805663459468 0.1892940575843915 0 -0.01019634689217482 0.20814994011246479 0 0.0090806704795409685 0.20996839310177981 0 -0.01019634689217482 0.20814994011246479 0 0.00014186162909880781 0.2338185852574263 0 0.0090806704795409685 0.20996839310177981 0 -0.036443083940353373 0.22210497005765251 0 -0.031637039445344017 0.19767931081015269 0 -0.024866254401544021 0.22078734426404351 0 -0.031637039445344017 0.19767931081015269 0 -0.01019634689217482 0.20814994011246479 0 -0.024866254401544021 0.22078734426404351 0 -0.034335222642673788 0.23481172099035691 0 -0.024866254401544021 0.22078734426404351 0 -0.01991034591062427 0.239405390953495 0 -0.024866254401544021 0.22078734426404351 0 0.00014186162909880781 0.2338185852574263 0 -0.024866254401544021 0.22078734426404351 0 -0.01991034591062427 0.239405390953495 0 0.00014186162909880781 0.2338185852574263 0 -0.01019634689217482 0.20814994011246479 0 -0.024866254401544021 0.22078734426404351 0 0.00014186162909880781 0.2338185852574263 0 -0.0098044441781452579 0.25473951632571468 0 0.00014186162909880781 0.2338185852574263 0 0.0073806355134042019 0.25529449578482938 0 -0.0098044441781452579 0.25473951632571468 0 -0.01991034591062427 0.239405390953495 0 0.00014186162909880781 0.2338185852574263 0 -0.03068766995985707 0.25286978792993342 0 -0.034335222642673788 0.23481172099035691 0 -0.01991034591062427 0.239405390953495 0 -0.03068766995985707 0.25286978792993342 0 -0.0098044441781452579 0.25473951632571468 0 -0.01991034591062427 0.239405390953495 0 -0.045513089216113363 0.1481501368583191 0 -0.039963318838929777 0.1583549670989208 0 -0.028048700007850699 0.14601834090005769 0 -0.045513089216113363 0.1481501368583191 0 -0.037584816749385713 0.12707105787504261 0 -0.028048700007850699 0.14601834090005769 0 -0.037584816749385713 0.12707105787504261 0 -0.028048700007850699 0.14601834090005769 0 -0.045513089216113363 0.1481501368583191 0 -0.037584816749385713 0.12707105787504261 0 -0.045513089216113363 0.1481501368583191 0 -0.037584816749385713 0.12707105787504261 0 -0.049753839012929922 0.13582205838018921 0 -0.037584816749385713 0.12707105787504261 0 -0.049753839012929922 0.13582205838018921 0 -0.051208231868337763 0.1260313133231428 0 -0.049753839012929922 0.13582205838018921 0 -0.06070043620975589 0.134524720015781 0 -0.052276118599972977 0.1457036522838337 0 -0.051208231868337763 0.1260313133231428 0 -0.06070043620975589 0.134524720015781 0 -0.06411880478631618 0.11818203644688791 0 -0.06070043620975589 0.134524720015781 0 -0.06411880478631618 0.11818203644688791 0 -0.049753839012929922 0.13582205838018921 0 -0.051208231868337763 0.1260313133231428 0 -0.06070043620975589 0.134524720015781 0 -0.06070043620975589 0.134524720015781 0 -0.052276118599972977 0.1457036522838337 0 -0.05728206763319247 0.1508674035846734 0 -0.06070043620975589 0.134524720015781 0 -0.05728206763319247 0.1508674035846734 0 -0.045513089216113363 0.1481501368583191 0 -0.049753839012929922 0.13582205838018921 0 -0.052276118599972977 0.1457036522838337 0 -0.045513089216113363 0.1481501368583191 0 -0.052276118599972977 0.1457036522838337 0 -0.053440893212920608 0.15280063427064891 0 -0.052276118599972977 0.1457036522838337 0 -0.053440893212920608 0.15280063427064891 0 -0.05728206763319247 0.1508674035846734 0 -0.053440893212920608 0.15280063427064891 0 -0.05728206763319247 0.1508674035846734 0 -0.05728206763319247 0.1508674035846734 0 -0.062031688412593149 0.16441565219234799 0 -0.053441361682841117 0.16922921584159559 0 -0.053440893212920608 0.15280063427064891 0 -0.05728206763319247 0.1508674035846734 0 -0.053441361682841117 0.16922921584159559 0 -0.045513089216113363 0.1481501368583191 0 -0.053440893212920608 0.15280063427064891 0 -0.053441361682841117 0.16922921584159559 0 -0.045513089216113363 0.1481501368583191 0 -0.053441361682841117 0.16922921584159559 0 -0.05728206763319247 0.1508674035846734 0 -0.053441361682841117 0.16922921584159559 0 -0.06725389334219653 0.15771987894696021 0 -0.05728206763319247 0.1508674035846734 0 -0.062031688412593149 0.16441565219234799 0 -0.062031688412593149 0.16441565219234799 0 -0.053441361682841117 0.16922921584159559 0 -0.062041409668937363 0.1723934095439342 0 -0.053441361682841117 0.16922921584159559 0 -0.047633738945979477 0.17108968717192211 0 -0.039963318838929777 0.1583549670989208 0 -0.052991971448818453 0.17137768000779441 0 -0.053441361682841117 0.16922921584159559 0 -0.047633738945979477 0.17108968717192211 0 -0.052991971448818453 0.17137768000779441 0 -0.053441361682841117 0.16922921584159559 0 -0.054948738746262903 0.1897910154656581 0 -0.052419079168185397 0.17351746689540021 0 -0.046888846475854867 0.17837904804597579 0 -0.062951628171730722 0.19451437844324071 0 -0.054948738746262903 0.1897910154656581 0 -0.052419079168185397 0.17351746689540021 0 -0.062951628171730722 0.19451437844324071 0 -0.052991971448818453 0.17137768000779441 0 -0.052419079168185397 0.17351746689540021 0 -0.064604308801312821 0.18244611143699499 0 -0.062951628171730722 0.19451437844324071 0 -0.053441361682841117 0.16922921584159559 0 -0.062951628171730722 0.19451437844324071 0 -0.052991971448818453 0.17137768000779441 0 -0.053441361682841117 0.16922921584159559 0 -0.054948738746262903 0.1897910154656581 0 -0.052419079168185397 0.17351746689540021 0 -0.062951628171730722 0.19451437844324071 0 -0.053441361682841117 0.16922921584159559 0 -0.064604308801312821 0.18244611143699499 0 -0.053441361682841117 0.16922921584159559 0 -0.062041409668937363 0.1723934095439342 0 -0.052991971448818453 0.17137768000779441 0 -0.047633738945979477 0.17108968717192211 0 -0.052419079168185397 0.17351746689540021 0 -0.047633738945979477 0.17108968717192211 0 -0.052419079168185397 0.17351746689540021 0 -0.046888846475854867 0.17837904804597579 0 -0.054948738746262903 0.1897910154656581 0 -0.046888846475854867 0.17837904804597579 0 -0.039999697082172873 0.18418677263352329 0 -0.031637039445344017 0.19767931081015269 0 -0.039999697082172873 0.18418677263352329 0 -0.024775833668462071 0.17590936267321361 0 -0.046888846475854867 0.17837904804597579 0 -0.039999697082172873 0.18418677263352329 0 -0.039442978436673673 0.17331029806337539 0 -0.047633738945979477 0.17108968717192211 0 -0.046888846475854867 0.17837904804597579 0 -0.039442978436673673 0.17331029806337539 0 -0.039442978436673673 0.17331029806337539 0 -0.032139483942643897 0.16694135859911591 0 -0.024775833668462071 0.17590936267321361 0 -0.039999697082172873 0.18418677263352329 0 -0.039442978436673673 0.17331029806337539 0 -0.024775833668462071 0.17590936267321361 0 -0.045513089216113363 0.1481501368583191 0 -0.053441361682841117 0.16922921584159559 0 -0.039963318838929777 0.1583549670989208 0 -0.039963318838929777 0.1583549670989208 0 -0.032139483942643897 0.16694135859911591 0 -0.02343924065842673 0.15869802647678349 0 -0.047633738945979477 0.17108968717192211 0 -0.039442978436673673 0.17331029806337539 0 -0.039963318838929777 0.1583549670989208 0 -0.039442978436673673 0.17331029806337539 0 -0.039963318838929777 0.1583549670989208 0 -0.032139483942643897 0.16694135859911591 0 -0.032139483942643897 0.16694135859911591 0 -0.02343924065842673 0.15869802647678349 0 -0.024775833668462071 0.17590936267321361 0 -0.02343924065842673 0.15869802647678349 0 -0.024775833668462071 0.17590936267321361 0 -0.0048034666842798916 0.1614245706846468 0 -0.0057956805663459468 0.1892940575843915 0 -0.024775833668462071 0.17590936267321361 0 -0.0048034666842798916 0.1614245706846468 0 -0.0048034666842798916 0.1614245706846468 0 -0.01090464080839405 0.14353955890474629 0 0.011098566836083609 0.13484946890849181 0 -0.02343924065842673 0.15869802647678349 0 -0.0048034666842798916 0.1614245706846468 0 -0.01090464080839405 0.14353955890474629 0 -0.039963318838929777 0.1583549670989208 0 -0.02343924065842673 0.15869802647678349 0 -0.028048700007850699 0.14601834090005769 0 -0.02343924065842673 0.15869802647678349 0 -0.01090464080839405 0.14353955890474629 0 -0.028048700007850699 0.14601834090005769 0 -0.037584816749385713 0.12707105787504261 0 -0.0187932077553963 0.1304023687453105 0 -0.02482114599867602 0.1199028763409456 0 -0.01090464080839405 0.14353955890474629 0 -0.028048700007850699 0.14601834090005769 0 -0.0187932077553963 0.1304023687453105 0 -0.037584816749385713 0.12707105787504261 0 -0.028048700007850699 0.14601834090005769 0 -0.0187932077553963 0.1304023687453105 0 -0.0064436606074630637 0.13109611639504981 0 -0.007175360702145514 0.1155930690216506 0 0.011098566836083609 0.13484946890849181 0 -0.01090464080839405 0.14353955890474629 0 -0.0064436606074630637 0.13109611639504981 0 0.011098566836083609 0.13484946890849181 0 -0.0187932077553963 0.1304023687453105 0 -0.0064436606074630637 0.13109611639504981 0 -0.007175360702145514 0.1155930690216506 0 -0.01090464080839405 0.14353955890474629 0 -0.0187932077553963 0.1304023687453105 0 -0.0064436606074630637 0.13109611639504981 0 -0.007175360702145514 0.1155930690216506 0 -0.0040088977147468936 0.097024336429998151 0 -0.013655752966245171 0.094180689311720855 0 -0.007175360702145514 0.1155930690216506 0 -0.0040088977147468936 0.097024336429998151 0 0.0025937760044158291 0.1064596481343341 0 -0.007175360702145514 0.1155930690216506 0 -0.013655752966245171 0.094180689311720855 0 -0.02544928824037461 0.096336669134809427 0 -0.029459919491476121 0.1011230655410132 0 -0.021580178673492881 0.1105609364200745 0 -0.037915498494119543 0.10215930426450601 0 -0.007175360702145514 0.1155930690216506 0 -0.02544928824037461 0.096336669134809427 0 -0.007175360702145514 0.1155930690216506 0 -0.02544928824037461 0.096336669134809427 0 -0.0241566231860777 0.1021061234229471 0 -0.02544928824037461 0.096336669134809427 0 -0.029459919491476121 0.1011230655410132 0 -0.035034026511796899 0.0954599165668297 0 -0.02544928824037461 0.096336669134809427 0 -0.029459919491476121 0.1011230655410132 0 -0.0241566231860777 0.1021061234229471 0 -0.02544928824037461 0.096336669134809427 0 -0.0241566231860777 0.1021061234229471 0 -0.029459919491476121 0.1011230655410132 0 -0.0241566231860777 0.1021061234229471 0 -0.021580178673492881 0.1105609364200745 0 -0.02482114599867602 0.1199028763409456 0 -0.021580178673492881 0.1105609364200745 0 -0.032585978911933711 0.11378053360982859 0 -0.007175360702145514 0.1155930690216506 0 -0.0241566231860777 0.1021061234229471 0 -0.021580178673492881 0.1105609364200745 0 -0.0187932077553963 0.1304023687453105 0 -0.007175360702145514 0.1155930690216506 0 -0.02482114599867602 0.1199028763409456 0 -0.007175360702145514 0.1155930690216506 0 -0.02482114599867602 0.1199028763409456 0 -0.021580178673492881 0.1105609364200745 0 -0.01109578586274463 0.07592966442077155 0 -0.01963881101933795 0.057650575484614511 0 -0.0089029190745683329 0.062319161291970238 0 -0.0031702267477386531 0.067180855403790804 0 -0.01109578586274463 0.07592966442077155 0 0.0065236609159091173 0.071671444604676282 0 -0.0031702267477386531 0.067180855403790804 0 -0.0089029190745683329 0.062319161291970238 0 0.00079413703044923156 0.058803151297745167 0 -0.0031702267477386531 0.067180855403790804 0 -0.01109578586274463 0.07592966442077155 0 -0.0089029190745683329 0.062319161291970238 0 -0.0040088977147468936 0.097024336429998151 0 -0.01109578586274463 0.07592966442077155 0 0.011643404763696401 0.092949868607662828 0 -0.0040088977147468936 0.097024336429998151 0 -0.013655752966245171 0.094180689311720855 0 -0.01109578586274463 0.07592966442077155 0 -0.013655752966245171 0.094180689311720855 0 -0.01109578586274463 0.07592966442077155 0 -0.02054943231121421 0.086019707551374502 0 -0.02544928824037461 0.096336669134809427 0 -0.02054943231121421 0.086019707551374502 0 -0.029642132364781061 0.077623064684345475 0 -0.02544928824037461 0.096336669134809427 0 -0.029642132364781061 0.077623064684345475 0 -0.036673455980692451 0.084509049595857907 0 -0.01109578586274463 0.07592966442077155 0 -0.02054943231121421 0.086019707551374502 0 -0.029642132364781061 0.077623064684345475 0 -0.02544928824037461 0.096336669134809427 0 -0.029642132364781061 0.077623064684345475 0 -0.013655752966245171 0.094180689311720855 0 -0.02544928824037461 0.096336669134809427 0 -0.02054943231121421 0.086019707551374502 0 -0.02544928824037461 0.096336669134809427 0 -0.036673455980692451 0.084509049595857907 0 -0.01109578586274463 0.07592966442077155 0 -0.033834976489186493 0.058909460233881362 0 -0.01109578586274463 0.07592966442077155 0 -0.029642132364781061 0.077623064684345475 0 -0.033834976489186493 0.058909460233881362 0 -0.01109578586274463 0.07592966442077155 0 -0.033834976489186493 0.058909460233881362 0 -0.01963881101933795 0.057650575484614511 0 -0.029642132364781061 0.077623064684345475 0 -0.033834976489186493 0.058909460233881362 0 -0.029642132364781061 0.077623064684345475 0 -0.036732086871232597 0.066761861307427367 0 -0.033834976489186493 0.058909460233881362 0 -0.042969512877196837 0.063698159366550891 0 -0.036732086871232597 0.066761861307427367 0 -0.038306240480512441 0.072768089837317376 0 -0.042969512877196837 0.063698159366550891 0 -0.038306240480512441 0.072768089837317376 0 -0.046136221960229658 0.070392563092827029 0 -0.042969512877196837 0.063698159366550891 0 -0.036732086871232597 0.066761861307427367 0 -0.038907572144486188 0.060810532415041758 0 -0.029642132364781061 0.077623064684345475 0 -0.036732086871232597 0.066761861307427367 0 -0.038306240480512441 0.072768089837317376 0 -0.038306240480512441 0.072768089837317376 0 -0.046136221960229658 0.070392563092827029 0 -0.043586306971417507 0.077534071189344175 0 -0.038306240480512441 0.072768089837317376 0 -0.043586306971417507 0.077534071189344175 0 -0.036673455980692451 0.084509049595857907 0 -0.043586306971417507 0.077534071189344175 0 -0.036673455980692451 0.084509049595857907 0 -0.046978765451358998 0.084182386091036676 0 -0.029642132364781061 0.077623064684345475 0 -0.038306240480512441 0.072768089837317376 0 -0.036673455980692451 0.084509049595857907 0 -0.02544928824037461 0.096336669134809427 0 -0.036673455980692451 0.084509049595857907 0 -0.035034026511796899 0.0954599165668297 0 -0.036673455980692451 0.084509049595857907 0 -0.044089979176562301 0.093675305350012283 0 -0.035034026511796899 0.0954599165668297 0 -0.036673455980692451 0.084509049595857907 0 -0.044089979176562301 0.093675305350012283 0 -0.046978765451358998 0.084182386091036676 0 -0.044089979176562301 0.093675305350012283 0 -0.057144835734191893 0.088207312209507505 0 -0.046978765451358998 0.084182386091036676 0 -0.057144835734191893 0.088207312209507505 0 -0.046978765451358998 0.084182386091036676 0 -0.053399249393930842 0.076986192110461482 0 -0.043586306971417507 0.077534071189344175 0 -0.046978765451358998 0.084182386091036676 0 -0.053399249393930842 0.076986192110461482 0 -0.053399249393930842 0.076986192110461482 0 -0.070406408885084593 0.061857930521202607 0 -0.059815066152941319 0.061788281472960463 0 -0.057144835734191893 0.088207312209507505 0 -0.053399249393930842 0.076986192110461482 0 -0.070406408885084593 0.061857930521202607 0 -0.046136221960229658 0.070392563092827029 0 -0.043586306971417507 0.077534071189344175 0 -0.053399249393930842 0.076986192110461482 0 -0.046136221960229658 0.070392563092827029 0 -0.053399249393930842 0.076986192110461482 0 -0.05257832837313995 0.068950164376806455 0 -0.053399249393930842 0.076986192110461482 0 -0.05257832837313995 0.068950164376806455 0 -0.059815066152941319 0.061788281472960463 0 -0.05257832837313995 0.068950164376806455 0 -0.052166049838275927 0.062310195238599278 0 -0.059815066152941319 0.061788281472960463 0 -0.046136221960229658 0.070392563092827029 0 -0.05257832837313995 0.068950164376806455 0 -0.052166049838275927 0.062310195238599278 0 -0.042969512877196837 0.063698159366550891 0 -0.046136221960229658 0.070392563092827029 0 -0.052166049838275927 0.062310195238599278 0 -0.021580178673492881 0.1105609364200745 0 -0.043883262583300407 0.11455669389781301 0 -0.021580178673492881 0.1105609364200745 0 -0.043883262583300407 0.11455669389781301 0 -0.032585978911933711 0.11378053360982859 0 -0.037584816749385713 0.12707105787504261 0 -0.051208231868337763 0.1260313133231428 0 -0.043883262583300407 0.11455669389781301 0 -0.037584816749385713 0.12707105787504261 0 -0.043883262583300407 0.11455669389781301 0 -0.037584816749385713 0.12707105787504261 0 -0.032585978911933711 0.11378053360982859 0 -0.037584816749385713 0.12707105787504261 0 -0.043883262583300407 0.11455669389781301 0 -0.032585978911933711 0.11378053360982859 0 -0.037584816749385713 0.12707105787504261 0 -0.02482114599867602 0.1199028763409456 0 -0.032585978911933711 0.11378053360982859 0 -0.021580178673492881 0.1105609364200745 0 -0.043883262583300407 0.11455669389781301 0 -0.037915498494119543 0.10215930426450601 0 -0.044089979176562301 0.093675305350012283 0 -0.043883262583300407 0.11455669389781301 0 -0.037915498494119543 0.10215930426450601 0 -0.044089979176562301 0.093675305350012283 0 -0.037915498494119543 0.10215930426450601 0 -0.035034026511796899 0.0954599165668297 0 -0.029459919491476121 0.1011230655410132 0 -0.037915498494119543 0.10215930426450601 0 -0.035034026511796899 0.0954599165668297 0 -0.044089979176562301 0.093675305350012283 0 -0.057144835734191893 0.088207312209507505 0 -0.043883262583300407 0.11455669389781301 0 -0.057144835734191893 0.088207312209507505 0 -0.043883262583300407 0.11455669389781301 0 -0.057144835734191893 0.088207312209507505 0 -0.043883262583300407 0.11455669389781301 0 -0.056175626513735713 0.104231459755559 0 -0.056175626513735713 0.104231459755559 0 -0.061770267295803899 0.1005995653590098 0 -0.06411880478631618 0.11818203644688791 0 -0.057144835734191893 0.088207312209507505 0 -0.056175626513735713 0.104231459755559 0 -0.061770267295803899 0.1005995653590098 0 -0.043883262583300407 0.11455669389781301 0 -0.06411880478631618 0.11818203644688791 0 -0.051208231868337763 0.1260313133231428 0 -0.043883262583300407 0.11455669389781301 0 -0.06411880478631618 0.11818203644688791 0 -0.043883262583300407 0.11455669389781301 0 -0.056175626513735713 0.104231459755559 0 -0.06411880478631618 0.11818203644688791 0 -0.071786582042575819 0.1280585334591178 0 -0.06411880478631618 0.11818203644688791 0 -0.08034823769671974 0.121089655777625 0 -0.06411880478631618 0.11818203644688791 0 -0.08034823769671974 0.121089655777625 0 -0.075381325115152609 0.106019298300689 0 -0.06411880478631618 0.11818203644688791 0 -0.08034823769671974 0.121089655777625 0 -0.08034823769671974 0.121089655777625 0 -0.096577670607123245 0.1239972751083621 0 -0.08034823769671974 0.121089655777625 0 -0.092569001324263961 0.1124699312803344 0 -0.096577670607123245 0.1239972751083621 0 -0.08034823769671974 0.121089655777625 0 -0.083967771981719092 0.1102844810624737 0 -0.092569001324263961 0.1124699312803344 0 -0.08034823769671974 0.121089655777625 0 -0.083967771981719092 0.1102844810624737 0 -0.075381325115152609 0.106019298300689 0 -0.087572523790740042 0.10155903889124659 0 -0.082071947835387321 0.094412947715560025 0 -0.09233625647768956 0.091651488650119919 0 -0.083967771981719092 0.1102844810624737 0 -0.092569001324263961 0.1124699312803344 0 -0.087572523790740042 0.10155903889124659 0 -0.083967771981719092 0.1102844810624737 0 -0.087572523790740042 0.10155903889124659 0 -0.075381325115152609 0.106019298300689 0 -0.087572523790740042 0.10155903889124659 0 -0.082071947835387321 0.094412947715560025 0 -0.075381325115152609 0.106019298300689 0 -0.06411880478631618 0.11818203644688791 0 -0.06964180214897181 0.091777453024084701 0 -0.082071947835387321 0.094412947715560025 0 -0.075381325115152609 0.106019298300689 0 -0.06964180214897181 0.091777453024084701 0 -0.06411880478631618 0.11818203644688791 0 -0.075381325115152609 0.106019298300689 0 -0.06964180214897181 0.091777453024084701 0 -0.061770267295803899 0.1005995653590098 0 -0.06411880478631618 0.11818203644688791 0 -0.06964180214897181 0.091777453024084701 0 -0.057144835734191893 0.088207312209507505 0 -0.061770267295803899 0.1005995653590098 0 -0.06964180214897181 0.091777453024084701 0 -0.06964180214897181 0.091777453024084701 0 -0.075164799511626648 0.065372869601281192 0 -0.057144835734191893 0.088207312209507505 0 -0.06964180214897181 0.091777453024084701 0 -0.068089461569968729 0.076803891339018993 0 -0.06964180214897181 0.091777453024084701 0 -0.068089461569968729 0.076803891339018993 0 -0.075164799511626648 0.065372869601281192 0 -0.057144835734191893 0.088207312209507505 0 -0.068089461569968729 0.076803891339018993 0 -0.070406408885084593 0.061857930521202607 0 -0.06964180214897181 0.091777453024084701 0 -0.075164799511626648 0.065372869601281192 0 -0.08073347634316104 0.073575546631144614 0 -0.057144835734191893 0.088207312209507505 0 -0.070406408885084593 0.061857930521202607 0 -0.068089461569968729 0.076803891339018993 0 -0.075164799511626648 0.065372869601281192 0 -0.070406408885084593 0.061857930521202607 0 -0.089923560922876636 0.068178037636278263 0 -0.08578586832533959 0.082170087930996366 0 -0.103675070998617 0.083967309240415983 0 -0.08073347634316104 0.073575546631144614 0 -0.089923560922876636 0.068178037636278263 0 -0.083186879645449088 0.059889597987781727 0 -0.075164799511626648 0.065372869601281192 0 -0.08073347634316104 0.073575546631144614 0 -0.083186879645449088 0.059889597987781727 0 -0.08073347634316104 0.073575546631144614 0 -0.089923560922876636 0.068178037636278263 0 -0.08578586832533959 0.082170087930996366 0 -0.06964180214897181 0.091777453024084701 0 -0.08073347634316104 0.073575546631144614 0 -0.08578586832533959 0.082170087930996366 0 -0.082071947835387321 0.094412947715560025 0 -0.06964180214897181 0.091777453024084701 0 -0.08578586832533959 0.082170087930996366 0 -0.082071947835387321 0.094412947715560025 0 -0.08578586832533959 0.082170087930996366 0 -0.09233625647768956 0.091651488650119919 0 -0.09233625647768956 0.091651488650119919 0 -0.103675070998617 0.083967309240415983 0 -0.10429444750695741 0.1014886749251958 0 -0.08578586832533959 0.082170087930996366 0 -0.09233625647768956 0.091651488650119919 0 -0.103675070998617 0.083967309240415983 0 -0.103675070998617 0.083967309240415983 0 -0.1198812247159142 0.095002477965890675 0 -0.10429444750695741 0.1014886749251958 0 -0.089923560922876636 0.068178037636278263 0 -0.103675070998617 0.083967309240415983 0 -0.10785209906359081 0.065371441260914459 0 -0.12533951967512769 0.078274991835817334 0 -0.103675070998617 0.083967309240415983 0 -0.10785209906359081 0.065371441260914459 0 -0.12533951967512769 0.078274991835817334 0 -0.10785209906359081 0.065371441260914459 0 -0.1248745965026067 0.059896082918310993 0 -0.12533951967512769 0.078274991835817334 0 -0.103675070998617 0.083967309240415983 0 -0.1198812247159142 0.095002477965890675 0 -0.13137241316615089 0.11357835761918721 0 -0.1198812247159142 0.095002477965890675 0 -0.10429444750695741 0.1014886749251958 0 -0.13137241316615089 0.11357835761918721 0 -0.12687331202938101 0.13192737382428379 0 -0.10667563132183119 0.1260080396076822 0 -0.13137241316615089 0.11357835761918721 0 -0.10667563132183119 0.1260080396076822 0 -0.1062978327852654 0.11550845570815239 0 -0.13137241316615089 0.11357835761918721 0 -0.1062978327852654 0.11550845570815239 0 -0.10429444750695741 0.1014886749251958 0 -0.13137241316615089 0.11357835761918721 0 -0.10667563132183119 0.1260080396076822 0 -0.10667563132183119 0.1260080396076822 0 -0.1062978327852654 0.11550845570815239 0 -0.096577670607123245 0.1239972751083621 0 -0.092569001324263961 0.1124699312803344 0 -0.1062978327852654 0.11550845570815239 0 -0.096577670607123245 0.1239972751083621 0 -0.092569001324263961 0.1124699312803344 0 -0.1062978327852654 0.11550845570815239 0 -0.10429444750695741 0.1014886749251958 0 -0.092569001324263961 0.1124699312803344 0 -0.087572523790740042 0.10155903889124659 0 -0.10429444750695741 0.1014886749251958 0 -0.087572523790740042 0.10155903889124659 0 -0.09233625647768956 0.091651488650119919 0 -0.10429444750695741 0.1014886749251958 0 -0.10370969952600501 0.019997694726909911 0 -0.098524362227562057 0.035744340183224317 0 -0.08645931971955316 0.02325136753113614 0 -0.10370969952600501 0.019997694726909911 0 -0.08645931971955316 0.02325136753113614 0 -0.091682611010439896 0.0063963380850077774 0 -0.10370969952600501 0.019997694726909911 0 -0.1180188049733784 0.030804183747700629 0 -0.098524362227562057 0.035744340183224317 0 -0.10370969952600501 0.019997694726909911 0 -0.10877227824827949 0.0075748546359299482 0 -0.091682611010439896 0.0063963380850077774 0 -0.1029392013539359 -0.0085751277431150782 0 -0.10877227824827949 0.0075748546359299482 0 -0.091682611010439896 0.0063963380850077774 0 -0.10370969952600501 0.019997694726909911 0 -0.10877227824827949 0.0075748546359299482 0 -0.11835839359799651 0.016938700943610479 0 -0.1029392013539359 -0.0085751277431150782 0 -0.12735709500343681 0.004015926865657337 0 -0.10877227824827949 0.0075748546359299482 0 -0.12735709500343681 0.004015926865657337 0 -0.10877227824827949 0.0075748546359299482 0 -0.11835839359799651 0.016938700943610479 0 -0.1339340902388827 0.022300844741854581 0 -0.11835839359799651 0.016938700943610479 0 -0.1180188049733784 0.030804183747700629 0 -0.10370969952600501 0.019997694726909911 0 -0.11835839359799651 0.016938700943610479 0 -0.1180188049733784 0.030804183747700629 0 -0.1180188049733784 0.030804183747700629 0 -0.1128457876968547 0.048091259023394652 0 -0.098524362227562057 0.035744340183224317 0 -0.13626681081840961 0.042829268155062397 0 -0.1128457876968547 0.048091259023394652 0 -0.13626681081840961 0.042829268155062397 0 -0.1180188049733784 0.030804183747700629 0 -0.1128457876968547 0.048091259023394652 0 -0.13626681081840961 0.042829268155062397 0 -0.1128457876968547 0.048091259023394652 0 -0.1248745965026067 0.059896082918310993 0 -0.10785209906359081 0.065371441260914459 0 -0.1128457876968547 0.048091259023394652 0 -0.1248745965026067 0.059896082918310993 0 -0.1128457876968547 0.048091259023394652 0 -0.089424764575299687 0.053353249891726941 0 -0.089923560922876636 0.068178037636278263 0 -0.10785209906359081 0.065371441260914459 0 -0.089424764575299687 0.053353249891726941 0 -0.10785209906359081 0.065371441260914459 0 -0.1128457876968547 0.048091259023394652 0 -0.089424764575299687 0.053353249891726941 0 -0.1128457876968547 0.048091259023394652 0 -0.098524362227562057 0.035744340183224317 0 -0.089424764575299687 0.053353249891726941 0 -0.098524362227562057 0.035744340183224317 0 -0.080687796874281473 0.038968286178477703 0 -0.08645931971955316 0.02325136753113614 0 -0.098524362227562057 0.035744340183224317 0 -0.080687796874281473 0.038968286178477703 0 -0.089424764575299687 0.053353249891726941 0 -0.080687796874281473 0.038968286178477703 0 -0.089424764575299687 0.053353249891726941 0 -0.083186879645449088 0.059889597987781727 0 -0.075164799511626648 0.065372869601281192 0 -0.080687796874281473 0.038968286178477703 0 -0.083186879645449088 0.059889597987781727 0 -0.089923560922876636 0.068178037636278263 0 -0.089424764575299687 0.053353249891726941 0 -0.083186879645449088 0.059889597987781727 0 -0.075164799511626648 0.065372869601281192 0 -0.080687796874281473 0.038968286178477703 0 -0.071303082845968715 0.053347503409362687 0 -0.075164799511626648 0.065372869601281192 0 -0.080687796874281473 0.038968286178477703 0 -0.075164799511626648 0.065372869601281192 0 -0.070406408885084593 0.061857930521202607 0 -0.071303082845968715 0.053347503409362687 0 -0.071303082845968715 0.053347503409362687 0 -0.064856269609628314 0.055117702274744398 0 -0.065400139349222536 0.045420728471107522 0 -0.070406408885084593 0.061857930521202607 0 -0.071303082845968715 0.053347503409362687 0 -0.064856269609628314 0.055117702274744398 0 -0.070406408885084593 0.061857930521202607 0 -0.064856269609628314 0.055117702274744398 0 -0.059815066152941319 0.061788281472960463 0 -0.080687796874281473 0.038968286178477703 0 -0.065400139349222536 0.045420728471107522 0 -0.063264057366842208 0.031259222641012697 0 -0.080687796874281473 0.038968286178477703 0 -0.063264057366842208 0.031259222641012697 0 -0.073460039823911166 0.024685388153665749 0 -0.080687796874281473 0.038968286178477703 0 -0.071303082845968715 0.053347503409362687 0 -0.065400139349222536 0.045420728471107522 0 -0.063264057366842208 0.031259222641012697 0 -0.073460039823911166 0.024685388153665749 0 -0.061440697951084179 0.017621877449499421 0 -0.073460039823911166 0.024685388153665749 0 -0.076769634387976737 0.01135693610240161 0 -0.061440697951084179 0.017621877449499421 0 -0.080687796874281473 0.038968286178477703 0 -0.073460039823911166 0.024685388153665749 0 -0.08645931971955316 0.02325136753113614 0 -0.073460039823911166 0.024685388153665749 0 -0.08645931971955316 0.02325136753113614 0 -0.076769634387976737 0.01135693610240161 0 -0.08645931971955316 0.02325136753113614 0 -0.091682611010439896 0.0063963380850077774 0 -0.076769634387976737 0.01135693610240161 0 -0.091682611010439896 0.0063963380850077774 0 -0.078933949510919491 0.00072378658541613432 0 -0.076769634387976737 0.01135693610240161 0 -0.086097875964997059 -0.0058870606910941042 0 -0.091682611010439896 0.0063963380850077774 0 -0.078933949510919491 0.00072378658541613432 0 -0.078933949510919491 0.00072378658541613432 0 -0.076769634387976737 0.01135693610240161 0 -0.068462160169621672 0.0025537029525893409 0 -0.068462160169621672 0.0025537029525893409 0 -0.057836245250817257 0.0062936453779614283 0 -0.061440697951084179 0.017621877449499421 0 -0.076769634387976737 0.01135693610240161 0 -0.068462160169621672 0.0025537029525893409 0 -0.061440697951084179 0.017621877449499421 0 -0.057836245250817257 0.0062936453779614283 0 -0.061440697951084179 0.017621877449499421 0 -0.042678209040760022 0.019440128409622049 0 -0.057836245250817257 0.0062936453779614283 0 -0.042678209040760022 0.019440128409622049 0 -0.044352522143416888 0.0050416822031405977 0 -0.063264057366842208 0.031259222641012697 0 -0.042678209040760022 0.019440128409622049 0 -0.05195897498334151 0.039592758420259042 0 -0.063264057366842208 0.031259222641012697 0 -0.061440697951084179 0.017621877449499421 0 -0.042678209040760022 0.019440128409622049 0 -0.042678209040760022 0.019440128409622049 0 -0.038256592764973757 0.039174794321751791 0 -0.042678209040760022 0.019440128409622049 0 -0.038256592764973757 0.039174794321751791 0 -0.027511467414372541 0.03001296694831072 0 -0.042678209040760022 0.019440128409622049 0 -0.028180513839983729 0.018098474401369 0 -0.027511467414372541 0.03001296694831072 0 -0.042678209040760022 0.019440128409622049 0 -0.032770024037711037 0.0084985419153508525 0 -0.028180513839983729 0.018098474401369 0 -0.032770024037711037 0.0084985419153508525 0 -0.03614709390981162 0.0015378833132510439 0 -0.044352522143416888 0.0050416822031405977 0 -0.029539197120254941 -0.00051038393964639519 0 -0.032770024037711037 0.0084985419153508525 0 -0.03614709390981162 0.0015378833132510439 0 -0.042678209040760022 0.019440128409622049 0 -0.032770024037711037 0.0084985419153508525 0 -0.044352522143416888 0.0050416822031405977 0 -0.042969512877196837 0.063698159366550891 0 -0.047980875447113908 0.056604040506729722 0 -0.052166049838275927 0.062310195238599278 0 -0.047980875447113908 0.056604040506729722 0 -0.052166049838275927 0.062310195238599278 0 -0.055804220694704088 0.051985500715961808 0 -0.064856269609628314 0.055117702274744398 0 -0.059815066152941319 0.061788281472960463 0 -0.055804220694704088 0.051985500715961808 0 -0.052166049838275927 0.062310195238599278 0 -0.059815066152941319 0.061788281472960463 0 -0.055804220694704088 0.051985500715961808 0 -0.064856269609628314 0.055117702274744398 0 -0.065400139349222536 0.045420728471107522 0 -0.055804220694704088 0.051985500715961808 0 -0.047980875447113908 0.056604040506729722 0 -0.055804220694704088 0.051985500715961808 0 -0.046350630683546529 0.050276175962098407 0 -0.055804220694704088 0.051985500715961808 0 -0.05195897498334151 0.039592758420259042 0 -0.046350630683546529 0.050276175962098407 0 -0.065400139349222536 0.045420728471107522 0 -0.055804220694704088 0.051985500715961808 0 -0.05195897498334151 0.039592758420259042 0 -0.065400139349222536 0.045420728471107522 0 -0.063264057366842208 0.031259222641012697 0 -0.05195897498334151 0.039592758420259042 0 -0.042678209040760022 0.019440128409622049 0 -0.05195897498334151 0.039592758420259042 0 -0.038256592764973757 0.039174794321751791 0 -0.05195897498334151 0.039592758420259042 0 -0.038256592764973757 0.039174794321751791 0 -0.046350630683546529 0.050276175962098407 0 -0.038256592764973757 0.039174794321751791 0 -0.033834976489186493 0.058909460233881362 0 -0.038256592764973757 0.039174794321751791 0 -0.038513274033404883 0.055407770980391423 0 -0.033834976489186493 0.058909460233881362 0 -0.038256592764973757 0.039174794321751791 0 -0.046350630683546529 0.050276175962098407 0 -0.038513274033404883 0.055407770980391423 0 -0.038256592764973757 0.039174794321751791 0 -0.033834976489186493 0.058909460233881362 0 -0.02879531395286377 0.050132256585483953 0 -0.046350630683546529 0.050276175962098407 0 -0.038513274033404883 0.055407770980391423 0 -0.042914570065583427 0.057802329486214707 0 -0.036732086871232597 0.066761861307427367 0 -0.033834976489186493 0.058909460233881362 0 -0.038907572144486188 0.060810532415041758 0 -0.038513274033404883 0.055407770980391423 0 -0.033834976489186493 0.058909460233881362 0 -0.038513274033404883 0.055407770980391423 0 -0.033834976489186493 0.058909460233881362 0 -0.038907572144486188 0.060810532415041758 0 -0.042969512877196837 0.063698159366550891 0 -0.038907572144486188 0.060810532415041758 0 -0.042914570065583427 0.057802329486214707 0 -0.038513274033404883 0.055407770980391423 0 -0.038907572144486188 0.060810532415041758 0 -0.042914570065583427 0.057802329486214707 0 -0.047980875447113908 0.056604040506729722 0 -0.046350630683546529 0.050276175962098407 0 -0.042914570065583427 0.057802329486214707 0 -0.042969512877196837 0.063698159366550891 0 -0.047980875447113908 0.056604040506729722 0 -0.042914570065583427 0.057802329486214707 0 -0.033834976489186493 0.058909460233881362 0 -0.01963881101933795 0.057650575484614511 0 -0.02879531395286377 0.050132256585483953 0 -0.01963881101933795 0.057650575484614511 0 -0.02879531395286377 0.050132256585483953 0 -0.02345087553795689 0.044794196301688183 0 -0.01963881101933795 0.057650575484614511 0 -0.02345087553795689 0.044794196301688183 0 -0.012175026131353321 0.050402421608982242 0 -0.02345087553795689 0.044794196301688183 0 -0.014695186475719159 0.0359408453649432 0 -0.012175026131353321 0.050402421608982242 0 -0.038256592764973757 0.039174794321751791 0 -0.02879531395286377 0.050132256585483953 0 -0.02345087553795689 0.044794196301688183 0 -0.038256592764973757 0.039174794321751791 0 -0.02345087553795689 0.044794196301688183 0 -0.027511467414372541 0.03001296694831072 0 -0.02345087553795689 0.044794196301688183 0 -0.014695186475719159 0.0359408453649432 0 -0.027511467414372541 0.03001296694831072 0 -0.014695186475719159 0.0359408453649432 0 -0.0023331541944977092 0.045311556235899067 0 0.00074240361007229996 0.028778475488121531 0 -0.014695186475719159 0.0359408453649432 0 -0.0023331541944977092 0.045311556235899067 0 -0.012175026131353321 0.050402421608982242 0 -0.0023331541944977092 0.045311556235899067 0 -0.012175026131353321 0.050402421608982242 0 0.00079413703044923156 0.058803151297745167 0 -0.012175026131353321 0.050402421608982242 0 -0.0089029190745683329 0.062319161291970238 0 0.00079413703044923156 0.058803151297745167 0 -0.01963881101933795 0.057650575484614511 0 -0.012175026131353321 0.050402421608982242 0 -0.0089029190745683329 0.062319161291970238 0 -0.021996997598287969 0.010981086364913869 0 -0.02112675760807068 0.0030512678310729521 0 -0.0083058662928979787 0.012079608812324741 0 -0.021996997598287969 0.010981086364913869 0 -0.01661374249992489 0.02103319015209278 0 -0.0083058662928979787 0.012079608812324741 0 -0.021996997598287969 0.010981086364913869 0 -0.02112675760807068 0.0030512678310729521 0 -0.02631380729169577 0.0053104208567875946 0 -0.029539197120254941 -0.00051038393964639519 0 -0.02112675760807068 0.0030512678310729521 0 -0.02631380729169577 0.0053104208567875946 0 -0.029539197120254941 -0.00051038393964639519 0 -0.032770024037711037 0.0084985419153508525 0 -0.02631380729169577 0.0053104208567875946 0 -0.032770024037711037 0.0084985419153508525 0 -0.021996997598287969 0.010981086364913869 0 -0.02631380729169577 0.0053104208567875946 0 -0.032770024037711037 0.0084985419153508525 0 -0.021996997598287969 0.010981086364913869 0 -0.028180513839983729 0.018098474401369 0 -0.028180513839983729 0.018098474401369 0 -0.027511467414372541 0.03001296694831072 0 -0.01661374249992489 0.02103319015209278 0 -0.014695186475719159 0.0359408453649432 0 -0.027511467414372541 0.03001296694831072 0 -0.01661374249992489 0.02103319015209278 0 -0.021996997598287969 0.010981086364913869 0 -0.028180513839983729 0.018098474401369 0 -0.01661374249992489 0.02103319015209278 0 -0.01661374249992489 0.02103319015209278 0 0.00074240361007229996 0.028778475488121531 0 -0.0083058662928979787 0.012079608812324741 0 0.0060294939382754481 0.01286563290641534 0 0.00074240361007229996 0.028778475488121531 0 -0.014695186475719159 0.0359408453649432 0 -0.01661374249992489 0.02103319015209278 0 0.00074240361007229996 0.028778475488121531 0 -0.0083058662928979787 0.012079608812324741 0 0.00074240361007229996 0.028778475488121531 0 -0.01661374249992489 0.02103319015209278 0 -0.0083058662928979787 0.012079608812324741 0 0.00074240361007229996 0.028778475488121531 0 -0.0072764121498596901 -0.0036325873431357339 0 -0.0083058662928979787 0.012079608812324741 0 0.0012074066645448821 -0.00065723147797176382 0 -0.0072764121498596901 -0.0036325873431357339 0 -0.013607688627124061 -0.00178224205395049 0 -0.0083058662928979787 0.012079608812324741 0 -0.017354136195868258 -0.0046192578634720229 0 -0.0083058662928979787 0.012079608812324741 0 -0.017354136195868258 -0.0046192578634720229 0 -0.013607688627124061 -0.00178224205395049 0 -0.0083058662928979787 0.012079608812324741 0 -0.0083058662928979787 0.012079608812324741 0 0.0060294939382754481 0.01286563290641534 0 0.0012074066645448821 -0.00065723147797176382 0 -0.017354136195868258 -0.0046192578634720229 0 -0.02112675760807068 0.0030512678310729521 0 -0.0083058662928979787 0.012079608812324741 0 0.0060294939382754481 0.01286563290641534 0 0.0012074066645448821 -0.00065723147797176382 0 0.01265631079038235 -0.01012693536007268 0 0.0060294939382754481 0.01286563290641534 0 0.020311547060899309 0.014329649790385431 0 0.01265631079038235 -0.01012693536007268 0 0.00074240361007229996 0.028778475488121531 0 0.015746539320639769 0.024046632949657649 0 0.022626785018342459 0.038544513255683338 0 0.0060294939382754481 0.01286563290641534 0 0.00074240361007229996 0.028778475488121531 0 0.015746539320639769 0.024046632949657649 0 0.0060294939382754481 0.01286563290641534 0 0.015746539320639769 0.024046632949657649 0 0.020311547060899309 0.014329649790385431 0 0.015746539320639769 0.024046632949657649 0 0.029022466975609298 0.02571489330768258 0 0.020311547060899309 0.014329649790385431 0 0.015746539320639769 0.024046632949657649 0 0.029022466975609298 0.02571489330768258 0 0.022626785018342459 0.038544513255683338 0 0.020311547060899309 0.014329649790385431 0 0.034885408484197772 0.0062912350017927032 0 0.01265631079038235 -0.01012693536007268 0 0.029022466975609298 0.02571489330768258 0 0.020311547060899309 0.014329649790385431 0 0.034885408484197772 0.0062912350017927032 0 0.00079413703044923156 0.058803151297745167 0 0.01366790099406239 0.052632887419703241 0 0.0065236609159091173 0.071671444604676282 0 -0.0023331541944977092 0.045311556235899067 0 0.00079413703044923156 0.058803151297745167 0 0.01366790099406239 0.052632887419703241 0 0.00074240361007229996 0.028778475488121531 0 0.01366790099406239 0.052632887419703241 0 0.022626785018342459 0.038544513255683338 0 0.00074240361007229996 0.028778475488121531 0 0.022626785018342459 0.038544513255683338 0 -0.0023331541944977092 0.045311556235899067 0 0.00074240361007229996 0.028778475488121531 0 0.01366790099406239 0.052632887419703241 0 0.00074240361007229996 0.028778475488121531 0 0.01366790099406239 0.052632887419703241 0 0.029022466975609298 0.02571489330768258 0 0.022626785018342459 0.038544513255683338 0 0.037630953216902623 0.033668105561091018 0 0.01366790099406239 0.052632887419703241 0 0.022626785018342459 0.038544513255683338 0 0.025434983742737761 0.055249644843112657 0 0.022626785018342459 0.038544513255683338 0 0.025434983742737761 0.055249644843112657 0 0.034616451435572633 0.051242168749322393 0 0.025434983742737761 0.055249644843112657 0 0.034062632092931817 0.061255223706808547 0 0.02703491536905472 0.067401080742933134 0 0.01366790099406239 0.052632887419703241 0 0.025434983742737761 0.055249644843112657 0 0.02703491536905472 0.067401080742933134 0 0.034616451435572633 0.051242168749322393 0 0.044511166426612833 0.04831055102324476 0 0.060132464308973767 0.062986029428160187 0 0.034616451435572633 0.051242168749322393 0 0.060132464308973767 0.062986029428160187 0 0.044258496001147778 0.063884183083345675 0 0.034062632092931817 0.061255223706808547 0 0.034616451435572633 0.051242168749322393 0 0.044258496001147778 0.063884183083345675 0 0.025434983742737761 0.055249644843112657 0 0.034062632092931817 0.061255223706808547 0 0.034616451435572633 0.051242168749322393 0 0.022626785018342459 0.038544513255683338 0 0.044511166426612833 0.04831055102324476 0 0.022626785018342459 0.038544513255683338 0 0.034616451435572633 0.051242168749322393 0 0.044511166426612833 0.04831055102324476 0 0.022626785018342459 0.038544513255683338 0 0.044511166426612833 0.04831055102324476 0 0.037630953216902623 0.033668105561091018 0 0.044511166426612833 0.04831055102324476 0 0.037630953216902623 0.033668105561091018 0 0.0484135161167236 0.034205204957136963 0 0.0484135161167236 0.034205204957136963 0 0.060669767880595721 0.038134724015348051 0 0.0518117103670514 0.042737821036878322 0 0.0484135161167236 0.034205204957136963 0 0.060669767880595721 0.038134724015348051 0 0.057623658326613529 0.02352368721002385 0 0.060669767880595721 0.038134724015348051 0 0.0518117103670514 0.042737821036878322 0 0.059559274975242667 0.047504887075434543 0 0.044511166426612833 0.04831055102324476 0 0.0518117103670514 0.042737821036878322 0 0.059559274975242667 0.047504887075434543 0 0.044511166426612833 0.04831055102324476 0 0.0484135161167236 0.034205204957136963 0 0.0518117103670514 0.042737821036878322 0 0.044511166426612833 0.04831055102324476 0 0.066395547834883203 0.05807658879080619 0 0.060132464308973767 0.062986029428160187 0 0.034616451435572633 0.051242168749322393 0 0.060132464308973767 0.062986029428160187 0 0.044511166426612833 0.04831055102324476 0 0.066395547834883203 0.05807658879080619 0 0.044511166426612833 0.04831055102324476 0 0.059559274975242667 0.047504887075434543 0 0.066395547834883203 0.05807658879080619 0 0.034885408484197772 0.0062912350017927032 0 0.052968053050369737 0.0090809173488315582 0 0.042517259973231587 -0.011683923625132649 0 0.034885408484197772 0.0062912350017927032 0 0.043580831547224863 0.021565365261707499 0 0.052968053050369737 0.0090809173488315582 0 0.029022466975609298 0.02571489330768258 0 0.034885408484197772 0.0062912350017927032 0 0.043580831547224863 0.021565365261707499 0 0.029022466975609298 0.02571489330768258 0 0.037630953216902623 0.033668105561091018 0 0.043580831547224863 0.021565365261707499 0 0.037630953216902623 0.033668105561091018 0 0.0484135161167236 0.034205204957136963 0 0.043580831547224863 0.021565365261707499 0 0.057623658326613529 0.02352368721002385 0 0.052968053050369737 0.0090809173488315582 0 0.071708216805815503 0.016768608491387289 0 0.043580831547224863 0.021565365261707499 0 0.057623658326613529 0.02352368721002385 0 0.052968053050369737 0.0090809173488315582 0 0.0484135161167236 0.034205204957136963 0 0.043580831547224863 0.021565365261707499 0 0.057623658326613529 0.02352368721002385 0 0.052968053050369737 0.0090809173488315582 0 0.071708216805815503 0.016768608491387289 0 0.067492943165135169 -0.0019794682467893379 0 0.083930998993742512 0.0059737405228527038 0 0.071708216805815503 0.016768608491387289 0 0.067492943165135169 -0.0019794682467893379 0 0.083930998993742512 0.0059737405228527038 0 0.098495163759696414 0.0029673617968291321 0 0.094917995650245529 0.021722354499223519 0 0.083930998993742512 0.0059737405228527038 0 0.071708216805815503 0.016768608491387289 0 0.094917995650245529 0.021722354499223519 0 0.071708216805815503 0.016768608491387289 0 0.07449934060461412 0.03258063005354956 0 0.094917995650245529 0.021722354499223519 0 0.07449934060461412 0.03258063005354956 0 0.087237150257314613 0.037926204838731957 0 0.094917995650245529 0.021722354499223519 0 0.057623658326613529 0.02352368721002385 0 0.071708216805815503 0.016768608491387289 0 0.07449934060461412 0.03258063005354956 0 0.060669767880595721 0.038134724015348051 0 0.057623658326613529 0.02352368721002385 0 0.07449934060461412 0.03258063005354956 0 0.060669767880595721 0.038134724015348051 0 0.069155187538762042 0.045022305850501279 0 0.07449934060461412 0.03258063005354956 0 0.060669767880595721 0.038134724015348051 0 0.059559274975242667 0.047504887075434543 0 0.069155187538762042 0.045022305850501279 0 0.069155187538762042 0.045022305850501279 0 0.07449934060461412 0.03258063005354956 0 0.079692196512252927 0.044953406994506007 0 0.059559274975242667 0.047504887075434543 0 0.069155187538762042 0.045022305850501279 0 0.067326156772233525 0.050603546620565112 0 0.059559274975242667 0.047504887075434543 0 0.066395547834883203 0.05807658879080619 0 0.067326156772233525 0.050603546620565112 0 0.066395547834883203 0.05807658879080619 0 0.067326156772233525 0.050603546620565112 0 0.074194616740046182 0.051810404765518438 0 0.069155187538762042 0.045022305850501279 0 0.067326156772233525 0.050603546620565112 0 0.074194616740046182 0.051810404765518438 0 0.069155187538762042 0.045022305850501279 0 0.074194616740046182 0.051810404765518438 0 0.079692196512252927 0.044953406994506007 0 0.066395547834883203 0.05807658879080619 0 0.074194616740046182 0.051810404765518438 0 0.080343143758095259 0.058335218209008277 0 0.066395547834883203 0.05807658879080619 0 0.080343143758095259 0.058335218209008277 0 0.08827992924315356 0.067842626558367619 0 0.080343143758095259 0.058335218209008277 0 0.083306510346727383 0.05351440315152866 0 0.090416084875221875 0.058235299142909973 0 0.074194616740046182 0.051810404765518438 0 0.083306510346727383 0.05351440315152866 0 0.079692196512252927 0.044953406994506007 0 0.083306510346727383 0.05351440315152866 0 0.089760373586053266 0.048866493307206167 0 0.079692196512252927 0.044953406994506007 0 0.074194616740046182 0.051810404765518438 0 0.080343143758095259 0.058335218209008277 0 0.083306510346727383 0.05351440315152866 0 0.083306510346727383 0.05351440315152866 0 0.089760373586053266 0.048866493307206167 0 0.090416084875221875 0.058235299142909973 0 0.089760373586053266 0.048866493307206167 0 0.090416084875221875 0.058235299142909973 0 0.099395501669828634 0.055681054702382278 0 0.080343143758095259 0.058335218209008277 0 0.090416084875221875 0.058235299142909973 0 0.08827992924315356 0.067842626558367619 0 0.087237150257314613 0.037926204838731957 0 0.098930039005792711 0.04227996871225087 0 0.094917995650245529 0.021722354499223519 0 0.07449934060461412 0.03258063005354956 0 0.079692196512252927 0.044953406994506007 0 0.087237150257314613 0.037926204838731957 0 0.089760373586053266 0.048866493307206167 0 0.079692196512252927 0.044953406994506007 0 0.087237150257314613 0.037926204838731957 0 0.089760373586053266 0.048866493307206167 0 0.087237150257314613 0.037926204838731957 0 0.098930039005792711 0.04227996871225087 0 0.10894092886672049 0.033503019923715648 0 0.098930039005792711 0.04227996871225087 0 0.11550376979223601 0.054551475820320147 0 0.10894092886672049 0.033503019923715648 0 0.098930039005792711 0.04227996871225087 0 0.094917995650245529 0.021722354499223519 0 0.098930039005792711 0.04227996871225087 0 0.099395501669828634 0.055681054702382278 0 0.11550376979223601 0.054551475820320147 0 0.099395501669828634 0.055681054702382278 0 0.11550376979223601 0.054551475820320147 0 0.10561354398445311 0.069921878226714862 0 0.090416084875221875 0.058235299142909973 0 0.099395501669828634 0.055681054702382278 0 0.095618088847860577 0.065038419849084594 0 0.089760373586053266 0.048866493307206167 0 0.098930039005792711 0.04227996871225087 0 0.099395501669828634 0.055681054702382278 0 0.10894092886672049 0.033503019923715648 0 0.11961069471150609 0.02296590295220987 0 0.12977361784467401 0.039215218793308727 0 0.10894092886672049 0.033503019923715648 0 0.11550376979223601 0.054551475820320147 0 0.12977361784467401 0.039215218793308727 0 0.11961069471150609 0.02296590295220987 0 0.1158546052028349 0.0064685721448778594 0 0.094917995650245529 0.021722354499223519 0 0.11961069471150609 0.02296590295220987 0 0.1158546052028349 0.0064685721448778594 0 0.13894824890776639 0.02136224913872127 0 0.1158546052028349 0.0064685721448778594 0 0.098495163759696414 0.0029673617968291321 0 0.094917995650245529 0.021722354499223519 0 0.10894092886672049 0.033503019923715648 0 0.11961069471150609 0.02296590295220987 0 0.094917995650245529 0.021722354499223519 0 0.097728221435088053 0.099184528615223033 0 0.110275064223293 0.10236359857942121 0 0.11116449005577619 0.086473750785835857 0 0.099894961061174667 0.1104201015940532 0 0.11150799601301251 0.1117412241471519 0 0.110275064223293 0.10236359857942121 0 0.097728221435088053 0.099184528615223033 0 0.099894961061174667 0.1104201015940532 0 0.110275064223293 0.10236359857942121 0 0.097728221435088053 0.099184528615223033 0 0.099894961061174667 0.1104201015940532 0 0.084925795867796111 0.1103515185161017 0 0.099894961061174667 0.1104201015940532 0 0.096984900528893664 0.1212489081817222 0 0.084925795867796111 0.1103515185161017 0 0.099894961061174667 0.1104201015940532 0 0.096984900528893664 0.1212489081817222 0 0.10712684862241641 0.1210429748963526 0 0.096984900528893664 0.1212489081817222 0 0.10712684862241641 0.1210429748963526 0 0.10589272808503949 0.13156516273042271 0 0.099894961061174667 0.1104201015940532 0 0.10712684862241641 0.1210429748963526 0 0.11150799601301251 0.1117412241471519 0 0.10712684862241641 0.1210429748963526 0 0.11150799601301251 0.1117412241471519 0 0.1187293914863337 0.1182846474287873 0 0.11150799601301251 0.1117412241471519 0 0.1187293914863337 0.1182846474287873 0 0.1197878353292403 0.1092484053650479 0 0.10712684862241641 0.1210429748963526 0 0.1187293914863337 0.1182846474287873 0 0.114987521205969 0.1268010028982309 0 0.1187293914863337 0.1182846474287873 0 0.12813823657366311 0.12049833089676459 0 0.12624189261331301 0.1140678077034443 0 0.1187293914863337 0.1182846474287873 0 0.12212988809696081 0.1249307776834532 0 0.12813823657366311 0.12049833089676459 0 0.1187293914863337 0.1182846474287873 0 0.12212988809696081 0.1249307776834532 0 0.114987521205969 0.1268010028982309 0 0.1187293914863337 0.1182846474287873 0 0.1197878353292403 0.1092484053650479 0 0.12624189261331301 0.1140678077034443 0 0.1216961693062274 0.1020981758197984 0 0.110275064223293 0.10236359857942121 0 0.11116449005577619 0.086473750785835857 0 0.1197878353292403 0.1092484053650479 0 0.1216961693062274 0.1020981758197984 0 0.1302764983332621 0.10693497851168419 0 0.1216961693062274 0.1020981758197984 0 0.11116449005577619 0.086473750785835857 0 0.13668050292917741 0.098217611464673699 0 0.1197878353292403 0.1092484053650479 0 0.1216961693062274 0.1020981758197984 0 0.110275064223293 0.10236359857942121 0 0.11150799601301251 0.1117412241471519 0 0.1197878353292403 0.1092484053650479 0 0.110275064223293 0.10236359857942121 0 0.11116449005577619 0.086473750785835857 0 0.1207366242219714 0.074251990558816788 0 0.1300820653953097 0.084166932106396392 0 0.11116449005577619 0.086473750785835857 0 0.13668050292917741 0.098217611464673699 0 0.11116449005577619 0.086473750785835857 0 0.1207366242219714 0.074251990558816788 0 0.10561354398445311 0.069921878226714862 0 0.11550376979223601 0.054551475820320147 0 0.1207366242219714 0.074251990558816788 0 0.13255022158949201 0.068763676371196639 0 0.11550376979223601 0.054551475820320147 0 0.1207366242219714 0.074251990558816788 0 0.10561354398445311 0.069921878226714862 0 0.11116449005577619 0.086473750785835857 0 0.10561354398445311 0.069921878226714862 0 0.085648477182374977 0.074729890106998029 0 0.10561354398445311 0.069921878226714862 0 0.095618088847860577 0.065038419849084594 0 0.085648477182374977 0.074729890106998029 0 0.099395501669828634 0.055681054702382278 0 0.10561354398445311 0.069921878226714862 0 0.095618088847860577 0.065038419849084594 0 0.11116449005577619 0.086473750785835857 0 0.085648477182374977 0.074729890106998029 0 0.11116449005577619 0.086473750785835857 0 0.090808031879269946 0.087622927320568048 0 0.085648477182374977 0.074729890106998029 0 0.097728221435088053 0.099184528615223033 0 0.11116449005577619 0.086473750785835857 0 0.090808031879269946 0.087622927320568048 0 0.097728221435088053 0.099184528615223033 0 0.090808031879269946 0.087622927320568048 0 0.080235742217082393 0.093435287859391092 0 0.090808031879269946 0.087622927320568048 0 0.078675001300488379 0.083882301042573534 0 0.085648477182374977 0.074729890106998029 0 0.090808031879269946 0.087622927320568048 0 0.078675001300488379 0.083882301042573534 0 0.080235742217082393 0.093435287859391092 0 0.066395547834883203 0.05807658879080619 0 0.08827992924315356 0.067842626558367619 0 0.085648477182374977 0.074729890106998029 0 0.095618088847860577 0.065038419849084594 0 0.08827992924315356 0.067842626558367619 0 0.085648477182374977 0.074729890106998029 0 0.090416084875221875 0.058235299142909973 0 0.095618088847860577 0.065038419849084594 0 0.08827992924315356 0.067842626558367619 0 0.066395547834883203 0.05807658879080619 0 0.085648477182374977 0.074729890106998029 0 0.060132464308973767 0.062986029428160187 0 0.066395547834883203 0.05807658879080619 0 0.08827992924315356 0.067842626558367619 0 0.085648477182374977 0.074729890106998029 0 0.068637102026180674 0.07792917868559901 0 0.060132464308973767 0.062986029428160187 0 0.085648477182374977 0.074729890106998029 0 0.060132464308973767 0.062986029428160187 0 0.078675001300488379 0.083882301042573534 0 0.085648477182374977 0.074729890106998029 0 0.068637102026180674 0.07792917868559901 0 0.080235742217082393 0.093435287859391092 0 0.069503799956795384 0.087722797055870286 0 0.068523875558259784 0.095111972458496966 0 0.078675001300488379 0.083882301042573534 0 0.080235742217082393 0.093435287859391092 0 0.069503799956795384 0.087722797055870286 0 0.078675001300488379 0.083882301042573534 0 0.068637102026180674 0.07792917868559901 0 0.069503799956795384 0.087722797055870286 0 0.068637102026180674 0.07792917868559901 0 0.069503799956795384 0.087722797055870286 0 0.060111091978902922 0.083782113849914977 0 0.069503799956795384 0.087722797055870286 0 0.06135777996986308 0.093915161513068182 0 0.060111091978902922 0.083782113849914977 0 0.069503799956795384 0.087722797055870286 0 0.068523875558259784 0.095111972458496966 0 0.06135777996986308 0.093915161513068182 0 0.068523875558259784 0.095111972458496966 0 0.071520258741129425 0.10189571548122769 0 0.062413973273008162 0.1018934272394761 0 0.068523875558259784 0.095111972458496966 0 0.062413973273008162 0.1018934272394761 0 0.06135777996986308 0.093915161513068182 0 0.071520258741129425 0.10189571548122769 0 0.072821304814728441 0.1108529925529516 0 0.063718101814298073 0.11016590081819259 0 0.071520258741129425 0.10189571548122769 0 0.063718101814298073 0.11016590081819259 0 0.062413973273008162 0.1018934272394761 0 0.071520258741129425 0.10189571548122769 0 0.084925795867796111 0.1103515185161017 0 0.072821304814728441 0.1108529925529516 0 0.080235742217082393 0.093435287859391092 0 0.068523875558259784 0.095111972458496966 0 0.071520258741129425 0.10189571548122769 0 0.097728221435088053 0.099184528615223033 0 0.080235742217082393 0.093435287859391092 0 0.084925795867796111 0.1103515185161017 0 0.080235742217082393 0.093435287859391092 0 0.071520258741129425 0.10189571548122769 0 0.084925795867796111 0.1103515185161017 0 0.084925795867796111 0.1103515185161017 0 0.074154959480044275 0.1204842858357125 0 0.087075880893963842 0.12621803440601359 0 0.096984900528893664 0.1212489081817222 0 0.084925795867796111 0.1103515185161017 0 0.087075880893963842 0.12621803440601359 0 0.084925795867796111 0.1103515185161017 0 0.074154959480044275 0.1204842858357125 0 0.072821304814728441 0.1108529925529516 0 0.074154959480044275 0.1204842858357125 0 0.072821304814728441 0.1108529925529516 0 0.063718101814298073 0.11016590081819259 0 0.074154959480044275 0.1204842858357125 0 0.063718101814298073 0.11016590081819259 0 0.060124536552058239 0.11864948812996751 0 0.074154959480044275 0.1204842858357125 0 0.060124536552058239 0.11864948812996751 0 0.061109117960118017 0.12720913792676911 0 0.060124536552058239 0.11864948812996751 0 0.052595679859244633 0.1236025024456274 0 0.054913207086597561 0.11271600588853189 0 0.060124536552058239 0.11864948812996751 0 0.052595679859244633 0.1236025024456274 0 0.061109117960118017 0.12720913792676911 0 0.052595679859244633 0.1236025024456274 0 0.054913207086597561 0.11271600588853189 0 0.046771683079868627 0.1089772416004138 0 0.063718101814298073 0.11016590081819259 0 0.060124536552058239 0.11864948812996751 0 0.054913207086597561 0.11271600588853189 0 0.063718101814298073 0.11016590081819259 0 0.062413973273008162 0.1018934272394761 0 0.053620768430252298 0.1031656988462608 0 0.063718101814298073 0.11016590081819259 0 0.054913207086597561 0.11271600588853189 0 0.053620768430252298 0.1031656988462608 0 0.06135777996986308 0.093915161513068182 0 0.053620768430252298 0.1031656988462608 0 0.051535176025136201 0.090416251810209708 0 0.062413973273008162 0.1018934272394761 0 0.06135777996986308 0.093915161513068182 0 0.053620768430252298 0.1031656988462608 0 0.053620768430252298 0.1031656988462608 0 0.042875633238578528 0.09739353282270094 0 0.051535176025136201 0.090416251810209708 0 0.053620768430252298 0.1031656988462608 0 0.046771683079868627 0.1089772416004138 0 0.042875633238578528 0.09739353282270094 0 0.054913207086597561 0.11271600588853189 0 0.053620768430252298 0.1031656988462608 0 0.046771683079868627 0.1089772416004138 0 0.046771683079868627 0.1089772416004138 0 0.042875633238578528 0.09739353282270094 0 0.034382595390138257 0.1099700727945534 0 0.042875633238578528 0.09739353282270094 0 0.034382595390138257 0.1099700727945534 0 0.030708755379597181 0.088685576768743155 0 0.034382595390138257 0.1099700727945534 0 0.030708755379597181 0.088685576768743155 0 0.052595679859244633 0.1236025024456274 0 0.046771683079868627 0.1089772416004138 0 0.034382595390138257 0.1099700727945534 0 0.034382595390138257 0.1099700727945534 0 0.02520709702204247 0.1232263280856261 0 0.037354296692750887 0.12718670835402709 0 0.052595679859244633 0.1236025024456274 0 0.034382595390138257 0.1099700727945534 0 0.037354296692750887 0.12718670835402709 0 0.034382595390138257 0.1099700727945534 0 0.037354296692750887 0.12718670835402709 0 0.052595679859244633 0.1236025024456274 0 0.034382595390138257 0.1099700727945534 0 0.060132464308973767 0.062986029428160187 0 0.051537231586459821 0.0703604747810012 0 0.044258496001147778 0.063884183083345675 0 0.051537231586459821 0.0703604747810012 0 0.045053238281461433 0.071665999821029613 0 0.044258496001147778 0.063884183083345675 0 0.060132464308973767 0.062986029428160187 0 0.058160070023191839 0.074213970699792686 0 0.051537231586459821 0.0703604747810012 0 0.068637102026180674 0.07792917868559901 0 0.060132464308973767 0.062986029428160187 0 0.058160070023191839 0.074213970699792686 0 0.051537231586459821 0.0703604747810012 0 0.049495561811348857 0.078896267932753172 0 0.045053238281461433 0.071665999821029613 0 0.058160070023191839 0.074213970699792686 0 0.051537231586459821 0.0703604747810012 0 0.049495561811348857 0.078896267932753172 0 0.049495561811348857 0.078896267932753172 0 0.051535176025136201 0.090416251810209708 0 0.041750220721871581 0.085344735896560275 0 0.049495561811348857 0.078896267932753172 0 0.060111091978902922 0.083782113849914977 0 0.051535176025136201 0.090416251810209708 0 0.068637102026180674 0.07792917868559901 0 0.058160070023191839 0.074213970699792686 0 0.060111091978902922 0.083782113849914977 0 0.058160070023191839 0.074213970699792686 0 0.049495561811348857 0.078896267932753172 0 0.060111091978902922 0.083782113849914977 0 0.06135777996986308 0.093915161513068182 0 0.060111091978902922 0.083782113849914977 0 0.051535176025136201 0.090416251810209708 0 0.042875633238578528 0.09739353282270094 0 0.051535176025136201 0.090416251810209708 0 0.041750220721871581 0.085344735896560275 0 0.042875633238578528 0.09739353282270094 0 0.041750220721871581 0.085344735896560275 0 0.030708755379597181 0.088685576768743155 0 0.041750220721871581 0.085344735896560275 0 0.037489048909448763 0.07466528487264068 0 0.030708755379597181 0.088685576768743155 0 0.049495561811348857 0.078896267932753172 0 0.041750220721871581 0.085344735896560275 0 0.037489048909448763 0.07466528487264068 0 0.037489048909448763 0.07466528487264068 0 0.02703491536905472 0.067401080742933134 0 0.030708755379597181 0.088685576768743155 0 0.049495561811348857 0.078896267932753172 0 0.045053238281461433 0.071665999821029613 0 0.037489048909448763 0.07466528487264068 0 0.045053238281461433 0.071665999821029613 0 0.037489048909448763 0.07466528487264068 0 0.037579666130808903 0.067774354445351542 0 0.034062632092931817 0.061255223706808547 0 0.037579666130808903 0.067774354445351542 0 0.02703491536905472 0.067401080742933134 0 0.037489048909448763 0.07466528487264068 0 0.037579666130808903 0.067774354445351542 0 0.02703491536905472 0.067401080742933134 0 0.034062632092931817 0.061255223706808547 0 0.037579666130808903 0.067774354445351542 0 0.044258496001147778 0.063884183083345675 0 0.045053238281461433 0.071665999821029613 0 0.037579666130808903 0.067774354445351542 0 0.044258496001147778 0.063884183083345675 0 0.02703491536905472 0.067401080742933134 0 0.030708755379597181 0.088685576768743155 0 0.01366790099406239 0.052632887419703241 0 0.026593398378051959 0.076487299351285121 0 0.01366790099406239 0.052632887419703241 0 0.02703491536905472 0.067401080742933134 0 0.026593398378051959 0.076487299351285121 0 0.02703491536905472 0.067401080742933134 0 0.026593398378051959 0.076487299351285121 0 0.030708755379597181 0.088685576768743155 0 0.01366790099406239 0.052632887419703241 0 0.026593398378051959 0.076487299351285121 0 0.01611389888654503 0.070322973248010373 0 0.026593398378051959 0.076487299351285121 0 0.01611389888654503 0.070322973248010373 0 0.01767063525815666 0.080500261616376856 0 0.01767063525815666 0.080500261616376856 0 0.030708755379597181 0.088685576768743155 0 0.011643404763696401 0.092949868607662828 0 0.026593398378051959 0.076487299351285121 0 0.01767063525815666 0.080500261616376856 0 0.030708755379597181 0.088685576768743155 0 0.01767063525815666 0.080500261616376856 0 0.011643404763696401 0.092949868607662828 0 0.0065236609159091173 0.071671444604676282 0 -0.01109578586274463 0.07592966442077155 0 0.011643404763696401 0.092949868607662828 0 0.0065236609159091173 0.071671444604676282 0 -0.01109578586274463 0.07592966442077155 0 0.011643404763696401 0.092949868607662828 0 0.01366790099406239 0.052632887419703241 0 0.01611389888654503 0.070322973248010373 0 0.0065236609159091173 0.071671444604676282 0 0.01611389888654503 0.070322973248010373 0 0.01767063525815666 0.080500261616376856 0 0.0065236609159091173 0.071671444604676282 0 -0.0031702267477386531 0.067180855403790804 0 0.00079413703044923156 0.058803151297745167 0 0.0065236609159091173 0.071671444604676282 0 0.034382595390138257 0.1099700727945534 0 0.02520709702204247 0.1232263280856261 0 0.01356063639681436 0.11371506303709419 0 0.02520709702204247 0.1232263280856261 0 0.01356063639681436 0.11371506303709419 0 0.011098566836083609 0.13484946890849181 0 0.034382595390138257 0.1099700727945534 0 0.011643404763696401 0.092949868607662828 0 0.01356063639681436 0.11371506303709419 0 0.034382595390138257 0.1099700727945534 0 0.011643404763696401 0.092949868607662828 0 0.034382595390138257 0.1099700727945534 0 0.030708755379597181 0.088685576768743155 0 0.011643404763696401 0.092949868607662828 0 -0.0040088977147468936 0.097024336429998151 0 0.011643404763696401 0.092949868607662828 0 0.0025937760044158291 0.1064596481343341 0 0.011643404763696401 0.092949868607662828 0 0.0025937760044158291 0.1064596481343341 0 0.01356063639681436 0.11371506303709419 0 -0.007175360702145514 0.1155930690216506 0 0.0025937760044158291 0.1064596481343341 0 0.01356063639681436 0.11371506303709419 0 -0.007175360702145514 0.1155930690216506 0 0.01356063639681436 0.11371506303709419 0 0.011098566836083609 0.13484946890849181 0 -0.007175360702145514 0.1155930690216506 0 0.011098566836083609 0.13484946890849181 0 0.02520709702204247 0.1232263280856261 0 0.011098566836083609 0.13484946890849181 0 0.028759663239593541 0.13617761485890201 0 0.02520709702204247 0.1232263280856261 0 0.028759663239593541 0.13617761485890201 0 0.037354296692750887 0.12718670835402709 0 0.011098566836083609 0.13484946890849181 0 0.029372494374312729 0.15410586879533311 0 0.013538337341477229 0.1636201682865295 0 0.011098566836083609 0.13484946890849181 0 0.028759663239593541 0.13617761485890201 0 0.029372494374312729 0.15410586879533311 0 0.011098566836083609 0.13484946890849181 0 0.029372494374312729 0.15410586879533311 0 -0.0048034666842798916 0.1614245706846468 0 0.011098566836083609 0.13484946890849181 0 0.013538337341477229 0.1636201682865295 0 -0.0057956805663459468 0.1892940575843915 0 -0.0048034666842798916 0.1614245706846468 0 0.013538337341477229 0.1636201682865295 0 -0.0057956805663459468 0.1892940575843915 0 0.013538337341477229 0.1636201682865295 0 0.020045678312652242 0.18090880435863019 0 -0.0057956805663459468 0.1892940575843915 0 0.020045678312652242 0.18090880435863019 0 0.029372494374312729 0.15410586879533311 0 0.013538337341477229 0.1636201682865295 0 0.020045678312652242 0.18090880435863019 0 0.029372494374312729 0.15410586879533311 0 0.045887037191650451 0.17252355113286891 0 0.04813315871709322 0.1541455757588851 0 0.029372494374312729 0.15410586879533311 0 0.020045678312652242 0.18090880435863019 0 0.045887037191650451 0.17252355113286891 0 0.020045678312652242 0.18090880435863019 0 0.045887037191650451 0.17252355113286891 0 0.020045678312652242 0.18090880435863019 0 0.045887037191650451 0.17252355113286891 0 0.041991232206495782 0.1919910870650737 0 0.045887037191650451 0.17252355113286891 0 0.060802696405823108 0.1787365445376432 0 0.041991232206495782 0.1919910870650737 0 0.045887037191650451 0.17252355113286891 0 0.071728396070648653 0.1641382979071076 0 0.045887037191650451 0.17252355113286891 0 0.060802696405823108 0.1787365445376432 0 0.071728396070648653 0.1641382979071076 0 0.045887037191650451 0.17252355113286891 0 0.059657673584757237 0.15824269734654939 0 0.04813315871709322 0.1541455757588851 0 0.045887037191650451 0.17252355113286891 0 0.059657673584757237 0.15824269734654939 0 0.071728396070648653 0.1641382979071076 0 0.059657673584757237 0.15824269734654939 0 0.04813315871709322 0.1541455757588851 0 0.060329678829100349 0.1474246815113264 0 0.04813315871709322 0.1541455757588851 0 0.050215372913412007 0.1458935282758238 0 0.060329678829100349 0.1474246815113264 0 0.050215372913412007 0.1458935282758238 0 0.060329678829100349 0.1474246815113264 0 0.052072656112092337 0.13760051191958289 0 0.050215372913412007 0.1458935282758238 0 0.052072656112092337 0.13760051191958289 0 0.040325997995362128 0.14440334391350099 0 0.060329678829100349 0.1474246815113264 0 0.062159468211553673 0.13737243366585769 0 0.052072656112092337 0.13760051191958289 0 0.062159468211553673 0.13737243366585769 0 0.054733357378362921 0.13083888414419281 0 0.052072656112092337 0.13760051191958289 0 0.052595679859244633 0.1236025024456274 0 0.054733357378362921 0.13083888414419281 0 0.061109117960118017 0.12720913792676911 0 0.062159468211553673 0.13737243366585769 0 0.054733357378362921 0.13083888414419281 0 0.061109117960118017 0.12720913792676911 0 0.052595679859244633 0.1236025024456274 0 0.054733357378362921 0.13083888414419281 0 0.046346625143134958 0.1312929959830558 0 0.054733357378362921 0.13083888414419281 0 0.052072656112092337 0.13760051191958289 0 0.046346625143134958 0.1312929959830558 0 0.037354296692750887 0.12718670835402709 0 0.040325997995362128 0.14440334391350099 0 0.046346625143134958 0.1312929959830558 0 0.037354296692750887 0.12718670835402709 0 0.040325997995362128 0.14440334391350099 0 0.028759663239593541 0.13617761485890201 0 0.037354296692750887 0.12718670835402709 0 0.040325997995362128 0.14440334391350099 0 0.052072656112092337 0.13760051191958289 0 0.046346625143134958 0.1312929959830558 0 0.040325997995362128 0.14440334391350099 0 0.052595679859244633 0.1236025024456274 0 0.046346625143134958 0.1312929959830558 0 0.037354296692750887 0.12718670835402709 0 0.028759663239593541 0.13617761485890201 0 0.029372494374312729 0.15410586879533311 0 0.040325997995362128 0.14440334391350099 0 0.029372494374312729 0.15410586879533311 0 0.04813315871709322 0.1541455757588851 0 0.040325997995362128 0.14440334391350099 0 0.04813315871709322 0.1541455757588851 0 0.050215372913412007 0.1458935282758238 0 0.040325997995362128 0.14440334391350099 0 0.025149977659741599 0.24684982625080901 0 0.00014186162909880781 0.2338185852574263 0 0.02177620002751179 0.22559840920251981 0 0.025149977659741599 0.24684982625080901 0 0.00014186162909880781 0.2338185852574263 0 0.025149977659741599 0.24684982625080901 0 0.00014186162909880781 0.2338185852574263 0 0.0073806355134042019 0.25529449578482938 0 0.00014186162909880781 0.2338185852574263 0 0.02177620002751179 0.22559840920251981 0 0.0090806704795409685 0.20996839310177981 0 0.025149977659741599 0.24684982625080901 0 0.02177620002751179 0.22559840920251981 0 0.039960986899899173 0.22780444499479169 0 0.02177620002751179 0.22559840920251981 0 0.0090806704795409685 0.20996839310177981 0 0.034547503469278373 0.20955079640779209 0 0.0090806704795409685 0.20996839310177981 0 0.02162293693503077 0.1981024475624624 0 0.034547503469278373 0.20955079640779209 0 -0.0057956805663459468 0.1892940575843915 0 0.0090806704795409685 0.20996839310177981 0 0.02162293693503077 0.1981024475624624 0 -0.0057956805663459468 0.1892940575843915 0 0.020045678312652242 0.18090880435863019 0 0.02162293693503077 0.1981024475624624 0 0.020045678312652242 0.18090880435863019 0 0.02162293693503077 0.1981024475624624 0 0.041991232206495782 0.1919910870650737 0 0.02162293693503077 0.1981024475624624 0 0.041991232206495782 0.1919910870650737 0 0.034547503469278373 0.20955079640779209 0 0.041991232206495782 0.1919910870650737 0 0.05849467095877426 0.1965416733816682 0 0.050764695011206777 0.20916964222725651 0 0.060802696405823108 0.1787365445376432 0 0.041991232206495782 0.1919910870650737 0 0.05849467095877426 0.1965416733816682 0 0.050764695011206777 0.20916964222725651 0 0.066981886553135278 0.20878848804672309 0 0.05849467095877426 0.1965416733816682 0 0.050764695011206777 0.20916964222725651 0 0.066981886553135278 0.20878848804672309 0 0.050764695011206777 0.20916964222725651 0 0.061514006406540499 0.23071042489022231 0 0.066981886553135278 0.20878848804672309 0 0.050764695011206777 0.20916964222725651 0 0.034547503469278373 0.20955079640779209 0 0.039960986899899173 0.22780444499479169 0 0.050764695011206777 0.20916964222725651 0 0.034547503469278373 0.20955079640779209 0 0.041991232206495782 0.1919910870650737 0 0.050764695011206777 0.20916964222725651 0 0.034547503469278373 0.20955079640779209 0 0.02177620002751179 0.22559840920251981 0 0.034547503469278373 0.20955079640779209 0 0.039960986899899173 0.22780444499479169 0 0.039960986899899173 0.22780444499479169 0 0.061514006406540499 0.23071042489022231 0 0.045472231705318063 0.24424317023843681 0 0.050764695011206777 0.20916964222725651 0 0.039960986899899173 0.22780444499479169 0 0.061514006406540499 0.23071042489022231 0 0.061514006406540499 0.23071042489022231 0 0.056046126259945157 0.25263236173372139 0 0.061514006406540499 0.23071042489022231 0 0.056046126259945157 0.25263236173372139 0 0.067905867336300579 0.25358800162702 0 0.061514006406540499 0.23071042489022231 0 0.045472231705318063 0.24424317023843681 0 0.056046126259945157 0.25263236173372139 0 0.025149977659741599 0.24684982625080901 0 0.039960986899899173 0.22780444499479169 0 0.045472231705318063 0.24424317023843681 0 0.092857250133516089 0.24175825718487831 0 0.078525547080241467 0.2465942846531784 0 0.093798877441032588 0.2579700649065903 0 0.092857250133516089 0.24175825718487831 0 0.078525547080241467 0.2465942846531784 0 0.081986142109724491 0.22560265144644431 0 0.061514006406540499 0.23071042489022231 0 0.078525547080241467 0.2465942846531784 0 0.067905867336300579 0.25358800162702 0 0.061514006406540499 0.23071042489022231 0 0.078525547080241467 0.2465942846531784 0 0.081986142109724491 0.22560265144644431 0 0.061514006406540499 0.23071042489022231 0 0.081986142109724491 0.22560265144644431 0 0.066981886553135278 0.20878848804672309 0 0.061514006406540499 0.23071042489022231 0 0.066981886553135278 0.20878848804672309 0 0.081986142109724491 0.22560265144644431 0 0.09236794217301933 0.20819183719001669 0 0.066981886553135278 0.20878848804672309 0 0.09236794217301933 0.20819183719001669 0 0.066981886553135278 0.20878848804672309 0 0.09236794217301933 0.20819183719001669 0 0.066981886553135278 0.20878848804672309 0 0.071445073857882777 0.19089458628000441 0 0.060802696405823108 0.1787365445376432 0 0.05849467095877426 0.1965416733816682 0 0.071445073857882777 0.19089458628000441 0 0.066981886553135278 0.20878848804672309 0 0.071445073857882777 0.19089458628000441 0 0.05849467095877426 0.1965416733816682 0 0.066981886553135278 0.20878848804672309 0 0.071445073857882777 0.19089458628000441 0 0.09236794217301933 0.20819183719001669 0 0.071445073857882777 0.19089458628000441 0 0.086464584236575506 0.1862285865309723 0 0.09236794217301933 0.20819183719001669 0 0.086464584236575506 0.1862285865309723 0 0.1023855527362314 0.18749689463882899 0 0.09236794217301933 0.20819183719001669 0 0.11775399779290339 0.20759518633331239 0 0.1023855527362314 0.18749689463882899 0 0.11775399779290339 0.20759518633331239 0 0.1023855527362314 0.18749689463882899 0 0.12550986450034471 0.186594373040398 0 0.09236794217301933 0.20819183719001669 0 0.11775399779290339 0.20759518633331239 0 0.09236794217301933 0.20819183719001669 0 0.11775399779290339 0.20759518633331239 0 0.10906069526472741 0.22998953009969161 0 0.092857250133516089 0.24175825718487831 0 0.081986142109724491 0.22560265144644431 0 0.10906069526472741 0.22998953009969161 0 0.081986142109724491 0.22560265144644431 0 0.09236794217301933 0.20819183719001669 0 0.10906069526472741 0.22998953009969161 0 0.11775399779290339 0.20759518633331239 0 0.10906069526472741 0.22998953009969161 0 0.1382648444377183 0.22719855966067881 0 0.10906069526472741 0.22998953009969161 0 0.12787711237058769 0.24521089126939841 0 0.1100607559553454 0.25396994184181759 0 0.092857250133516089 0.24175825718487831 0 0.10906069526472741 0.22998953009969161 0 0.1100607559553454 0.25396994184181759 0 0.081151633673542972 0.15313158297098389 0 0.083920606388658545 0.14050817004821939 0 0.0975697549496468 0.15575304468134629 0 0.081151633673542972 0.15313158297098389 0 0.083920606388658545 0.14050817004821939 0 0.071387777285217918 0.15212681924726251 0 0.074154959480044275 0.1204842858357125 0 0.087075880893963842 0.12621803440601359 0 0.083920606388658545 0.14050817004821939 0 0.087075880893963842 0.12621803440601359 0 0.083920606388658545 0.14050817004821939 0 0.097906888154765004 0.1362305538396491 0 0.062159468211553673 0.13737243366585769 0 0.061109117960118017 0.12720913792676911 0 0.083920606388658545 0.14050817004821939 0 0.074154959480044275 0.1204842858357125 0 0.061109117960118017 0.12720913792676911 0 0.083920606388658545 0.14050817004821939 0 0.061109117960118017 0.12720913792676911 0 0.083920606388658545 0.14050817004821939 0 0.062159468211553673 0.13737243366585769 0 0.083920606388658545 0.14050817004821939 0 0.069449382678632612 0.1443580261181665 0 0.060329678829100349 0.1474246815113264 0 0.062159468211553673 0.13737243366585769 0 0.069449382678632612 0.1443580261181665 0 0.060329678829100349 0.1474246815113264 0 0.069449382678632612 0.1443580261181665 0 0.071387777285217918 0.15212681924726251 0 0.083920606388658545 0.14050817004821939 0 0.069449382678632612 0.1443580261181665 0 0.071387777285217918 0.15212681924726251 0 0.059657673584757237 0.15824269734654939 0 0.060329678829100349 0.1474246815113264 0 0.071387777285217918 0.15212681924726251 0 0.059657673584757237 0.15824269734654939 0 0.071387777285217918 0.15212681924726251 0 0.071728396070648653 0.1641382979071076 0 0.081151633673542972 0.15313158297098389 0 0.071387777285217918 0.15212681924726251 0 0.071728396070648653 0.1641382979071076 0 0.071445073857882777 0.19089458628000441 0 0.075908261162629706 0.17300068451328551 0 0.086464584236575506 0.1862285865309723 0 0.060802696405823108 0.1787365445376432 0 0.071445073857882777 0.19089458628000441 0 0.075908261162629706 0.17300068451328551 0 0.071445073857882777 0.19089458628000441 0 0.075908261162629706 0.17300068451328551 0 0.060802696405823108 0.1787365445376432 0 0.071728396070648653 0.1641382979071076 0 0.075908261162629706 0.17300068451328551 0 0.086464584236575506 0.1862285865309723 0 0.090216091253114361 0.17155893003272579 0 0.1023855527362314 0.18749689463882899 0 0.075908261162629706 0.17300068451328551 0 0.086464584236575506 0.1862285865309723 0 0.090216091253114361 0.17155893003272579 0 0.081151633673542972 0.15313158297098389 0 0.071728396070648653 0.1641382979071076 0 0.0975697549496468 0.15575304468134629 0 0.071728396070648653 0.1641382979071076 0 0.090216091253114361 0.17155893003272579 0 0.0975697549496468 0.15575304468134629 0 0.071728396070648653 0.1641382979071076 0 0.075908261162629706 0.17300068451328551 0 0.090216091253114361 0.17155893003272579 0 0.071728396070648653 0.1641382979071076 0 0.0975697549496468 0.15575304468134629 0 0.090216091253114361 0.17155893003272579 0 0.1064810698159025 0.16893633516972181 0 0.0975697549496468 0.15575304468134629 0 0.1064810698159025 0.16893633516972181 0 0.1067320948171991 0.1538072021696697 0 0.0975697549496468 0.15575304468134629 0 0.090216091253114361 0.17155893003272579 0 0.1064810698159025 0.16893633516972181 0 0.1023855527362314 0.18749689463882899 0 0.1064810698159025 0.16893633516972181 0 0.12954358324573961 0.16710623429112001 0 0.12550986450034471 0.186594373040398 0 0.1064810698159025 0.16893633516972181 0 0.1023855527362314 0.18749689463882899 0 0.12550986450034471 0.186594373040398 0 0.1064810698159025 0.16893633516972181 0 0.1067320948171991 0.1538072021696697 0 0.12954358324573961 0.16710623429112001 0 0.1067320948171991 0.1538072021696697 0 0.1262856736452258 0.1537478882528979 0 0.12954358324573961 0.16710623429112001 0 0.1067320948171991 0.1538072021696697 0 0.12954358324573961 0.16710623429112001 0 0.1148569119608701 0.14824987142416859 0 0.1067320948171991 0.1538072021696697 0 0.1262856736452258 0.1537478882528979 0 0.118317888191051 0.14254191757659121 0 0.1148569119608701 0.14824987142416859 0 0.1262856736452258 0.1537478882528979 0 0.118317888191051 0.14254191757659121 0 0.12756241452120801 0.13893694775055651 0 0.1262856736452258 0.1537478882528979 0 0.1148569119608701 0.14824987142416859 0 0.1067320948171991 0.1538072021696697 0 0.1080919911900045 0.14290247769751591 0 0.118317888191051 0.14254191757659121 0 0.1148569119608701 0.14824987142416859 0 0.1080919911900045 0.14290247769751591 0 0.083920606388658545 0.14050817004821939 0 0.1067320948171991 0.1538072021696697 0 0.1067320948171991 0.1538072021696697 0 0.1080919911900045 0.14290247769751591 0 0.097906888154765004 0.1362305538396491 0 0.083920606388658545 0.14050817004821939 0 0.1067320948171991 0.1538072021696697 0 0.097906888154765004 0.1362305538396491 0 0.083920606388658545 0.14050817004821939 0 0.1067320948171991 0.1538072021696697 0 0.0975697549496468 0.15575304468134629 0 0.096984900528893664 0.1212489081817222 0 0.097906888154765004 0.1362305538396491 0 0.10589272808503949 0.13156516273042271 0 0.096984900528893664 0.1212489081817222 0 0.087075880893963842 0.12621803440601359 0 0.097906888154765004 0.1362305538396491 0 0.1080919911900045 0.14290247769751591 0 0.097906888154765004 0.1362305538396491 0 0.10589272808503949 0.13156516273042271 0 0.1080919911900045 0.14290247769751591 0 0.10589272808503949 0.13156516273042271 0 0.11327312463209829 0.13597294690712769 0 0.10712684862241641 0.1210429748963526 0 0.10589272808503949 0.13156516273042271 0 0.114987521205969 0.1268010028982309 0 0.10589272808503949 0.13156516273042271 0 0.114987521205969 0.1268010028982309 0 0.11327312463209829 0.13597294690712769 0 0.114987521205969 0.1268010028982309 0 0.11327312463209829 0.13597294690712769 0 0.1203000125167645 0.13336293759413789 0 0.118317888191051 0.14254191757659121 0 0.1080919911900045 0.14290247769751591 0 0.11327312463209829 0.13597294690712769 0 0.118317888191051 0.14254191757659121 0 0.1203000125167645 0.13336293759413789 0 0.12756241452120801 0.13893694775055651 0 0.118317888191051 0.14254191757659121 0 0.11327312463209829 0.13597294690712769 0 0.1203000125167645 0.13336293759413789 0 0.12212988809696081 0.1249307776834532 0 0.114987521205969 0.1268010028982309 0 0.1203000125167645 0.13336293759413789 0 0.12212988809696081 0.1249307776834532 0 0.1203000125167645 0.13336293759413789 0 0.12788127083107459 0.1291064789800366 0 0.12788127083107459 0.1291064789800366 0 0.13409394305489639 0.1257339851238449 0 0.12813823657366311 0.12049833089676459 0 0.12788127083107459 0.1291064789800366 0 0.13410827310584911 0.13282331674432049 0 0.13409394305489639 0.1257339851238449 0 0.12788127083107459 0.1291064789800366 0 0.12756241452120801 0.13893694775055651 0 0.13410827310584911 0.13282331674432049 0 0.1203000125167645 0.13336293759413789 0 0.12788127083107459 0.1291064789800366 0 0.12756241452120801 0.13893694775055651 0 0.13410827310584911 0.13282331674432049 0 0.14295710802469111 0.12768772724150559 0 0.13848136883728299 0.14203914735535511 0 0.12756241452120801 0.13893694775055651 0 0.13410827310584911 0.13282331674432049 0 0.13848136883728299 0.14203914735535511 0 0.13410827310584911 0.13282331674432049 0 0.13409394305489639 0.1257339851238449 0 0.14295710802469111 0.12768772724150559 0 0.14295710802469111 0.12768772724150559 0 0.15698787762036359 0.14007723406829989 0 0.15364605026385231 0.1227496740475859 0 0.14295710802469111 0.12768772724150559 0 0.13848136883728299 0.14203914735535511 0 0.15698787762036359 0.14007723406829989 0 0.13848136883728299 0.14203914735535511 0 0.1441447949138806 0.1573716891147208 0 0.15698787762036359 0.14007723406829989 0 0.1441447949138806 0.1573716891147208 0 0.1598153361361678 0.15982657838785511 0 0.15698787762036359 0.14007723406829989 0 0.13848136883728299 0.14203914735535511 0 0.1262856736452258 0.1537478882528979 0 0.1441447949138806 0.1573716891147208 0 0.12756241452120801 0.13893694775055651 0 0.13848136883728299 0.14203914735535511 0 0.1262856736452258 0.1537478882528979 0 0.1262856736452258 0.1537478882528979 0 0.12954358324573961 0.16710623429112001 0 0.1441447949138806 0.1573716891147208 0 0.12954358324573961 0.16710623429112001 0 0.12550986450034471 0.186594373040398 0 0.15375492999850379 0.1814330523327968 0 0.12954358324573961 0.16710623429112001 0 0.15375492999850379 0.1814330523327968 0 0.1441447949138806 0.1573716891147208 0 0.15375492999850379 0.1814330523327968 0 0.1441447949138806 0.1573716891147208 0 0.1598153361361678 0.15982657838785511 0 0.1598153361361678 0.15982657838785511 0 0.17205847002769489 0.1711246398383999 0 0.17247097746626519 0.1464629757798975 0 0.15375492999850379 0.1814330523327968 0 0.1598153361361678 0.15982657838785511 0 0.17205847002769489 0.1711246398383999 0 0.15375492999850379 0.1814330523327968 0 0.17205847002769489 0.1711246398383999 0 0.18411838942066619 0.18828130780555291 0 0.17205847002769489 0.1711246398383999 0 0.18411838942066619 0.18828130780555291 0 0.19050902449260759 0.164433536692701 0 0.17205847002769489 0.1711246398383999 0 0.17247097746626519 0.1464629757798975 0 0.19050902449260759 0.164433536692701 0 0.17247097746626519 0.1464629757798975 0 0.1903693880120208 0.14015559280000461 0 0.19050902449260759 0.164433536692701 0 0.17247097746626519 0.1464629757798975 0 0.18002451345814399 0.12716596121819479 0 0.1903693880120208 0.14015559280000461 0 0.17247097746626519 0.1464629757798975 0 0.18002451345814399 0.12716596121819479 0 0.16417220099380411 0.12505127510387981 0 0.15698787762036359 0.14007723406829989 0 0.16417220099380411 0.12505127510387981 0 0.15364605026385231 0.1227496740475859 0 0.17247097746626519 0.1464629757798975 0 0.15698787762036359 0.14007723406829989 0 0.16417220099380411 0.12505127510387981 0 0.1598153361361678 0.15982657838785511 0 0.17247097746626519 0.1464629757798975 0 0.15698787762036359 0.14007723406829989 0 0.14702044576598061 0.2478904659134552 0 0.1382648444377183 0.22719855966067881 0 0.15828943790025421 0.22969507774947781 0 0.14702044576598061 0.2478904659134552 0 0.12787711237058769 0.24521089126939841 0 0.1382648444377183 0.22719855966067881 0 0.10906069526472741 0.22998953009969161 0 0.12787711237058769 0.24521089126939841 0 0.1382648444377183 0.22719855966067881 0 0.1382648444377183 0.22719855966067881 0 0.14314005341278749 0.20699853547660821 0 0.15828943790025421 0.22969507774947781 0 0.14314005341278749 0.20699853547660821 0 0.16852610903267151 0.206401884619904 0 0.11775399779290339 0.20759518633331239 0 0.1382648444377183 0.22719855966067881 0 0.14314005341278749 0.20699853547660821 0 0.11775399779290339 0.20759518633331239 0 0.14314005341278749 0.20699853547660821 0 0.11775399779290339 0.20759518633331239 0 0.12550986450034471 0.186594373040398 0 0.14314005341278749 0.20699853547660821 0 0.15375492999850379 0.1814330523327968 0 0.14314005341278749 0.20699853547660821 0 0.16852610903267151 0.206401884619904 0 0.12550986450034471 0.186594373040398 0 0.15375492999850379 0.1814330523327968 0 0.14314005341278749 0.20699853547660821 0 0.15375492999850379 0.1814330523327968 0 0.18411838942066619 0.18828130780555291 0 0.16852610903267151 0.206401884619904 0 0.18411838942066619 0.18828130780555291 0 0.16852610903267151 0.206401884619904 0 0.1878214256448299 0.20672411698152671 0 0.16852610903267151 0.206401884619904 0 0.17766068788986381 0.23020170431202469 0 0.1878214256448299 0.20672411698152671 0 0.14314005341278749 0.20699853547660821 0 0.16852610903267151 0.206401884619904 0 0.15828943790025421 0.22969507774947781 0 0.16852610903267151 0.206401884619904 0 0.15828943790025421 0.22969507774947781 0 0.17766068788986381 0.23020170431202469 0 0.17766068788986381 0.23020170431202469 0 0.19353513124668931 0.22246748781277501 0 0.1878214256448299 0.20672411698152671 0 0.17766068788986381 0.23020170431202469 0 0.18692125413578081 0.24552837502103991 0 0.19379669244916639 0.23440003217329089 0 0.17766068788986381 0.23020170431202469 0 0.18692125413578081 0.24552837502103991 0 0.16774616909827719 0.2460930353984315 0 0.15828943790025421 0.22969507774947781 0 0.17766068788986381 0.23020170431202469 0 0.16774616909827719 0.2460930353984315 0 0.14702044576598061 0.2478904659134552 0 0.15828943790025421 0.22969507774947781 0 0.16774616909827719 0.2460930353984315 0 0.21557305570370441 0.24515722135805329 0 0.2029257889591993 0.24295866219667439 0 0.23007231546290949 0.2334513308517342 0 0.2029257889591993 0.24295866219667439 0 0.23007231546290949 0.2334513308517342 0 0.21557305570370441 0.24515722135805329 0 0.2029257889591993 0.24295866219667439 0 0.20107379594449931 0.25686311186437227 0 0.18692125413578081 0.24552837502103991 0 0.2029257889591993 0.24295866219667439 0 0.20107379594449931 0.25686311186437227 0 0.18692125413578081 0.24552837502103991 0 0.19379669244916639 0.23440003217329089 0 0.2029257889591993 0.24295866219667439 0 0.17766068788986381 0.23020170431202469 0 0.19379669244916639 0.23440003217329089 0 0.19353513124668931 0.22246748781277501 0 0.19379669244916639 0.23440003217329089 0 0.2029257889591993 0.24295866219667439 0 0.20920449219815451 0.22515354045629349 0 0.19379669244916639 0.23440003217329089 0 0.19353513124668931 0.22246748781277501 0 0.20920449219815451 0.22515354045629349 0 0.2029257889591993 0.24295866219667439 0 0.20920449219815451 0.22515354045629349 0 0.23007231546290949 0.2334513308517342 0 0.19353513124668931 0.22246748781277501 0 0.20920449219815451 0.22515354045629349 0 0.20732414099141369 0.20672295990195361 0 0.20920449219815451 0.22515354045629349 0 0.20732414099141369 0.20672295990195361 0 0.22783619495118521 0.20973527166224001 0 0.19353513124668931 0.22246748781277501 0 0.20732414099141369 0.20672295990195361 0 0.1878214256448299 0.20672411698152671 0 0.18411838942066619 0.18828130780555291 0 0.1878214256448299 0.20672411698152671 0 0.20343121377691101 0.18825927067945539 0 0.20732414099141369 0.20672295990195361 0 0.1878214256448299 0.20672411698152671 0 0.20343121377691101 0.18825927067945539 0 0.20732414099141369 0.20672295990195361 0 0.20343121377691101 0.18825927067945539 0 0.2219787971027708 0.18678942035429349 0 0.20732414099141369 0.20672295990195361 0 0.22783619495118521 0.20973527166224001 0 0.2219787971027708 0.18678942035429349 0 0.24528107816237801 0.1907036486386274 0 0.22783619495118521 0.20973527166224001 0 0.2219787971027708 0.18678942035429349 0 0.24528107816237801 0.1907036486386274 0 0.25242827713160498 0.21540237912569379 0 0.24528107816237801 0.1907036486386274 0 0.22783619495118521 0.20973527166224001 0 0.25242827713160498 0.21540237912569379 0 0.20920449219815451 0.22515354045629349 0 0.22783619495118521 0.20973527166224001 0 0.23007231546290949 0.2334513308517342 0 0.23007231546290949 0.2334513308517342 0 0.25242827713160498 0.21540237912569379 0 0.23007231546290949 0.2334513308517342 0 0.25511338863332461 0.22468137717712711 0 0.25242827713160498 0.21540237912569379 0 0.23007231546290949 0.2334513308517342 0 0.25511338863332461 0.22468137717712711 0 0.23007231546290949 0.2334513308517342 0 0.2457442494512444 0.24022391879071339 0 0.25511338863332461 0.22468137717712711 0 0.22783619495118521 0.20973527166224001 0 0.23007231546290949 0.2334513308517342 0 0.25242827713160498 0.21540237912569379 0 0.2457442494512444 0.24022391879071339 0 0.23628031136540401 0.25597328662156199 0 0.26221447651104962 0.2479993693513689 0 0.23007231546290949 0.2334513308517342 0 0.2457442494512444 0.24022391879071339 0 0.23628031136540401 0.25597328662156199 0 0.21557305570370441 0.24515722135805329 0 0.23007231546290949 0.2334513308517342 0 0.23628031136540401 0.25597328662156199 0 0.21557305570370441 0.24515722135805329 0 0.23007231546290949 0.2334513308517342 0 0.21023583046185859 0.14706018503428281 0 0.22521494488481819 0.12557893006429149 0 0.2001236667938262 0.1180422718546187 0 0.18002451345814399 0.12716596121819479 0 0.1903693880120208 0.14015559280000461 0 0.2001236667938262 0.1180422718546187 0 0.21023583046185859 0.14706018503428281 0 0.1903693880120208 0.14015559280000461 0 0.2001236667938262 0.1180422718546187 0 0.21023583046185859 0.14706018503428281 0 0.1903693880120208 0.14015559280000461 0 0.19050902449260759 0.164433536692701 0 0.18411838942066619 0.18828130780555291 0 0.20343121377691101 0.18825927067945539 0 0.19050902449260759 0.164433536692701 0 0.20343121377691101 0.18825927067945539 0 0.19050902449260759 0.164433536692701 0 0.20962662881846919 0.1707346457134423 0 0.20343121377691101 0.18825927067945539 0 0.20962662881846919 0.1707346457134423 0 0.2219787971027708 0.18678942035429349 0 0.21023583046185859 0.14706018503428281 0 0.20962662881846919 0.1707346457134423 0 0.2254160648188453 0.164078398330023 0 0.21023583046185859 0.14706018503428281 0 0.19050902449260759 0.164433536692701 0 0.20962662881846919 0.1707346457134423 0 0.20962662881846919 0.1707346457134423 0 0.2254160648188453 0.164078398330023 0 0.2219787971027708 0.18678942035429349 0 0.2254160648188453 0.164078398330023 0 0.2219787971027708 0.18678942035429349 0 0.23714843650665229 0.1758398884969993 0 0.24528107816237801 0.1907036486386274 0 0.2219787971027708 0.18678942035429349 0 0.23714843650665229 0.1758398884969993 0 0.24528107816237801 0.1907036486386274 0 0.23714843650665229 0.1758398884969993 0 0.25292738168467233 0.17649485219682931 0 0.2254160648188453 0.164078398330023 0 0.24653130607993951 0.16237692388552691 0 0.23688534306575301 0.1458043597726891 0 0.23714843650665229 0.1758398884969993 0 0.24653130607993951 0.16237692388552691 0 0.25292738168467233 0.17649485219682931 0 0.2254160648188453 0.164078398330023 0 0.23714843650665229 0.1758398884969993 0 0.24653130607993951 0.16237692388552691 0 0.24653130607993951 0.16237692388552691 0 0.2496536413094039 0.15044712256699261 0 0.23688534306575301 0.1458043597726891 0 0.2496536413094039 0.15044712256699261 0 0.23688534306575301 0.1458043597726891 0 0.25004344172447263 0.14019424959050239 0 0.21023583046185859 0.14706018503428281 0 0.2254160648188453 0.164078398330023 0 0.23688534306575301 0.1458043597726891 0 0.21023583046185859 0.14706018503428281 0 0.23688534306575301 0.1458043597726891 0 0.22521494488481819 0.12557893006429149 0 0.22521494488481819 0.12557893006429149 0 0.25030622297580962 0.13311558827396619 0 0.23688534306575301 0.1458043597726891 0 0.22521494488481819 0.12557893006429149 0 0.25030622297580962 0.13311558827396619 0 0.23688534306575301 0.1458043597726891 0 0.25004344172447263 0.14019424959050239 0 0.25030622297580962 0.13311558827396619 0 0.22521494488481819 0.12557893006429149 0 0.2369469616243938 0.1144798656387125 0 0.25030622297580962 0.13311558827396619 0 0.2369469616243938 0.1144798656387125 0 0.25094552198087999 0.11589449234768209 0 0.25030622297580962 0.13311558827396619 0 0.2369469616243938 0.1144798656387125 0 0.25158482098595109 0.098673396421397969 0 0.25094552198087999 0.11589449234768209 0 0.2369469616243938 0.1144798656387125 0 0.2308580048349978 0.09939168424622695 0 0.25158482098595109 0.098673396421397969 0 0.2308580048349978 0.09939168424622695 0 0.2177667053289645 0.10879872465146249 0 0.21723881235993189 0.092441087960636145 0 0.2369469616243938 0.1144798656387125 0 0.2308580048349978 0.09939168424622695 0 0.2177667053289645 0.10879872465146249 0 0.22521494488481819 0.12557893006429149 0 0.2369469616243938 0.1144798656387125 0 0.2177667053289645 0.10879872465146249 0 0.2177667053289645 0.10879872465146249 0 0.1970849337058638 0.1019164286603922 0 0.2001236667938262 0.1180422718546187 0 0.22521494488481819 0.12557893006429149 0 0.2177667053289645 0.10879872465146249 0 0.2001236667938262 0.1180422718546187 0 0.22521494488481819 0.12557893006429149 0 0.2001236667938262 0.1180422718546187 0 0.1970849337058638 0.1019164286603922 0 0.20420713705815571 0.090978010823124941 0 0.21723881235993189 0.092441087960636145 0 0.1970849337058638 0.1019164286603922 0 0.21723881235993189 0.092441087960636145 0 0.2177667053289645 0.10879872465146249 0 0.1970849337058638 0.1019164286603922 0 0.21723881235993189 0.092441087960636145 0 0.1970849337058638 0.1019164286603922 0 0.1916307843626972 0.08827444688259839 0 0.17503238870283441 0.11050561364494491 0 0.2001236667938262 0.1180422718546187 0 0.17503238870283441 0.11050561364494491 0 0.1970849337058638 0.1019164286603922 0 0.2001236667938262 0.1180422718546187 0 0.17503238870283441 0.11050561364494491 0 0.1916307843626972 0.08827444688259839 0 0.2082291800225603 0.066043280120252124 0 0.19067723801237901 0.065525043857756982 0 0.1916307843626972 0.08827444688259839 0 0.2082291800225603 0.066043280120252124 0 0.1916307843626972 0.08827444688259839 0 0.21087401780412959 0.081280079788873041 0 0.20420713705815571 0.090978010823124941 0 0.1970849337058638 0.1019164286603922 0 0.1916307843626972 0.08827444688259839 0 0.20420713705815571 0.090978010823124941 0 0.1916307843626972 0.08827444688259839 0 0.21087401780412959 0.081280079788873041 0 0.2082291800225603 0.066043280120252124 0 0.21087401780412959 0.081280079788873041 0 0.20420713705815571 0.090978010823124941 0 0.21723881235993189 0.092441087960636145 0 0.21087401780412959 0.081280079788873041 0 0.21723881235993189 0.092441087960636145 0 0.22613356481757629 0.0775902723280468 0 0.21087401780412959 0.081280079788873041 0 0.2082291800225603 0.066043280120252124 0 0.22613356481757629 0.0775902723280468 0 0.2082291800225603 0.066043280120252124 0 0.22613356481757629 0.0775902723280468 0 0.2082291800225603 0.066043280120252124 0 0.2259496113806885 0.070300708218039992 0 0.21450653174737461 0.057635669175196122 0 0.2259496113806885 0.070300708218039992 0 0.21450653174737461 0.057635669175196122 0 0.2082291800225603 0.066043280120252124 0 0.2259496113806885 0.070300708218039992 0 0.22613356481757629 0.0775902723280468 0 0.2259496113806885 0.070300708218039992 0 0.2248665156508784 0.061611733455129589 0 0.21450653174737461 0.057635669175196122 0 0.2259496113806885 0.070300708218039992 0 0.22613356481757629 0.0775902723280468 0 0.23739269101400209 0.082965747260884265 0 0.2259496113806885 0.070300708218039992 0 0.23739269101400209 0.082965747260884265 0 0.237967452106535 0.070105640596903412 0 0.2259496113806885 0.070300708218039992 0 0.23739269101400209 0.082965747260884265 0 0.2259496113806885 0.070300708218039992 0 0.2330718446673557 0.064441819436705627 0 0.2248665156508784 0.061611733455129589 0 0.2259496113806885 0.070300708218039992 0 0.2330718446673557 0.064441819436705627 0 0.237967452106535 0.070105640596903412 0 0.2308580048349978 0.09939168424622695 0 0.21723881235993189 0.092441087960636145 0 0.23739269101400209 0.082965747260884265 0 0.21723881235993189 0.092441087960636145 0 0.22613356481757629 0.0775902723280468 0 0.23739269101400209 0.082965747260884265 0 0.21723881235993189 0.092441087960636145 0 0.23739269101400209 0.082965747260884265 0 0.23739269101400209 0.082965747260884265 0 0.25158482098595109 0.098673396421397969 0 0.23739269101400209 0.082965747260884265 0 0.25243039498113262 0.075895774732197205 0 0.25158482098595109 0.098673396421397969 0 0.2308580048349978 0.09939168424622695 0 0.23739269101400209 0.082965747260884265 0 0.25158482098595109 0.098673396421397969 0 0.23739269101400209 0.082965747260884265 0 0.25243039498113262 0.075895774732197205 0 0.23934469018649959 0.064583282500140851 0 0.237967452106535 0.070105640596903412 0 0.24496427956833819 0.066036472520138348 0 0.2330718446673557 0.064441819436705627 0 0.23934469018649959 0.064583282500140851 0 0.2376257901407148 0.059976102198904507 0 0.2330718446673557 0.064441819436705627 0 0.23934469018649959 0.064583282500140851 0 0.237967452106535 0.070105640596903412 0 0.23739269101400209 0.082965747260884265 0 0.237967452106535 0.070105640596903412 0 0.24429048066179679 0.072622021298478806 0 0.24429048066179679 0.072622021298478806 0 0.24842415088314279 0.069033451464499671 0 0.25243039498113262 0.075895774732197205 0 0.23739269101400209 0.082965747260884265 0 0.24429048066179679 0.072622021298478806 0 0.25243039498113262 0.075895774732197205 0 0.24842415088314279 0.069033451464499671 0 0.24853219730195361 0.063845178725116872 0 0.25274476311700622 0.067427493409812952 0 0.237967452106535 0.070105640596903412 0 0.24429048066179679 0.072622021298478806 0 0.24496427956833819 0.066036472520138348 0 0.24429048066179679 0.072622021298478806 0 0.24842415088314279 0.069033451464499671 0 0.24496427956833819 0.066036472520138348 0 0.23934469018649959 0.064583282500140851 0 0.24496427956833819 0.066036472520138348 0 0.24309408444955441 0.062356377748052388 0 0.24496427956833819 0.066036472520138348 0 0.24602681454492631 0.062964227281045088 0 0.24309408444955441 0.062356377748052388 0 0.24496427956833819 0.066036472520138348 0 0.24602681454492631 0.062964227281045088 0 0.24853219730195361 0.063845178725116872 0 0.24842415088314279 0.069033451464499671 0 0.24496427956833819 0.066036472520138348 0 0.24853219730195361 0.063845178725116872 0 0.24751669685985911 0.059618880130872708 0 0.24309408444955441 0.062356377748052388 0 0.2376257901407148 0.059976102198904507 0 0.24751669685985911 0.059618880130872708 0 0.24426241142214139 0.049994713685017962 0 0.2310385276818335 0.053106641608170198 0 0.24751669685985911 0.059618880130872708 0 0.2376257901407148 0.059976102198904507 0 0.2310385276818335 0.053106641608170198 0 0.24751669685985911 0.059618880130872708 0 0.2310385276818335 0.053106641608170198 0 0.24853219730195361 0.063845178725116872 0 0.24751669685985911 0.059618880130872708 0 0.2530174900015254 0.0600809219264858 0 0.24602681454492631 0.062964227281045088 0 0.24853219730195361 0.063845178725116872 0 0.24751669685985911 0.059618880130872708 0 0.24602681454492631 0.062964227281045088 0 0.24751669685985911 0.059618880130872708 0 0.24309408444955441 0.062356377748052388 0 0.23934469018649959 0.064583282500140851 0 0.24309408444955441 0.062356377748052388 0 0.2376257901407148 0.059976102198904507 0 0.24426241142214139 0.049994713685017962 0 0.23928634064401511 0.040096757013566242 0 0.2310385276818335 0.053106641608170198 0 0.24751669685985911 0.059618880130872708 0 0.24426241142214139 0.049994713685017962 0 0.25102243244437311 0.053297338652025752 0 0.24426241142214139 0.049994713685017962 0 0.25174039047255609 0.044464402284776217 0 0.25102243244437311 0.053297338652025752 0 0.23928634064401511 0.040096757013566242 0 0.2320502206633881 0.021165953515508481 0 0.25044211127373811 0.032849993626191502 0 0.23928634064401511 0.040096757013566242 0 0.25044211127373811 0.032849993626191502 0 0.25174039047255609 0.044464402284776217 0 0.24426241142214139 0.049994713685017962 0 0.23928634064401511 0.040096757013566242 0 0.25174039047255609 0.044464402284776217 0 0.22618438235043381 0.038998837361733103 0 0.2320502206633881 0.021165953515508481 0 0.20963369093729961 0.03941564640516447 0 0.23928634064401511 0.040096757013566242 0 0.22618438235043381 0.038998837361733103 0 0.2320502206633881 0.021165953515508481 0 0.22618438235043381 0.038998837361733103 0 0.2310385276818335 0.053106641608170198 0 0.21456035850380811 0.046594403085467223 0 0.23928634064401511 0.040096757013566242 0 0.22618438235043381 0.038998837361733103 0 0.2310385276818335 0.053106641608170198 0 0.2310385276818335 0.053106641608170198 0 0.21456035850380811 0.046594403085467223 0 0.2248665156508784 0.061611733455129589 0 0.2310385276818335 0.053106641608170198 0 0.21456035850380811 0.046594403085467223 0 0.2248665156508784 0.061611733455129589 0 0.21456035850380811 0.046594403085467223 0 0.2330718446673557 0.064441819436705627 0 0.2248665156508784 0.061611733455129589 0 0.23150027442910881 0.059501590197602497 0 0.2248665156508784 0.061611733455129589 0 0.23150027442910881 0.059501590197602497 0 0.2310385276818335 0.053106641608170198 0 0.2330718446673557 0.064441819436705627 0 0.2376257901407148 0.059976102198904507 0 0.23150027442910881 0.059501590197602497 0 0.2376257901407148 0.059976102198904507 0 0.23150027442910881 0.059501590197602497 0 0.2310385276818335 0.053106641608170198 0 0.2320502206633881 0.021165953515508481 0 0.22999165343287109 0.0038227322559807589 0 0.25446675038947358 0.0029162606258486688 0 0.2320502206633881 0.021165953515508481 0 0.2600935707136679 0.019574361616358959 0 0.25446675038947358 0.0029162606258486688 0 0.22999165343287109 0.0038227322559807589 0 0.25446675038947358 0.0029162606258486688 0 0.24138147174972829 -0.0061427828714447699 0 0.2320502206633881 0.021165953515508481 0 0.25446675038947358 0.0029162606258486688 0 0.2320502206633881 0.021165953515508481 0 0.2600935707136679 0.019574361616358959 0 0.25044211127373811 0.032849993626191502 0 0.2320502206633881 0.021165953515508481 0 0.20963369093729961 0.03941564640516447 0 0.22999165343287109 0.0038227322559807589 0 0.21340461703840111 0.0096506044731711187 0 0.21351355446813719 -0.0021103410187178909 0 0.2320502206633881 0.021165953515508481 0 0.22999165343287109 0.0038227322559807589 0 0.21340461703840111 0.0096506044731711187 0 0.21340461703840111 0.0096506044731711187 0 0.1998105265397013 0.00335350757378736 0 0.21351355446813719 -0.0021103410187178909 0 0.21340461703840111 0.0096506044731711187 0 0.20371525389429951 0.01279949030761077 0 0.2082588668535221 0.02245160931237615 0 0.21340461703840111 0.0096506044731711187 0 0.20371525389429951 0.01279949030761077 0 0.1998105265397013 0.00335350757378736 0 0.2320502206633881 0.021165953515508481 0 0.2082588668535221 0.02245160931237615 0 0.20963369093729961 0.03941564640516447 0 0.2320502206633881 0.021165953515508481 0 0.21340461703840111 0.0096506044731711187 0 0.2082588668535221 0.02245160931237615 0 0.2082588668535221 0.02245160931237615 0 0.19338700514557339 0.015742239871108451 0 0.20963369093729961 0.03941564640516447 0 0.19338700514557339 0.015742239871108451 0 0.1989601287501698 0.040429129743079398 0 0.18048502430789731 0.01998114488410483 0 0.1989601287501698 0.040429129743079398 0 0.18048502430789731 0.01998114488410483 0 0.19338700514557339 0.015742239871108451 0 0.20963369093729961 0.03941564640516447 0 0.20371525389429951 0.01279949030761077 0 0.2082588668535221 0.02245160931237615 0 0.19338700514557339 0.015742239871108451 0 0.19338700514557339 0.015742239871108451 0 0.1998105265397013 0.00335350757378736 0 0.17714031935384769 -0.0079311666629475405 0 0.20371525389429951 0.01279949030761077 0 0.19338700514557339 0.015742239871108451 0 0.1998105265397013 0.00335350757378736 0 0.21450653174737461 0.057635669175196122 0 0.2029561920580818 0.044851916216142339 0 0.21450653174737461 0.057635669175196122 0 0.2029561920580818 0.044851916216142339 0 0.2021088015620611 0.053433964061651712 0 0.21450653174737461 0.057635669175196122 0 0.21456035850380811 0.046594403085467223 0 0.2029561920580818 0.044851916216142339 0 0.2082291800225603 0.066043280120252124 0 0.21450653174737461 0.057635669175196122 0 0.2021088015620611 0.053433964061651712 0 0.2248665156508784 0.061611733455129589 0 0.21450653174737461 0.057635669175196122 0 0.21456035850380811 0.046594403085467223 0 0.2082291800225603 0.066043280120252124 0 0.21450653174737461 0.057635669175196122 0 0.22618438235043381 0.038998837361733103 0 0.21456035850380811 0.046594403085467223 0 0.20963369093729961 0.03941564640516447 0 0.21456035850380811 0.046594403085467223 0 0.20963369093729961 0.03941564640516447 0 0.21456035850380811 0.046594403085467223 0 0.20530753189452691 0.042937648913457381 0 0.2029561920580818 0.044851916216142339 0 0.20963369093729961 0.03941564640516447 0 0.20530753189452691 0.042937648913457381 0 0.1989601287501698 0.040429129743079398 0 0.21456035850380811 0.046594403085467223 0 0.20530753189452691 0.042937648913457381 0 0.21456035850380811 0.046594403085467223 0 0.20963369093729961 0.03941564640516447 0 0.20530753189452691 0.042937648913457381 0 0.20963369093729961 0.03941564640516447 0 0.20530753189452691 0.042937648913457381 0 0.20530753189452691 0.042937648913457381 0 0.2029561920580818 0.044851916216142339 0 0.1989601287501698 0.040429129743079398 0 0.1774654858828027 0.031934360706524292 0 0.2029561920580818 0.044851916216142339 0 0.1989601287501698 0.040429129743079398 0 0.19971656766465989 0.047489351670260083 0 0.1989601287501698 0.040429129743079398 0 0.19133087755196571 0.045131483978966998 0 0.19971656766465989 0.047489351670260083 0 0.2029561920580818 0.044851916216142339 0 0.19971656766465989 0.047489351670260083 0 0.19338700514557339 0.015742239871108451 0 0.20963369093729961 0.03941564640516447 0 0.1989601287501698 0.040429129743079398 0 0.1989601287501698 0.040429129743079398 0 0.19133087755196571 0.045131483978966998 0 0.18298678422305309 0.040980100737508622 0 0.20530753189452691 0.042937648913457381 0 0.2029561920580818 0.044851916216142339 0 0.1989601287501698 0.040429129743079398 0 0.20530753189452691 0.042937648913457381 0 0.1989601287501698 0.040429129743079398 0 0.2029561920580818 0.044851916216142339 0 0.1989601287501698 0.040429129743079398 0 0.2082291800225603 0.066043280120252124 0 0.18513553631762919 0.051149603126408108 0 0.2021088015620611 0.053433964061651712 0 0.19971656766465989 0.047489351670260083 0 0.18513553631762919 0.051149603126408108 0 0.2082291800225603 0.066043280120252124 0 0.2021088015620611 0.053433964061651712 0 0.18513553631762919 0.051149603126408108 0 0.19067723801237901 0.065525043857756982 0 0.2082291800225603 0.066043280120252124 0 0.18513553631762919 0.051149603126408108 0 0.19133087755196571 0.045131483978966998 0 0.19971656766465989 0.047489351670260083 0 0.18513553631762919 0.051149603126408108 0 0.2029561920580818 0.044851916216142339 0 0.2021088015620611 0.053433964061651712 0 0.19971656766465989 0.047489351670260083 0 0.17734631865053521 0.060730067185729229 0 0.18513553631762919 0.051149603126408108 0 0.16725106424272049 0.052894846580172288 0 0.19067723801237901 0.065525043857756982 0 0.17734631865053521 0.060730067185729229 0 0.18513553631762919 0.051149603126408108 0 0.18298678422305309 0.040980100737508622 0 0.1774654858828027 0.031934360706524292 0 0.1620418926126978 0.036255926132564682 0 0.19133087755196571 0.045131483978966998 0 0.18513553631762919 0.051149603126408108 0 0.18298678422305309 0.040980100737508622 0 0.18513553631762919 0.051149603126408108 0 0.18298678422305309 0.040980100737508622 0 0.1620418926126978 0.036255926132564682 0 0.1989601287501698 0.040429129743079398 0 0.18298678422305309 0.040980100737508622 0 0.1774654858828027 0.031934360706524292 0 0.18513553631762919 0.051149603126408108 0 0.1620418926126978 0.036255926132564682 0 0.1620418926126978 0.036255926132564682 0 0.16725106424272049 0.052894846580172288 0 0.15541952745182569 0.04677658384696623 0 0.18513553631762919 0.051149603126408108 0 0.1620418926126978 0.036255926132564682 0 0.16725106424272049 0.052894846580172288 0 0.16725106424272049 0.052894846580172288 0 0.15507694825043991 0.057889849327421902 0 0.15541952745182569 0.04677658384696623 0 0.16725106424272049 0.052894846580172288 0 0.15507694825043991 0.057889849327421902 0 0.1653937448538241 0.067538194789913991 0 0.17734631865053521 0.060730067185729229 0 0.16725106424272049 0.052894846580172288 0 0.1653937448538241 0.067538194789913991 0 0.18048502430789731 0.01998114488410483 0 0.1657030786406338 0.0084270166623369204 0 0.17714031935384769 -0.0079311666629475405 0 0.19338700514557339 0.015742239871108451 0 0.17714031935384769 -0.0079311666629475405 0 0.19338700514557339 0.015742239871108451 0 0.18048502430789731 0.01998114488410483 0 0.17714031935384769 -0.0079311666629475405 0 0.1989601287501698 0.040429129743079398 0 0.1774654858828027 0.031934360706524292 0 0.18048502430789731 0.01998114488410483 0 0.1774654858828027 0.031934360706524292 0 0.18048502430789731 0.01998114488410483 0 0.16935520337559401 0.020657770454092759 0 0.1774654858828027 0.031934360706524292 0 0.15597084301543529 0.02343959166996953 0 0.1774654858828027 0.031934360706524292 0 0.1620418926126978 0.036255926132564682 0 0.15597084301543529 0.02343959166996953 0 0.1774654858828027 0.031934360706524292 0 0.16935520337559401 0.020657770454092759 0 0.15597084301543529 0.02343959166996953 0 0.16935520337559401 0.020657770454092759 0 0.1657030786406338 0.0084270166623369204 0 0.15597084301543529 0.02343959166996953 0 0.18048502430789731 0.01998114488410483 0 0.16935520337559401 0.020657770454092759 0 0.1657030786406338 0.0084270166623369204 0 0.1657030786406338 0.0084270166623369204 0 0.14883794818754281 0.01110572894874149 0 0.15480995508657039 -0.001084596553268768 0 0.1657030786406338 0.0084270166623369204 0 0.14883794818754281 0.01110572894874149 0 0.15597084301543529 0.02343959166996953 0 0.14883794818754281 0.01110572894874149 0 0.13464870039648349 0.00080453217212592717 0 0.15480995508657039 -0.001084596553268768 0 0.14883794818754281 0.01110572894874149 0 0.13894824890776639 0.02136224913872127 0 0.13464870039648349 0.00080453217212592717 0 0.1620418926126978 0.036255926132564682 0 0.13894824890776639 0.02136224913872127 0 0.14883794818754281 0.01110572894874149 0 0.15597084301543529 0.02343959166996953 0 0.13894824890776639 0.02136224913872127 0 0.1620418926126978 0.036255926132564682 0 0.15597084301543529 0.02343959166996953 0 0.13894824890776639 0.02136224913872127 0 0.11961069471150609 0.02296590295220987 0 0.13894824890776639 0.02136224913872127 0 0.12977361784467401 0.039215218793308727 0 0.1158546052028349 0.0064685721448778594 0 0.13894824890776639 0.02136224913872127 0 0.1158546052028349 0.0064685721448778594 0 0.13894824890776639 0.02136224913872127 0 0.13464870039648349 0.00080453217212592717 0 0.14278372382386809 0.048416123664777412 0 0.1428601767931531 0.062084067640591357 0 0.15507694825043991 0.057889849327421902 0 0.14278372382386809 0.048416123664777412 0 0.15507694825043991 0.057889849327421902 0 0.15541952745182569 0.04677658384696623 0 0.1620418926126978 0.036255926132564682 0 0.13894824890776639 0.02136224913872127 0 0.14579340212816641 0.038405220315267663 0 0.1620418926126978 0.036255926132564682 0 0.15541952745182569 0.04677658384696623 0 0.14579340212816641 0.038405220315267663 0 0.14278372382386809 0.048416123664777412 0 0.15541952745182569 0.04677658384696623 0 0.14579340212816641 0.038405220315267663 0 0.14278372382386809 0.048416123664777412 0 0.14579340212816641 0.038405220315267663 0 0.12977361784467401 0.039215218793308727 0 0.13894824890776639 0.02136224913872127 0 0.14579340212816641 0.038405220315267663 0 0.12977361784467401 0.039215218793308727 0 0.11550376979223601 0.054551475820320147 0 0.12977361784467401 0.039215218793308727 0 0.1326943019686847 0.054606112458038862 0 0.11550376979223601 0.054551475820320147 0 0.1326943019686847 0.054606112458038862 0 0.13255022158949201 0.068763676371196639 0 0.14278372382386809 0.048416123664777412 0 0.12977361784467401 0.039215218793308727 0 0.1326943019686847 0.054606112458038862 0 0.14278372382386809 0.048416123664777412 0 0.1428601767931531 0.062084067640591357 0 0.1326943019686847 0.054606112458038862 0 0.1428601767931531 0.062084067640591357 0 0.1326943019686847 0.054606112458038862 0 0.13255022158949201 0.068763676371196639 0 0.1207366242219714 0.074251990558816788 0 0.13255022158949201 0.068763676371196639 0 0.13578085374332971 0.077614708003019631 0 0.13255022158949201 0.068763676371196639 0 0.13578085374332971 0.077614708003019631 0 0.1430759120552613 0.073085192731263071 0 0.1428601767931531 0.062084067640591357 0 0.13255022158949201 0.068763676371196639 0 0.1430759120552613 0.073085192731263071 0 0.1428601767931531 0.062084067640591357 0 0.1430759120552613 0.073085192731263071 0 0.15260580868734391 0.069203578475014266 0 0.1430759120552613 0.073085192731263071 0 0.14969883640752091 0.076610515579137797 0 0.14563192422462459 0.083183778073064013 0 0.13578085374332971 0.077614708003019631 0 0.1430759120552613 0.073085192731263071 0 0.14563192422462459 0.083183778073064013 0 0.1430759120552613 0.073085192731263071 0 0.14969883640752091 0.076610515579137797 0 0.15260580868734391 0.069203578475014266 0 0.14969883640752091 0.076610515579137797 0 0.15260580868734391 0.069203578475014266 0 0.15677919641446331 0.080277826610221981 0 0.1428601767931531 0.062084067640591357 0 0.15507694825043991 0.057889849327421902 0 0.15260580868734391 0.069203578475014266 0 0.1506819444987289 0.088437751930635633 0 0.14868901735932749 0.09586058707093438 0 0.157853861938485 0.092527754269896317 0 0.1506819444987289 0.088437751930635633 0 0.15677919641446331 0.080277826610221981 0 0.157853861938485 0.092527754269896317 0 0.14969883640752091 0.076610515579137797 0 0.14563192422462459 0.083183778073064013 0 0.15677919641446331 0.080277826610221981 0 0.1506819444987289 0.088437751930635633 0 0.14563192422462459 0.083183778073064013 0 0.15677919641446331 0.080277826610221981 0 0.14563192422462459 0.083183778073064013 0 0.1444557225567443 0.090338813629061501 0 0.13888671887288589 0.088270852986767859 0 0.1506819444987289 0.088437751930635633 0 0.14563192422462459 0.083183778073064013 0 0.1444557225567443 0.090338813629061501 0 0.1444557225567443 0.090338813629061501 0 0.14209274384079601 0.094639397504520467 0 0.14868901735932749 0.09586058707093438 0 0.1506819444987289 0.088437751930635633 0 0.1444557225567443 0.090338813629061501 0 0.14868901735932749 0.09586058707093438 0 0.1444557225567443 0.090338813629061501 0 0.13888671887288589 0.088270852986767859 0 0.14209274384079601 0.094639397504520467 0 0.13888671887288589 0.088270852986767859 0 0.13668050292917741 0.098217611464673699 0 0.14209274384079601 0.094639397504520467 0 0.13888671887288589 0.088270852986767859 0 0.1300820653953097 0.084166932106396392 0 0.13668050292917741 0.098217611464673699 0 0.11116449005577619 0.086473750785835857 0 0.1300820653953097 0.084166932106396392 0 0.13668050292917741 0.098217611464673699 0 0.13578085374332971 0.077614708003019631 0 0.13888671887288589 0.088270852986767859 0 0.1300820653953097 0.084166932106396392 0 0.13578085374332971 0.077614708003019631 0 0.14563192422462459 0.083183778073064013 0 0.13888671887288589 0.088270852986767859 0 0.1207366242219714 0.074251990558816788 0 0.13578085374332971 0.077614708003019631 0 0.1300820653953097 0.084166932106396392 0 0.1216961693062274 0.1020981758197984 0 0.1302764983332621 0.10693497851168419 0 0.13668050292917741 0.098217611464673699 0 0.1302764983332621 0.10693497851168419 0 0.13758713408363871 0.1043360441680015 0 0.13668050292917741 0.098217611464673699 0 0.1302764983332621 0.10693497851168419 0 0.1360833458267342 0.1084620534226548 0 0.13758713408363871 0.1043360441680015 0 0.1360833458267342 0.1084620534226548 0 0.13758713408363871 0.1043360441680015 0 0.14314356584317489 0.10755645506983 0 0.13758713408363871 0.1043360441680015 0 0.13668050292917741 0.098217611464673699 0 0.14175175748584509 0.1005091223711649 0 0.13668050292917741 0.098217611464673699 0 0.14209274384079601 0.094639397504520467 0 0.14175175748584509 0.1005091223711649 0 0.12813823657366311 0.12049833089676459 0 0.13246275659848361 0.1130811342378658 0 0.13708322035591489 0.118794437000363 0 0.12212988809696081 0.1249307776834532 0 0.12788127083107459 0.1291064789800366 0 0.12813823657366311 0.12049833089676459 0 0.1197878353292403 0.1092484053650479 0 0.1302764983332621 0.10693497851168419 0 0.12624189261331301 0.1140678077034443 0 0.12813823657366311 0.12049833089676459 0 0.12624189261331301 0.1140678077034443 0 0.13246275659848361 0.1130811342378658 0 0.1302764983332621 0.10693497851168419 0 0.12624189261331301 0.1140678077034443 0 0.13246275659848361 0.1130811342378658 0 0.138866780176991 0.11235807520418389 0 0.13708322035591489 0.118794437000363 0 0.14572099158606311 0.1154247658161887 0 0.1360833458267342 0.1084620534226548 0 0.13246275659848361 0.1130811342378658 0 0.138866780176991 0.11235807520418389 0 0.1302764983332621 0.10693497851168419 0 0.1360833458267342 0.1084620534226548 0 0.13246275659848361 0.1130811342378658 0 0.1360833458267342 0.1084620534226548 0 0.138866780176991 0.11235807520418389 0 0.14314356584317489 0.10755645506983 0 0.13246275659848361 0.1130811342378658 0 0.138866780176991 0.11235807520418389 0 0.13708322035591489 0.118794437000363 0 0.13409394305489639 0.1257339851238449 0 0.14295710802469111 0.12768772724150559 0 0.13708322035591489 0.118794437000363 0 0.13409394305489639 0.1257339851238449 0 0.12813823657366311 0.12049833089676459 0 0.13708322035591489 0.118794437000363 0 0.14572099158606311 0.1154247658161887 0 0.15364605026385231 0.1227496740475859 0 0.15839207309433961 0.10550736800805539 0 0.14295710802469111 0.12768772724150559 0 0.13708322035591489 0.118794437000363 0 0.14572099158606311 0.1154247658161887 0 0.14295710802469111 0.12768772724150559 0 0.14572099158606311 0.1154247658161887 0 0.15364605026385231 0.1227496740475859 0 0.138866780176991 0.11235807520418389 0 0.14572099158606311 0.1154247658161887 0 0.14314356584317489 0.10755645506983 0 0.14572099158606311 0.1154247658161887 0 0.14314356584317489 0.10755645506983 0 0.15839207309433961 0.10550736800805539 0 0.14175175748584509 0.1005091223711649 0 0.15839207309433961 0.10550736800805539 0 0.14175175748584509 0.1005091223711649 0 0.14314356584317489 0.10755645506983 0 0.15839207309433961 0.10550736800805539 0 0.14175175748584509 0.1005091223711649 0 0.14868901735932749 0.09586058707093438 0 0.15839207309433961 0.10550736800805539 0 0.14209274384079601 0.094639397504520467 0 0.14175175748584509 0.1005091223711649 0 0.14868901735932749 0.09586058707093438 0 0.13758713408363871 0.1043360441680015 0 0.14175175748584509 0.1005091223711649 0 0.14314356584317489 0.10755645506983 0 0.14868901735932749 0.09586058707093438 0 0.15839207309433961 0.10550736800805539 0 0.157853861938485 0.092527754269896317 0 0.15839207309433961 0.10550736800805539 0 0.17503238870283441 0.11050561364494491 0 0.15839207309433961 0.10550736800805539 0 0.1705578526620479 0.095927182961129481 0 0.157853861938485 0.092527754269896317 0 0.15839207309433961 0.10550736800805539 0 0.1705578526620479 0.095927182961129481 0 0.17503238870283441 0.11050561364494491 0 0.16417220099380411 0.12505127510387981 0 0.15839207309433961 0.10550736800805539 0 0.17503238870283441 0.11050561364494491 0 0.16417220099380411 0.12505127510387981 0 0.15364605026385231 0.1227496740475859 0 0.15839207309433961 0.10550736800805539 0 0.16417220099380411 0.12505127510387981 0 0.17503238870283441 0.11050561364494491 0 0.18002451345814399 0.12716596121819479 0 0.16417220099380411 0.12505127510387981 0 0.17503238870283441 0.11050561364494491 0 0.18002451345814399 0.12716596121819479 0 0.2001236667938262 0.1180422718546187 0 0.17503238870283441 0.11050561364494491 0 0.1916307843626972 0.08827444688259839 0 0.1705578526620479 0.095927182961129481 0 0.17503238870283441 0.11050561364494491 0 0.1916307843626972 0.08827444688259839 0 0.17503238870283441 0.11050561364494491 0 0.1916307843626972 0.08827444688259839 0 0.17935943521264269 0.07135827912697662 0 0.16988015521188329 0.08282073200015258 0 0.1916307843626972 0.08827444688259839 0 0.1705578526620479 0.095927182961129481 0 0.16988015521188329 0.08282073200015258 0 0.19067723801237901 0.065525043857756982 0 0.1916307843626972 0.08827444688259839 0 0.17935943521264269 0.07135827912697662 0 0.19067723801237901 0.065525043857756982 0 0.17734631865053521 0.060730067185729229 0 0.17935943521264269 0.07135827912697662 0 0.17734631865053521 0.060730067185729229 0 0.17935943521264269 0.07135827912697662 0 0.1653937448538241 0.067538194789913991 0 0.17935943521264269 0.07135827912697662 0 0.1653937448538241 0.067538194789913991 0 0.16988015521188329 0.08282073200015258 0 0.15507694825043991 0.057889849327421902 0 0.15260580868734391 0.069203578475014266 0 0.1653937448538241 0.067538194789913991 0 0.15260580868734391 0.069203578475014266 0 0.1653937448538241 0.067538194789913991 0 0.15677919641446331 0.080277826610221981 0 0.1653937448538241 0.067538194789913991 0 0.15677919641446331 0.080277826610221981 0 0.16988015521188329 0.08282073200015258 0 0.15677919641446331 0.080277826610221981 0 0.157853861938485 0.092527754269896317 0 0.16988015521188329 0.08282073200015258 0 0.1705578526620479 0.095927182961129481 0 0.157853861938485 0.092527754269896317 0 0.16988015521188329 0.08282073200015258 0 0.099456207782380623 0.4822659283708195 0 0.1141892196830592 0.48396198267476093 0 0.11304725129434449 0.46767028325629811 0 0.099456207782380623 0.4822659283708195 0 0.11304725129434449 0.46767028325629811 0 0.096803680563272876 0.46646214520586099 0 0.099456207782380623 0.4822659283708195 0 0.10782601469385079 0.5 0 0.078267650747156567 0.50000000000000133 0 0.099456207782380623 0.4822659283708195 0 0.10782601469385079 0.5 0 0.1141892196830592 0.48396198267476093 0 0.10782601469385079 0.5 0 0.1249193769550877 0.49369376296818718 0 0.1141892196830592 0.48396198267476093 0 0.1249193769550877 0.49369376296818718 0 0.1141892196830592 0.48396198267476093 0 0.12569724768963239 0.47617993877849962 0 0.10782601469385079 0.5 0 0.1249193769550877 0.49369376296818718 0 0.13738437864054501 0.5 0 0.1141892196830592 0.48396198267476093 0 0.11304725129434449 0.46767028325629811 0 0.12569724768963239 0.47617993877849962 0 0.11304725129434449 0.46767028325629811 0 0.1267882431275838 0.46370707134437261 0 0.12569724768963239 0.47617993877849962 0 0.11304725129434449 0.46767028325629811 0 0.1221607865463437 0.4507156547582637 0 0.1004821270038239 0.44949914822431608 0 0.11304725129434449 0.46767028325629811 0 0.1221607865463437 0.4507156547582637 0 0.1267882431275838 0.46370707134437261 0 0.1221607865463437 0.4507156547582637 0 0.1004821270038239 0.44949914822431608 0 0.12259086230274099 0.42947812748907283 0 0.1004821270038239 0.44949914822431608 0 0.096803680563272876 0.46646214520586099 0 0.084307548883437972 0.45862843933572522 0 0.11304725129434449 0.46767028325629811 0 0.1004821270038239 0.44949914822431608 0 0.096803680563272876 0.46646214520586099 0 0.084307548883437972 0.45862843933572522 0 0.070120974899159305 0.46867166915081548 0 0.08254081050968877 0.47642281665818748 0 0.096803680563272876 0.46646214520586099 0 0.084307548883437972 0.45862843933572522 0 0.08254081050968877 0.47642281665818748 0 0.084307548883437972 0.45862843933572522 0 0.083205653112744402 0.44008551456546158 0 0.070599818540594342 0.45171728711773013 0 0.1004821270038239 0.44949914822431608 0 0.084307548883437972 0.45862843933572522 0 0.083205653112744402 0.44008551456546158 0 0.1004821270038239 0.44949914822431608 0 0.083205653112744402 0.44008551456546158 0 0.095892719888732866 0.42453745382262881 0 0.070599818540594342 0.45171728711773013 0 0.057347956450285731 0.44480695268810438 0 0.068330088192809502 0.43602814955066621 0 0.083205653112744402 0.44008551456546158 0 0.070599818540594342 0.45171728711773013 0 0.068330088192809502 0.43602814955066621 0 0.070599818540594342 0.45171728711773013 0 0.070120974899159305 0.46867166915081548 0 0.05832870883015126 0.45973880463956351 0 0.084307548883437972 0.45862843933572522 0 0.070599818540594342 0.45171728711773013 0 0.070120974899159305 0.46867166915081548 0 0.070120974899159305 0.46867166915081548 0 0.08254081050968877 0.47642281665818748 0 0.061557047466102868 0.48310025102256282 0 0.070120974899159305 0.46867166915081548 0 0.061557047466102868 0.48310025102256282 0 0.05832870883015126 0.45973880463956351 0 0.099456207782380623 0.4822659283708195 0 0.096803680563272876 0.46646214520586099 0 0.08254081050968877 0.47642281665818748 0 0.099456207782380623 0.4822659283708195 0 0.08254081050968877 0.47642281665818748 0 0.078267650747156567 0.50000000000000133 0 0.078267650747156567 0.50000000000000133 0 0.049166882519808157 0.5 0 0.061557047466102868 0.48310025102256282 0 0.08254081050968877 0.47642281665818748 0 0.078267650747156567 0.50000000000000133 0 0.061557047466102868 0.48310025102256282 0 0.078267650747156567 0.50000000000000133 0 0.061557047466102868 0.48310025102256282 0 0.049166882519808157 0.5 0 0.061557047466102868 0.48310025102256282 0 0.038208171894904559 0.48286056860770488 0 0.061557047466102868 0.48310025102256282 0 0.044846444185049857 0.46620050204512359 0 0.05832870883015126 0.45973880463956351 0 0.061557047466102868 0.48310025102256282 0 0.044846444185049857 0.46620050204512359 0 0.061557047466102868 0.48310025102256282 0 0.038208171894904559 0.48286056860770488 0 0.044846444185049857 0.46620050204512359 0 0.038208171894904559 0.48286056860770488 0 0.029572045059576241 0.469060477695939 0 0.044846444185049857 0.46620050204512359 0 0.049166882519808157 0.5 0 0.038208171894904559 0.48286056860770488 0 0.020066114292459799 0.5 0 0.038208171894904559 0.48286056860770488 0 0.020066114292459799 0.5 0 0.021055159894441029 0.48095839664786189 0 0.038208171894904559 0.48286056860770488 0 0.029572045059576241 0.469060477695939 0 0.021055159894441029 0.48095839664786189 0 0.029572045059576241 0.469060477695939 0 0.021055159894441029 0.48095839664786189 0 0.01561460841948897 0.46598216811131982 0 0.021055159894441029 0.48095839664786189 0 0.0030933759349822849 0.48266358315495572 0 0.01561460841948897 0.46598216811131982 0 0.0030933759349822849 0.48266358315495572 0 0.01561460841948897 0.46598216811131982 0 0.0036787250480955699 0.47408322248379448 0 0.0030933759349822849 0.48266358315495572 0 0.01561460841948897 0.46598216811131982 0 -0.0016340076521478781 0.48633642657919801 0 0.0036787250480955699 0.47408322248379448 0 0.0030933759349822849 0.48266358315495572 0 0.020066114292459799 0.5 0 0.021055159894441029 0.48095839664786189 0 0.0030933759349822849 0.48266358315495572 0 -0.0090346539348886701 0.5 0 -0.0016340076521478781 0.48633642657919801 0 0.020066114292459799 0.5 0 -0.0016340076521478781 0.48633642657919801 0 0.020066114292459799 0.5 0 0.0030933759349822849 0.48266358315495572 0 -0.0030841453677343121 0.43636499760021141 0 -0.002359076509941094 0.46135071208970457 0 0.010470448459028871 0.45111158928184719 0 -0.0030841453677343121 0.43636499760021141 0 0.010470448459028871 0.45111158928184719 0 0.017893296784651399 0.43894227458572882 0 -0.002359076509941094 0.46135071208970457 0 0.010470448459028871 0.45111158928184719 0 0.01561460841948897 0.46598216811131982 0 -0.002359076509941094 0.46135071208970457 0 0.0036787250480955699 0.47408322248379448 0 0.01561460841948897 0.46598216811131982 0 0.010470448459028871 0.45111158928184719 0 0.01561460841948897 0.46598216811131982 0 0.0281358409039968 0.44930075306768458 0 0.029572045059576241 0.469060477695939 0 0.01561460841948897 0.46598216811131982 0 0.0281358409039968 0.44930075306768458 0 0.01561460841948897 0.46598216811131982 0 0.0281358409039968 0.44930075306768458 0 0.010470448459028871 0.45111158928184719 0 0.0281358409039968 0.44930075306768458 0 0.017893296784651399 0.43894227458572882 0 0.0281358409039968 0.44930075306768458 0 0.017893296784651399 0.43894227458572882 0 0.03800042812263172 0.43615865433005307 0 0.0281358409039968 0.44930075306768458 0 0.017893296784651399 0.43894227458572882 0 0.0281358409039968 0.44930075306768458 0 0.04587361322417214 0.448769157871174 0 0.03800042812263172 0.43615865433005307 0 0.0281358409039968 0.44930075306768458 0 0.03800042812263172 0.43615865433005307 0 0.04587361322417214 0.448769157871174 0 0.049411209704934803 0.43621283219101809 0 0.03800042812263172 0.43615865433005307 0 0.029572045059576241 0.469060477695939 0 0.0281358409039968 0.44930075306768458 0 0.044846444185049857 0.46620050204512359 0 0.0281358409039968 0.44930075306768458 0 0.04587361322417214 0.448769157871174 0 0.044846444185049857 0.46620050204512359 0 0.0281358409039968 0.44930075306768458 0 0.044846444185049857 0.46620050204512359 0 0.04587361322417214 0.448769157871174 0 0.044846444185049857 0.46620050204512359 0 0.05832870883015126 0.45973880463956351 0 0.04587361322417214 0.448769157871174 0 0.057347956450285731 0.44480695268810438 0 0.049411209704934803 0.43621283219101809 0 0.04587361322417214 0.448769157871174 0 0.05832870883015126 0.45973880463956351 0 0.057347956450285731 0.44480695268810438 0 0.070599818540594342 0.45171728711773013 0 0.05832870883015126 0.45973880463956351 0 0.057347956450285731 0.44480695268810438 0 0.057347956450285731 0.44480695268810438 0 0.058238482531349368 0.43512174465279091 0 0.068330088192809502 0.43602814955066621 0 0.057347956450285731 0.44480695268810438 0 0.058238482531349368 0.43512174465279091 0 0.049411209704934803 0.43621283219101809 0 0.058238482531349368 0.43512174465279091 0 0.05412352915042095 0.42739076434297479 0 0.063786863135573219 0.4234822836218442 0 0.05412352915042095 0.42739076434297479 0 0.047865015341267358 0.42301655559242213 0 0.049411209704934803 0.43621283219101809 0 0.05412352915042095 0.42739076434297479 0 0.047865015341267358 0.42301655559242213 0 0.058238482531349368 0.43512174465279091 0 0.05412352915042095 0.42739076434297479 0 0.049411209704934803 0.43621283219101809 0 0.047865015341267358 0.42301655559242213 0 0.055388731832649349 0.41299308245440008 0 0.044385004541519633 0.40583709082877739 0 0.055388731832649349 0.41299308245440008 0 0.057103340742871267 0.4006394318358022 0 0.0691327228978319 0.40699071288372829 0 0.05412352915042095 0.42739076434297479 0 0.055388731832649349 0.41299308245440008 0 0.063786863135573219 0.4234822836218442 0 0.047865015341267358 0.42301655559242213 0 0.055388731832649349 0.41299308245440008 0 0.05412352915042095 0.42739076434297479 0 0.047865015341267358 0.42301655559242213 0 0.055388731832649349 0.41299308245440008 0 0.055388731832649349 0.41299308245440008 0 0.044385004541519633 0.40583709082877739 0 0.057103340742871267 0.4006394318358022 0 0.047865015341267358 0.42301655559242213 0 0.030398582533070099 0.41080889326869052 0 0.044385004541519633 0.40583709082877739 0 0.047865015341267358 0.42301655559242213 0 0.035686717363660143 0.42423985257235269 0 0.030398582533070099 0.41080889326869052 0 0.047865015341267358 0.42301655559242213 0 0.030398582533070099 0.41080889326869052 0 0.047865015341267358 0.42301655559242213 0 0.049411209704934803 0.43621283219101809 0 0.03800042812263172 0.43615865433005307 0 0.047865015341267358 0.42301655559242213 0 0.03800042812263172 0.43615865433005307 0 0.047865015341267358 0.42301655559242213 0 0.035686717363660143 0.42423985257235269 0 0.03800042812263172 0.43615865433005307 0 0.035686717363660143 0.42423985257235269 0 0.03800042812263172 0.43615865433005307 0 0.0264828434576714 0.42697530709824522 0 0.017893296784651399 0.43894227458572882 0 0.0264828434576714 0.42697530709824522 0 0.013451351612083251 0.42022136891186163 0 0.017893296784651399 0.43894227458572882 0 0.03800042812263172 0.43615865433005307 0 0.0264828434576714 0.42697530709824522 0 0.030398582533070099 0.41080889326869052 0 0.013451351612083251 0.42022136891186163 0 0.012932149724872831 0.39860123094495892 0 0.0264828434576714 0.42697530709824522 0 0.030398582533070099 0.41080889326869052 0 0.013451351612083251 0.42022136891186163 0 0.035686717363660143 0.42423985257235269 0 0.0264828434576714 0.42697530709824522 0 0.030398582533070099 0.41080889326869052 0 -0.0038092142255275289 0.41137928311071797 0 0.013451351612083251 0.42022136891186163 0 0.012932149724872831 0.39860123094495892 0 -0.0030841453677343121 0.43636499760021141 0 0.017893296784651399 0.43894227458572882 0 0.013451351612083251 0.42022136891186163 0 -0.0030841453677343121 0.43636499760021141 0 -0.0038092142255275289 0.41137928311071797 0 0.013451351612083251 0.42022136891186163 0 -0.0045342830833226501 0.3863935686212247 0 0.012932149724872831 0.39860123094495892 0 0.0079023355216259559 0.37348921158265391 0 0.012932149724872831 0.39860123094495892 0 0.025375843575522711 0.38021681034322929 0 0.0079023355216259559 0.37348921158265391 0 -0.0045342830833226501 0.3863935686212247 0 0.012932149724872831 0.39860123094495892 0 -0.0045342830833226501 0.3863935686212247 0 -0.0038092142255275289 0.41137928311071797 0 0.012932149724872831 0.39860123094495892 0 0.030398582533070099 0.41080889326869052 0 0.012932149724872831 0.39860123094495892 0 0.030398582533070099 0.41080889326869052 0 0.012932149724872831 0.39860123094495892 0 0.030218872497922818 0.39559608178221078 0 0.012932149724872831 0.39860123094495892 0 0.030218872497922818 0.39559608178221078 0 0.025375843575522711 0.38021681034322929 0 0.025375843575522711 0.38021681034322929 0 0.045236422390978262 0.39339421550307069 0 0.045418656597819553 0.37354288132317159 0 0.030218872497922818 0.39559608178221078 0 0.025375843575522711 0.38021681034322929 0 0.045236422390978262 0.39339421550307069 0 0.030398582533070099 0.41080889326869052 0 0.030218872497922818 0.39559608178221078 0 0.044385004541519633 0.40583709082877739 0 0.030218872497922818 0.39559608178221078 0 0.045236422390978262 0.39339421550307069 0 0.044385004541519633 0.40583709082877739 0 0.045236422390978262 0.39339421550307069 0 0.057103340742871267 0.4006394318358022 0 0.06607043693335328 0.38973814947632979 0 0.045236422390978262 0.39339421550307069 0 0.044385004541519633 0.40583709082877739 0 0.057103340742871267 0.4006394318358022 0 0.045236422390978262 0.39339421550307069 0 0.06607043693335328 0.38973814947632979 0 0.045418656597819553 0.37354288132317159 0 0.06607043693335328 0.38973814947632979 0 0.066778362586220691 0.36264744131756171 0 0.045418656597819553 0.37354288132317159 0 0.06607043693335328 0.38973814947632979 0 0.086713905658550791 0.37461406501925459 0 0.066778362586220691 0.36264744131756171 0 0.091303312773641829 0.3995757594209417 0 0.1025776524751303 0.38486691706586951 0 0.086713905658550791 0.37461406501925459 0 0.06607043693335328 0.38973814947632979 0 0.091303312773641829 0.3995757594209417 0 0.086713905658550791 0.37461406501925459 0 0.091303312773641829 0.3995757594209417 0 0.086713905658550791 0.37461406501925459 0 0.06607043693335328 0.38973814947632979 0 0.091303312773641829 0.3995757594209417 0 0.0691327228978319 0.40699071288372829 0 0.057103340742871267 0.4006394318358022 0 0.06607043693335328 0.38973814947632979 0 0.0691327228978319 0.40699071288372829 0 0.055388731832649349 0.41299308245440008 0 0.0691327228978319 0.40699071288372829 0 0.063786863135573219 0.4234822836218442 0 0.0691327228978319 0.40699071288372829 0 0.077714875811277062 0.4214876261871765 0 0.063786863135573219 0.4234822836218442 0 0.083205653112744402 0.44008551456546158 0 0.077714875811277062 0.4214876261871765 0 0.068330088192809502 0.43602814955066621 0 0.058238482531349368 0.43512174465279091 0 0.068330088192809502 0.43602814955066621 0 0.063786863135573219 0.4234822836218442 0 0.077714875811277062 0.4214876261871765 0 0.068330088192809502 0.43602814955066621 0 0.063786863135573219 0.4234822836218442 0 0.083205653112744402 0.44008551456546158 0 0.077714875811277062 0.4214876261871765 0 0.095892719888732866 0.42453745382262881 0 0.091303312773641829 0.3995757594209417 0 0.0691327228978319 0.40699071288372829 0 0.077714875811277062 0.4214876261871765 0 0.091303312773641829 0.3995757594209417 0 0.095892719888732866 0.42453745382262881 0 0.091303312773641829 0.3995757594209417 0 0.077714875811277062 0.4214876261871765 0 0.095892719888732866 0.42453745382262881 0 0.091303312773641829 0.3995757594209417 0 0.095892719888732866 0.42453745382262881 0 0.115428724103706 0.40267530492779557 0 0.1004821270038239 0.44949914822431608 0 0.095892719888732866 0.42453745382262881 0 0.12259086230274099 0.42947812748907283 0 0.1004821270038239 0.44949914822431608 0 0.095892719888732866 0.42453745382262881 0 0.095892719888732866 0.42453745382262881 0 0.12259086230274099 0.42947812748907283 0 0.115428724103706 0.40267530492779557 0 0.115428724103706 0.40267530492779557 0 0.119448870245615 0.38256434187866972 0 0.13692284990477191 0.38930777957628943 0 0.119448870245615 0.38256434187866972 0 0.1025776524751303 0.38486691706586951 0 0.1087205780393706 0.3656269003386084 0 0.115428724103706 0.40267530492779557 0 0.119448870245615 0.38256434187866972 0 0.1025776524751303 0.38486691706586951 0 0.1025776524751303 0.38486691706586951 0 0.1087205780393706 0.3656269003386084 0 0.086713905658550791 0.37461406501925459 0 0.091303312773641829 0.3995757594209417 0 0.115428724103706 0.40267530492779557 0 0.1025776524751303 0.38486691706586951 0 0.1087205780393706 0.3656269003386084 0 0.1202868522871179 0.34060046584014031 0 0.0915497208986496 0.34709204532757532 0 0.1087205780393706 0.3656269003386084 0 0.0915497208986496 0.34709204532757532 0 0.086713905658550791 0.37461406501925459 0 0.119448870245615 0.38256434187866972 0 0.1087205780393706 0.3656269003386084 0 0.13274728415341139 0.36410634055334368 0 0.1087205780393706 0.3656269003386084 0 0.1202868522871179 0.34060046584014031 0 0.13274728415341139 0.36410634055334368 0 0.1202868522871179 0.34060046584014031 0 0.1104734498024164 0.31171603628350752 0 0.14183880654046921 0.32250528078568202 0 0.1202868522871179 0.34060046584014031 0 0.1016552612267161 0.33013161519950079 0 0.1104734498024164 0.31171603628350752 0 0.1016552612267161 0.33013161519950079 0 0.081254576285268804 0.3210829637434266 0 0.1104734498024164 0.31171603628350752 0 0.1202868522871179 0.34060046584014031 0 0.1016552612267161 0.33013161519950079 0 0.0915497208986496 0.34709204532757532 0 0.081254576285268804 0.3210829637434266 0 0.072654821413094289 0.33942743407960763 0 0.0915497208986496 0.34709204532757532 0 0.1016552612267161 0.33013161519950079 0 0.081254576285268804 0.3210829637434266 0 0.0915497208986496 0.34709204532757532 0 0.081254576285268804 0.3210829637434266 0 0.06358813508901956 0.32234581427363851 0 0.071244474661197085 0.3036312559279935 0 0.081254576285268804 0.3210829637434266 0 0.06358813508901956 0.32234581427363851 0 0.072654821413094289 0.33942743407960763 0 0.06358813508901956 0.32234581427363851 0 0.072654821413094289 0.33942743407960763 0 0.055199983679349987 0.34246375673151652 0 0.072654821413094289 0.33942743407960763 0 0.066778362586220691 0.36264744131756171 0 0.055199983679349987 0.34246375673151652 0 0.072654821413094289 0.33942743407960763 0 0.0915497208986496 0.34709204532757532 0 0.066778362586220691 0.36264744131756171 0 0.0915497208986496 0.34709204532757532 0 0.086713905658550791 0.37461406501925459 0 0.066778362586220691 0.36264744131756171 0 0.066778362586220691 0.36264744131756171 0 0.044951457965310811 0.3555124197003488 0 0.045418656597819553 0.37354288132317159 0 0.066778362586220691 0.36264744131756171 0 0.044951457965310811 0.3555124197003488 0 0.055199983679349987 0.34246375673151652 0 0.044951457965310811 0.3555124197003488 0 0.021903196078839001 0.35746348141110651 0 0.035457090884324839 0.34144453771838768 0 0.044951457965310811 0.3555124197003488 0 0.035457090884324839 0.34144453771838768 0 0.055199983679349987 0.34246375673151652 0 0.044951457965310811 0.3555124197003488 0 0.045418656597819553 0.37354288132317159 0 0.021903196078839001 0.35746348141110651 0 0.025375843575522711 0.38021681034322929 0 0.021903196078839001 0.35746348141110651 0 0.0079023355216259559 0.37348921158265391 0 0.025375843575522711 0.38021681034322929 0 0.045418656597819553 0.37354288132317159 0 0.021903196078839001 0.35746348141110651 0 0.021903196078839001 0.35746348141110651 0 0.017151683724365509 0.3376665205351736 0 0.035457090884324839 0.34144453771838768 0 0.021903196078839001 0.35746348141110651 0 0.0095650341834115256 0.34490192427506011 0 0.017151683724365509 0.3376665205351736 0 0.021903196078839001 0.35746348141110651 0 0.0095650341834115256 0.34490192427506011 0 0.0061318462344260851 0.35417601161121459 0 -0.0050552824635438226 0.34569829691311771 0 0.0095650341834115256 0.34490192427506011 0 0.0061318462344260851 0.35417601161121459 0 0.021903196078839001 0.35746348141110651 0 0.0061318462344260851 0.35417601161121459 0 0.0079023355216259559 0.37348921158265391 0 -0.0052616759920083916 0.36132776784546622 0 0.0061318462344260851 0.35417601161121459 0 0.0079023355216259559 0.37348921158265391 0 0.0087281755863181168 0.33049580891976171 0 0.020410497070949891 0.30832150289807031 0 0.0056044744337335906 0.31412092038659428 0 0.0087281755863181168 0.33049580891976171 0 0.020410497070949891 0.30832150289807031 0 -0.003280447873963227 0.32161399115684158 0 0.0056044744337335906 0.31412092038659428 0 0.0087281755863181168 0.33049580891976171 0 0.0064742168078369342 0.3347740657525386 0 0.0087281755863181168 0.33049580891976171 0 -0.0050552824635438226 0.34569829691311771 0 0.0095650341834115256 0.34490192427506011 0 0.0064742168078369342 0.3347740657525386 0 0.0095650341834115256 0.34490192427506011 0 0.0064742168078369342 0.3347740657525386 0 0.017151683724365509 0.3376665205351736 0 0.0064742168078369342 0.3347740657525386 0 0.0087281755863181168 0.33049580891976171 0 0.017151683724365509 0.3376665205351736 0 0.0087281755863181168 0.33049580891976171 0 0.025353163704189718 0.33024288796319817 0 0.017151683724365509 0.3376665205351736 0 0.0087281755863181168 0.33049580891976171 0 0.025353163704189718 0.33024288796319817 0 0.025353163704189718 0.33024288796319817 0 0.017151683724365509 0.3376665205351736 0 0.035457090884324839 0.34144453771838768 0 0.0087281755863181168 0.33049580891976171 0 0.025353163704189718 0.33024288796319817 0 0.020410497070949891 0.30832150289807031 0 0.025353163704189718 0.33024288796319817 0 0.038017806832533571 0.30672300381527179 0 0.020410497070949891 0.30832150289807031 0 0.025353163704189718 0.33024288796319817 0 0.045812945845809312 0.32351293560108041 0 0.038017806832533571 0.30672300381527179 0 0.025353163704189718 0.33024288796319817 0 0.045812945845809312 0.32351293560108041 0 0.035457090884324839 0.34144453771838768 0 0.045812945845809312 0.32351293560108041 0 0.035457090884324839 0.34144453771838768 0 0.055199983679349987 0.34246375673151652 0 0.06358813508901956 0.32234581427363851 0 0.045812945845809312 0.32351293560108041 0 0.055199983679349987 0.34246375673151652 0 0.06358813508901956 0.32234581427363851 0 0.045812945845809312 0.32351293560108041 0 0.055148108477292443 0.3057593846019967 0 0.055148108477292443 0.3057593846019967 0 0.047586914097201803 0.29032131063477928 0 0.038017806832533571 0.30672300381527179 0 0.055148108477292443 0.3057593846019967 0 0.047586914097201803 0.29032131063477928 0 0.066935962560195753 0.28615893812798288 0 0.047586914097201803 0.29032131063477928 0 0.050578246113349837 0.27455429857722041 0 0.066935962560195753 0.28615893812798288 0 0.047586914097201803 0.29032131063477928 0 0.032092818555581597 0.28614719687637868 0 0.038017806832533571 0.30672300381527179 0 0.047586914097201803 0.29032131063477928 0 0.032092818555581597 0.28614719687637868 0 0.050578246113349837 0.27455429857722041 0 0.045812945845809312 0.32351293560108041 0 0.055148108477292443 0.3057593846019967 0 0.038017806832533571 0.30672300381527179 0 0.032092818555581597 0.28614719687637868 0 0.038017806832533571 0.30672300381527179 0 0.020410497070949891 0.30832150289807031 0 0.032092818555581597 0.28614719687637868 0 0.020410497070949891 0.30832150289807031 0 0.032092818555581597 0.28614719687637868 0 0.020410497070949891 0.30832150289807031 0 0.0083336089875100904 0.29343585490586271 0 0.032092818555581597 0.28614719687637868 0 0.0083336089875100904 0.29343585490586271 0 0.021382191810826279 0.2686960609189637 0 -0.0088759444352828343 0.31092800175718183 0 0.0056044744337335906 0.31412092038659428 0 0.0083336089875100904 0.29343585490586271 0 0.0056044744337335906 0.31412092038659428 0 0.020410497070949891 0.30832150289807031 0 0.0083336089875100904 0.29343585490586271 0 0.0073806355134042019 0.25529449578482938 0 3.3590645499582607e-05 0.27236849017123349 0 0.021382191810826279 0.2686960609189637 0 0.0083336089875100904 0.29343585490586271 0 3.3590645499582607e-05 0.27236849017123349 0 0.021382191810826279 0.2686960609189637 0 0.025149977659741599 0.24684982625080901 0 0.0073806355134042019 0.25529449578482938 0 0.021382191810826279 0.2686960609189637 0 0.025149977659741599 0.24684982625080901 0 0.021382191810826279 0.2686960609189637 0 0.043775140040213267 0.26397289085468728 0 0.025149977659741599 0.24684982625080901 0 0.045472231705318063 0.24424317023843681 0 0.050158093690384618 0.2598810672441918 0 0.025149977659741599 0.24684982625080901 0 0.050158093690384618 0.2598810672441918 0 0.025149977659741599 0.24684982625080901 0 0.043775140040213267 0.26397289085468728 0 0.050158093690384618 0.2598810672441918 0 0.032092818555581597 0.28614719687637868 0 0.043775140040213267 0.26397289085468728 0 0.032092818555581597 0.28614719687637868 0 0.021382191810826279 0.2686960609189637 0 0.043775140040213267 0.26397289085468728 0 0.032092818555581597 0.28614719687637868 0 0.043775140040213267 0.26397289085468728 0 0.050578246113349837 0.27455429857722041 0 0.050578246113349837 0.27455429857722041 0 0.063875668081316214 0.2678607518654692 0 0.066935962560195753 0.28615893812798288 0 0.043775140040213267 0.26397289085468728 0 0.050578246113349837 0.27455429857722041 0 0.050158093690384618 0.2598810672441918 0 0.050578246113349837 0.27455429857722041 0 0.056046126259945157 0.25263236173372139 0 0.063875668081316214 0.2678607518654692 0 0.050578246113349837 0.27455429857722041 0 0.050158093690384618 0.2598810672441918 0 0.056046126259945157 0.25263236173372139 0 0.045472231705318063 0.24424317023843681 0 0.050158093690384618 0.2598810672441918 0 0.056046126259945157 0.25263236173372139 0 0.050578246113349837 0.27455429857722041 0 0.056046126259945157 0.25263236173372139 0 0.078525547080241467 0.2465942846531784 0 0.067905867336300579 0.25358800162702 0 0.079567988853459573 0.27014218499250892 0 0.067905867336300579 0.25358800162702 0 0.079567988853459573 0.27014218499250892 0 0.063875668081316214 0.2678607518654692 0 0.056046126259945157 0.25263236173372139 0 0.067905867336300579 0.25358800162702 0 0.063875668081316214 0.2678607518654692 0 0.078525547080241467 0.2465942846531784 0 0.079567988853459573 0.27014218499250892 0 0.093798877441032588 0.2579700649065903 0 0.079567988853459573 0.27014218499250892 0 0.063875668081316214 0.2678607518654692 0 0.066935962560195753 0.28615893812798288 0 0.079567988853459573 0.27014218499250892 0 0.066935962560195753 0.28615893812798288 0 0.087430381393448858 0.29852998767476718 0 0.066935962560195753 0.28615893812798288 0 0.071244474661197085 0.3036312559279935 0 0.087430381393448858 0.29852998767476718 0 0.055148108477292443 0.3057593846019967 0 0.066935962560195753 0.28615893812798288 0 0.071244474661197085 0.3036312559279935 0 0.06358813508901956 0.32234581427363851 0 0.055148108477292443 0.3057593846019967 0 0.071244474661197085 0.3036312559279935 0 0.081254576285268804 0.3210829637434266 0 0.087430381393448858 0.29852998767476718 0 0.1104734498024164 0.31171603628350752 0 0.081254576285268804 0.3210829637434266 0 0.071244474661197085 0.3036312559279935 0 0.087430381393448858 0.29852998767476718 0 0.079567988853459573 0.27014218499250892 0 0.087430381393448858 0.29852998767476718 0 0.1079828451826004 0.27738565586056829 0 0.087430381393448858 0.29852998767476718 0 0.1104734498024164 0.31171603628350752 0 0.1079828451826004 0.27738565586056829 0 0.1104734498024164 0.31171603628350752 0 0.1079828451826004 0.27738565586056829 0 0.13401849175413849 0.29214957311260448 0 0.1079828451826004 0.27738565586056829 0 0.13401849175413849 0.29214957311260448 0 0.1100607559553454 0.25396994184181759 0 0.1079828451826004 0.27738565586056829 0 0.13366986361514199 0.26692500362740812 0 0.12787711237058769 0.24521089126939841 0 0.1100607559553454 0.25396994184181759 0 0.13366986361514199 0.26692500362740812 0 0.092857250133516089 0.24175825718487831 0 0.1100607559553454 0.25396994184181759 0 0.093798877441032588 0.2579700649065903 0 0.1100607559553454 0.25396994184181759 0 0.093798877441032588 0.2579700649065903 0 0.1079828451826004 0.27738565586056829 0 0.079567988853459573 0.27014218499250892 0 0.093798877441032588 0.2579700649065903 0 0.1079828451826004 0.27738565586056829 0 0.13366986361514199 0.26692500362740812 0 0.1558685034792309 0.28595093384994291 0 0.15959452244756481 0.26367036214955358 0 0.14702044576598061 0.2478904659134552 0 0.13366986361514199 0.26692500362740812 0 0.15959452244756481 0.26367036214955358 0 0.14702044576598061 0.2478904659134552 0 0.12787711237058769 0.24521089126939841 0 0.13366986361514199 0.26692500362740812 0 0.1079828451826004 0.27738565586056829 0 0.13366986361514199 0.26692500362740812 0 0.13401849175413849 0.29214957311260448 0 0.1104734498024164 0.31171603628350752 0 0.13401849175413849 0.29214957311260448 0 0.14183880654046921 0.32250528078568202 0 0.13401849175413849 0.29214957311260448 0 0.16005413832567669 0.30691349036464077 0 0.14183880654046921 0.32250528078568202 0 0.13401849175413849 0.29214957311260448 0 0.16005413832567669 0.30691349036464077 0 0.13401849175413849 0.29214957311260448 0 0.1558685034792309 0.28595093384994291 0 0.16005413832567669 0.30691349036464077 0 0.13366986361514199 0.26692500362740812 0 0.13401849175413849 0.29214957311260448 0 0.1558685034792309 0.28595093384994291 0 0.1558685034792309 0.28595093384994291 0 0.1700220001876428 0.28782965529906401 0 0.16005413832567669 0.30691349036464077 0 0.1558685034792309 0.28595093384994291 0 0.1700220001876428 0.28782965529906401 0 0.17370236977615991 0.27502287964280692 0 0.1700220001876428 0.28782965529906401 0 0.16005413832567669 0.30691349036464077 0 0.1764196225356903 0.29880027385689728 0 0.16005413832567669 0.30691349036464077 0 0.1764196225356903 0.29880027385689728 0 0.18686192329242929 0.31378732528256248 0 0.1764196225356903 0.29880027385689728 0 0.18674031124236579 0.30201460306836742 0 0.19086383386244751 0.2907864273273883 0 0.1764196225356903 0.29880027385689728 0 0.18674031124236579 0.30201460306836742 0 0.18686192329242929 0.31378732528256248 0 0.1700220001876428 0.28782965529906401 0 0.18013512871176271 0.28566990799825959 0 0.17370236977615991 0.27502287964280692 0 0.1700220001876428 0.28782965529906401 0 0.1764196225356903 0.29880027385689728 0 0.18013512871176271 0.28566990799825959 0 0.1764196225356903 0.29880027385689728 0 0.18013512871176271 0.28566990799825959 0 0.19086383386244751 0.2907864273273883 0 0.18013512871176271 0.28566990799825959 0 0.1896678171968729 0.27591030386514148 0 0.19086383386244751 0.2907864273273883 0 0.18251379545819379 0.26835647973838378 0 0.17370236977615991 0.27502287964280692 0 0.1896678171968729 0.27591030386514148 0 0.18013512871176271 0.28566990799825959 0 0.17370236977615991 0.27502287964280692 0 0.1896678171968729 0.27591030386514148 0 0.18251379545819379 0.26835647973838378 0 0.17370236977615991 0.27502287964280692 0 0.17699066645021869 0.2595722272450377 0 0.17370236977615991 0.27502287964280692 0 0.15959452244756481 0.26367036214955358 0 0.17699066645021869 0.2595722272450377 0 0.1558685034792309 0.28595093384994291 0 0.17370236977615991 0.27502287964280692 0 0.15959452244756481 0.26367036214955358 0 0.16774616909827719 0.2460930353984315 0 0.15959452244756481 0.26367036214955358 0 0.17699066645021869 0.2595722272450377 0 0.14702044576598061 0.2478904659134552 0 0.16774616909827719 0.2460930353984315 0 0.15959452244756481 0.26367036214955358 0 0.18692125413578081 0.24552837502103991 0 0.16774616909827719 0.2460930353984315 0 0.17699066645021869 0.2595722272450377 0 0.18692125413578081 0.24552837502103991 0 0.17699066645021869 0.2595722272450377 0 0.19242781921148469 0.26384338938458129 0 0.18251379545819379 0.26835647973838378 0 0.17699066645021869 0.2595722272450377 0 0.19242781921148469 0.26384338938458129 0 0.18692125413578081 0.24552837502103991 0 0.19242781921148469 0.26384338938458129 0 0.20107379594449931 0.25686311186437227 0 0.18692125413578081 0.24552837502103991 0 0.20107379594449931 0.25686311186437227 0 0.19242781921148469 0.26384338938458129 0 0.20107379594449931 0.25686311186437227 0 0.2008998280478862 0.26959186196165702 0 0.19242781921148469 0.26384338938458129 0 0.20107379594449931 0.25686311186437227 0 0.19242781921148469 0.26384338938458129 0 0.1896678171968729 0.27591030386514148 0 0.2008998280478862 0.26959186196165702 0 0.18251379545819379 0.26835647973838378 0 0.19242781921148469 0.26384338938458129 0 0.1896678171968729 0.27591030386514148 0 0.1896678171968729 0.27591030386514148 0 0.2008998280478862 0.26959186196165702 0 0.20354188417430641 0.281093168015905 0 0.2008998280478862 0.26959186196165702 0 0.2177878237122676 0.27024933667828532 0 0.20354188417430641 0.281093168015905 0 0.2177878237122676 0.27024933667828532 0 0.20354188417430641 0.281093168015905 0 0.2166033006779626 0.28924568688104418 0 0.21557305570370441 0.24515722135805329 0 0.20107379594449931 0.25686311186437227 0 0.2177878237122676 0.27024933667828532 0 0.20107379594449931 0.25686311186437227 0 0.2177878237122676 0.27024933667828532 0 0.20107379594449931 0.25686311186437227 0 0.2008998280478862 0.26959186196165702 0 0.2177878237122676 0.27024933667828532 0 0.21557305570370441 0.24515722135805329 0 0.20107379594449931 0.25686311186437227 0 0.21557305570370441 0.24515722135805329 0 0.2177878237122676 0.27024933667828532 0 0.23628031136540401 0.25597328662156199 0 0.2177878237122676 0.27024933667828532 0 0.23628031136540401 0.25597328662156199 0 0.23450185148003599 0.28363556149219821 0 0.2177878237122676 0.27024933667828532 0 0.23450185148003599 0.28363556149219821 0 0.2166033006779626 0.28924568688104418 0 0.2177878237122676 0.27024933667828532 0 0.23450185148003599 0.28363556149219821 0 0.23628031136540401 0.25597328662156199 0 0.23450185148003599 0.28363556149219821 0 0.25102838231212438 0.26850893423506528 0 0.23450185148003599 0.28363556149219821 0 0.25953152444998728 0.28294166139542631 0 0.25102838231212438 0.26850893423506528 0 0.23628031136540401 0.25597328662156199 0 0.25102838231212438 0.26850893423506528 0 0.26221447651104962 0.2479993693513689 0 0.2297645605960125 0.30261029929826411 0 0.25121587924780342 0.29702178630611242 0 0.2484846271056145 0.31037308609574782 0 0.2297645605960125 0.30261029929826411 0 0.23798581837376781 0.31938142953188831 0 0.2484846271056145 0.31037308609574782 0 0.2297645605960125 0.30261029929826411 0 0.25121587924780342 0.29702178630611242 0 0.23450185148003599 0.28363556149219821 0 0.2297645605960125 0.30261029929826411 0 0.25121587924780342 0.29702178630611242 0 0.23450185148003599 0.28363556149219821 0 0.25121587924780342 0.29702178630611242 0 0.23450185148003599 0.28363556149219821 0 0.25953152444998728 0.28294166139542631 0 0.25121587924780342 0.29702178630611242 0 0.23450185148003599 0.28363556149219821 0 0.2297645605960125 0.30261029929826411 0 0.2166033006779626 0.28924568688104418 0 0.2297645605960125 0.30261029929826411 0 0.20831324194422091 0.30819881229041318 0 0.2297645605960125 0.30261029929826411 0 0.20831324194422091 0.30819881229041318 0 0.21977364325038071 0.31928170538083578 0 0.20831324194422091 0.30819881229041318 0 0.2166033006779626 0.28924568688104418 0 0.20288664267638859 0.29424953150154581 0 0.2297645605960125 0.30261029929826411 0 0.20831324194422091 0.30819881229041318 0 0.2166033006779626 0.28924568688104418 0 0.20354188417430641 0.281093168015905 0 0.2166033006779626 0.28924568688104418 0 0.20288664267638859 0.29424953150154581 0 0.20354188417430641 0.281093168015905 0 0.20288664267638859 0.29424953150154581 0 0.19086383386244751 0.2907864273273883 0 0.20288664267638859 0.29424953150154581 0 0.19086383386244751 0.2907864273273883 0 0.19511095272300569 0.3019235629929784 0 0.1896678171968729 0.27591030386514148 0 0.20354188417430641 0.281093168015905 0 0.19086383386244751 0.2907864273273883 0 0.20831324194422091 0.30819881229041318 0 0.18686192329242929 0.31378732528256248 0 0.20831324194422091 0.30819881229041318 0 0.19511095272300569 0.3019235629929784 0 0.18686192329242929 0.31378732528256248 0 0.20831324194422091 0.30819881229041318 0 0.20288664267638859 0.29424953150154581 0 0.19511095272300569 0.3019235629929784 0 0.18674031124236579 0.30201460306836742 0 0.19086383386244751 0.2907864273273883 0 0.19511095272300569 0.3019235629929784 0 0.18674031124236579 0.30201460306836742 0 0.19511095272300569 0.3019235629929784 0 0.18686192329242929 0.31378732528256248 0 0.20141288137377081 0.31920030670374799 0 0.18686192329242929 0.31378732528256248 0 0.18608978489721489 0.32167740761667712 0 0.20831324194422091 0.30819881229041318 0 0.20141288137377081 0.31920030670374799 0 0.18686192329242929 0.31378732528256248 0 0.20141288137377081 0.31920030670374799 0 0.21212543146875301 0.33644132486871342 0 0.18608978489721489 0.32167740761667712 0 0.21212543146875301 0.33644132486871342 0 0.18608978489721489 0.32167740761667712 0 0.19231113454718349 0.34165597013868199 0 0.21212543146875301 0.33644132486871342 0 0.18608978489721489 0.32167740761667712 0 0.20831324194422091 0.30819881229041318 0 0.20141288137377081 0.31920030670374799 0 0.21977364325038071 0.31928170538083578 0 0.20141288137377081 0.31920030670374799 0 0.21212543146875301 0.33644132486871342 0 0.21977364325038071 0.31928170538083578 0 0.21977364325038071 0.31928170538083578 0 0.2290399257457596 0.32985805959198788 0 0.23798581837376781 0.31938142953188831 0 0.2297645605960125 0.30261029929826411 0 0.21977364325038071 0.31928170538083578 0 0.23798581837376781 0.31938142953188831 0 0.21212543146875301 0.33644132486871342 0 0.21977364325038071 0.31928170538083578 0 0.2290399257457596 0.32985805959198788 0 0.21212543146875301 0.33644132486871342 0 0.23060518033342339 0.33807106122714048 0 0.2290399257457596 0.32985805959198788 0 0.21212543146875301 0.33644132486871342 0 0.23060518033342339 0.33807106122714048 0 0.23816107804029091 0.35120524212074949 0 0.23060518033342339 0.33807106122714048 0 0.2290399257457596 0.32985805959198788 0 0.2430942860788903 0.33477961832711151 0 0.23060518033342339 0.33807106122714048 0 0.2430942860788903 0.33477961832711151 0 0.23816107804029091 0.35120524212074949 0 0.2484846271056145 0.31037308609574782 0 0.23798581837376781 0.31938142953188831 0 0.25508783524565293 0.32209220201309929 0 0.2430942860788903 0.33477961832711151 0 0.23798581837376781 0.31938142953188831 0 0.25508783524565293 0.32209220201309929 0 0.2290399257457596 0.32985805959198788 0 0.2430942860788903 0.33477961832711151 0 0.23798581837376781 0.31938142953188831 0 0.23439037865920059 0.35560025357312369 0 0.2386764282036242 0.37725286527910618 0 0.24311907173897271 0.36013203008567057 0 0.23439037865920059 0.35560025357312369 0 0.2386764282036242 0.37725286527910618 0 0.2492643002430574 0.365916522193315 0 0.24311907173897271 0.36013203008567057 0 0.2386764282036242 0.37725286527910618 0 0.2492643002430574 0.365916522193315 0 0.2386764282036242 0.37725286527910618 0 0.25383912625151372 0.37755129754335942 0 0.24311907173897271 0.36013203008567057 0 0.23816107804029091 0.35120524212074949 0 0.2641967246118288 0.36596915937278562 0 0.2430942860788903 0.33477961832711151 0 0.23816107804029091 0.35120524212074949 0 0.26173146881309822 0.35734024057335978 0 0.24311907173897271 0.36013203008567057 0 0.23816107804029091 0.35120524212074949 0 0.23439037865920059 0.35560025357312369 0 0.21212543146875301 0.33644132486871342 0 0.23816107804029091 0.35120524212074949 0 0.21848510057545151 0.35453686872473111 0 0.23816107804029091 0.35120524212074949 0 0.23439037865920059 0.35560025357312369 0 0.21848510057545151 0.35453686872473111 0 0.21212543146875301 0.33644132486871342 0 0.23816107804029091 0.35120524212074949 0 0.23439037865920059 0.35560025357312369 0 0.22513916990612379 0.36868200325308897 0 0.2386764282036242 0.37725286527910618 0 0.23439037865920059 0.35560025357312369 0 0.22513916990612379 0.36868200325308897 0 0.21848510057545151 0.35453686872473111 0 0.22513916990612379 0.36868200325308897 0 0.20931495008602691 0.36890180222237801 0 0.21961872799640589 0.38146559318592133 0 0.22513916990612379 0.36868200325308897 0 0.20931495008602691 0.36890180222237801 0 0.21848510057545151 0.35453686872473111 0 0.20931495008602691 0.36890180222237801 0 0.21848510057545151 0.35453686872473111 0 0.2018014651714847 0.35413555731190122 0 0.21212543146875301 0.33644132486871342 0 0.21848510057545151 0.35453686872473111 0 0.2018014651714847 0.35413555731190122 0 0.19231113454718349 0.34165597013868199 0 0.2018014651714847 0.35413555731190122 0 0.1832131523033072 0.3569188224833833 0 0.19231113454718349 0.34165597013868199 0 0.21212543146875301 0.33644132486871342 0 0.2018014651714847 0.35413555731190122 0 0.20931495008602691 0.36890180222237801 0 0.2018014651714847 0.35413555731190122 0 0.19217836357317111 0.36996972767433872 0 0.20931495008602691 0.36890180222237801 0 0.19217836357317111 0.36996972767433872 0 0.20289108470775991 0.38370682355227331 0 0.2018014651714847 0.35413555731190122 0 0.19217836357317111 0.36996972767433872 0 0.1832131523033072 0.3569188224833833 0 0.19217836357317111 0.36996972767433872 0 0.17197644233242751 0.37002706837148541 0 0.1832131523033072 0.3569188224833833 0 0.17197644233242751 0.37002706837148541 0 0.16866852787741549 0.35230522619665788 0 0.1832131523033072 0.3569188224833833 0 0.17197644233242751 0.37002706837148541 0 0.16866852787741549 0.35230522619665788 0 0.15186920095361911 0.35620033980905319 0 0.17197644233242751 0.37002706837148541 0 0.15186920095361911 0.35620033980905319 0 0.15185568245476189 0.37707061606136422 0 0.16866852787741549 0.35230522619665788 0 0.1579580049025659 0.33927316190663209 0 0.15186920095361911 0.35620033980905319 0 0.16866852787741549 0.35230522619665788 0 0.1832131523033072 0.3569188224833833 0 0.17832583889515771 0.33910673841273542 0 0.19231113454718349 0.34165597013868199 0 0.1832131523033072 0.3569188224833833 0 0.17832583889515771 0.33910673841273542 0 0.17832583889515771 0.33910673841273542 0 0.18608978489721489 0.32167740761667712 0 0.16647560889869609 0.32578562508456149 0 0.19231113454718349 0.34165597013868199 0 0.17832583889515771 0.33910673841273542 0 0.18608978489721489 0.32167740761667712 0 0.16005413832567669 0.30691349036464077 0 0.18608978489721489 0.32167740761667712 0 0.16005413832567669 0.30691349036464077 0 0.18686192329242929 0.31378732528256248 0 0.18608978489721489 0.32167740761667712 0 0.16005413832567669 0.30691349036464077 0 0.18608978489721489 0.32167740761667712 0 0.16647560889869609 0.32578562508456149 0 0.17832583889515771 0.33910673841273542 0 0.16647560889869609 0.32578562508456149 0 0.1579580049025659 0.33927316190663209 0 0.16866852787741549 0.35230522619665788 0 0.17832583889515771 0.33910673841273542 0 0.1579580049025659 0.33927316190663209 0 0.16647560889869609 0.32578562508456149 0 0.1579580049025659 0.33927316190663209 0 0.14183880654046921 0.32250528078568202 0 0.1579580049025659 0.33927316190663209 0 0.14183880654046921 0.32250528078568202 0 0.14054269679001921 0.34363296691054102 0 0.16005413832567669 0.30691349036464077 0 0.16647560889869609 0.32578562508456149 0 0.14183880654046921 0.32250528078568202 0 0.1202868522871179 0.34060046584014031 0 0.14183880654046921 0.32250528078568202 0 0.14054269679001921 0.34363296691054102 0 0.1202868522871179 0.34060046584014031 0 0.14054269679001921 0.34363296691054102 0 0.13274728415341139 0.36410634055334368 0 0.13274728415341139 0.36410634055334368 0 0.15186920095361911 0.35620033980905319 0 0.15185568245476189 0.37707061606136422 0 0.14054269679001921 0.34363296691054102 0 0.13274728415341139 0.36410634055334368 0 0.15186920095361911 0.35620033980905319 0 0.1579580049025659 0.33927316190663209 0 0.14054269679001921 0.34363296691054102 0 0.15186920095361911 0.35620033980905319 0 0.15352992747694119 0.40026604784697911 0 0.13692284990477191 0.38930777957628943 0 0.1397509022148696 0.40843688002483958 0 0.15352992747694119 0.40026604784697911 0 0.15185568245476189 0.37707061606136422 0 0.13692284990477191 0.38930777957628943 0 0.13274728415341139 0.36410634055334368 0 0.15185568245476189 0.37707061606136422 0 0.13692284990477191 0.38930777957628943 0 0.119448870245615 0.38256434187866972 0 0.13274728415341139 0.36410634055334368 0 0.13692284990477191 0.38930777957628943 0 0.115428724103706 0.40267530492779557 0 0.13692284990477191 0.38930777957628943 0 0.1397509022148696 0.40843688002483958 0 0.12259086230274099 0.42947812748907283 0 0.1397509022148696 0.40843688002483958 0 0.14363603346764281 0.42707530835579988 0 0.12259086230274099 0.42947812748907283 0 0.115428724103706 0.40267530492779557 0 0.1397509022148696 0.40843688002483958 0 0.12259086230274099 0.42947812748907283 0 0.14363603346764281 0.42707530835579988 0 0.13510526379757609 0.44116740875256688 0 0.14363603346764281 0.42707530835579988 0 0.16526304614212209 0.42908608809292892 0 0.1507341445198021 0.44370602134863157 0 0.14363603346764281 0.42707530835579988 0 0.15527295380072001 0.4153931176925994 0 0.16526304614212209 0.42908608809292892 0 0.14363603346764281 0.42707530835579988 0 0.1507341445198021 0.44370602134863157 0 0.13510526379757609 0.44116740875256688 0 0.1397509022148696 0.40843688002483958 0 0.14363603346764281 0.42707530835579988 0 0.15527295380072001 0.4153931176925994 0 0.15352992747694119 0.40026604784697911 0 0.1397509022148696 0.40843688002483958 0 0.15527295380072001 0.4153931176925994 0 0.15527295380072001 0.4153931176925994 0 0.1711416470664554 0.41062619466687539 0 0.16526304614212209 0.42908608809292892 0 0.15352992747694119 0.40026604784697911 0 0.15527295380072001 0.4153931176925994 0 0.1711416470664554 0.41062619466687539 0 0.16526304614212209 0.42908608809292892 0 0.1809560021812836 0.43814832633623357 0 0.16598328874466911 0.44273574664910909 0 0.16526304614212209 0.42908608809292892 0 0.18469425222239219 0.42125941149134333 0 0.1809560021812836 0.43814832633623357 0 0.1711416470664554 0.41062619466687539 0 0.16526304614212209 0.42908608809292892 0 0.18469425222239219 0.42125941149134333 0 0.1711416470664554 0.41062619466687539 0 0.18469425222239219 0.42125941149134333 0 0.1843100454414533 0.40126956181167389 0 0.1711416470664554 0.41062619466687539 0 0.1843100454414533 0.40126956181167389 0 0.16952276405911931 0.3912061138884545 0 0.1843100454414533 0.40126956181167389 0 0.16952276405911931 0.3912061138884545 0 0.18589276442329861 0.38606835492789338 0 0.15352992747694119 0.40026604784697911 0 0.1711416470664554 0.41062619466687539 0 0.16952276405911931 0.3912061138884545 0 0.15352992747694119 0.40026604784697911 0 0.15185568245476189 0.37707061606136422 0 0.16952276405911931 0.3912061138884545 0 0.17197644233242751 0.37002706837148541 0 0.15185568245476189 0.37707061606136422 0 0.16952276405911931 0.3912061138884545 0 0.17197644233242751 0.37002706837148541 0 0.16952276405911931 0.3912061138884545 0 0.18589276442329861 0.38606835492789338 0 0.19217836357317111 0.36996972767433872 0 0.17197644233242751 0.37002706837148541 0 0.18589276442329861 0.38606835492789338 0 0.18589276442329861 0.38606835492789338 0 0.20289108470775991 0.38370682355227331 0 0.19700705340585539 0.39579078134538831 0 0.19217836357317111 0.36996972767433872 0 0.18589276442329861 0.38606835492789338 0 0.20289108470775991 0.38370682355227331 0 0.19700705340585539 0.39579078134538831 0 0.21316338490038089 0.39704202397260657 0 0.19877798755638451 0.41086714246249401 0 0.1843100454414533 0.40126956181167389 0 0.19700705340585539 0.39579078134538831 0 0.19877798755638451 0.41086714246249401 0 0.1843100454414533 0.40126956181167389 0 0.18589276442329861 0.38606835492789338 0 0.19700705340585539 0.39579078134538831 0 0.20289108470775991 0.38370682355227331 0 0.19700705340585539 0.39579078134538831 0 0.21316338490038089 0.39704202397260657 0 0.20931495008602691 0.36890180222237801 0 0.20289108470775991 0.38370682355227331 0 0.21961872799640589 0.38146559318592133 0 0.20289108470775991 0.38370682355227331 0 0.21316338490038089 0.39704202397260657 0 0.21961872799640589 0.38146559318592133 0 0.22513916990612379 0.36868200325308897 0 0.21961872799640589 0.38146559318592133 0 0.2386764282036242 0.37725286527910618 0 0.21961872799640589 0.38146559318592133 0 0.22852735017452019 0.39320804083607441 0 0.2386764282036242 0.37725286527910618 0 0.21316338490038089 0.39704202397260657 0 0.21961872799640589 0.38146559318592133 0 0.22852735017452019 0.39320804083607441 0 0.21316338490038089 0.39704202397260657 0 0.22852735017452019 0.39320804083607441 0 0.22983145469658259 0.40925978250573319 0 0.21316338490038089 0.39704202397260657 0 0.22983145469658259 0.40925978250573319 0 0.22852735017452019 0.39320804083607441 0 0.2429624777480478 0.39890547698508871 0 0.22983145469658259 0.40925978250573319 0 0.2429624777480478 0.39890547698508871 0 0.2386764282036242 0.37725286527910618 0 0.22852735017452019 0.39320804083607441 0 0.2429624777480478 0.39890547698508871 0 0.2386764282036242 0.37725286527910618 0 0.2429624777480478 0.39890547698508871 0 0.2386764282036242 0.37725286527910618 0 0.25341304662754638 0.38974012394171498 0 0.2386764282036242 0.37725286527910618 0 0.25383912625151372 0.37755129754335942 0 0.25341304662754638 0.38974012394171498 0 0.24649952449278431 0.42147754103885982 0 0.22996656543308741 0.44177288309861867 0 0.24946733303660301 0.43176723098649622 0 0.24649952449278431 0.42147754103885982 0 0.22996656543308741 0.44177288309861867 0 0.24649952449278431 0.42147754103885982 0 0.22738899126970491 0.42458926785457718 0 0.22996656543308741 0.44177288309861867 0 0.24946733303660301 0.43176723098649622 0 0.24649952449278431 0.42147754103885982 0 0.2429624777480478 0.39890547698508871 0 0.24649952449278431 0.42147754103885982 0 0.24649952449278431 0.42147754103885982 0 0.22983145469658259 0.40925978250573319 0 0.22738899126970491 0.42458926785457718 0 0.24649952449278431 0.42147754103885982 0 0.22983145469658259 0.40925978250573319 0 0.2429624777480478 0.39890547698508871 0 0.24649952449278431 0.42147754103885982 0 0.22983145469658259 0.40925978250573319 0 0.21316338490038089 0.39704202397260657 0 0.22983145469658259 0.40925978250573319 0 0.21370806227123909 0.41789950377956148 0 0.22983145469658259 0.40925978250573319 0 0.22738899126970491 0.42458926785457718 0 0.21370806227123909 0.41789950377956148 0 0.22738899126970491 0.42458926785457718 0 0.21739304288862979 0.43200563017257382 0 0.22996656543308741 0.44177288309861867 0 0.22738899126970491 0.42458926785457718 0 0.21739304288862979 0.43200563017257382 0 0.21370806227123909 0.41789950377956148 0 0.21739304288862979 0.43200563017257382 0 0.1999317510848099 0.43097584272053618 0 0.2111195299095035 0.44359306409302351 0 0.21739304288862979 0.43200563017257382 0 0.21370806227123909 0.41789950377956148 0 0.1999317510848099 0.43097584272053618 0 0.21370806227123909 0.41789950377956148 0 0.19877798755638451 0.41086714246249401 0 0.1999317510848099 0.43097584272053618 0 0.21316338490038089 0.39704202397260657 0 0.21370806227123909 0.41789950377956148 0 0.19877798755638451 0.41086714246249401 0 0.18469425222239219 0.42125941149134333 0 0.19877798755638451 0.41086714246249401 0 0.1999317510848099 0.43097584272053618 0 0.18469425222239219 0.42125941149134333 0 0.1843100454414533 0.40126956181167389 0 0.19877798755638451 0.41086714246249401 0 0.18469425222239219 0.42125941149134333 0 0.1999317510848099 0.43097584272053618 0 0.1809560021812836 0.43814832633623357 0 0.1999317510848099 0.43097584272053618 0 0.19479511809318301 0.4526549487178691 0 0.2111195299095035 0.44359306409302351 0 0.1999317510848099 0.43097584272053618 0 0.19479511809318301 0.4526549487178691 0 0.1809560021812836 0.43814832633623357 0 0.19479511809318301 0.4526549487178691 0 0.213169792932182 0.46047172596691099 0 0.19211155850092579 0.47790980627879082 0 0.19479511809318301 0.4526549487178691 0 0.19211155850092579 0.47790980627879082 0 0.18348770279874721 0.46143911161818069 0 0.213169792932182 0.46047172596691099 0 0.2111195299095035 0.44359306409302351 0 0.22996656543308741 0.44177288309861867 0 0.19479511809318301 0.4526549487178691 0 0.213169792932182 0.46047172596691099 0 0.2111195299095035 0.44359306409302351 0 0.21739304288862979 0.43200563017257382 0 0.2111195299095035 0.44359306409302351 0 0.22996656543308741 0.44177288309861867 0 0.22996656543308741 0.44177288309861867 0 0.22854105436186559 0.46372788353366717 0 0.24141841662185301 0.45603819576859073 0 0.213169792932182 0.46047172596691099 0 0.22854105436186559 0.46372788353366717 0 0.221321310837439 0.47674074212904899 0 0.213169792932182 0.46047172596691099 0 0.22996656543308741 0.44177288309861867 0 0.22854105436186559 0.46372788353366717 0 0.24141841662185301 0.45603819576859073 0 0.23645949407781469 0.47608243786178739 0 0.25047151807745072 0.47036873115219768 0 0.22854105436186559 0.46372788353366717 0 0.24141841662185301 0.45603819576859073 0 0.23645949407781469 0.47608243786178739 0 0.24141841662185301 0.45603819576859073 0 0.25047151807745072 0.47036873115219768 0 0.25477099823403621 0.45804476415031298 0 0.24141841662185301 0.45603819576859073 0 0.25282491994113748 0.44831200937164878 0 0.25477099823403621 0.45804476415031298 0 0.22996656543308741 0.44177288309861867 0 0.24141841662185301 0.45603819576859073 0 0.24583280085865111 0.44361242472787987 0 0.24946733303660301 0.43176723098649622 0 0.22996656543308741 0.44177288309861867 0 0.24583280085865111 0.44361242472787987 0 0.24141841662185301 0.45603819576859073 0 0.24583280085865111 0.44361242472787987 0 0.25282491994113748 0.44831200937164878 0 0.24904418528453851 0.48634810883828161 0 0.23645949407781469 0.47608243786178739 0 0.23352830384551029 0.49999999999999978 0 0.24904418528453851 0.48634810883828161 0 0.23352830384551029 0.49999999999999978 0 0.25181722630913472 0.5 0 0.24904418528453851 0.48634810883828161 0 0.23645949407781469 0.47608243786178739 0 0.25047151807745072 0.47036873115219768 0 0.23645949407781469 0.47608243786178739 0 0.221321310837439 0.47674074212904899 0 0.23352830384551029 0.49999999999999978 0 0.22854105436186559 0.46372788353366717 0 0.23645949407781469 0.47608243786178739 0 0.221321310837439 0.47674074212904899 0 0.23352830384551029 0.49999999999999978 0 0.2128199311732181 0.48895490313939532 0 0.21702906166474581 0.5 0 0.23352830384551029 0.49999999999999978 0 0.2128199311732181 0.48895490313939532 0 0.221321310837439 0.47674074212904899 0 0.23352830384551029 0.49999999999999978 0 0.2128199311732181 0.48895490313939532 0 0.2128199311732181 0.48895490313939532 0 0.21702906166474581 0.5 0 0.20052981948398141 0.49999999999999989 0 0.213169792932182 0.46047172596691099 0 0.221321310837439 0.47674074212904899 0 0.19211155850092579 0.47790980627879082 0 0.221321310837439 0.47674074212904899 0 0.2128199311732181 0.48895490313939532 0 0.19211155850092579 0.47790980627879082 0 0.2128199311732181 0.48895490313939532 0 0.19211155850092579 0.47790980627879082 0 0.2128199311732181 0.48895490313939532 0 0.20052981948398141 0.49999999999999989 0 0.19295831529489699 0.4905304616351287 0 0.2128199311732181 0.48895490313939532 0 0.19211155850092579 0.47790980627879082 0 0.19295831529489699 0.4905304616351287 0 0.20052981948398141 0.49999999999999989 0 0.1839227339461352 0.49861489743603538 0 0.20052981948398141 0.49999999999999989 0 0.19295831529489699 0.4905304616351287 0 0.1839227339461352 0.49861489743603538 0 0.19211155850092579 0.47790980627879082 0 0.19295831529489699 0.4905304616351287 0 0.1809625144841838 0.48570342190566712 0 0.1839227339461352 0.49861489743603538 0 0.1809625144841838 0.48570342190566712 0 0.16731564840828889 0.49722979487207219 0 0.1839227339461352 0.49861489743603538 0 0.16731564840828889 0.49722979487207219 0 0.1839227339461352 0.49861489743603538 0 0.1669427425872391 0.49999999999999922 0 0.16731564840828889 0.49722979487207219 0 0.19295831529489699 0.4905304616351287 0 0.1839227339461352 0.49861489743603538 0 0.1809625144841838 0.48570342190566712 0 0.1809625144841838 0.48570342190566712 0 0.16731564840828889 0.49722979487207219 0 0.16935941711846161 0.48204725214512889 0 0.16731564840828889 0.49722979487207219 0 0.157708884996551 0.48584061526662409 0 0.14611751268168829 0.49546177892012921 0 0.16731564840828889 0.49722979487207219 0 0.14611751268168829 0.49546177892012921 0 0.1669427425872391 0.49999999999999922 0 0.16731564840828889 0.49722979487207219 0 0.14611751268168829 0.49546177892012921 0 0.1669427425872391 0.49999999999999922 0 0.16731564840828889 0.49722979487207219 0 0.16731564840828889 0.49722979487207219 0 0.16935941711846161 0.48204725214512889 0 0.16731564840828889 0.49722979487207219 0 0.157708884996551 0.48584061526662409 0 0.16935941711846161 0.48204725214512889 0 0.16382575626869561 0.4735735187060508 0 0.15802571703479451 0.46684670821381258 0 0.1531189490294651 0.47544631339495541 0 0.157708884996551 0.48584061526662409 0 0.16382575626869561 0.4735735187060508 0 0.1531189490294651 0.47544631339495541 0 0.157708884996551 0.48584061526662409 0 0.16382575626869561 0.4735735187060508 0 0.16935941711846161 0.48204725214512889 0 0.16935941711846161 0.48204725214512889 0 0.17140318582863401 0.46686470941818559 0 0.16382575626869561 0.4735735187060508 0 0.16935941711846161 0.48204725214512889 0 0.17140318582863401 0.46686470941818559 0 0.1809625144841838 0.48570342190566712 0 0.16935941711846161 0.48204725214512889 0 0.17140318582863401 0.46686470941818559 0 0.19211155850092579 0.47790980627879082 0 0.1809625144841838 0.48570342190566712 0 0.17140318582863401 0.46686470941818559 0 0.19211155850092579 0.47790980627879082 0 0.17140318582863401 0.46686470941818559 0 0.19479511809318301 0.4526549487178691 0 0.18348770279874721 0.46143911161818069 0 0.17341546959919829 0.45191605883299152 0 0.19211155850092579 0.47790980627879082 0 0.18348770279874721 0.46143911161818069 0 0.17140318582863401 0.46686470941818559 0 0.18348770279874721 0.46143911161818069 0 0.17341546959919829 0.45191605883299152 0 0.17140318582863401 0.46686470941818559 0 0.17341546959919829 0.45191605883299152 0 0.17140318582863401 0.46686470941818559 0 0.19479511809318301 0.4526549487178691 0 0.1809560021812836 0.43814832633623357 0 0.17341546959919829 0.45191605883299152 0 0.1809560021812836 0.43814832633623357 0 0.17341546959919829 0.45191605883299152 0 0.16598328874466911 0.44273574664910909 0 0.17341546959919829 0.45191605883299152 0 0.16598328874466911 0.44273574664910909 0 0.15954778128093949 0.4508222386347599 0 0.16598328874466911 0.44273574664910909 0 0.15954778128093949 0.4508222386347599 0 0.1507341445198021 0.44370602134863157 0 0.16526304614212209 0.42908608809292892 0 0.16598328874466911 0.44273574664910909 0 0.1507341445198021 0.44370602134863157 0 0.16382575626869561 0.4735735187060508 0 0.1651762257979181 0.46354347419730452 0 0.17140318582863401 0.46686470941818559 0 0.1651762257979181 0.46354347419730452 0 0.17140318582863401 0.46686470941818559 0 0.17341546959919829 0.45191605883299152 0 0.1651762257979181 0.46354347419730452 0 0.17140318582863401 0.46686470941818559 0 0.17341546959919829 0.45191605883299152 0 0.15954778128093949 0.4508222386347599 0 0.1651762257979181 0.46354347419730452 0 0.15954778128093949 0.4508222386347599 0 0.1651762257979181 0.46354347419730452 0 0.1582471669695637 0.45974252444074731 0 0.16382575626869561 0.4735735187060508 0 0.1651762257979181 0.46354347419730452 0 0.15802571703479451 0.46684670821381258 0 0.1651762257979181 0.46354347419730452 0 0.1582471669695637 0.45974252444074731 0 0.15802571703479451 0.46684670821381258 0 0.14976048710833001 0.46192771033000529 0 0.1507341445198021 0.44370602134863157 0 0.136404492151351 0.45486193181106682 0 0.1582471669695637 0.45974252444074731 0 0.15802571703479451 0.46684670821381258 0 0.14976048710833001 0.46192771033000529 0 0.15802571703479451 0.46684670821381258 0 0.14976048710833001 0.46192771033000529 0 0.1531189490294651 0.47544631339495541 0 0.15954778128093949 0.4508222386347599 0 0.1582471669695637 0.45974252444074731 0 0.14976048710833001 0.46192771033000529 0 0.14976048710833001 0.46192771033000529 0 0.136404492151351 0.45486193181106682 0 0.13663143795624749 0.46910754811773492 0 0.15954778128093949 0.4508222386347599 0 0.14976048710833001 0.46192771033000529 0 0.1507341445198021 0.44370602134863157 0 0.1507341445198021 0.44370602134863157 0 0.13510526379757609 0.44116740875256688 0 0.136404492151351 0.45486193181106682 0 0.1221607865463437 0.4507156547582637 0 0.12259086230274099 0.42947812748907283 0 0.13510526379757609 0.44116740875256688 0 0.1221607865463437 0.4507156547582637 0 0.13510526379757609 0.44116740875256688 0 0.136404492151351 0.45486193181106682 0 0.136404492151351 0.45486193181106682 0 0.1267882431275838 0.46370707134437261 0 0.13663143795624749 0.46910754811773492 0 0.1221607865463437 0.4507156547582637 0 0.136404492151351 0.45486193181106682 0 0.1267882431275838 0.46370707134437261 0 0.1267882431275838 0.46370707134437261 0 0.12569724768963239 0.47617993877849962 0 0.13663143795624749 0.46910754811773492 0 0.12569724768963239 0.47617993877849962 0 0.13663143795624749 0.46910754811773492 0 0.1364132019148096 0.48384982340983701 0 0.13663143795624749 0.46910754811773492 0 0.1364132019148096 0.48384982340983701 0 0.14361111091913481 0.47574478002545789 0 0.1249193769550877 0.49369376296818718 0 0.1364132019148096 0.48384982340983701 0 0.14611751268168829 0.49546177892012921 0 0.1249193769550877 0.49369376296818718 0 0.14611751268168829 0.49546177892012921 0 0.1249193769550877 0.49369376296818718 0 0.12569724768963239 0.47617993877849962 0 0.1364132019148096 0.48384982340983701 0 0.1249193769550877 0.49369376296818718 0 0.13738437864054501 0.5 0 0.14611751268168829 0.49546177892012921 0 0.1364132019148096 0.48384982340983701 0 0.14611751268168829 0.49546177892012921 0 0.14718343377546941 0.48347361591025501 0 0.1669427425872391 0.49999999999999922 0 0.13738437864054501 0.5 0 0.14611751268168829 0.49546177892012921 0 0.157708884996551 0.48584061526662409 0 0.14611751268168829 0.49546177892012921 0 0.14718343377546941 0.48347361591025501 0 0.157708884996551 0.48584061526662409 0 0.1531189490294651 0.47544631339495541 0 0.14718343377546941 0.48347361591025501 0 0.14976048710833001 0.46192771033000529 0 0.1531189490294651 0.47544631339495541 0 0.14361111091913481 0.47574478002545789 0 0.14976048710833001 0.46192771033000529 0 0.13663143795624749 0.46910754811773492 0 0.14361111091913481 0.47574478002545789 0 0.1364132019148096 0.48384982340983701 0 0.14361111091913481 0.47574478002545789 0 0.14718343377546941 0.48347361591025501 0 0.1531189490294651 0.47544631339495541 0 0.14361111091913481 0.47574478002545789 0 0.14718343377546941 0.48347361591025501 0 0.35832214194920592 0.47929915408112939 0 0.34611268429232461 0.46591887339206078 0 0.3375369348076922 0.4829399206954248 0 0.35832214194920592 0.47929915408112939 0 0.35850557312216419 0.5 0 0.3375369348076922 0.4829399206954248 0 0.35850557312216419 0.5 0 0.37801407526051067 0.48065415083330842 0 0.38797204790529932 0.5 0 0.35832214194920592 0.47929915408112939 0 0.35850557312216419 0.5 0 0.37801407526051067 0.48065415083330842 0 0.35832214194920592 0.47929915408112939 0 0.36980735363827261 0.46050290225189661 0 0.37801407526051067 0.48065415083330842 0 0.36980735363827261 0.46050290225189661 0 0.34502769605759259 0.44546544446971242 0 0.36959298495063608 0.43610817863788948 0 0.35832214194920592 0.47929915408112939 0 0.36980735363827261 0.46050290225189661 0 0.34611268429232461 0.46591887339206078 0 0.36980735363827261 0.46050290225189661 0 0.34502769605759259 0.44546544446971242 0 0.34611268429232461 0.46591887339206078 0 0.36980735363827261 0.46050290225189661 0 0.34611268429232461 0.46591887339206078 0 0.34611268429232461 0.46591887339206078 0 0.3317687487832644 0.45597005559148451 0 0.32241801494637662 0.47133484453222518 0 0.34502769605759259 0.44546544446971242 0 0.34611268429232461 0.46591887339206078 0 0.3317687487832644 0.45597005559148451 0 0.34611268429232461 0.46591887339206078 0 0.32241801494637662 0.47133484453222518 0 0.34502769605759259 0.44546544446971242 0 0.3317687487832644 0.45597005559148451 0 0.32480939915707069 0.44218818576869201 0 0.34502769605759259 0.44546544446971242 0 0.32480939915707069 0.44218818576869201 0 0.33523501366627878 0.43221560569608392 0 0.3107318966111981 0.4514989769174147 0 0.3227404476219688 0.42624713816244092 0 0.3317687487832644 0.45597005559148451 0 0.32480939915707069 0.44218818576869201 0 0.3107318966111981 0.4514989769174147 0 0.32480939915707069 0.44218818576869201 0 0.3107318966111981 0.4514989769174147 0 0.3227404476219688 0.42624713816244092 0 0.3317687487832644 0.45597005559148451 0 0.32241801494637662 0.47133484453222518 0 0.3107318966111981 0.4514989769174147 0 0.32241801494637662 0.47133484453222518 0 0.3375369348076922 0.4829399206954248 0 0.31372501333874958 0.48784291822244708 0 0.34611268429232461 0.46591887339206078 0 0.32241801494637662 0.47133484453222518 0 0.3375369348076922 0.4829399206954248 0 0.35850557312216419 0.5 0 0.3375369348076922 0.4829399206954248 0 0.32903909833902928 0.5 0 0.32903909833902928 0.5 0 0.31372501333874958 0.48784291822244708 0 0.29957262355589431 0.5 0 0.3375369348076922 0.4829399206954248 0 0.32903909833902928 0.5 0 0.31372501333874958 0.48784291822244708 0 0.31372501333874958 0.48784291822244708 0 0.30130976803097798 0.48891801032572652 0 0.29957262355589431 0.5 0 0.31372501333874958 0.48784291822244708 0 0.30130976803097798 0.48891801032572652 0 0.29872334560042851 0.47675081567238892 0 0.30130976803097798 0.48891801032572652 0 0.29957262355589431 0.5 0 0.28978827390519868 0.49553967616935518 0 0.32241801494637662 0.47133484453222518 0 0.29872334560042851 0.47675081567238892 0 0.32241801494637662 0.47133484453222518 0 0.31372501333874958 0.48784291822244708 0 0.29872334560042851 0.47675081567238892 0 0.29872334560042851 0.47675081567238892 0 0.28397488520641462 0.48012192141307769 0 0.28978827390519868 0.49553967616935518 0 0.29872334560042851 0.47675081567238892 0 0.28929399795500932 0.47058792179259418 0 0.29703527816799058 0.46117092995693892 0 0.29872334560042851 0.47675081567238892 0 0.28929399795500932 0.47058792179259418 0 0.28397488520641462 0.48012192141307769 0 0.29872334560042851 0.47675081567238892 0 0.28397488520641462 0.48012192141307769 0 0.28929399795500932 0.47058792179259418 0 0.28397488520641462 0.48012192141307769 0 0.27920072977811172 0.47805830749059319 0 0.28397488520641462 0.48012192141307769 0 0.28978827390519868 0.49553967616935518 0 0.27010614877275918 0.50000000000000067 0 0.29957262355589431 0.5 0 0.28978827390519868 0.49553967616935518 0 0.27010614877275918 0.50000000000000067 0 0.30130976803097798 0.48891801032572652 0 0.29872334560042851 0.47675081567238892 0 0.28978827390519868 0.49553967616935518 0 0.29872334560042851 0.47675081567238892 0 0.28978827390519868 0.49553967616935518 0 0.28397488520641462 0.48012192141307769 0 0.27010614877275918 0.50000000000000067 0 0.27920072977811172 0.47805830749059319 0 0.27010614877275918 0.50000000000000067 0 0.26909437115437917 0.48384867389528768 0 0.26130641782501518 0.49139676135406141 0 0.27010614877275918 0.50000000000000067 0 0.27920072977811172 0.47805830749059319 0 0.26909437115437917 0.48384867389528768 0 0.27010614877275918 0.50000000000000067 0 0.27920072977811172 0.47805830749059319 0 0.27920072977811172 0.47805830749059319 0 0.27306774476234302 0.47644699960251641 0 0.26909437115437917 0.48384867389528768 0 0.27920072977811172 0.47805830749059319 0 0.27306774476234302 0.47644699960251641 0 0.27643472525740193 0.46726539210963169 0 0.26824582816420722 0.47348896141386071 0 0.27306774476234302 0.47644699960251641 0 0.27643472525740193 0.46726539210963169 0 0.26824582816420722 0.47348896141386071 0 0.26909437115437917 0.48384867389528768 0 0.25993240985832161 0.47939275616227872 0 0.26824582816420722 0.47348896141386071 0 0.27306774476234302 0.47644699960251641 0 0.26909437115437917 0.48384867389528768 0 0.24904418528453851 0.48634810883828161 0 0.25993240985832161 0.47939275616227872 0 0.25047151807745072 0.47036873115219768 0 0.26824582816420722 0.47348896141386071 0 0.25993240985832161 0.47939275616227872 0 0.26165523792153211 0.46576309323832682 0 0.25993240985832161 0.47939275616227872 0 0.25047151807745072 0.47036873115219768 0 0.26165523792153211 0.46576309323832682 0 0.27010614877275918 0.50000000000000067 0 0.25181722630913472 0.5 0 0.26130641782501518 0.49139676135406141 0 0.24904418528453851 0.48634810883828161 0 0.25993240985832161 0.47939275616227872 0 0.26130641782501518 0.49139676135406141 0 0.24904418528453851 0.48634810883828161 0 0.25181722630913472 0.5 0 0.26130641782501518 0.49139676135406141 0 0.26909437115437917 0.48384867389528768 0 0.25993240985832161 0.47939275616227872 0 0.26130641782501518 0.49139676135406141 0 0.26490489917960358 0.45079530358348557 0 0.25548676926057468 0.44017180441404491 0 0.26331147225899149 0.43380076267102891 0 0.24946733303660301 0.43176723098649622 0 0.24583280085865111 0.44361242472787987 0 0.25548676926057468 0.44017180441404491 0 0.24583280085865111 0.44361242472787987 0 0.25548676926057468 0.44017180441404491 0 0.25282491994113748 0.44831200937164878 0 0.26490489917960358 0.45079530358348557 0 0.25548676926057468 0.44017180441404491 0 0.25282491994113748 0.44831200937164878 0 0.26490489917960358 0.45079530358348557 0 0.25282491994113748 0.44831200937164878 0 0.25477099823403621 0.45804476415031298 0 0.25047151807745072 0.47036873115219768 0 0.25477099823403621 0.45804476415031298 0 0.26165523792153211 0.46576309323832682 0 0.26490489917960358 0.45079530358348557 0 0.25477099823403621 0.45804476415031298 0 0.26165523792153211 0.46576309323832682 0 0.26490489917960358 0.45079530358348557 0 0.27160577401557351 0.46248804296782559 0 0.27679169795675967 0.45600994403837303 0 0.26490489917960358 0.45079530358348557 0 0.26165523792153211 0.46576309323832682 0 0.27160577401557351 0.46248804296782559 0 0.26824582816420722 0.47348896141386071 0 0.27160577401557351 0.46248804296782559 0 0.27643472525740193 0.46726539210963169 0 0.26824582816420722 0.47348896141386071 0 0.26165523792153211 0.46576309323832682 0 0.27160577401557351 0.46248804296782559 0 0.27160577401557351 0.46248804296782559 0 0.27643472525740193 0.46726539210963169 0 0.27679169795675967 0.45600994403837303 0 0.27643472525740193 0.46726539210963169 0 0.27679169795675967 0.45600994403837303 0 0.28829531078346382 0.45611661498118572 0 0.27903440424894049 0.4453257315987294 0 0.26331147225899149 0.43380076267102891 0 0.26490489917960358 0.45079530358348557 0 0.27903440424894049 0.4453257315987294 0 0.26331147225899149 0.43380076267102891 0 0.26490489917960358 0.45079530358348557 0 0.27679169795675967 0.45600994403837303 0 0.27903440424894049 0.4453257315987294 0 0.27903440424894049 0.4453257315987294 0 0.2917470315179379 0.44281751567604499 0 0.28179675760275558 0.42932557237874241 0 0.27679169795675967 0.45600994403837303 0 0.27903440424894049 0.4453257315987294 0 0.28829531078346382 0.45611661498118572 0 0.27903440424894049 0.4453257315987294 0 0.2917470315179379 0.44281751567604499 0 0.28829531078346382 0.45611661498118572 0 0.2917470315179379 0.44281751567604499 0 0.28829531078346382 0.45611661498118572 0 0.29813183988985342 0.45090032042111128 0 0.27920072977811172 0.47805830749059319 0 0.27643472525740193 0.46726539210963169 0 0.28829531078346382 0.45611661498118572 0 0.28929399795500932 0.47058792179259418 0 0.27920072977811172 0.47805830749059319 0 0.28829531078346382 0.45611661498118572 0 0.27920072977811172 0.47805830749059319 0 0.28829531078346382 0.45611661498118572 0 0.28829531078346382 0.45611661498118572 0 0.29703527816799058 0.46117092995693892 0 0.29813183988985342 0.45090032042111128 0 0.28929399795500932 0.47058792179259418 0 0.28829531078346382 0.45611661498118572 0 0.29703527816799058 0.46117092995693892 0 0.29872334560042851 0.47675081567238892 0 0.29703527816799058 0.46117092995693892 0 0.3107318966111981 0.4514989769174147 0 0.29872334560042851 0.47675081567238892 0 0.3107318966111981 0.4514989769174147 0 0.32241801494637662 0.47133484453222518 0 0.29872334560042851 0.47675081567238892 0 0.3107318966111981 0.4514989769174147 0 0.29703527816799058 0.46117092995693892 0 0.29813183988985342 0.45090032042111128 0 0.3107318966111981 0.4514989769174147 0 0.30159082278473881 0.44219288247638061 0 0.3107318966111981 0.4514989769174147 0 0.30884109342504262 0.43428586920116352 0 0.2917470315179379 0.44281751567604499 0 0.30159082278473881 0.44219288247638061 0 0.29850225247966211 0.43146173016616862 0 0.2917470315179379 0.44281751567604499 0 0.30159082278473881 0.44219288247638061 0 0.29813183988985342 0.45090032042111128 0 0.30159082278473881 0.44219288247638061 0 0.29813183988985342 0.45090032042111128 0 0.3107318966111981 0.4514989769174147 0 0.30884109342504262 0.43428586920116352 0 0.29850225247966211 0.43146173016616862 0 0.30862162828234507 0.42004495563460759 0 0.29850225247966211 0.43146173016616862 0 0.30862162828234507 0.42004495563460759 0 0.29547148538100448 0.41817397575591742 0 0.30159082278473881 0.44219288247638061 0 0.30884109342504262 0.43428586920116352 0 0.29850225247966211 0.43146173016616862 0 0.30862162828234507 0.42004495563460759 0 0.30304430461131138 0.40735012112542651 0 0.3196782615082488 0.40265332564926309 0 0.30862162828234507 0.42004495563460759 0 0.30304430461131138 0.40735012112542651 0 0.29547148538100448 0.41817397575591742 0 0.30304430461131138 0.40735012112542651 0 0.29062365375375682 0.40708788978866228 0 0.29547148538100448 0.41817397575591742 0 0.29062365375375682 0.40708788978866228 0 0.29547148538100448 0.41817397575591742 0 0.28288479604298378 0.41446876034122271 0 0.29547148538100448 0.41817397575591742 0 0.28288479604298378 0.41446876034122271 0 0.28179675760275558 0.42932557237874241 0 0.29062365375375682 0.40708788978866228 0 0.28288479604298378 0.41446876034122271 0 0.28001120465417539 0.40182109974822727 0 0.29850225247966211 0.43146173016616862 0 0.29547148538100448 0.41817397575591742 0 0.28179675760275558 0.42932557237874241 0 0.2917470315179379 0.44281751567604499 0 0.29850225247966211 0.43146173016616862 0 0.28179675760275558 0.42932557237874241 0 0.28179675760275558 0.42932557237874241 0 0.27042562322166658 0.41684269204638819 0 0.26331147225899149 0.43380076267102891 0 0.27903440424894049 0.4453257315987294 0 0.28179675760275558 0.42932557237874241 0 0.26331147225899149 0.43380076267102891 0 0.27042562322166658 0.41684269204638819 0 0.26380858941988822 0.4002294757553399 0 0.28001120465417539 0.40182109974822727 0 0.28288479604298378 0.41446876034122271 0 0.28179675760275558 0.42932557237874241 0 0.27042562322166658 0.41684269204638819 0 0.28288479604298378 0.41446876034122271 0 0.27042562322166658 0.41684269204638819 0 0.28001120465417539 0.40182109974822727 0 0.24649952449278431 0.42147754103885982 0 0.25492995388566009 0.41993008507457552 0 0.26380858941988822 0.4002294757553399 0 0.27042562322166658 0.41684269204638819 0 0.25492995388566009 0.41993008507457552 0 0.26380858941988822 0.4002294757553399 0 0.24649952449278431 0.42147754103885982 0 0.26380858941988822 0.4002294757553399 0 0.2429624777480478 0.39890547698508871 0 0.24649952449278431 0.42147754103885982 0 0.26380858941988822 0.4002294757553399 0 0.24946733303660301 0.43176723098649622 0 0.24649952449278431 0.42147754103885982 0 0.26331147225899149 0.43380076267102891 0 0.24649952449278431 0.42147754103885982 0 0.25492995388566009 0.41993008507457552 0 0.26331147225899149 0.43380076267102891 0 0.24649952449278431 0.42147754103885982 0 0.26331147225899149 0.43380076267102891 0 0.27042562322166658 0.41684269204638819 0 0.25492995388566009 0.41993008507457552 0 0.26331147225899149 0.43380076267102891 0 0.24946733303660301 0.43176723098649622 0 0.25548676926057468 0.44017180441404491 0 0.26331147225899149 0.43380076267102891 0 0.26350653962281989 0.38010735630523079 0 0.25341304662754638 0.38974012394171498 0 0.26380858941988822 0.4002294757553399 0 0.26350653962281989 0.38010735630523079 0 0.25383912625151372 0.37755129754335942 0 0.25710864090743918 0.37145542319719338 0 0.26350653962281989 0.38010735630523079 0 0.25383912625151372 0.37755129754335942 0 0.25341304662754638 0.38974012394171498 0 0.2429624777480478 0.39890547698508871 0 0.25341304662754638 0.38974012394171498 0 0.26380858941988822 0.4002294757553399 0 0.26380858941988822 0.4002294757553399 0 0.28001120465417539 0.40182109974822727 0 0.28036865154730628 0.37990086281960789 0 0.26350653962281989 0.38010735630523079 0 0.28036865154730628 0.37990086281960789 0 0.2641967246118288 0.36596915937278562 0 0.26380858941988822 0.4002294757553399 0 0.28036865154730628 0.37990086281960789 0 0.26350653962281989 0.38010735630523079 0 0.26380858941988822 0.4002294757553399 0 0.28036865154730628 0.37990086281960789 0 0.28036865154730628 0.37990086281960789 0 0.29170647807930872 0.39362549197251728 0 0.2987730087010142 0.37934426936791982 0 0.28036865154730628 0.37990086281960789 0 0.29170647807930872 0.39362549197251728 0 0.28001120465417539 0.40182109974822727 0 0.28036865154730628 0.37990086281960789 0 0.29170647807930872 0.39362549197251728 0 0.29062365375375682 0.40708788978866228 0 0.28001120465417539 0.40182109974822727 0 0.29170647807930872 0.39362549197251728 0 0.30304430461131138 0.40735012112542651 0 0.29062365375375682 0.40708788978866228 0 0.29170647807930872 0.39362549197251728 0 0.30304430461131138 0.40735012112542651 0 0.30637452063024528 0.39219955594670219 0 0.3196782615082488 0.40265332564926309 0 0.30304430461131138 0.40735012112542651 0 0.29170647807930872 0.39362549197251728 0 0.30304430461131138 0.40735012112542651 0 0.29170647807930872 0.39362549197251728 0 0.30637452063024528 0.39219955594670219 0 0.30637452063024528 0.39219955594670219 0 0.2987730087010142 0.37934426936791982 0 0.31661607539452802 0.37905951313608538 0 0.29170647807930872 0.39362549197251728 0 0.30637452063024528 0.39219955594670219 0 0.2987730087010142 0.37934426936791982 0 0.31661607539452802 0.37905951313608538 0 0.32905198958534931 0.38831461949406398 0 0.3196782615082488 0.40265332564926309 0 0.31661607539452802 0.37905951313608538 0 0.32905198958534931 0.38831461949406398 0 0.33389487655237682 0.3658352592629312 0 0.32905198958534931 0.38831461949406398 0 0.34270248502322931 0.38427053755298168 0 0.33389487655237682 0.3658352592629312 0 0.32905198958534931 0.38831461949406398 0 0.34270248502322931 0.38427053755298168 0 0.33272146632259869 0.40525883785771122 0 0.34270248502322931 0.38427053755298168 0 0.33272146632259869 0.40525883785771122 0 0.34270248502322931 0.38427053755298168 0 0.33272146632259869 0.40525883785771122 0 0.34670895149724801 0.40816004440777182 0 0.31661607539452802 0.37905951313608538 0 0.3196782615082488 0.40265332564926309 0 0.32905198958534931 0.38831461949406398 0 0.33272146632259869 0.40525883785771122 0 0.3196782615082488 0.40265332564926309 0 0.30637452063024528 0.39219955594670219 0 0.31661607539452802 0.37905951313608538 0 0.3196782615082488 0.40265332564926309 0 0.3196782615082488 0.40265332564926309 0 0.3227404476219688 0.42624713816244092 0 0.30862162828234507 0.42004495563460759 0 0.3196782615082488 0.40265332564926309 0 0.3227404476219688 0.42624713816244092 0 0.33272146632259869 0.40525883785771122 0 0.3196782615082488 0.40265332564926309 0 0.3227404476219688 0.42624713816244092 0 0.33272146632259869 0.40525883785771122 0 0.3227404476219688 0.42624713816244092 0 0.32480939915707069 0.44218818576869201 0 0.3227404476219688 0.42624713816244092 0 0.3107318966111981 0.4514989769174147 0 0.30884109342504262 0.43428586920116352 0 0.3227404476219688 0.42624713816244092 0 0.32480939915707069 0.44218818576869201 0 0.3227404476219688 0.42624713816244092 0 0.33523501366627878 0.43221560569608392 0 0.30884109342504262 0.43428586920116352 0 0.30862162828234507 0.42004495563460759 0 0.3227404476219688 0.42624713816244092 0 0.34502769605759259 0.44546544446971242 0 0.33523501366627878 0.43221560569608392 0 0.34795858503051302 0.425881111768525 0 0.3227404476219688 0.42624713816244092 0 0.33523501366627878 0.43221560569608392 0 0.33659904832278342 0.4201421825902541 0 0.33523501366627878 0.43221560569608392 0 0.33659904832278342 0.4201421825902541 0 0.34795858503051302 0.425881111768525 0 0.33272146632259869 0.40525883785771122 0 0.3227404476219688 0.42624713816244092 0 0.33659904832278342 0.4201421825902541 0 0.33272146632259869 0.40525883785771122 0 0.33659904832278342 0.4201421825902541 0 0.34670895149724801 0.40816004440777182 0 0.33659904832278342 0.4201421825902541 0 0.34670895149724801 0.40816004440777182 0 0.34795858503051302 0.425881111768525 0 0.34670895149724801 0.40816004440777182 0 0.34795858503051302 0.425881111768525 0 0.36336601300371613 0.41450991002864218 0 0.34670895149724801 0.40816004440777182 0 0.36336601300371613 0.41450991002864218 0 0.35690611128064731 0.3988976866485166 0 0.34502769605759259 0.44546544446971242 0 0.34795858503051302 0.425881111768525 0 0.36959298495063608 0.43610817863788948 0 0.34795858503051302 0.425881111768525 0 0.36959298495063608 0.43610817863788948 0 0.36336601300371613 0.41450991002864218 0 0.36959298495063608 0.43610817863788948 0 0.36336601300371613 0.41450991002864218 0 0.38530342098431941 0.41064856824057122 0 0.36336601300371613 0.41450991002864218 0 0.3736470799201031 0.39378130610698531 0 0.38530342098431941 0.41064856824057122 0 0.3736470799201031 0.39378130610698531 0 0.3601059063978746 0.38125551426405008 0 0.35690611128064731 0.3988976866485166 0 0.36336601300371613 0.41450991002864218 0 0.3736470799201031 0.39378130610698531 0 0.35690611128064731 0.3988976866485166 0 0.3736470799201031 0.39378130610698531 0 0.3601059063978746 0.38125551426405008 0 0.37414389550204002 0.36898578533419818 0 0.34270248502322931 0.38427053755298168 0 0.3601059063978746 0.38125551426405008 0 0.35690611128064731 0.3988976866485166 0 0.34270248502322931 0.38427053755298168 0 0.3601059063978746 0.38125551426405008 0 0.35268350372385993 0.36328223724825232 0 0.34270248502322931 0.38427053755298168 0 0.34670895149724801 0.40816004440777182 0 0.35690611128064731 0.3988976866485166 0 0.35268350372385993 0.36328223724825232 0 0.36266452242448938 0.34229393694352239 0 0.35030182712711511 0.35130594720886232 0 0.35268350372385993 0.36328223724825232 0 0.36266452242448938 0.34229393694352239 0 0.35030182712711511 0.35130594720886232 0 0.35146565257524442 0.34420791440797271 0 0.36266452242448938 0.34229393694352239 0 0.35030182712711511 0.35130594720886232 0 0.35146565257524442 0.34420791440797271 0 0.34269927497721508 0.34493512072036142 0 0.35030182712711511 0.35130594720886232 0 0.35268350372385993 0.36328223724825232 0 0.33389487655237682 0.3658352592629312 0 0.34270248502322931 0.38427053755298168 0 0.35268350372385993 0.36328223724825232 0 0.3601059063978746 0.38125551426405008 0 0.35268350372385993 0.36328223724825232 0 0.37414389550204002 0.36898578533419818 0 0.35268350372385993 0.36328223724825232 0 0.37414389550204002 0.36898578533419818 0 0.36300645299402812 0.35604351837507042 0 0.37414389550204002 0.36898578533419818 0 0.37228166628853332 0.35471301169251829 0 0.36300645299402812 0.35604351837507042 0 0.35268350372385993 0.36328223724825232 0 0.36300645299402812 0.35604351837507042 0 0.36266452242448938 0.34229393694352239 0 0.37228166628853332 0.35471301169251829 0 0.36300645299402812 0.35604351837507042 0 0.36840829020790361 0.34668560051738673 0 0.36300645299402812 0.35604351837507042 0 0.36840829020790361 0.34668560051738673 0 0.36266452242448938 0.34229393694352239 0 0.36840829020790361 0.34668560051738673 0 0.36266452242448938 0.34229393694352239 0 0.36587418437400321 0.34278907974668538 0 0.37228166628853332 0.35471301169251829 0 0.36840829020790361 0.34668560051738673 0 0.37486749369974542 0.34694596905823039 0 0.37486749369974542 0.34694596905823039 0 0.37256750073976291 0.34304532959464751 0 0.37670219357667811 0.34177383067972761 0 0.36840829020790361 0.34668560051738673 0 0.37486749369974542 0.34694596905823039 0 0.37256750073976291 0.34304532959464751 0 0.36124897776362869 0.33531944770056321 0 0.36266452242448938 0.34229393694352239 0 0.36411885078159001 0.32644375487552563 0 0.37256750073976291 0.34304532959464751 0 0.36916640720496519 0.34145859007673351 0 0.37369311900952262 0.33836265764115908 0 0.37256750073976291 0.34304532959464751 0 0.37369311900952262 0.33836265764115908 0 0.37670219357667811 0.34177383067972761 0 0.36266452242448938 0.34229393694352239 0 0.37014896644917339 0.316543878568457 0 0.36770298492566261 0.33637877995368609 0 0.36266452242448938 0.34229393694352239 0 0.37368960646642962 0.31911015363466272 0 0.36770298492566261 0.33637877995368609 0 0.36985494237623989 0.33311962493185521 0 0.37368960646642962 0.31911015363466272 0 0.36266452242448938 0.34229393694352239 0 0.37368960646642962 0.31911015363466272 0 0.36266452242448938 0.34229393694352239 0 0.37014896644917339 0.316543878568457 0 0.36411885078159001 0.32644375487552563 0 0.36840829020790361 0.34668560051738673 0 0.36916640720496519 0.34145859007673351 0 0.36587418437400321 0.34278907974668538 0 0.36840829020790361 0.34668560051738673 0 0.37256750073976291 0.34304532959464751 0 0.36916640720496519 0.34145859007673351 0 0.36916640720496519 0.34145859007673351 0 0.36587418437400321 0.34278907974668538 0 0.36708394454210669 0.33994961910346172 0 0.36916640720496519 0.34145859007673351 0 0.37010024416019238 0.33739894816112592 0 0.36708394454210669 0.33994961910346172 0 0.36916640720496519 0.34145859007673351 0 0.37010024416019238 0.33739894816112592 0 0.37369311900952262 0.33836265764115908 0 0.36770298492566261 0.33637877995368609 0 0.37010024416019238 0.33739894816112592 0 0.36708394454210669 0.33994961910346172 0 0.37010024416019238 0.33739894816112592 0 0.37369311900952262 0.33836265764115908 0 0.3722735272100694 0.33425106354392481 0 0.3722735272100694 0.33425106354392481 0 0.37245621682226088 0.32924087979990557 0 0.375263113682131 0.33313320718557798 0 0.37369311900952262 0.33836265764115908 0 0.3722735272100694 0.33425106354392481 0 0.375263113682131 0.33313320718557798 0 0.3722735272100694 0.33425106354392481 0 0.37245621682226088 0.32924087979990557 0 0.36985494237623989 0.33311962493185521 0 0.37245621682226088 0.32924087979990557 0 0.37577016905582622 0.32787937856968757 0 0.375263113682131 0.33313320718557798 0 0.37010024416019238 0.33739894816112592 0 0.3722735272100694 0.33425106354392481 0 0.36985494237623989 0.33311962493185521 0 0.36770298492566261 0.33637877995368609 0 0.37010024416019238 0.33739894816112592 0 0.36985494237623989 0.33311962493185521 0 0.36128237795215928 0.33126347269122047 0 0.36124897776362869 0.33531944770056321 0 0.36411885078159001 0.32644375487552563 0 0.36150631125237548 0.32912422255951068 0 0.36128237795215928 0.33126347269122047 0 0.36411885078159001 0.32644375487552563 0 0.36150631125237548 0.32912422255951068 0 0.35994194411877378 0.32646204206530971 0 0.35835984371964152 0.33045614064968309 0 0.36128237795215928 0.33126347269122047 0 0.35899626180536931 0.33430086833413269 0 0.35835984371964152 0.33045614064968309 0 0.36150631125237548 0.32912422255951068 0 0.36128237795215928 0.33126347269122047 0 0.35835984371964152 0.33045614064968309 0 0.36128237795215928 0.33126347269122047 0 0.36124897776362869 0.33531944770056321 0 0.35899626180536931 0.33430086833413269 0 0.36124897776362869 0.33531944770056321 0 0.36001134864139028 0.33778823672905661 0 0.35899626180536931 0.33430086833413269 0 0.36124897776362869 0.33531944770056321 0 0.36001134864139028 0.33778823672905661 0 0.36266452242448938 0.34229393694352239 0 0.36001134864139028 0.33778823672905661 0 0.36266452242448938 0.34229393694352239 0 0.3582225103283424 0.33883319475427592 0 0.36266452242448938 0.34229393694352239 0 0.36587418437400321 0.34278907974668538 0 0.36708394454210669 0.33994961910346172 0 0.36770298492566261 0.33637877995368609 0 0.36266452242448938 0.34229393694352239 0 0.36708394454210669 0.33994961910346172 0 0.36266452242448938 0.34229393694352239 0 0.37368960646642962 0.31911015363466272 0 0.37014896644917339 0.316543878568457 0 0.37014896644917339 0.316543878568457 0 0.36604953812300478 0.31497278055865852 0 0.36630954626425261 0.31087512405144152 0 0.37499251130121058 0.31593455150060828 0 0.37014896644917339 0.316543878568457 0 0.37695808612291098 0.31120865645681561 0 0.37499251130121058 0.31593455150060828 0 0.37368960646642962 0.31911015363466272 0 0.37014896644917339 0.316543878568457 0 0.37014896644917339 0.316543878568457 0 0.36646072203027302 0.32009490443849897 0 0.3659238024377004 0.31770243144255911 0 0.37014896644917339 0.316543878568457 0 0.3659238024377004 0.31770243144255911 0 0.36604953812300478 0.31497278055865852 0 0.37245621682226088 0.32924087979990557 0 0.36985494237623989 0.33311962493185521 0 0.37368960646642962 0.31911015363466272 0 0.37245621682226088 0.32924087979990557 0 0.37368960646642962 0.31911015363466272 0 0.37506056064123422 0.32471797871916308 0 0.37245621682226088 0.32924087979990557 0 0.37577016905582622 0.32787937856968757 0 0.37506056064123422 0.32471797871916308 0 0.37014896644917339 0.316543878568457 0 0.36411885078159001 0.32644375487552563 0 0.36646072203027302 0.32009490443849897 0 0.36411885078159001 0.32644375487552563 0 0.35994194411877378 0.32646204206530971 0 0.36132202517978662 0.32303080634539388 0 0.36150631125237548 0.32912422255951068 0 0.36411885078159001 0.32644375487552563 0 0.35994194411877378 0.32646204206530971 0 0.36132202517978662 0.32303080634539388 0 0.36348301458407639 0.32047903077872458 0 0.35962675317161102 0.31893041505789499 0 0.36411885078159001 0.32644375487552563 0 0.36132202517978662 0.32303080634539388 0 0.36348301458407639 0.32047903077872458 0 0.36411885078159001 0.32644375487552563 0 0.36348301458407639 0.32047903077872458 0 0.36646072203027302 0.32009490443849897 0 0.36348301458407639 0.32047903077872458 0 0.36646072203027302 0.32009490443849897 0 0.3659238024377004 0.31770243144255911 0 0.3659238024377004 0.31770243144255911 0 0.36344593390349789 0.31667187251247519 0 0.36604953812300478 0.31497278055865852 0 0.36348301458407639 0.32047903077872458 0 0.3659238024377004 0.31770243144255911 0 0.36344593390349789 0.31667187251247519 0 0.36348301458407639 0.32047903077872458 0 0.36344593390349789 0.31667187251247519 0 0.35962675317161102 0.31893041505789499 0 0.36344593390349789 0.31667187251247519 0 0.35962675317161102 0.31893041505789499 0 0.35878641637012221 0.31305233625990619 0 0.36344593390349789 0.31667187251247519 0 0.36331333565659901 0.31283202127524651 0 0.35878641637012221 0.31305233625990619 0 0.36331333565659901 0.31283202127524651 0 0.36604953812300478 0.31497278055865852 0 0.36630954626425261 0.31087512405144152 0 0.36344593390349789 0.31667187251247519 0 0.36331333565659901 0.31283202127524651 0 0.36604953812300478 0.31497278055865852 0 0.35878641637012221 0.31305233625990619 0 0.35512602374864599 0.31718053618965047 0 0.35090510471213721 0.31152713165908658 0 0.35512602374864599 0.31718053618965047 0 0.34983435518440159 0.31943204998396652 0 0.35090510471213721 0.31152713165908658 0 0.35962675317161102 0.31893041505789499 0 0.35878641637012221 0.31305233625990619 0 0.35512602374864599 0.31718053618965047 0 0.35962675317161102 0.31893041505789499 0 0.35512602374864599 0.31718053618965047 0 0.35673455485560862 0.32229528426682241 0 0.35512602374864599 0.31718053618965047 0 0.35673455485560862 0.32229528426682241 0 0.34983435518440159 0.31943204998396652 0 0.35673455485560862 0.32229528426682241 0 0.35060422568955008 0.32587015674736058 0 0.34983435518440159 0.31943204998396652 0 0.35994194411877378 0.32646204206530971 0 0.36132202517978662 0.32303080634539388 0 0.35673455485560862 0.32229528426682241 0 0.36132202517978662 0.32303080634539388 0 0.35962675317161102 0.31893041505789499 0 0.35673455485560862 0.32229528426682241 0 0.35994194411877378 0.32646204206530971 0 0.35673455485560862 0.32229528426682241 0 0.35627338036128769 0.32705738058013539 0 0.35994194411877378 0.32646204206530971 0 0.35627338036128769 0.32705738058013539 0 0.35835984371964152 0.33045614064968309 0 0.35627338036128769 0.32705738058013539 0 0.35060422568955008 0.32587015674736058 0 0.35398721241228231 0.33095327650953749 0 0.35673455485560862 0.32229528426682241 0 0.35627338036128769 0.32705738058013539 0 0.35060422568955008 0.32587015674736058 0 0.35060422568955008 0.32587015674736058 0 0.34514221143703899 0.32919058107390442 0 0.34284551192874652 0.32364904383841531 0 0.35060422568955008 0.32587015674736058 0 0.34983435518440159 0.31943204998396652 0 0.34284551192874652 0.32364904383841531 0 0.34983435518440159 0.31943204998396652 0 0.34480088275632298 0.31606258733578418 0 0.35090510471213721 0.31152713165908658 0 0.34983435518440159 0.31943204998396652 0 0.34480088275632298 0.31606258733578418 0 0.34284551192874652 0.32364904383841531 0 0.35146565257524442 0.34420791440797271 0 0.36266452242448938 0.34229393694352239 0 0.35562031764263757 0.34031424282986023 0 0.35302683950207769 0.33602013814058929 0 0.35562031764263757 0.34031424282986023 0 0.35672120529774148 0.33684362974708199 0 0.35202203774268331 0.33965573310897551 0 0.35302683950207769 0.33602013814058929 0 0.35562031764263757 0.34031424282986023 0 0.35146565257524442 0.34420791440797271 0 0.35202203774268331 0.33965573310897551 0 0.35562031764263757 0.34031424282986023 0 0.36266452242448938 0.34229393694352239 0 0.35562031764263757 0.34031424282986023 0 0.3582225103283424 0.33883319475427592 0 0.35562031764263757 0.34031424282986023 0 0.3582225103283424 0.33883319475427592 0 0.35672120529774148 0.33684362974708199 0 0.36001134864139028 0.33778823672905661 0 0.3582225103283424 0.33883319475427592 0 0.35672120529774148 0.33684362974708199 0 0.36001134864139028 0.33778823672905661 0 0.35672120529774148 0.33684362974708199 0 0.35899626180536931 0.33430086833413269 0 0.35899626180536931 0.33430086833413269 0 0.35641212776078268 0.33381706902087938 0 0.35835984371964152 0.33045614064968309 0 0.35672120529774148 0.33684362974708199 0 0.35899626180536931 0.33430086833413269 0 0.35641212776078268 0.33381706902087938 0 0.35627338036128769 0.32705738058013539 0 0.35835984371964152 0.33045614064968309 0 0.35398721241228231 0.33095327650953749 0 0.35641212776078268 0.33381706902087938 0 0.35835984371964152 0.33045614064968309 0 0.35398721241228231 0.33095327650953749 0 0.35302683950207769 0.33602013814058929 0 0.35641212776078268 0.33381706902087938 0 0.35398721241228231 0.33095327650953749 0 0.35302683950207769 0.33602013814058929 0 0.35398721241228231 0.33095327650953749 0 0.34924685744035389 0.33249877391857741 0 0.35302683950207769 0.33602013814058929 0 0.35672120529774148 0.33684362974708199 0 0.35641212776078268 0.33381706902087938 0 0.35302683950207769 0.33602013814058929 0 0.34924685744035389 0.33249877391857741 0 0.34788509595764172 0.33882226599831611 0 0.35060422568955008 0.32587015674736058 0 0.34924685744035389 0.33249877391857741 0 0.34514221143703899 0.32919058107390442 0 0.35060422568955008 0.32587015674736058 0 0.35398721241228231 0.33095327650953749 0 0.34924685744035389 0.33249877391857741 0 0.34924685744035389 0.33249877391857741 0 0.34514221143703899 0.32919058107390442 0 0.34474234507332802 0.33433591834825649 0 0.34924685744035389 0.33249877391857741 0 0.34474234507332802 0.33433591834825649 0 0.34788509595764172 0.33882226599831611 0 0.34474234507332802 0.33433591834825649 0 0.34788509595764172 0.33882226599831611 0 0.34057592936449049 0.33809639891542392 0 0.35146565257524442 0.34420791440797271 0 0.34788509595764172 0.33882226599831611 0 0.34269927497721508 0.34493512072036142 0 0.35202203774268331 0.33965573310897551 0 0.35302683950207769 0.33602013814058929 0 0.34788509595764172 0.33882226599831611 0 0.35146565257524442 0.34420791440797271 0 0.35202203774268331 0.33965573310897551 0 0.34788509595764172 0.33882226599831611 0 0.34057592936449049 0.33809639891542392 0 0.33318390910610529 0.34358855052096038 0 0.34269927497721508 0.34493512072036142 0 0.34788509595764172 0.33882226599831611 0 0.34057592936449049 0.33809639891542392 0 0.34269927497721508 0.34493512072036142 0 0.34474234507332802 0.33433591834825649 0 0.34057592936449049 0.33809639891542392 0 0.33946855119551672 0.33096103471374028 0 0.34514221143703899 0.32919058107390442 0 0.34474234507332802 0.33433591834825649 0 0.33946855119551672 0.33096103471374028 0 0.34057592936449049 0.33809639891542392 0 0.33946855119551672 0.33096103471374028 0 0.33283637980140879 0.33469331179832718 0 0.33946855119551672 0.33096103471374028 0 0.33283637980140879 0.33469331179832718 0 0.33464693517381472 0.32630086361949601 0 0.33283637980140879 0.33469331179832718 0 0.33464693517381472 0.32630086361949601 0 0.3250964778074269 0.32978689602061512 0 0.34057592936449049 0.33809639891542392 0 0.33283637980140879 0.33469331179832718 0 0.33318390910610529 0.34358855052096038 0 0.33283637980140879 0.33469331179832718 0 0.33318390910610529 0.34358855052096038 0 0.32611481079287369 0.33974729713420021 0 0.34480088275632298 0.31606258733578418 0 0.33769186663180051 0.31814262317354819 0 0.34192449374142192 0.30753297203612773 0 0.34480088275632298 0.31606258733578418 0 0.33769186663180051 0.31814262317354819 0 0.34284551192874652 0.32364904383841531 0 0.33946855119551672 0.33096103471374028 0 0.34284551192874652 0.32364904383841531 0 0.33464693517381472 0.32630086361949601 0 0.33769186663180051 0.31814262317354819 0 0.34284551192874652 0.32364904383841531 0 0.33464693517381472 0.32630086361949601 0 0.34514221143703899 0.32919058107390442 0 0.33946855119551672 0.33096103471374028 0 0.34284551192874652 0.32364904383841531 0 0.33769186663180051 0.31814262317354819 0 0.33464693517381472 0.32630086361949601 0 0.32994282367798861 0.32057227217232959 0 0.33464693517381472 0.32630086361949601 0 0.32994282367798861 0.32057227217232959 0 0.3250964778074269 0.32978689602061512 0 0.33769186663180051 0.31814262317354819 0 0.32994282367798861 0.32057227217232959 0 0.32867162081685902 0.31028670060733149 0 0.32176892132522322 0.32006025561378759 0 0.31440941436971798 0.31242774502049953 0 0.32867162081685902 0.31028670060733149 0 0.32994282367798861 0.32057227217232959 0 0.32176892132522322 0.32006025561378759 0 0.32867162081685902 0.31028670060733149 0 0.32176892132522322 0.32006025561378759 0 0.31484893044661 0.32778579360563193 0 0.3250964778074269 0.32978689602061512 0 0.32994282367798861 0.32057227217232959 0 0.32176892132522322 0.32006025561378759 0 0.3250964778074269 0.32978689602061512 0 0.32176892132522322 0.32006025561378759 0 0.31484893044661 0.32778579360563193 0 0.31440941436971798 0.31242774502049953 0 0.32611481079287369 0.33974729713420021 0 0.3250964778074269 0.32978689602061512 0 0.31767498628904178 0.33862919533695518 0 0.32611481079287369 0.33974729713420021 0 0.31767498628904178 0.33862919533695518 0 0.32336406622478242 0.34852958887145069 0 0.33283637980140879 0.33469331179832718 0 0.32611481079287369 0.33974729713420021 0 0.3250964778074269 0.32978689602061512 0 0.31484893044661 0.32778579360563193 0 0.31767498628904178 0.33862919533695518 0 0.30654896287530792 0.34033791233229299 0 0.31484893044661 0.32778579360563193 0 0.3250964778074269 0.32978689602061512 0 0.31767498628904178 0.33862919533695518 0 0.31767498628904178 0.33862919533695518 0 0.31315570067328902 0.3464643712977632 0 0.32336406622478242 0.34852958887145069 0 0.31315570067328902 0.3464643712977632 0 0.31355388928080707 0.35546570062290778 0 0.32336406622478242 0.34852958887145069 0 0.32336406622478242 0.34852958887145069 0 0.33442175170730049 0.35218858713626039 0 0.32437013183195901 0.3602157298059272 0 0.31355388928080707 0.35546570062290778 0 0.32336406622478242 0.34852958887145069 0 0.32437013183195901 0.3602157298059272 0 0.33318390910610529 0.34358855052096038 0 0.32611481079287369 0.33974729713420021 0 0.32336406622478242 0.34852958887145069 0 0.35030182712711511 0.35130594720886232 0 0.33442175170730049 0.35218858713626039 0 0.33389487655237682 0.3658352592629312 0 0.33318390910610529 0.34358855052096038 0 0.32336406622478242 0.34852958887145069 0 0.33442175170730049 0.35218858713626039 0 0.35030182712711511 0.35130594720886232 0 0.33442175170730049 0.35218858713626039 0 0.34269927497721508 0.34493512072036142 0 0.33318390910610529 0.34358855052096038 0 0.33442175170730049 0.35218858713626039 0 0.34269927497721508 0.34493512072036142 0 0.34270248502322931 0.38427053755298168 0 0.35268350372385993 0.36328223724825232 0 0.33389487655237682 0.3658352592629312 0 0.33442175170730049 0.35218858713626039 0 0.33389487655237682 0.3658352592629312 0 0.32437013183195901 0.3602157298059272 0 0.31661607539452802 0.37905951313608538 0 0.33389487655237682 0.3658352592629312 0 0.32437013183195901 0.3602157298059272 0 0.31661607539452802 0.37905951313608538 0 0.31355388928080707 0.35546570062290778 0 0.32437013183195901 0.3602157298059272 0 0.31661607539452802 0.37905951313608538 0 0.31355388928080707 0.35546570062290778 0 0.31661607539452802 0.37905951313608538 0 0.31355388928080707 0.35546570062290778 0 0.30541822204374358 0.36584678197342768 0 0.2987730087010142 0.37934426936791982 0 0.31661607539452802 0.37905951313608538 0 0.30541822204374358 0.36584678197342768 0 0.30541822204374358 0.36584678197342768 0 0.30393955747459928 0.35096595789874813 0 0.29215410451095353 0.36543341035917859 0 0.2987730087010142 0.37934426936791982 0 0.30541822204374358 0.36584678197342768 0 0.29215410451095353 0.36543341035917859 0 0.31315570067328902 0.3464643712977632 0 0.30393955747459928 0.35096595789874813 0 0.30654896287530792 0.34033791233229299 0 0.31315570067328902 0.3464643712977632 0 0.31355388928080707 0.35546570062290778 0 0.30393955747459928 0.35096595789874813 0 0.31355388928080707 0.35546570062290778 0 0.30541822204374358 0.36584678197342768 0 0.30393955747459928 0.35096595789874813 0 0.30393955747459928 0.35096595789874813 0 0.29215410451095353 0.36543341035917859 0 0.30393955747459928 0.35096595789874813 0 0.29720735802849829 0.34424744790442102 0 0.29027641861796738 0.35164951467646482 0 0.30393955747459928 0.35096595789874813 0 0.29720735802849829 0.34424744790442102 0 0.30654896287530792 0.34033791233229299 0 0.29720735802849829 0.34424744790442102 0 0.29027641861796738 0.35164951467646482 0 0.28998304713239348 0.34105976447064218 0 0.30393955747459928 0.35096595789874813 0 0.29027641861796738 0.35164951467646482 0 0.29215410451095353 0.36543341035917859 0 0.29027641861796738 0.35164951467646482 0 0.29215410451095353 0.36543341035917859 0 0.27920137084664282 0.3573603676334649 0 0.29027641861796738 0.35164951467646482 0 0.27920137084664282 0.3573603676334649 0 0.28068773357058369 0.34198453751068081 0 0.29027641861796738 0.35164951467646482 0 0.28068773357058369 0.34198453751068081 0 0.28998304713239348 0.34105976447064218 0 0.28036865154730628 0.37990086281960789 0 0.29215410451095353 0.36543341035917859 0 0.27920137084664282 0.3573603676334649 0 0.28036865154730628 0.37990086281960789 0 0.2987730087010142 0.37934426936791982 0 0.29215410451095353 0.36543341035917859 0 0.28036865154730628 0.37990086281960789 0 0.29215410451095353 0.36543341035917859 0 0.28036865154730628 0.37990086281960789 0 0.27920137084664282 0.3573603676334649 0 0.26173146881309822 0.35734024057335978 0 0.28036865154730628 0.37990086281960789 0 0.26173146881309822 0.35734024057335978 0 0.28036865154730628 0.37990086281960789 0 0.26173146881309822 0.35734024057335978 0 0.2641967246118288 0.36596915937278562 0 0.27920137084664282 0.3573603676334649 0 0.27030047393074008 0.3474963096498429 0 0.26173146881309822 0.35734024057335978 0 0.27920137084664282 0.3573603676334649 0 0.27030047393074008 0.3474963096498429 0 0.28068773357058369 0.34198453751068081 0 0.2430942860788903 0.33477961832711151 0 0.26173146881309822 0.35734024057335978 0 0.27030047393074008 0.3474963096498429 0 0.26173146881309822 0.35734024057335978 0 0.26240083601839698 0.33727672217147331 0 0.23816107804029091 0.35120524212074949 0 0.26173146881309822 0.35734024057335978 0 0.2641967246118288 0.36596915937278562 0 0.23816107804029091 0.35120524212074949 0 0.2641967246118288 0.36596915937278562 0 0.2492643002430574 0.365916522193315 0 0.24311907173897271 0.36013203008567057 0 0.2641967246118288 0.36596915937278562 0 0.2492643002430574 0.365916522193315 0 0.25710864090743918 0.37145542319719338 0 0.2641967246118288 0.36596915937278562 0 0.2492643002430574 0.365916522193315 0 0.25383912625151372 0.37755129754335942 0 0.25710864090743918 0.37145542319719338 0 0.26350653962281989 0.38010735630523079 0 0.25710864090743918 0.37145542319719338 0 0.2641967246118288 0.36596915937278562 0 0.2484846271056145 0.31037308609574782 0 0.25508783524565293 0.32209220201309929 0 0.26836904206483531 0.31075971332937607 0 0.25508783524565293 0.32209220201309929 0 0.26240083601839698 0.33727672217147331 0 0.26677092012209491 0.32204036282613252 0 0.25508783524565293 0.32209220201309929 0 0.26677092012209491 0.32204036282613252 0 0.26836904206483531 0.31075971332937607 0 0.2430942860788903 0.33477961832711151 0 0.25508783524565293 0.32209220201309929 0 0.26240083601839698 0.33727672217147331 0 0.2430942860788903 0.33477961832711151 0 0.26173146881309822 0.35734024057335978 0 0.26240083601839698 0.33727672217147331 0 0.26240083601839698 0.33727672217147331 0 0.27184092000699639 0.33891315949469752 0 0.27388917516664008 0.32964775149744319 0 0.26240083601839698 0.33727672217147331 0 0.27388917516664008 0.32964775149744319 0 0.26677092012209491 0.32204036282613252 0 0.27030047393074008 0.3474963096498429 0 0.26240083601839698 0.33727672217147331 0 0.27184092000699639 0.33891315949469752 0 0.27030047393074008 0.3474963096498429 0 0.27184092000699639 0.33891315949469752 0 0.28068773357058369 0.34198453751068081 0 0.27184092000699639 0.33891315949469752 0 0.28068773357058369 0.34198453751068081 0 0.27388917516664008 0.32964775149744319 0 0.28068773357058369 0.34198453751068081 0 0.27388917516664008 0.32964775149744319 0 0.28570907475377572 0.33188311037056872 0 0.27388917516664008 0.32964775149744319 0 0.26677092012209491 0.32204036282613252 0 0.28178409254690689 0.31684790712797722 0 0.27388917516664008 0.32964775149744319 0 0.28178409254690689 0.31684790712797722 0 0.28570907475377572 0.33188311037056872 0 0.26677092012209491 0.32204036282613252 0 0.28178409254690689 0.31684790712797722 0 0.26836904206483531 0.31075971332937607 0 0.28178409254690689 0.31684790712797722 0 0.29262159606390598 0.32453461147271162 0 0.29660332646403359 0.30785121346786842 0 0.28178409254690689 0.31684790712797722 0 0.29262159606390598 0.32453461147271162 0 0.28570907475377572 0.33188311037056872 0 0.28068773357058369 0.34198453751068081 0 0.28570907475377572 0.33188311037056872 0 0.28998304713239348 0.34105976447064218 0 0.29262159606390598 0.32453461147271162 0 0.28570907475377572 0.33188311037056872 0 0.29603465069114282 0.33553421189107618 0 0.29720735802849829 0.34424744790442102 0 0.29603465069114282 0.33553421189107618 0 0.28998304713239348 0.34105976447064218 0 0.28570907475377572 0.33188311037056872 0 0.29603465069114282 0.33553421189107618 0 0.28998304713239348 0.34105976447064218 0 0.29720735802849829 0.34424744790442102 0 0.29603465069114282 0.33553421189107618 0 0.30654896287530792 0.34033791233229299 0 0.29603465069114282 0.33553421189107618 0 0.30654896287530792 0.34033791233229299 0 0.30445412428221041 0.32558903425911379 0 0.29262159606390598 0.32453461147271162 0 0.29603465069114282 0.33553421189107618 0 0.30445412428221041 0.32558903425911379 0 0.31484893044661 0.32778579360563193 0 0.30654896287530792 0.34033791233229299 0 0.30445412428221041 0.32558903425911379 0 0.31767498628904178 0.33862919533695518 0 0.31315570067328902 0.3464643712977632 0 0.30654896287530792 0.34033791233229299 0 0.30445412428221041 0.32558903425911379 0 0.29660332646403359 0.30785121346786842 0 0.31440941436971798 0.31242774502049953 0 0.29262159606390598 0.32453461147271162 0 0.30445412428221041 0.32558903425911379 0 0.29660332646403359 0.30785121346786842 0 0.31484893044661 0.32778579360563193 0 0.30445412428221041 0.32558903425911379 0 0.31440941436971798 0.31242774502049953 0 0.30822946874662033 0.29998271616579031 0 0.29660332646403359 0.30785121346786842 0 0.31440941436971798 0.31242774502049953 0 0.30822946874662033 0.29998271616579031 0 0.30055108247350393 0.28416894361273021 0 0.29660332646403359 0.30785121346786842 0 0.30822946874662033 0.29998271616579031 0 0.30055108247350393 0.28416894361273021 0 0.32109763140443309 0.29547610107375327 0 0.30055108247350393 0.28416894361273021 0 0.29660332646403359 0.30785121346786842 0 0.27430616976337108 0.29100628718303567 0 0.30055108247350393 0.28416894361273021 0 0.27430616976337108 0.29100628718303567 0 0.28443506245096839 0.27205148705280008 0 0.30055108247350393 0.28416894361273021 0 0.27430616976337108 0.29100628718303567 0 0.28178409254690689 0.31684790712797722 0 0.29660332646403359 0.30785121346786842 0 0.27430616976337108 0.29100628718303567 0 0.28178409254690689 0.31684790712797722 0 0.26836904206483531 0.31075971332937607 0 0.27430616976337108 0.29100628718303567 0 0.28178409254690689 0.31684790712797722 0 0.27430616976337108 0.29100628718303567 0 0.27430616976337108 0.29100628718303567 0 0.25121587924780342 0.29702178630611242 0 0.27430616976337108 0.29100628718303567 0 0.25953152444998728 0.28294166139542631 0 0.25121587924780342 0.29702178630611242 0 0.26836904206483531 0.31075971332937607 0 0.27430616976337108 0.29100628718303567 0 0.25121587924780342 0.29702178630611242 0 0.26836904206483531 0.31075971332937607 0 0.25121587924780342 0.29702178630611242 0 0.2484846271056145 0.31037308609574782 0 0.26836904206483531 0.31075971332937607 0 0.25121587924780342 0.29702178630611242 0 0.25102838231212438 0.26850893423506528 0 0.26790857605335527 0.26889798384773289 0 0.26221447651104962 0.2479993693513689 0 0.26790857605335527 0.26889798384773289 0 0.26221447651104962 0.2479993693513689 0 0.25953152444998728 0.28294166139542631 0 0.25102838231212438 0.26850893423506528 0 0.26790857605335527 0.26889798384773289 0 0.27430616976337108 0.29100628718303567 0 0.26790857605335527 0.26889798384773289 0 0.28443506245096839 0.27205148705280008 0 0.27430616976337108 0.29100628718303567 0 0.25953152444998728 0.28294166139542631 0 0.26790857605335527 0.26889798384773289 0 0.27430616976337108 0.29100628718303567 0 0.26790857605335527 0.26889798384773289 0 0.26790857605335527 0.26889798384773289 0 0.28119448123381058 0.25405304303149878 0 0.26221447651104962 0.2479993693513689 0 0.26790857605335527 0.26889798384773289 0 0.28119448123381058 0.25405304303149878 0 0.28443506245096839 0.27205148705280008 0 0.28119448123381058 0.25405304303149878 0 0.28443506245096839 0.27205148705280008 0 0.2982150027308012 0.26213117758900317 0 0.28119448123381058 0.25405304303149878 0 0.2982150027308012 0.26213117758900317 0 0.30328699804120918 0.24394477185791469 0 0.30055108247350393 0.28416894361273021 0 0.28443506245096839 0.27205148705280008 0 0.2982150027308012 0.26213117758900317 0 0.30055108247350393 0.28416894361273021 0 0.2982150027308012 0.26213117758900317 0 0.31879452400631653 0.25919465198291952 0 0.2982150027308012 0.26213117758900317 0 0.31879452400631653 0.25919465198291952 0 0.30328699804120918 0.24394477185791469 0 0.31879452400631653 0.25919465198291952 0 0.33092809789354199 0.24744869965648561 0 0.31845456220733243 0.24449663650262579 0 0.31879452400631653 0.25919465198291952 0 0.33565265393095528 0.25675142138279861 0 0.33982225619875311 0.26765994074234428 0 0.31879452400631653 0.25919465198291952 0 0.33982225619875311 0.26765994074234428 0 0.31879452400631653 0.25919465198291952 0 0.33565265393095528 0.25675142138279861 0 0.33092809789354199 0.24744869965648561 0 0.33565265393095528 0.25675142138279861 0 0.33982225619875311 0.26765994074234428 0 0.34536281311255052 0.25941060478944128 0 0.33565265393095528 0.25675142138279861 0 0.3433555784436142 0.25004320974280247 0 0.33092809789354199 0.24744869965648561 0 0.33565265393095528 0.25675142138279861 0 0.3433555784436142 0.25004320974280247 0 0.34536281311255052 0.25941060478944128 0 0.31879452400631653 0.25919465198291952 0 0.33982225619875311 0.26765994074234428 0 0.32679599518363661 0.27733160004242491 0 0.33982225619875311 0.26765994074234428 0 0.32679599518363661 0.27733160004242491 0 0.34056182851336592 0.28206143899133118 0 0.30055108247350393 0.28416894361273021 0 0.32679599518363661 0.27733160004242491 0 0.30055108247350393 0.28416894361273021 0 0.31879452400631653 0.25919465198291952 0 0.32679599518363661 0.27733160004242491 0 0.32679599518363661 0.27733160004242491 0 0.32109763140443309 0.29547610107375327 0 0.33248404658197278 0.28876668272462419 0 0.30055108247350393 0.28416894361273021 0 0.32679599518363661 0.27733160004242491 0 0.32109763140443309 0.29547610107375327 0 0.32109763140443309 0.29547610107375327 0 0.31440941436971798 0.31242774502049953 0 0.32867162081685902 0.31028670060733149 0 0.30822946874662033 0.29998271616579031 0 0.32109763140443309 0.29547610107375327 0 0.31440941436971798 0.31242774502049953 0 0.32867162081685902 0.31028670060733149 0 0.33472549883669622 0.29791121211074773 0 0.34192449374142192 0.30753297203612773 0 0.32109763140443309 0.29547610107375327 0 0.32867162081685902 0.31028670060733149 0 0.33472549883669622 0.29791121211074773 0 0.33472549883669622 0.29791121211074773 0 0.34281583705185747 0.29966479619329672 0 0.34192449374142192 0.30753297203612773 0 0.33769186663180051 0.31814262317354819 0 0.32867162081685902 0.31028670060733149 0 0.34192449374142192 0.30753297203612773 0 0.32679599518363661 0.27733160004242491 0 0.33248404658197278 0.28876668272462419 0 0.34056182851336592 0.28206143899133118 0 0.32109763140443309 0.29547610107375327 0 0.33472549883669622 0.29791121211074773 0 0.33248404658197278 0.28876668272462419 0 0.33472549883669622 0.29791121211074773 0 0.33248404658197278 0.28876668272462419 0 0.34417327957572558 0.29277050597204329 0 0.33472549883669622 0.29791121211074773 0 0.34281583705185747 0.29966479619329672 0 0.34417327957572558 0.29277050597204329 0 0.33248404658197278 0.28876668272462419 0 0.34056182851336592 0.28206143899133118 0 0.34417327957572558 0.29277050597204329 0 0.34056182851336592 0.28206143899133118 0 0.34979868535227071 0.28728326233729501 0 0.34417327957572558 0.29277050597204329 0 0.34056182851336592 0.28206143899133118 0 0.34979868535227071 0.28728326233729501 0 0.35183199075491411 0.27966461044832719 0 0.34417327957572558 0.29277050597204329 0 0.35334053836337709 0.29410458558147129 0 0.34972900846361488 0.30172704795696642 0 0.34979868535227071 0.28728326233729501 0 0.34417327957572558 0.29277050597204329 0 0.35334053836337709 0.29410458558147129 0 0.34979868535227071 0.28728326233729501 0 0.35334053836337709 0.29410458558147129 0 0.35722235408413222 0.28831366276426512 0 0.35334053836337709 0.29410458558147129 0 0.35826071325737319 0.3003277240158499 0 0.36091512844171192 0.29433704443458902 0 0.35334053836337709 0.29410458558147129 0 0.35722235408413222 0.28831366276426512 0 0.36091512844171192 0.29433704443458902 0 0.34979868535227071 0.28728326233729501 0 0.35722235408413222 0.28831366276426512 0 0.35183199075491411 0.27966461044832719 0 0.35722235408413222 0.28831366276426512 0 0.36152496379752869 0.28359539021876212 0 0.35183199075491411 0.27966461044832719 0 0.34480088275632298 0.31606258733578418 0 0.34192449374142192 0.30753297203612773 0 0.35090510471213721 0.31152713165908658 0 0.34192449374142192 0.30753297203612773 0 0.35090510471213721 0.31152713165908658 0 0.34972900846361488 0.30172704795696642 0 0.34281583705185747 0.29966479619329672 0 0.34417327957572558 0.29277050597204329 0 0.34972900846361488 0.30172704795696642 0 0.34281583705185747 0.29966479619329672 0 0.34192449374142192 0.30753297203612773 0 0.34972900846361488 0.30172704795696642 0 0.34972900846361488 0.30172704795696642 0 0.35826071325737319 0.3003277240158499 0 0.35721607615581658 0.30656573559573969 0 0.35334053836337709 0.29410458558147129 0 0.34972900846361488 0.30172704795696642 0 0.35826071325737319 0.3003277240158499 0 0.35090510471213721 0.31152713165908658 0 0.34972900846361488 0.30172704795696642 0 0.35721607615581658 0.30656573559573969 0 0.35878641637012221 0.31305233625990619 0 0.35090510471213721 0.31152713165908658 0 0.35721607615581658 0.30656573559573969 0 0.37014896644917339 0.316543878568457 0 0.37763341047385651 0.29079382019339128 0 0.37014896644917339 0.316543878568457 0 0.37108481648816682 0.30013899891886681 0 0.36845835323010317 0.30596496181531441 0 0.37014896644917339 0.316543878568457 0 0.37763341047385651 0.29079382019339128 0 0.37695808612291098 0.31120865645681561 0 0.37014896644917339 0.316543878568457 0 0.37108481648816682 0.30013899891886681 0 0.37763341047385651 0.29079382019339128 0 0.36630954626425261 0.31087512405144152 0 0.36228941999803421 0.30896529616435242 0 0.36543096483439103 0.3064802843427199 0 0.36331333565659901 0.31283202127524651 0 0.36630954626425261 0.31087512405144152 0 0.36228941999803421 0.30896529616435242 0 0.36331333565659901 0.31283202127524651 0 0.35878641637012221 0.31305233625990619 0 0.36228941999803421 0.30896529616435242 0 0.35878641637012221 0.31305233625990619 0 0.35721607615581658 0.30656573559573969 0 0.36228941999803421 0.30896529616435242 0 0.35721607615581658 0.30656573559573969 0 0.36228941999803421 0.30896529616435242 0 0.36268018070702418 0.30398627546106088 0 0.36630954626425261 0.31087512405144152 0 0.36543096483439103 0.3064802843427199 0 0.36845835323010317 0.30596496181531441 0 0.36228941999803421 0.30896529616435242 0 0.36543096483439103 0.3064802843427199 0 0.36268018070702418 0.30398627546106088 0 0.36543096483439103 0.3064802843427199 0 0.36607900901995372 0.30349396637540749 0 0.36845835323010317 0.30596496181531441 0 0.36607900901995372 0.30349396637540749 0 0.36268018070702418 0.30398627546106088 0 0.36558719123160882 0.29969948119116269 0 0.36607900901995372 0.30349396637540749 0 0.36558719123160882 0.29969948119116269 0 0.36823835509664099 0.30133882906677939 0 0.36543096483439103 0.3064802843427199 0 0.36607900901995372 0.30349396637540749 0 0.36268018070702418 0.30398627546106088 0 0.35826071325737319 0.3003277240158499 0 0.35721607615581658 0.30656573559573969 0 0.36268018070702418 0.30398627546106088 0 0.35826071325737319 0.3003277240158499 0 0.36268018070702418 0.30398627546106088 0 0.36558719123160882 0.29969948119116269 0 0.35826071325737319 0.3003277240158499 0 0.36558719123160882 0.29969948119116269 0 0.36091512844171192 0.29433704443458902 0 0.36871223371641282 0.29817542324200702 0 0.37108481648816682 0.30013899891886681 0 0.37014933742706652 0.29575476169949788 0 0.36558719123160882 0.29969948119116269 0 0.36871223371641282 0.29817542324200702 0 0.36734652779664789 0.29411680932906442 0 0.36558719123160882 0.29969948119116269 0 0.36871223371641282 0.29817542324200702 0 0.36823835509664099 0.30133882906677939 0 0.36871223371641282 0.29817542324200702 0 0.37108481648816682 0.30013899891886681 0 0.36823835509664099 0.30133882906677939 0 0.37108481648816682 0.30013899891886681 0 0.36823835509664099 0.30133882906677939 0 0.36845835323010317 0.30596496181531441 0 0.36607900901995372 0.30349396637540749 0 0.36823835509664099 0.30133882906677939 0 0.36845835323010317 0.30596496181531441 0 0.37014896644917339 0.316543878568457 0 0.36630954626425261 0.31087512405144152 0 0.36845835323010317 0.30596496181531441 0 0.36812955944888692 0.28419813691800921 0 0.36084998839118931 0.2761252295017701 0 0.37969218042614078 0.28371066929036243 0 0.36152496379752869 0.28359539021876212 0 0.36812955944888692 0.28419813691800921 0 0.36084998839118931 0.2761252295017701 0 0.36414496955441777 0.28941104037434479 0 0.36911771796651938 0.28986917351547109 0 0.36812955944888692 0.28419813691800921 0 0.36152496379752869 0.28359539021876212 0 0.36414496955441777 0.28941104037434479 0 0.36812955944888692 0.28419813691800921 0 0.35722235408413222 0.28831366276426512 0 0.36152496379752869 0.28359539021876212 0 0.36414496955441777 0.28941104037434479 0 0.35722235408413222 0.28831366276426512 0 0.36091512844171192 0.29433704443458902 0 0.36414496955441777 0.28941104037434479 0 0.36558719123160882 0.29969948119116269 0 0.36091512844171192 0.29433704443458902 0 0.36734652779664789 0.29411680932906442 0 0.36091512844171192 0.29433704443458902 0 0.36414496955441777 0.28941104037434479 0 0.36734652779664789 0.29411680932906442 0 0.36414496955441777 0.28941104037434479 0 0.36911771796651938 0.28986917351547109 0 0.36734652779664789 0.29411680932906442 0 0.36911771796651938 0.28986917351547109 0 0.37026464520563152 0.29279186409727531 0 0.36734652779664789 0.29411680932906442 0 0.37108481648816682 0.30013899891886681 0 0.37306860395079622 0.29341917559567809 0 0.37763341047385651 0.29079382019339128 0 0.36911771796651938 0.28986917351547109 0 0.37026464520563152 0.29279186409727531 0 0.37237913536365119 0.29056320862162688 0 0.36871223371641282 0.29817542324200702 0 0.36734652779664789 0.29411680932906442 0 0.37014933742706652 0.29575476169949788 0 0.37026464520563152 0.29279186409727531 0 0.36734652779664789 0.29411680932906442 0 0.37014933742706652 0.29575476169949788 0 0.37108481648816682 0.30013899891886681 0 0.37014933742706652 0.29575476169949788 0 0.37306860395079622 0.29341917559567809 0 0.37026464520563152 0.29279186409727531 0 0.37014933742706652 0.29575476169949788 0 0.37306860395079622 0.29341917559567809 0 0.36911771796651938 0.28986917351547109 0 0.37237913536365119 0.29056320862162688 0 0.37333201972158658 0.2878654242033048 0 0.37306860395079622 0.29341917559567809 0 0.37237913536365119 0.29056320862162688 0 0.37763341047385651 0.29079382019339128 0 0.37237913536365119 0.29056320862162688 0 0.37333201972158658 0.2878654242033048 0 0.37763341047385651 0.29079382019339128 0 0.37026464520563152 0.29279186409727531 0 0.37306860395079622 0.29341917559567809 0 0.37237913536365119 0.29056320862162688 0 0.37333201972158658 0.2878654242033048 0 0.36812955944888692 0.28419813691800921 0 0.37969218042614078 0.28371066929036243 0 0.36911771796651938 0.28986917351547109 0 0.37333201972158658 0.2878654242033048 0 0.36812955944888692 0.28419813691800921 0 0.36084998839118931 0.2761252295017701 0 0.37969218042614078 0.28371066929036243 0 0.36084998839118931 0.2761252295017701 0 0.37017340450925651 0.266060206293324 0 0.3539366042426153 0.26554047293381039 0 0.36084998839118931 0.2761252295017701 0 0.38460708535355081 0.26680105137204091 0 0.36084998839118931 0.2761252295017701 0 0.37017340450925651 0.266060206293324 0 0.38460708535355081 0.26680105137204091 0 0.3539366042426153 0.26554047293381039 0 0.38129994004966872 0.25577407136566988 0 0.37169426656027921 0.24972740256563611 0 0.37017340450925651 0.266060206293324 0 0.3539366042426153 0.26554047293381039 0 0.38129994004966872 0.25577407136566988 0 0.3539366042426153 0.26554047293381039 0 0.37169426656027921 0.24972740256563611 0 0.36205361842742478 0.24882498742118489 0 0.3539366042426153 0.26554047293381039 0 0.38129994004966872 0.25577407136566988 0 0.3539366042426153 0.26554047293381039 0 0.35175757775775729 0.2532797976346674 0 0.36205361842742478 0.24882498742118489 0 0.3433555784436142 0.25004320974280247 0 0.35175757775775729 0.2532797976346674 0 0.34536281311255052 0.25941060478944128 0 0.33982225619875311 0.26765994074234428 0 0.3539366042426153 0.26554047293381039 0 0.34536281311255052 0.25941060478944128 0 0.3539366042426153 0.26554047293381039 0 0.35175757775775729 0.2532797976346674 0 0.34536281311255052 0.25941060478944128 0 0.33982225619875311 0.26765994074234428 0 0.36084998839118931 0.2761252295017701 0 0.33982225619875311 0.26765994074234428 0 0.36084998839118931 0.2761252295017701 0 0.3539366042426153 0.26554047293381039 0 0.33982225619875311 0.26765994074234428 0 0.36084998839118931 0.2761252295017701 0 0.35183199075491411 0.27966461044832719 0 0.33982225619875311 0.26765994074234428 0 0.34056182851336592 0.28206143899133118 0 0.35183199075491411 0.27966461044832719 0 0.36152496379752869 0.28359539021876212 0 0.36084998839118931 0.2761252295017701 0 0.35183199075491411 0.27966461044832719 0 0.36084998839118931 0.2761252295017701 0 0.35183199075491411 0.27966461044832719 0 0.39945440726228237 0.27350419034528239 0 0.38460708535355081 0.26680105137204091 0 0.40768566828284042 0.25774317622192677 0 0.39945440726228237 0.27350419034528239 0 0.4092682188351508 0.26816031590002881 0 0.40768566828284042 0.25774317622192677 0 0.39945440726228237 0.27350419034528239 0 0.38460708535355081 0.26680105137204091 0 0.3904751567012596 0.27530993325585928 0 0.39945440726228237 0.27350419034528239 0 0.3904751567012596 0.27530993325585928 0 0.39488150240831521 0.28173053148540511 0 0.39945440726228237 0.27350419034528239 0 0.40366985246608472 0.28285995447659418 0 0.40929088926209078 0.279020096056181 0 0.39945440726228237 0.27350419034528239 0 0.4092682188351508 0.26816031590002881 0 0.40929088926209078 0.279020096056181 0 0.39945440726228237 0.27350419034528239 0 0.39488150240831521 0.28173053148540511 0 0.40366985246608472 0.28285995447659418 0 0.38783836144724232 0.2556839199238965 0 0.38129994004966872 0.25577407136566988 0 0.40866327585672191 0.24600766979752939 0 0.38460708535355081 0.26680105137204091 0 0.40768566828284042 0.25774317622192677 0 0.38783836144724232 0.2556839199238965 0 0.40768566828284042 0.25774317622192677 0 0.40866327585672191 0.24600766979752939 0 0.38783836144724232 0.2556839199238965 0 0.38460708535355081 0.26680105137204091 0 0.40768566828284042 0.25774317622192677 0 0.38129994004966872 0.25577407136566988 0 0.40866327585672191 0.24600766979752939 0 0.38783836144724232 0.2556839199238965 0 0.38129994004966872 0.25577407136566988 0 0.38460708535355081 0.26680105137204091 0 0.38783836144724232 0.2556839199238965 0 0.38460708535355081 0.26680105137204091 0 0.38129994004966872 0.25577407136566988 0 0.37169426656027921 0.24972740256563611 0 0.38106847269238292 0.24536179082341181 0 0.37017340450925651 0.266060206293324 0 0.38129994004966872 0.25577407136566988 0 0.38460708535355081 0.26680105137204091 0 0.36084998839118931 0.2761252295017701 0 0.38460708535355081 0.26680105137204091 0 0.37969218042614078 0.28371066929036243 0 0.38460708535355081 0.26680105137204091 0 0.3904751567012596 0.27530993325585928 0 0.37969218042614078 0.28371066929036243 0 0.38460708535355081 0.26680105137204091 0 0.37969218042614078 0.28371066929036243 0 0.3904751567012596 0.27530993325585928 0 0.37969218042614078 0.28371066929036243 0 0.39488150240831521 0.28173053148540511 0 0.37969218042614078 0.28371066929036243 0 0.37763341047385651 0.29079382019339128 0 0.40259214502479168 0.29292967641552992 0 0.37763341047385651 0.29079382019339128 0 0.4027243230010164 0.30147339632314252 0 0.37969218042614078 0.28371066929036243 0 0.37763341047385651 0.29079382019339128 0 0.37333201972158658 0.2878654242033048 0 0.37969218042614078 0.28371066929036243 0 0.37763341047385651 0.29079382019339128 0 0.37763341047385651 0.29079382019339128 0 0.37695808612291098 0.31120865645681561 0 0.38599374742651271 0.30414296713942529 0 0.37763341047385651 0.29079382019339128 0 0.38599374742651271 0.30414296713942529 0 0.4027243230010164 0.30147339632314252 0 0.37695808612291098 0.31120865645681561 0 0.38599374742651271 0.30414296713942529 0 0.38754735899376969 0.31282171123814728 0 0.38599374742651271 0.30414296713942529 0 0.4027243230010164 0.30147339632314252 0 0.38754735899376969 0.31282171123814728 0 0.4027243230010164 0.30147339632314252 0 0.3956366020903157 0.32248231082130752 0 0.38754735899376969 0.31282171123814728 0 0.37969218042614078 0.28371066929036243 0 0.40259214502479168 0.29292967641552992 0 0.37969218042614078 0.28371066929036243 0 0.39488150240831521 0.28173053148540511 0 0.40259214502479168 0.29292967641552992 0 0.37763341047385651 0.29079382019339128 0 0.4027243230010164 0.30147339632314252 0 0.40259214502479168 0.29292967641552992 0 0.4027243230010164 0.30147339632314252 0 0.40259214502479168 0.29292967641552992 0 0.41139710839419091 0.29189735433941028 0 0.40259214502479168 0.29292967641552992 0 0.40366985246608472 0.28285995447659418 0 0.41139710839419091 0.29189735433941028 0 0.39488150240831521 0.28173053148540511 0 0.40259214502479168 0.29292967641552992 0 0.40366985246608472 0.28285995447659418 0 0.40366985246608472 0.28285995447659418 0 0.41139710839419091 0.29189735433941028 0 0.40929088926209078 0.279020096056181 0 0.41139710839419091 0.29189735433941028 0 0.42781523552817591 0.31215297245289481 0 0.42226183937510081 0.28327127115801121 0 0.41139710839419091 0.29189735433941028 0 0.42226183937510081 0.28327127115801121 0 0.40929088926209078 0.279020096056181 0 0.4027243230010164 0.30147339632314252 0 0.41139710839419091 0.29189735433941028 0 0.42781523552817591 0.31215297245289481 0 0.4027243230010164 0.30147339632314252 0 0.42781523552817591 0.31215297245289481 0 0.41357021602424721 0.32279281759874212 0 0.4027243230010164 0.30147339632314252 0 0.42781523552817591 0.31215297245289481 0 0.42781523552817591 0.31215297245289481 0 0.42226183937510081 0.28327127115801121 0 0.42781523552817591 0.31215297245289481 0 0.42226183937510081 0.28327127115801121 0 0.44120727567718632 0.28746005308771089 0 0.42226183937510081 0.28327127115801121 0 0.43023391716603732 0.27040224467912161 0 0.44120727567718632 0.28746005308771089 0 0.42226183937510081 0.28327127115801121 0 0.43023391716603732 0.27040224467912161 0 0.41664462513020523 0.25422696758609492 0 0.43023391716603732 0.27040224467912161 0 0.43692075095235122 0.26433370861442979 0 0.44373838257505849 0.27050131303512348 0 0.42226183937510081 0.28327127115801121 0 0.4092682188351508 0.26816031590002881 0 0.41664462513020523 0.25422696758609492 0 0.42226183937510081 0.28327127115801121 0 0.41664462513020523 0.25422696758609492 0 0.42226183937510081 0.28327127115801121 0 0.4092682188351508 0.26816031590002881 0 0.40929088926209078 0.279020096056181 0 0.40768566828284042 0.25774317622192677 0 0.41664462513020523 0.25422696758609492 0 0.40866327585672191 0.24600766979752939 0 0.40768566828284042 0.25774317622192677 0 0.41664462513020523 0.25422696758609492 0 0.4092682188351508 0.26816031590002881 0 0.40768566828284042 0.25774317622192677 0 0.41664462513020523 0.25422696758609492 0 0.42749544465446981 0.25699566217507153 0 0.45166362976964691 0.25106894999712381 0 0.43076425121212841 0.2486853010718087 0 0.41664462513020523 0.25422696758609492 0 0.42749544465446981 0.25699566217507153 0 0.43076425121212841 0.2486853010718087 0 0.43023391716603732 0.27040224467912161 0 0.41664462513020523 0.25422696758609492 0 0.42749544465446981 0.25699566217507153 0 0.41664462513020523 0.25422696758609492 0 0.43076425121212841 0.2486853010718087 0 0.42749544465446981 0.25699566217507153 0 0.43692075095235122 0.26433370861442979 0 0.44456450099631911 0.26043047377218492 0 0.43023391716603732 0.27040224467912161 0 0.42749544465446981 0.25699566217507153 0 0.43692075095235122 0.26433370861442979 0 0.42749544465446981 0.25699566217507153 0 0.45166362976964691 0.25106894999712381 0 0.42749544465446981 0.25699566217507153 0 0.44456450099631911 0.26043047377218492 0 0.45166362976964691 0.25106894999712381 0 0.43692075095235122 0.26433370861442979 0 0.44456450099631911 0.26043047377218492 0 0.44373838257505849 0.27050131303512348 0 0.44456450099631911 0.26043047377218492 0 0.44373838257505849 0.27050131303512348 0 0.45508065662597141 0.26402805921732958 0 0.44456450099631911 0.26043047377218492 0 0.45166362976964691 0.25106894999712381 0 0.45508065662597141 0.26402805921732958 0 0.44373838257505849 0.27050131303512348 0 0.45472874274978531 0.27586911806656422 0 0.44120727567718632 0.28746005308771089 0 0.43023391716603732 0.27040224467912161 0 0.44373838257505849 0.27050131303512348 0 0.44120727567718632 0.28746005308771089 0 0.44373838257505849 0.27050131303512348 0 0.45472874274978531 0.27586911806656422 0 0.45508065662597141 0.26402805921732958 0 0.45472874274978531 0.27586911806656422 0 0.46665275363318931 0.27127710252775639 0 0.46192346945889701 0.28817835066990299 0 0.45472874274978531 0.27586911806656422 0 0.46665275363318931 0.27127710252775639 0 0.45508065662597141 0.26402805921732958 0 0.45166362976964691 0.25106894999712381 0 0.46652816171208539 0.25830808769848879 0 0.47583181488482379 0.2451422378191761 0 0.45166362976964691 0.25106894999712381 0 0.45508065662597141 0.26402805921732958 0 0.46652816171208539 0.25830808769848879 0 0.46665275363318931 0.27127710252775639 0 0.45508065662597141 0.26402805921732958 0 0.46652816171208539 0.25830808769848879 0 0.46665275363318931 0.27127710252775639 0 0.46652816171208539 0.25830808769848879 0 0.48341195364679568 0.26002408893105827 0 0.46652816171208539 0.25830808769848879 0 0.48341195364679568 0.26002408893105827 0 0.47583181488482379 0.2451422378191761 0 0.46665275363318931 0.27127710252775639 0 0.48341195364679568 0.26002408893105827 0 0.48138518434246891 0.28130646820503019 0 0.46665275363318931 0.27127710252775639 0 0.48138518434246891 0.28130646820503019 0 0.46192346945889701 0.28817835066990299 0 0.5 0.26671351767664991 0 0.5 0.29421150971207138 0 0.48138518434246891 0.28130646820503019 0 0.48341195364679568 0.26002408893105827 0 0.5 0.26671351767664991 0 0.48138518434246891 0.28130646820503019 0 0.48341195364679568 0.26002408893105827 0 0.5 0.26671351767664991 0 0.50000000000000067 0.2392155256412283 0 0.5 0.29421150971207138 0 0.47556093647901088 0.30733800586058863 0 0.5 0.32170950174749302 0 0.5 0.29421150971207138 0 0.48138518434246891 0.28130646820503019 0 0.47556093647901088 0.30733800586058863 0 0.48138518434246891 0.28130646820503019 0 0.47556093647901088 0.30733800586058863 0 0.46192346945889701 0.28817835066990299 0 0.47556093647901088 0.30733800586058863 0 0.45214514511688908 0.30370412902975941 0 0.45421880844117613 0.32339126307769928 0 0.47556093647901088 0.30733800586058863 0 0.46192346945889701 0.28817835066990299 0 0.45214514511688908 0.30370412902975941 0 0.46192346945889701 0.28817835066990299 0 0.44120727567718632 0.28746005308771089 0 0.45214514511688908 0.30370412902975941 0 0.45472874274978531 0.27586911806656422 0 0.46192346945889701 0.28817835066990299 0 0.44120727567718632 0.28746005308771089 0 0.42781523552817591 0.31215297245289481 0 0.44120727567718632 0.28746005308771089 0 0.45214514511688908 0.30370412902975941 0 0.42781523552817591 0.31215297245289481 0 0.45421880844117613 0.32339126307769928 0 0.43298436918619881 0.33903622913929549 0 0.42781523552817591 0.31215297245289481 0 0.45214514511688908 0.30370412902975941 0 0.45421880844117613 0.32339126307769928 0 0.42781523552817591 0.31215297245289481 0 0.45421880844117613 0.32339126307769928 0 0.45421880844117613 0.32339126307769928 0 0.45970761232660212 0.34692044601787542 0 0.43298436918619881 0.33903622913929549 0 0.45421880844117613 0.32339126307769928 0 0.48062238135417568 0.33462955370250519 0 0.45421880844117613 0.32339126307769928 0 0.48062238135417568 0.33462955370250519 0 0.45970761232660212 0.34692044601787542 0 0.47556093647901088 0.30733800586058863 0 0.45421880844117613 0.32339126307769928 0 0.48062238135417568 0.33462955370250519 0 0.48062238135417568 0.33462955370250519 0 0.5 0.32170950174749302 0 0.5 0.34920749378291471 0 0.47556093647901088 0.30733800586058863 0 0.48062238135417568 0.33462955370250519 0 0.5 0.32170950174749302 0 0.5 0.34920749378291471 0 0.48254603458521478 0.3522402998402685 0 0.5 0.37670548581833618 0 0.48062238135417568 0.33462955370250519 0 0.5 0.34920749378291471 0 0.48254603458521478 0.3522402998402685 0 0.48254603458521478 0.3522402998402685 0 0.46972057754862501 0.36630584452178799 0 0.45970761232660212 0.34692044601787542 0 0.48062238135417568 0.33462955370250519 0 0.48254603458521478 0.3522402998402685 0 0.45970761232660212 0.34692044601787542 0 0.48254603458521478 0.3522402998402685 0 0.46972057754862501 0.36630584452178799 0 0.5 0.37670548581833618 0 0.46972057754862501 0.36630584452178799 0 0.43815350284422228 0.36591948582569622 0 0.45848938469160699 0.38276388730883248 0 0.46972057754862501 0.36630584452178799 0 0.45970761232660212 0.34692044601787542 0 0.43815350284422228 0.36591948582569622 0 0.45970761232660212 0.34692044601787542 0 0.43815350284422228 0.36591948582569622 0 0.43298436918619881 0.33903622913929549 0 0.43815350284422228 0.36591948582569622 0 0.4167242930516859 0.35972934744593471 0 0.42344095457037051 0.38268701701273461 0 0.4167242930516859 0.35972934744593471 0 0.40101385701800268 0.38518895784325291 0 0.4167242930516859 0.35972934744593471 0 0.40181680918128981 0.35947395412181382 0 0.40101385701800268 0.38518895784325291 0 0.4167242930516859 0.35972934744593471 0 0.40869055031553031 0.33881917925707022 0 0.40181680918128981 0.35947395412181382 0 0.4167242930516859 0.35972934744593471 0 0.43298436918619881 0.33903622913929549 0 0.40869055031553031 0.33881917925707022 0 0.43815350284422228 0.36591948582569622 0 0.4167242930516859 0.35972934744593471 0 0.43298436918619881 0.33903622913929549 0 0.43815350284422228 0.36591948582569622 0 0.43298436918619881 0.33903622913929549 0 0.42781523552817591 0.31215297245289481 0 0.43298436918619881 0.33903622913929549 0 0.42781523552817591 0.31215297245289481 0 0.43298436918619881 0.33903622913929549 0 0.41357021602424721 0.32279281759874212 0 0.43298436918619881 0.33903622913929549 0 0.41357021602424721 0.32279281759874212 0 0.40869055031553031 0.33881917925707022 0 0.40869055031553031 0.33881917925707022 0 0.39369601167170543 0.33564153172070438 0 0.39209274976778918 0.34814598654190299 0 0.40869055031553031 0.33881917925707022 0 0.39369601167170543 0.33564153172070438 0 0.3956366020903157 0.32248231082130752 0 0.39369601167170543 0.33564153172070438 0 0.3956366020903157 0.32248231082130752 0 0.38362385659697051 0.32926172455430031 0 0.39369601167170543 0.33564153172070438 0 0.38635485741833753 0.33883185827426582 0 0.39209274976778918 0.34814598654190299 0 0.41357021602424721 0.32279281759874212 0 0.40869055031553031 0.33881917925707022 0 0.3956366020903157 0.32248231082130752 0 0.4027243230010164 0.30147339632314252 0 0.41357021602424721 0.32279281759874212 0 0.3956366020903157 0.32248231082130752 0 0.3956366020903157 0.32248231082130752 0 0.38754735899376969 0.31282171123814728 0 0.38479800915553353 0.32074741934569512 0 0.38754735899376969 0.31282171123814728 0 0.38479800915553353 0.32074741934569512 0 0.37917338616632867 0.3168755173424983 0 0.3956366020903157 0.32248231082130752 0 0.38479800915553353 0.32074741934569512 0 0.38362385659697051 0.32926172455430031 0 0.38479800915553353 0.32074741934569512 0 0.37832625022041982 0.32264150287239662 0 0.38362385659697051 0.32926172455430031 0 0.37577016905582622 0.32787937856968757 0 0.37832625022041982 0.32264150287239662 0 0.38362385659697051 0.32926172455430031 0 0.37577016905582622 0.32787937856968757 0 0.37506056064123422 0.32471797871916308 0 0.37832625022041982 0.32264150287239662 0 0.37368960646642962 0.31911015363466272 0 0.37506056064123422 0.32471797871916308 0 0.37832625022041982 0.32264150287239662 0 0.37695808612291098 0.31120865645681561 0 0.38754735899376969 0.31282171123814728 0 0.37917338616632867 0.3168755173424983 0 0.38479800915553353 0.32074741934569512 0 0.37832625022041982 0.32264150287239662 0 0.37917338616632867 0.3168755173424983 0 0.37368960646642962 0.31911015363466272 0 0.37832625022041982 0.32264150287239662 0 0.37917338616632867 0.3168755173424983 0 0.37499251130121058 0.31593455150060828 0 0.37368960646642962 0.31911015363466272 0 0.37917338616632867 0.3168755173424983 0 0.37499251130121058 0.31593455150060828 0 0.37695808612291098 0.31120865645681561 0 0.37917338616632867 0.3168755173424983 0 0.38635485741833753 0.33883185827426582 0 0.3795813787571668 0.3363772241379393 0 0.38278029029805521 0.34473282441648212 0 0.39369601167170543 0.33564153172070438 0 0.38635485741833753 0.33883185827426582 0 0.38362385659697051 0.32926172455430031 0 0.38635485741833753 0.33883185827426582 0 0.38362385659697051 0.32926172455430031 0 0.3795813787571668 0.3363772241379393 0 0.37577016905582622 0.32787937856968757 0 0.38362385659697051 0.32926172455430031 0 0.37868435463470768 0.3315773541462857 0 0.38362385659697051 0.32926172455430031 0 0.37868435463470768 0.3315773541462857 0 0.3795813787571668 0.3363772241379393 0 0.37577016905582622 0.32787937856968757 0 0.37868435463470768 0.3315773541462857 0 0.375263113682131 0.33313320718557798 0 0.37868435463470768 0.3315773541462857 0 0.375263113682131 0.33313320718557798 0 0.3795813787571668 0.3363772241379393 0 0.37369311900952262 0.33836265764115908 0 0.3795813787571668 0.3363772241379393 0 0.37670219357667811 0.34177383067972761 0 0.3795813787571668 0.3363772241379393 0 0.37670219357667811 0.34177383067972761 0 0.38278029029805521 0.34473282441648212 0 0.37369311900952262 0.33836265764115908 0 0.375263113682131 0.33313320718557798 0 0.3795813787571668 0.3363772241379393 0 0.3809821990389497 0.35490418517770578 0 0.39056259575344082 0.36548629952090861 0 0.39209274976778918 0.34814598654190299 0 0.37486749369974542 0.34694596905823039 0 0.37670219357667811 0.34177383067972761 0 0.38278029029805521 0.34473282441648212 0 0.37486749369974542 0.34694596905823039 0 0.38278029029805521 0.34473282441648212 0 0.3809821990389497 0.35490418517770578 0 0.38278029029805521 0.34473282441648212 0 0.3809821990389497 0.35490418517770578 0 0.39209274976778918 0.34814598654190299 0 0.38635485741833753 0.33883185827426582 0 0.38278029029805521 0.34473282441648212 0 0.39209274976778918 0.34814598654190299 0 0.37228166628853332 0.35471301169251829 0 0.37486749369974542 0.34694596905823039 0 0.3809821990389497 0.35490418517770578 0 0.37414389550204002 0.36898578533419818 0 0.3809821990389497 0.35490418517770578 0 0.39056259575344082 0.36548629952090861 0 0.37414389550204002 0.36898578533419818 0 0.39056259575344082 0.36548629952090861 0 0.40101385701800268 0.38518895784325291 0 0.37414389550204002 0.36898578533419818 0 0.37228166628853332 0.35471301169251829 0 0.3809821990389497 0.35490418517770578 0 0.39056259575344082 0.36548629952090861 0 0.40181680918128981 0.35947395412181382 0 0.40101385701800268 0.38518895784325291 0 0.39056259575344082 0.36548629952090861 0 0.40181680918128981 0.35947395412181382 0 0.39209274976778918 0.34814598654190299 0 0.40869055031553031 0.33881917925707022 0 0.40181680918128981 0.35947395412181382 0 0.39209274976778918 0.34814598654190299 0 0.40101385701800268 0.38518895784325291 0 0.38530342098431941 0.41064856824057122 0 0.40101385701800268 0.38518895784325291 0 0.38530342098431941 0.41064856824057122 0 0.41521715527738928 0.40390661881175682 0 0.3736470799201031 0.39378130610698531 0 0.37414389550204002 0.36898578533419818 0 0.40101385701800268 0.38518895784325291 0 0.3736470799201031 0.39378130610698531 0 0.40101385701800268 0.38518895784325291 0 0.38530342098431941 0.41064856824057122 0 0.36959298495063608 0.43610817863788948 0 0.38530342098431941 0.41064856824057122 0 0.36959298495063608 0.43610817863788948 0 0.38530342098431941 0.41064856824057122 0 0.3889231515195431 0.43141286456833011 0 0.3889231515195431 0.43141286456833011 0 0.40362265567455102 0.42304679086704539 0 0.39942544658573009 0.43872588670818857 0 0.40362265567455102 0.42304679086704539 0 0.41248490446316177 0.43293377153942381 0 0.39942544658573009 0.43872588670818857 0 0.38530342098431941 0.41064856824057122 0 0.3889231515195431 0.43141286456833011 0 0.40362265567455102 0.42304679086704539 0 0.38530342098431941 0.41064856824057122 0 0.40362265567455102 0.42304679086704539 0 0.41521715527738928 0.40390661881175682 0 0.40362265567455102 0.42304679086704539 0 0.42233359500988371 0.42307221464191669 0 0.41521715527738928 0.40390661881175682 0 0.40362265567455102 0.42304679086704539 0 0.41248490446316177 0.43293377153942381 0 0.42233359500988371 0.42307221464191669 0 0.41248490446316177 0.43293377153942381 0 0.42233359500988371 0.42307221464191669 0 0.42326813014219627 0.43909650749986368 0 0.42233359500988371 0.42307221464191669 0 0.43681876433844857 0.43497208046478802 0 0.42326813014219627 0.43909650749986368 0 0.42233359500988371 0.42307221464191669 0 0.43681876433844857 0.43497208046478802 0 0.43655617137350622 0.42038510460191503 0 0.42233359500988371 0.42307221464191669 0 0.42830887421762198 0.41018013153495869 0 0.41521715527738928 0.40390661881175682 0 0.42233359500988371 0.42307221464191669 0 0.42830887421762198 0.41018013153495869 0 0.43655617137350622 0.42038510460191503 0 0.42830887421762198 0.41018013153495869 0 0.43655617137350622 0.42038510460191503 0 0.439625884597032 0.40642404903869822 0 0.42978568865087441 0.39901034440009059 0 0.42344095457037051 0.38268701701273461 0 0.4433226365022459 0.39280274251209668 0 0.42978568865087441 0.39901034440009059 0 0.41521715527738928 0.40390661881175682 0 0.42344095457037051 0.38268701701273461 0 0.42830887421762198 0.41018013153495869 0 0.42978568865087441 0.39901034440009059 0 0.439625884597032 0.40642404903869822 0 0.42830887421762198 0.41018013153495869 0 0.42978568865087441 0.39901034440009059 0 0.41521715527738928 0.40390661881175682 0 0.4167242930516859 0.35972934744593471 0 0.40101385701800268 0.38518895784325291 0 0.42344095457037051 0.38268701701273461 0 0.40101385701800268 0.38518895784325291 0 0.41521715527738928 0.40390661881175682 0 0.42344095457037051 0.38268701701273461 0 0.43815350284422228 0.36591948582569622 0 0.42344095457037051 0.38268701701273461 0 0.4433226365022459 0.39280274251209668 0 0.43815350284422228 0.36591948582569622 0 0.4433226365022459 0.39280274251209668 0 0.43815350284422228 0.36591948582569622 0 0.4433226365022459 0.39280274251209668 0 0.45848938469160699 0.38276388730883248 0 0.4433226365022459 0.39280274251209668 0 0.4587292321942566 0.40377894109977869 0 0.44849177016026981 0.41968599919849731 0 0.4433226365022459 0.39280274251209668 0 0.44849177016026981 0.41968599919849731 0 0.42978568865087441 0.39901034440009059 0 0.4433226365022459 0.39280274251209668 0 0.439625884597032 0.40642404903869822 0 0.4433226365022459 0.39280274251209668 0 0.4587292321942566 0.40377894109977869 0 0.45848938469160699 0.38276388730883248 0 0.4587292321942566 0.40377894109977869 0 0.45848938469160699 0.38276388730883248 0 0.47720201034463561 0.39055994944820821 0 0.46972057754862501 0.36630584452178799 0 0.45848938469160699 0.38276388730883248 0 0.47720201034463561 0.39055994944820821 0 0.46972057754862501 0.36630584452178799 0 0.47720201034463561 0.39055994944820821 0 0.5 0.37670548581833618 0 0.47720201034463561 0.39055994944820821 0 0.5 0.40420347785375749 0 0.47329291580914951 0.41490179660840648 0 0.4587292321942566 0.40377894109977869 0 0.47720201034463561 0.39055994944820821 0 0.47329291580914951 0.41490179660840648 0 0.47720201034463561 0.39055994944820821 0 0.5 0.40420347785375749 0 0.5 0.37670548581833618 0 0.48546521128148462 0.42572005307568972 0 0.49999999999999828 0.43170146988917901 0 0.48502495584706629 0.44181750450007778 0 0.49999999999999828 0.43170146988917901 0 0.48502495584706629 0.44181750450007778 0 0.5 0.40420347785375749 0 0.48546521128148462 0.42572005307568972 0 0.47329291580914951 0.41490179660840648 0 0.5 0.40420347785375749 0 0.48546521128148462 0.42572005307568972 0 0.49999999999999828 0.43170146988917901 0 0.48546521128148462 0.42572005307568972 0 0.47462076711180717 0.43403653248997731 0 0.48502495584706629 0.44181750450007778 0 0.47329291580914951 0.41490179660840648 0 0.47462076711180717 0.43403653248997731 0 0.45927084092720188 0.43580976915473651 0 0.48546521128148462 0.42572005307568972 0 0.47329291580914951 0.41490179660840648 0 0.47462076711180717 0.43403653248997731 0 0.45927084092720188 0.43580976915473651 0 0.44849177016026981 0.41968599919849731 0 0.47329291580914951 0.41490179660840648 0 0.45927084092720188 0.43580976915473651 0 0.44849177016026981 0.41968599919849731 0 0.45927084092720188 0.43580976915473651 0 0.44849177016026981 0.41968599919849731 0 0.45165089640657707 0.43611575462809582 0 0.4587292321942566 0.40377894109977869 0 0.47329291580914951 0.41490179660840648 0 0.44849177016026981 0.41968599919849731 0 0.4433226365022459 0.39280274251209668 0 0.44849177016026981 0.41968599919849731 0 0.439625884597032 0.40642404903869822 0 0.43655617137350622 0.42038510460191503 0 0.44849177016026981 0.41968599919849731 0 0.439625884597032 0.40642404903869822 0 0.44849177016026981 0.41968599919849731 0 0.439625884597032 0.40642404903869822 0 0.44849177016026981 0.41968599919849731 0 0.45165089640657707 0.43611575462809582 0 0.44386952542921521 0.4295111469185629 0 0.44849177016026981 0.41968599919849731 0 0.45165089640657707 0.43611575462809582 0 0.45165089640657707 0.43611575462809582 0 0.44386952542921521 0.4295111469185629 0 0.44519082659473158 0.43782150968735878 0 0.43655617137350622 0.42038510460191503 0 0.44849177016026981 0.41968599919849731 0 0.44386952542921521 0.4295111469185629 0 0.43681876433844857 0.43497208046478802 0 0.43655617137350622 0.42038510460191503 0 0.44386952542921521 0.4295111469185629 0 0.43681876433844857 0.43497208046478802 0 0.44386952542921521 0.4295111469185629 0 0.44519082659473158 0.43782150968735878 0 0.43681876433844857 0.43497208046478802 0 0.44519082659473158 0.43782150968735878 0 0.44362096681603608 0.44566090358066651 0 0.43681876433844857 0.43497208046478802 0 0.44362096681603608 0.44566090358066651 0 0.43343701099378978 0.44857281610427868 0 0.44362096681603608 0.44566090358066651 0 0.44110505044236059 0.45564825146568327 0 0.43343701099378978 0.44857281610427868 0 0.44362096681603608 0.44566090358066651 0 0.45255374853073171 0.45216262504332899 0 0.45221828903371142 0.44335246171580328 0 0.44362096681603608 0.44566090358066651 0 0.45255374853073171 0.45216262504332899 0 0.44110505044236059 0.45564825146568327 0 0.44519082659473158 0.43782150968735878 0 0.44362096681603608 0.44566090358066651 0 0.45221828903371142 0.44335246171580328 0 0.45165089640657707 0.43611575462809582 0 0.44519082659473158 0.43782150968735878 0 0.45221828903371142 0.44335246171580328 0 0.45255374853073171 0.45216262504332899 0 0.44518446721829791 0.46873079822848901 0 0.44110505044236059 0.45564825146568327 0 0.44518446721829791 0.46873079822848901 0 0.44110505044236059 0.45564825146568327 0 0.43072905865294731 0.46311411437165317 0 0.47284597636140308 0.45611600571247141 0 0.46302896313844299 0.47272331085799019 0 0.45255374853073171 0.45216262504332899 0 0.44518446721829791 0.46873079822848901 0 0.47004991169413368 0.45193353911097589 0 0.47004991169413368 0.45193353911097589 0 0.47284597636140308 0.45611600571247141 0 0.46302896313844299 0.47272331085799019 0 0.44518446721829791 0.46873079822848901 0 0.47004991169413368 0.45193353911097589 0 0.46302896313844299 0.47272331085799019 0 0.44518446721829791 0.46873079822848901 0 0.47004991169413368 0.45193353911097589 0 0.45927084092720188 0.43580976915473651 0 0.47004991169413368 0.45193353911097589 0 0.45927084092720188 0.43580976915473651 0 0.45930684530103161 0.44617181272829648 0 0.47004991169413368 0.45193353911097589 0 0.47462076711180717 0.43403653248997731 0 0.45927084092720188 0.43580976915473651 0 0.47004991169413368 0.45193353911097589 0 0.45255374853073171 0.45216262504332899 0 0.45930684530103161 0.44617181272829648 0 0.47004991169413368 0.45193353911097589 0 0.45927084092720188 0.43580976915473651 0 0.45221828903371142 0.44335246171580328 0 0.45930684530103161 0.44617181272829648 0 0.45927084092720188 0.43580976915473651 0 0.45165089640657707 0.43611575462809582 0 0.45221828903371142 0.44335246171580328 0 0.45255374853073171 0.45216262504332899 0 0.45221828903371142 0.44335246171580328 0 0.45930684530103161 0.44617181272829648 0 0.47462076711180717 0.43403653248997731 0 0.47004991169413368 0.45193353911097589 0 0.48502495584706629 0.44181750450007778 0 0.48189680466807888 0.45106209462173341 0 0.47450081081676521 0.45331654521044668 0 0.48502495584706629 0.44181750450007778 0 0.47004991169413368 0.45193353911097589 0 0.48502495584706629 0.44181750450007778 0 0.47004991169413368 0.45193353911097589 0 0.47450081081676521 0.45331654521044668 0 0.48502495584706629 0.44181750450007778 0 0.47284597636140308 0.45611600571247141 0 0.48050552008400071 0.46757346096286262 0 0.46302896313844299 0.47272331085799019 0 0.47004991169413368 0.45193353911097589 0 0.47284597636140308 0.45611600571247141 0 0.47004991169413368 0.45193353911097589 0 0.47450081081676521 0.45331654521044668 0 0.47284597636140308 0.45611600571247141 0 0.47450081081676521 0.45331654521044668 0 0.47284597636140308 0.45611600571247141 0 0.47951191807974908 0.45654698881850991 0 0.47450081081676521 0.45331654521044668 0 0.47284597636140308 0.45611600571247141 0 0.47284597636140308 0.45611600571247141 0 0.48050552008400071 0.46757346096286262 0 0.47284597636140308 0.45611600571247141 0 0.48050552008400071 0.46757346096286262 0 0.47951191807974908 0.45654698881850991 0 0.48189680466807888 0.45106209462173341 0 0.47951191807974908 0.45654698881850991 0 0.4878104784684959 0.4546668375850359 0 0.48050552008400071 0.46757346096286262 0 0.47951191807974908 0.45654698881850991 0 0.4878104784684959 0.4546668375850359 0 0.48189680466807888 0.45106209462173341 0 0.47450081081676521 0.45331654521044668 0 0.47951191807974908 0.45654698881850991 0 0.48050552008400071 0.46757346096286262 0 0.4878104784684959 0.4546668375850359 0 0.49999999999999928 0.46182898591187349 0 0.48050552008400071 0.46757346096286262 0 0.49999999999999928 0.46182898591187349 0 0.49999999999999828 0.43170146988917901 0 0.4878104784684959 0.4546668375850359 0 0.49999999999999928 0.46182898591187349 0 0.49999999999999828 0.43170146988917901 0 0.4878104784684959 0.4546668375850359 0 0.48502495584706629 0.44181750450007778 0 0.48189680466807888 0.45106209462173341 0 0.4878104784684959 0.4546668375850359 0 0.48502495584706629 0.44181750450007778 0 0.49999999999999928 0.46182898591187349 0 0.5 0.5 0 0.49753071700976492 0.4930404390193398 0 0.5 0.5 0 0.47501141284236448 0.48698608464618232 0 0.44690499747156931 0.4999999999999995 0 0.5 0.5 0 0.49753071700976492 0.4930404390193398 0 0.47501141284236448 0.48698608464618232 0 0.49753071700976492 0.4930404390193398 0 0.48901811854688337 0.4803069499911008 0 0.47501141284236448 0.48698608464618232 0 0.49753071700976492 0.4930404390193398 0 0.48901811854688337 0.4803069499911008 0 0.48050552008400071 0.46757346096286262 0 0.49999999999999928 0.46182898591187349 0 0.48901811854688337 0.4803069499911008 0 0.49999999999999928 0.46182898591187349 0 0.49753071700976492 0.4930404390193398 0 0.48901811854688337 0.4803069499911008 0 0.48050552008400071 0.46757346096286262 0 0.48901811854688337 0.4803069499911008 0 0.48050552008400071 0.46757346096286262 0 0.46302896313844299 0.47272331085799019 0 0.48901811854688337 0.4803069499911008 0 0.47689100365292297 0.47689745161453417 0 0.47501141284236448 0.48698608464618232 0 0.48050552008400071 0.46757346096286262 0 0.47689100365292297 0.47689745161453417 0 0.46302896313844299 0.47272331085799019 0 0.48050552008400071 0.46757346096286262 0 0.48901811854688337 0.4803069499911008 0 0.47689100365292297 0.47689745161453417 0 0.47689100365292297 0.47689745161453417 0 0.47501141284236448 0.48698608464618232 0 0.46302896313844299 0.47272331085799019 0 0.47501141284236448 0.48698608464618232 0 0.45496698030500621 0.48636165542899479 0 0.44690499747156931 0.4999999999999995 0 0.47501141284236448 0.48698608464618232 0 0.45496698030500621 0.48636165542899479 0 0.46302896313844299 0.47272331085799019 0 0.45496698030500621 0.48636165542899479 0 0.46302896313844299 0.47272331085799019 0 0.46302896313844299 0.47272331085799019 0 0.43620850627812668 0.48062654530969717 0 0.44518446721829791 0.46873079822848901 0 0.46302896313844299 0.47272331085799019 0 0.43620850627812668 0.48062654530969717 0 0.45496698030500621 0.48636165542899479 0 0.46302896313844299 0.47272331085799019 0 0.43620850627812668 0.48062654530969717 0 0.45496698030500621 0.48636165542899479 0 0.44690499747156931 0.4999999999999995 0 0.43620850627812668 0.48062654530969717 0 0.45496698030500621 0.48636165542899479 0 0.44690499747156931 0.4999999999999995 0 0.42031902274246069 0.48552805734600057 0 0.41743852268843429 0.5 0 0.43620850627812668 0.48062654530969717 0 0.44690499747156931 0.4999999999999995 0 0.41743852268843429 0.5 0 0.43620850627812668 0.48062654530969717 0 0.42031902274246069 0.48552805734600057 0 0.41743852268843429 0.5 0 0.40134209412993838 0.48520307466421098 0 0.42031902274246069 0.48552805734600057 0 0.40973563488985532 0.47579104778557152 0 0.40134209412993838 0.48520307466421098 0 0.42031902274246069 0.48552805734600057 0 0.40973563488985532 0.47579104778557152 0 0.41789473538963601 0.46705380048502582 0 0.44518446721829791 0.46873079822848901 0 0.42031902274246069 0.48552805734600057 0 0.43072905865294731 0.46311411437165317 0 0.44518446721829791 0.46873079822848901 0 0.42031902274246069 0.48552805734600057 0 0.43620850627812668 0.48062654530969717 0 0.44518446721829791 0.46873079822848901 0 0.42031902274246069 0.48552805734600057 0 0.42031902274246069 0.48552805734600057 0 0.43072905865294731 0.46311411437165317 0 0.41789473538963601 0.46705380048502582 0 0.44110505044236059 0.45564825146568327 0 0.43072905865294731 0.46311411437165317 0 0.43343701099378978 0.44857281610427868 0 0.43072905865294731 0.46311411437165317 0 0.43343701099378978 0.44857281610427868 0 0.42053980660522761 0.45341513910658388 0 0.43072905865294731 0.46311411437165317 0 0.41789473538963601 0.46705380048502582 0 0.42053980660522761 0.45341513910658388 0 0.43681876433844857 0.43497208046478802 0 0.43343701099378978 0.44857281610427868 0 0.42326813014219627 0.43909650749986368 0 0.43343701099378978 0.44857281610427868 0 0.42326813014219627 0.43909650749986368 0 0.42053980660522761 0.45341513910658388 0 0.41248490446316177 0.43293377153942381 0 0.42326813014219627 0.43909650749986368 0 0.41215324011006321 0.44426916471351768 0 0.42326813014219627 0.43909650749986368 0 0.41215324011006321 0.44426916471351768 0 0.42053980660522761 0.45341513910658388 0 0.41215324011006321 0.44426916471351768 0 0.42053980660522761 0.45341513910658388 0 0.40575666434273311 0.45838443146516472 0 0.41248490446316177 0.43293377153942381 0 0.41215324011006321 0.44426916471351768 0 0.39942544658573009 0.43872588670818857 0 0.40973563488985532 0.47579104778557152 0 0.41789473538963601 0.46705380048502582 0 0.40575666434273311 0.45838443146516472 0 0.41789473538963601 0.46705380048502582 0 0.42053980660522761 0.45341513910658388 0 0.40575666434273311 0.45838443146516472 0 0.40973563488985532 0.47579104778557152 0 0.40575666434273311 0.45838443146516472 0 0.39457326129307041 0.46924519202038539 0 0.40575666434273311 0.45838443146516472 0 0.38748492612950952 0.44892285829301931 0 0.39457326129307041 0.46924519202038539 0 0.40575666434273311 0.45838443146516472 0 0.39942544658573009 0.43872588670818857 0 0.38748492612950952 0.44892285829301931 0 0.3889231515195431 0.43141286456833011 0 0.39942544658573009 0.43872588670818857 0 0.38748492612950952 0.44892285829301931 0 0.41215324011006321 0.44426916471351768 0 0.40575666434273311 0.45838443146516472 0 0.39942544658573009 0.43872588670818857 0 0.36980735363827261 0.46050290225189661 0 0.36959298495063608 0.43610817863788948 0 0.38748492612950952 0.44892285829301931 0 0.36959298495063608 0.43610817863788948 0 0.3889231515195431 0.43141286456833011 0 0.38748492612950952 0.44892285829301931 0 0.36980735363827261 0.46050290225189661 0 0.38748492612950952 0.44892285829301931 0 0.39457326129307041 0.46924519202038539 0 0.36980735363827261 0.46050290225189661 0 0.37801407526051067 0.48065415083330842 0 0.39457326129307041 0.46924519202038539 0 0.37801407526051067 0.48065415083330842 0 0.38797204790529932 0.5 0 0.40134209412993838 0.48520307466421098 0 0.41743852268843429 0.5 0 0.38797204790529932 0.5 0 0.40134209412993838 0.48520307466421098 0 0.40973563488985532 0.47579104778557152 0 0.40134209412993838 0.48520307466421098 0 0.39457326129307041 0.46924519202038539 0 0.37801407526051067 0.48065415083330842 0 0.40134209412993838 0.48520307466421098 0 0.39457326129307041 0.46924519202038539 0 0.33471388977496319 0.083869725553476451 0 0.32003772732572838 0.080925826065863432 0 0.34163206045391592 0.099703108374672819 0 0.32003772732572838 0.080925826065863432 0 0.34163206045391592 0.099703108374672819 0 0.33471388977496319 0.083869725553476451 0 0.34163206045391592 0.099703108374672819 0 0.35085433501378249 0.086695181415402722 0 0.33471388977496319 0.083869725553476451 0 0.34209731100959018 0.06531632876058778 0 0.3490795063897344 0.076610282135673974 0 0.33471388977496319 0.083869725553476451 0 0.34209731100959018 0.06531632876058778 0 0.32721969837032222 0.069259436753723466 0 0.33471388977496319 0.083869725553476451 0 0.32721969837032222 0.069259436753723466 0 0.32003772732572838 0.080925826065863432 0 0.31518448171420999 0.065085558788002928 0 0.32721969837032222 0.069259436753723466 0 0.32003772732572838 0.080925826065863432 0 0.32003772732572838 0.080925826065863432 0 0.31657863646219547 0.093324099257994786 0 0.34163206045391592 0.099703108374672819 0 0.32003772732572838 0.080925826065863432 0 0.31657863646219547 0.093324099257994786 0 0.30227411453462139 0.089652133027170247 0 0.33471388977496319 0.083869725553476451 0 0.32003772732572838 0.080925826065863432 0 0.31657863646219547 0.093324099257994786 0 0.32025759602694659 0.1047776340902011 0 0.34163206045391592 0.099703108374672819 0 0.31657863646219547 0.093324099257994786 0 0.32025759602694659 0.1047776340902011 0 0.30640852481201453 0.1024735992044304 0 0.32025759602694659 0.1047776340902011 0 0.31114536757858358 0.11742006929579971 0 0.30640852481201453 0.1024735992044304 0 0.32606950933900308 0.1158177097477945 0 0.31114536757858358 0.11742006929579971 0 0.3195478300457561 0.1332621056988223 0 0.32025759602694659 0.1047776340902011 0 0.32606950933900308 0.1158177097477945 0 0.31114536757858358 0.11742006929579971 0 0.33761965874988609 0.1186889285033586 0 0.34163206045391592 0.099703108374672819 0 0.34956654336434939 0.1234914401014125 0 0.32606950933900308 0.1158177097477945 0 0.33761965874988609 0.1186889285033586 0 0.34163206045391592 0.099703108374672819 0 0.32606950933900308 0.1158177097477945 0 0.33761965874988609 0.1186889285033586 0 0.33436770153514289 0.13112975471366969 0 0.33761965874988609 0.1186889285033586 0 0.34956654336434939 0.1234914401014125 0 0.33436770153514289 0.13112975471366969 0 0.32025759602694659 0.1047776340902011 0 0.32606950933900308 0.1158177097477945 0 0.34163206045391592 0.099703108374672819 0 0.34163206045391592 0.099703108374672819 0 0.35755874922647762 0.098360434014750309 0 0.36322639358210312 0.11848039068348271 0 0.34163206045391592 0.099703108374672819 0 0.36322639358210312 0.11848039068348271 0 0.34163206045391592 0.099703108374672819 0 0.35755874922647762 0.098360434014750309 0 0.35085433501378249 0.086695181415402722 0 0.34163206045391592 0.099703108374672819 0 0.34956654336434939 0.1234914401014125 0 0.36322639358210312 0.11848039068348271 0 0.36322639358210312 0.11848039068348271 0 0.37045299287494049 0.09679375479102828 0 0.38005682511468147 0.12140739343396729 0 0.35755874922647762 0.098360434014750309 0 0.36322639358210312 0.11848039068348271 0 0.37045299287494049 0.09679375479102828 0 0.35755874922647762 0.098360434014750309 0 0.37045299287494049 0.09679375479102828 0 0.35979627253246887 0.087956112087811941 0 0.37045299287494049 0.09679375479102828 0 0.36986657419494789 0.075759843690150083 0 0.37682589963749002 0.081332762740894418 0 0.37045299287494049 0.09679375479102828 0 0.35979627253246887 0.087956112087811941 0 0.36084916063519962 0.072180116148089279 0 0.37045299287494049 0.09679375479102828 0 0.36084916063519962 0.072180116148089279 0 0.36986657419494789 0.075759843690150083 0 0.37045299287494049 0.09679375479102828 0 0.36084916063519962 0.072180116148089279 0 0.35755874922647762 0.098360434014750309 0 0.35979627253246887 0.087956112087811941 0 0.35085433501378249 0.086695181415402722 0 0.35979627253246887 0.087956112087811941 0 0.35560274156159061 0.081403828627082772 0 0.36084916063519962 0.072180116148089279 0 0.33471388977496319 0.083869725553476451 0 0.35085433501378249 0.086695181415402722 0 0.3490795063897344 0.076610282135673974 0 0.35979627253246887 0.087956112087811941 0 0.35560274156159061 0.081403828627082772 0 0.35085433501378249 0.086695181415402722 0 0.35560274156159061 0.081403828627082772 0 0.35085433501378249 0.086695181415402722 0 0.3490795063897344 0.076610282135673974 0 0.34209731100959018 0.06531632876058778 0 0.3490795063897344 0.076610282135673974 0 0.36084916063519962 0.072180116148089279 0 0.36448270712015302 0.068442951443566186 0 0.36084916063519962 0.072180116148089279 0 0.35124532839545858 0.047566477505150237 0 0.35560274156159061 0.081403828627082772 0 0.3490795063897344 0.076610282135673974 0 0.36084916063519962 0.072180116148089279 0 0.36448270712015302 0.068442951443566186 0 0.36084916063519962 0.072180116148089279 0 0.36986657419494789 0.075759843690150083 0 0.36986657419494789 0.075759843690150083 0 0.37596532967213542 0.069868995675824025 0 0.37682589963749002 0.081332762740894418 0 0.36448270712015302 0.068442951443566186 0 0.36986657419494789 0.075759843690150083 0 0.37084641292541748 0.06878424193773866 0 0.36986657419494789 0.075759843690150083 0 0.37084641292541748 0.06878424193773866 0 0.37596532967213542 0.069868995675824025 0 0.36448270712015302 0.068442951443566186 0 0.37084641292541748 0.06878424193773866 0 0.37307104071443398 0.061065176941414383 0 0.37084641292541748 0.06878424193773866 0 0.37307104071443398 0.061065176941414383 0 0.37596532967213542 0.069868995675824025 0 0.36448270712015302 0.068442951443566186 0 0.37307104071443398 0.061065176941414383 0 0.37146335928247548 0.04052602251159599 0 0.36448270712015302 0.068442951443566186 0 0.37146335928247548 0.04052602251159599 0 0.35124532839545858 0.047566477505150237 0 0.36448270712015302 0.068442951443566186 0 0.37146335928247548 0.04052602251159599 0 0.37146335928247548 0.04052602251159599 0 0.35572529983931911 0.032753521421585163 0 0.36312657459820519 0.022962182453169309 0 0.37146335928247548 0.04052602251159599 0 0.35572529983931911 0.032753521421585163 0 0.35124532839545858 0.047566477505150237 0 0.35572529983931911 0.032753521421585163 0 0.35124532839545858 0.047566477505150237 0 0.3321968515854315 0.028027004478648001 0 0.36084916063519962 0.072180116148089279 0 0.35124532839545858 0.047566477505150237 0 0.34209731100959018 0.06531632876058778 0 0.36084916063519962 0.072180116148089279 0 0.35124532839545858 0.047566477505150237 0 0.36312657459820519 0.022962182453169309 0 0.35936362748920009 0.0091271431172253586 0 0.37844401144479839 0.012609093579625891 0 0.35936362748920009 0.0091271431172253586 0 0.37844401144479839 0.012609093579625891 0 0.36665723294200347 -0.001883505129568449 0 0.35936362748920009 0.0091271431172253586 0 0.36665723294200347 -0.001883505129568449 0 0.35531676971978082 -0.0033532784323768001 0 0.37146335928247548 0.04052602251159599 0 0.36312657459820519 0.022962182453169309 0 0.37844401144479839 0.012609093579625891 0 0.37146335928247548 0.04052602251159599 0 0.37844401144479839 0.012609093579625891 0 0.35572529983931911 0.032753521421585163 0 0.35063657493523293 0.0197951316358141 0 0.3321968515854315 0.028027004478648001 0 0.35572529983931911 0.032753521421585163 0 0.36312657459820519 0.022962182453169309 0 0.35063657493523293 0.0197951316358141 0 0.36312657459820519 0.022962182453169309 0 0.35063657493523293 0.0197951316358141 0 0.35936362748920009 0.0091271431172253586 0 0.35936362748920009 0.0091271431172253586 0 0.33689267375143878 0.0039255003288513873 0 0.35531676971978082 -0.0033532784323768001 0 0.35063657493523293 0.0197951316358141 0 0.35936362748920009 0.0091271431172253586 0 0.33689267375143878 0.0039255003288513873 0 0.33689267375143878 0.0039255003288513873 0 0.3321968515854315 0.028027004478648001 0 0.30352242257352219 0.0039185454548519476 0 0.35063657493523293 0.0197951316358141 0 0.33689267375143878 0.0039255003288513873 0 0.3321968515854315 0.028027004478648001 0 0.3321968515854315 0.028027004478648001 0 0.32406508202711942 0.05109974460068676 0 0.30086563814790429 0.035038583275740692 0 0.34209731100959018 0.06531632876058778 0 0.32721969837032222 0.069259436753723466 0 0.32406508202711942 0.05109974460068676 0 0.34209731100959018 0.06531632876058778 0 0.35124532839545858 0.047566477505150237 0 0.32406508202711942 0.05109974460068676 0 0.35124532839545858 0.047566477505150237 0 0.3321968515854315 0.028027004478648001 0 0.32406508202711942 0.05109974460068676 0 0.31518448171420999 0.065085558788002928 0 0.32721969837032222 0.069259436753723466 0 0.32406508202711942 0.05109974460068676 0 0.31518448171420999 0.065085558788002928 0 0.32406508202711942 0.05109974460068676 0 0.29882370077581188 0.062479238108283437 0 0.32406508202711942 0.05109974460068676 0 0.29882370077581188 0.062479238108283437 0 0.30086563814790429 0.035038583275740692 0 0.32406508202711942 0.05109974460068676 0 0.30086563814790429 0.035038583275740692 0 0.30086563814790429 0.035038583275740692 0 0.28350496565293731 0.043820562147367653 0 0.27766619426868899 0.018977421950794569 0 0.29882370077581188 0.062479238108283437 0 0.30086563814790429 0.035038583275740692 0 0.28350496565293731 0.043820562147367653 0 0.29882370077581188 0.062479238108283437 0 0.28350496565293731 0.043820562147367653 0 0.28339325744793759 0.061338593161917712 0 0.3321968515854315 0.028027004478648001 0 0.30086563814790429 0.035038583275740692 0 0.30352242257352219 0.0039185454548519476 0 0.30086563814790429 0.035038583275740692 0 0.27766619426868899 0.018977421950794569 0 0.30086563814790429 0.035038583275740692 0 0.30352242257352219 0.0039185454548519476 0 0.27766619426868899 0.018977421950794569 0 0.30352242257352219 0.0039185454548519476 0 0.27766619426868899 0.018977421950794569 0 0.27708695819087842 -0.0025378708656911609 0 0.27766619426868899 0.018977421950794569 0 0.25446675038947358 0.0029162606258486688 0 0.27766619426868899 0.018977421950794569 0 0.26047117107291767 -0.0019720443344692288 0 0.27708695819087842 -0.0025378708656911609 0 0.27766619426868899 0.018977421950794569 0 0.2600935707136679 0.019574361616358959 0 0.26464981823601458 0.038183209123269009 0 0.2600935707136679 0.019574361616358959 0 0.26464981823601458 0.038183209123269009 0 0.25044211127373811 0.032849993626191502 0 0.27766619426868899 0.018977421950794569 0 0.2600935707136679 0.019574361616358959 0 0.25446675038947358 0.0029162606258486688 0 0.27766619426868899 0.018977421950794569 0 0.25446675038947358 0.0029162606258486688 0 0.26047117107291767 -0.0019720443344692288 0 0.25446675038947358 0.0029162606258486688 0 0.26047117107291767 -0.0019720443344692288 0 0.28339325744793759 0.061338593161917712 0 0.2699795556074106 0.054659435659755229 0 0.26514968559830832 0.069915803624621298 0 0.28350496565293731 0.043820562147367653 0 0.28339325744793759 0.061338593161917712 0 0.2699795556074106 0.054659435659755229 0 0.28350496565293731 0.043820562147367653 0 0.27766619426868899 0.018977421950794569 0 0.26464981823601458 0.038183209123269009 0 0.28350496565293731 0.043820562147367653 0 0.2699795556074106 0.054659435659755229 0 0.26464981823601458 0.038183209123269009 0 0.26464981823601458 0.038183209123269009 0 0.25174039047255609 0.044464402284776217 0 0.2585751734657834 0.052327775232976027 0 0.26464981823601458 0.038183209123269009 0 0.25044211127373811 0.032849993626191502 0 0.25174039047255609 0.044464402284776217 0 0.25174039047255609 0.044464402284776217 0 0.25102243244437311 0.053297338652025752 0 0.2585751734657834 0.052327775232976027 0 0.2699795556074106 0.054659435659755229 0 0.26464981823601458 0.038183209123269009 0 0.2585751734657834 0.052327775232976027 0 0.2699795556074106 0.054659435659755229 0 0.2585751734657834 0.052327775232976027 0 0.26000268679747079 0.061003988239662958 0 0.2699795556074106 0.054659435659755229 0 0.26000268679747079 0.061003988239662958 0 0.26514968559830832 0.069915803624621298 0 0.2585751734657834 0.052327775232976027 0 0.26000268679747079 0.061003988239662958 0 0.2530174900015254 0.0600809219264858 0 0.25102243244437311 0.053297338652025752 0 0.2585751734657834 0.052327775232976027 0 0.2530174900015254 0.0600809219264858 0 0.24751669685985911 0.059618880130872708 0 0.25102243244437311 0.053297338652025752 0 0.2530174900015254 0.0600809219264858 0 0.24853219730195361 0.063845178725116872 0 0.2530174900015254 0.0600809219264858 0 0.25274476311700622 0.067427493409812952 0 0.2530174900015254 0.0600809219264858 0 0.25274476311700622 0.067427493409812952 0 0.26000268679747079 0.061003988239662958 0 0.2530174900015254 0.0600809219264858 0 0.25274476311700622 0.067427493409812952 0 0.25274476311700622 0.067427493409812952 0 0.25243039498113262 0.075895774732197205 0 0.24842415088314279 0.069033451464499671 0 0.25274476311700622 0.067427493409812952 0 0.25243039498113262 0.075895774732197205 0 0.25274476311700622 0.067427493409812952 0 0.25243039498113262 0.075895774732197205 0 0.26514968559830832 0.069915803624621298 0 0.25243039498113262 0.075895774732197205 0 0.26514968559830832 0.069915803624621298 0 0.26417250328098718 0.085299079350852347 0 0.25243039498113262 0.075895774732197205 0 0.26514968559830832 0.069915803624621298 0 0.26000268679747079 0.061003988239662958 0 0.25274476311700622 0.067427493409812952 0 0.26514968559830832 0.069915803624621298 0 0.25274476311700622 0.067427493409812952 0 0.26514968559830832 0.069915803624621298 0 0.25243039498113262 0.075895774732197205 0 0.26417250328098718 0.085299079350852347 0 0.25158482098595109 0.098673396421397969 0 0.25243039498113262 0.075895774732197205 0 0.25158482098595109 0.098673396421397969 0 0.26417250328098718 0.085299079350852347 0 0.27563544099652842 0.091217529053328833 0 0.26597619666038957 0.098681263799979324 0 0.26417250328098718 0.085299079350852347 0 0.27658940398852799 0.081360569412953818 0 0.27563544099652842 0.091217529053328833 0 0.26514968559830832 0.069915803624621298 0 0.26417250328098718 0.085299079350852347 0 0.27658940398852799 0.081360569412953818 0 0.27658940398852799 0.081360569412953818 0 0.27563544099652842 0.091217529053328833 0 0.28742128170162778 0.087331448045782731 0 0.28339325744793759 0.061338593161917712 0 0.26514968559830832 0.069915803624621298 0 0.29259370646201821 0.075420814845242989 0 0.26514968559830832 0.069915803624621298 0 0.27658940398852799 0.081360569412953818 0 0.29259370646201821 0.075420814845242989 0 0.28339325744793759 0.061338593161917712 0 0.26514968559830832 0.069915803624621298 0 0.26514968559830832 0.069915803624621298 0 0.29259370646201821 0.075420814845242989 0 0.29882370077581188 0.062479238108283437 0 0.28339325744793759 0.061338593161917712 0 0.29259370646201821 0.075420814845242989 0 0.27658940398852799 0.081360569412953818 0 0.29259370646201821 0.075420814845242989 0 0.28742128170162778 0.087331448045782731 0 0.27563544099652842 0.091217529053328833 0 0.28742128170162778 0.087331448045782731 0 0.29001374252644291 0.099006193890217781 0 0.28742128170162778 0.087331448045782731 0 0.30227411453462139 0.089652133027170247 0 0.29001374252644291 0.099006193890217781 0 0.29259370646201821 0.075420814845242989 0 0.28742128170162778 0.087331448045782731 0 0.30227411453462139 0.089652133027170247 0 0.32003772732572838 0.080925826065863432 0 0.29259370646201821 0.075420814845242989 0 0.30227411453462139 0.089652133027170247 0 0.32003772732572838 0.080925826065863432 0 0.29259370646201821 0.075420814845242989 0 0.32003772732572838 0.080925826065863432 0 0.29882370077581188 0.062479238108283437 0 0.29259370646201821 0.075420814845242989 0 0.32003772732572838 0.080925826065863432 0 0.29882370077581188 0.062479238108283437 0 0.31518448171420999 0.065085558788002928 0 0.32003772732572838 0.080925826065863432 0 0.29882370077581188 0.062479238108283437 0 0.29818169174329712 0.11066146566519899 0 0.31114536757858358 0.11742006929579971 0 0.294250496481684 0.12267566802032639 0 0.31114536757858358 0.11742006929579971 0 0.294250496481684 0.12267566802032639 0 0.30313841955192899 0.13260249050964579 0 0.29818169174329712 0.11066146566519899 0 0.31114536757858358 0.11742006929579971 0 0.30640852481201453 0.1024735992044304 0 0.30227411453462139 0.089652133027170247 0 0.30640852481201453 0.1024735992044304 0 0.29001374252644291 0.099006193890217781 0 0.29818169174329712 0.11066146566519899 0 0.30640852481201453 0.1024735992044304 0 0.29001374252644291 0.099006193890217781 0 0.31657863646219547 0.093324099257994786 0 0.30227411453462139 0.089652133027170247 0 0.30640852481201453 0.1024735992044304 0 0.29818169174329712 0.11066146566519899 0 0.29001374252644291 0.099006193890217781 0 0.28729541733308872 0.1128284558108848 0 0.29001374252644291 0.099006193890217781 0 0.28729541733308872 0.1128284558108848 0 0.27577858748266387 0.1072301355245756 0 0.29818169174329712 0.11066146566519899 0 0.28729541733308872 0.1128284558108848 0 0.294250496481684 0.12267566802032639 0 0.28729541733308872 0.1128284558108848 0 0.294250496481684 0.12267566802032639 0 0.28067449336876182 0.1220521091494646 0 0.28067449336876182 0.1220521091494646 0 0.26956705708048567 0.1198361090660386 0 0.27577858748266387 0.1072301355245756 0 0.28729541733308872 0.1128284558108848 0 0.28067449336876182 0.1220521091494646 0 0.27577858748266387 0.1072301355245756 0 0.26956705708048567 0.1198361090660386 0 0.27577858748266387 0.1072301355245756 0 0.26270963055581759 0.11098617864974181 0 0.27563544099652842 0.091217529053328833 0 0.27577858748266387 0.1072301355245756 0 0.26597619666038957 0.098681263799979324 0 0.27563544099652842 0.091217529053328833 0 0.29001374252644291 0.099006193890217781 0 0.27577858748266387 0.1072301355245756 0 0.27577858748266387 0.1072301355245756 0 0.26597619666038957 0.098681263799979324 0 0.26270963055581759 0.11098617864974181 0 0.25158482098595109 0.098673396421397969 0 0.25094552198087999 0.11589449234768209 0 0.25158482098595109 0.098673396421397969 0 0.26270963055581759 0.11098617864974181 0 0.25094552198087999 0.11589449234768209 0 0.26417250328098718 0.085299079350852347 0 0.26597619666038957 0.098681263799979324 0 0.25158482098595109 0.098673396421397969 0 0.26597619666038957 0.098681263799979324 0 0.25158482098595109 0.098673396421397969 0 0.26270963055581759 0.11098617864974181 0 0.25158482098595109 0.098673396421397969 0 0.26270963055581759 0.11098617864974181 0 0.25094552198087999 0.11589449234768209 0 0.25030622297580962 0.13311558827396619 0 0.26022612795132161 0.12333036834530881 0 0.25094552198087999 0.11589449234768209 0 0.25030622297580962 0.13311558827396619 0 0.26956705708048567 0.1198361090660386 0 0.26022612795132161 0.12333036834530881 0 0.26270963055581759 0.11098617864974181 0 0.26022612795132161 0.12333036834530881 0 0.26270963055581759 0.11098617864974181 0 0.25094552198087999 0.11589449234768209 0 0.26956705708048567 0.1198361090660386 0 0.26022612795132161 0.12333036834530881 0 0.26675796828336718 0.1380571931171293 0 0.26022612795132161 0.12333036834530881 0 0.25030622297580962 0.13311558827396619 0 0.26675796828336718 0.1380571931171293 0 0.25030622297580962 0.13311558827396619 0 0.26675796828336718 0.1380571931171293 0 0.25030622297580962 0.13311558827396619 0 0.26675796828336718 0.1380571931171293 0 0.25638724149227848 0.14295410589973731 0 0.25004344172447263 0.14019424959050239 0 0.25030622297580962 0.13311558827396619 0 0.25638724149227848 0.14295410589973731 0 0.25004344172447263 0.14019424959050239 0 0.25030622297580962 0.13311558827396619 0 0.26675796828336718 0.1380571931171293 0 0.28320971359092417 0.1429987979602943 0 0.26675796828336718 0.1380571931171293 0 0.28666270206708028 0.1324408374186071 0 0.28320971359092417 0.1429987979602943 0 0.28067449336876182 0.1220521091494646 0 0.26956705708048567 0.1198361090660386 0 0.26675796828336718 0.1380571931171293 0 0.28067449336876182 0.1220521091494646 0 0.26675796828336718 0.1380571931171293 0 0.28666270206708028 0.1324408374186071 0 0.26675796828336718 0.1380571931171293 0 0.27436529468354132 0.15433220537778311 0 0.26010861073109098 0.15248373785575309 0 0.26675796828336718 0.1380571931171293 0 0.27436529468354132 0.15433220537778311 0 0.28320971359092417 0.1429987979602943 0 0.26675796828336718 0.1380571931171293 0 0.26010861073109098 0.15248373785575309 0 0.25638724149227848 0.14295410589973731 0 0.2496536413094039 0.15044712256699261 0 0.25004344172447263 0.14019424959050239 0 0.25638724149227848 0.14295410589973731 0 0.24653130607993951 0.16237692388552691 0 0.2496536413094039 0.15044712256699261 0 0.26010861073109098 0.15248373785575309 0 0.2496536413094039 0.15044712256699261 0 0.26010861073109098 0.15248373785575309 0 0.25638724149227848 0.14295410589973731 0 0.24653130607993951 0.16237692388552691 0 0.25292738168467233 0.17649485219682931 0 0.26638423851283249 0.16867758561061549 0 0.24653130607993951 0.16237692388552691 0 0.26010861073109098 0.15248373785575309 0 0.26638423851283249 0.16867758561061549 0 0.24528107816237801 0.1907036486386274 0 0.25292738168467233 0.17649485219682931 0 0.26633433714882182 0.18577592949096661 0 0.25292738168467233 0.17649485219682931 0 0.26633433714882182 0.18577592949096661 0 0.26638423851283249 0.16867758561061549 0 0.27723266788850742 0.181048228772968 0 0.26638423851283249 0.16867758561061549 0 0.28391425324491287 0.17071999404263091 0 0.26633433714882182 0.18577592949096661 0 0.27723266788850742 0.181048228772968 0 0.26638423851283249 0.16867758561061549 0 0.27436529468354132 0.15433220537778311 0 0.26010861073109098 0.15248373785575309 0 0.26638423851283249 0.16867758561061549 0 0.27436529468354132 0.15433220537778311 0 0.26638423851283249 0.16867758561061549 0 0.28391425324491287 0.17071999404263091 0 0.27436529468354132 0.15433220537778311 0 0.28391425324491287 0.17071999404263091 0 0.29097703849613438 0.15773848939083679 0 0.28391425324491287 0.17071999404263091 0 0.2931647794093819 0.16879209887591959 0 0.29097703849613438 0.15773848939083679 0 0.2931647794093819 0.16879209887591959 0 0.29097703849613438 0.15773848939083679 0 0.30040947706207388 0.16512632217721829 0 0.28391425324491287 0.17071999404263091 0 0.28743664533084129 0.187357279865842 0 0.29743995151898561 0.17866098634217961 0 0.27723266788850742 0.181048228772968 0 0.28391425324491287 0.17071999404263091 0 0.28743664533084129 0.187357279865842 0 0.28391425324491287 0.17071999404263091 0 0.2931647794093819 0.16879209887591959 0 0.29743995151898561 0.17866098634217961 0 0.28743664533084129 0.187357279865842 0 0.29743995151898561 0.17866098634217961 0 0.29971043857951379 0.19298806906372529 0 0.29743995151898561 0.17866098634217961 0 0.30929675685570829 0.1858318568065235 0 0.29971043857951379 0.19298806906372529 0 0.29743995151898561 0.17866098634217961 0 0.3101655001798202 0.17563615506282959 0 0.30040947706207388 0.16512632217721829 0 0.29743995151898561 0.17866098634217961 0 0.3101655001798202 0.17563615506282959 0 0.30929675685570829 0.1858318568065235 0 0.30040947706207388 0.16512632217721829 0 0.30453528129870422 0.15487579661148021 0 0.32848741365188411 0.1727716232507491 0 0.29097703849613438 0.15773848939083679 0 0.30040947706207388 0.16512632217721829 0 0.30453528129870422 0.15487579661148021 0 0.2931647794093819 0.16879209887591959 0 0.29743995151898561 0.17866098634217961 0 0.30040947706207388 0.16512632217721829 0 0.29097703849613438 0.15773848939083679 0 0.30453528129870422 0.15487579661148021 0 0.29618567382365713 0.14404403195872001 0 0.30453528129870422 0.15487579661148021 0 0.30873747279203018 0.14281046260302349 0 0.29618567382365713 0.14404403195872001 0 0.30453528129870422 0.15487579661148021 0 0.30873747279203018 0.14281046260302349 0 0.32007589174333823 0.14676000458717811 0 0.30873747279203018 0.14281046260302349 0 0.30313841955192899 0.13260249050964579 0 0.3195478300457561 0.1332621056988223 0 0.31114536757858358 0.11742006929579971 0 0.30313841955192899 0.13260249050964579 0 0.3195478300457561 0.1332621056988223 0 0.30873747279203018 0.14281046260302349 0 0.30313841955192899 0.13260249050964579 0 0.29618567382365713 0.14404403195872001 0 0.294250496481684 0.12267566802032639 0 0.30313841955192899 0.13260249050964579 0 0.28666270206708028 0.1324408374186071 0 0.30313841955192899 0.13260249050964579 0 0.28666270206708028 0.1324408374186071 0 0.29618567382365713 0.14404403195872001 0 0.294250496481684 0.12267566802032639 0 0.28067449336876182 0.1220521091494646 0 0.28666270206708028 0.1324408374186071 0 0.28666270206708028 0.1324408374186071 0 0.28320971359092417 0.1429987979602943 0 0.29618567382365713 0.14404403195872001 0 0.27436529468354132 0.15433220537778311 0 0.29097703849613438 0.15773848939083679 0 0.28320971359092417 0.1429987979602943 0 0.29097703849613438 0.15773848939083679 0 0.28320971359092417 0.1429987979602943 0 0.29618567382365713 0.14404403195872001 0 0.28119448123381058 0.25405304303149878 0 0.26221447651104962 0.2479993693513689 0 0.28440499104296979 0.23439140090611099 0 0.26221447651104962 0.2479993693513689 0 0.26853130556434218 0.23400660741274959 0 0.28440499104296979 0.23439140090611099 0 0.26221447651104962 0.2479993693513689 0 0.28440499104296979 0.23439140090611099 0 0.2457442494512444 0.24022391879071339 0 0.26221447651104962 0.2479993693513689 0 0.25511338863332461 0.22468137717712711 0 0.26221447651104962 0.2479993693513689 0 0.25511338863332461 0.22468137717712711 0 0.26853130556434218 0.23400660741274959 0 0.26221447651104962 0.2479993693513689 0 0.25511338863332461 0.22468137717712711 0 0.25511338863332461 0.22468137717712711 0 0.25242827713160498 0.21540237912569379 0 0.25511338863332461 0.22468137717712711 0 0.2794126892910288 0.21617120911671081 0 0.25511338863332461 0.22468137717712711 0 0.26853130556434218 0.23400660741274959 0 0.2794126892910288 0.21617120911671081 0 0.26853130556434218 0.23400660741274959 0 0.2794126892910288 0.21617120911671081 0 0.28440499104296979 0.23439140090611099 0 0.25511338863332461 0.22468137717712711 0 0.2794126892910288 0.21617120911671081 0 0.26644318031571418 0.20408753099865831 0 0.2794126892910288 0.21617120911671081 0 0.26644318031571418 0.20408753099865831 0 0.27722953884408802 0.19656269719262509 0 0.24528107816237801 0.1907036486386274 0 0.26644318031571418 0.20408753099865831 0 0.25242827713160498 0.21540237912569379 0 0.25511338863332461 0.22468137717712711 0 0.26644318031571418 0.20408753099865831 0 0.25242827713160498 0.21540237912569379 0 0.26644318031571418 0.20408753099865831 0 0.25242827713160498 0.21540237912569379 0 0.24528107816237801 0.1907036486386274 0 0.26633433714882182 0.18577592949096661 0 0.26644318031571418 0.20408753099865831 0 0.26633433714882182 0.18577592949096661 0 0.26644318031571418 0.20408753099865831 0 0.27722953884408802 0.19656269719262509 0 0.27723266788850742 0.181048228772968 0 0.28743664533084129 0.187357279865842 0 0.27722953884408802 0.19656269719262509 0 0.26633433714882182 0.18577592949096661 0 0.27723266788850742 0.181048228772968 0 0.27722953884408802 0.19656269719262509 0 0.28743664533084129 0.187357279865842 0 0.27722953884408802 0.19656269719262509 0 0.28939512316467059 0.2005252056429343 0 0.28743664533084129 0.187357279865842 0 0.28939512316467059 0.2005252056429343 0 0.29971043857951379 0.19298806906372529 0 0.30929675685570829 0.1858318568065235 0 0.29971043857951379 0.19298806906372529 0 0.31162694501442678 0.19735313208654229 0 0.29971043857951379 0.19298806906372529 0 0.31162694501442678 0.19735313208654229 0 0.30371198994873311 0.20766104105629449 0 0.28939512316467059 0.2005252056429343 0 0.29971043857951379 0.19298806906372529 0 0.30371198994873311 0.20766104105629449 0 0.2794126892910288 0.21617120911671081 0 0.30371198994873311 0.20766104105629449 0 0.2794126892910288 0.21617120911671081 0 0.30371198994873311 0.20766104105629449 0 0.30659550557489001 0.220783432460853 0 0.2794126892910288 0.21617120911671081 0 0.27722953884408802 0.19656269719262509 0 0.28939512316467059 0.2005252056429343 0 0.2794126892910288 0.21617120911671081 0 0.28939512316467059 0.2005252056429343 0 0.30371198994873311 0.20766104105629449 0 0.30659550557489001 0.220783432460853 0 0.28440499104296979 0.23439140090611099 0 0.2794126892910288 0.21617120911671081 0 0.30659550557489001 0.220783432460853 0 0.28440499104296979 0.23439140090611099 0 0.30659550557489001 0.220783432460853 0 0.30328699804120918 0.24394477185791469 0 0.28440499104296979 0.23439140090611099 0 0.30659550557489001 0.220783432460853 0 0.30328699804120918 0.24394477185791469 0 0.31607427666693672 0.2331905299380852 0 0.28119448123381058 0.25405304303149878 0 0.30328699804120918 0.24394477185791469 0 0.28440499104296979 0.23439140090611099 0 0.3433555784436142 0.25004320974280247 0 0.34183468199228573 0.23727684870966961 0 0.33092809789354199 0.24744869965648561 0 0.34183468199228573 0.23727684870966961 0 0.3288410404878227 0.2348757256337824 0 0.33092809789354199 0.24744869965648561 0 0.3288410404878227 0.2348757256337824 0 0.33092809789354199 0.24744869965648561 0 0.31845456220733243 0.24449663650262579 0 0.31879452400631653 0.25919465198291952 0 0.30328699804120918 0.24394477185791469 0 0.31845456220733243 0.24449663650262579 0 0.30328699804120918 0.24394477185791469 0 0.31845456220733243 0.24449663650262579 0 0.31607427666693672 0.2331905299380852 0 0.3288410404878227 0.2348757256337824 0 0.31845456220733243 0.24449663650262579 0 0.31607427666693672 0.2331905299380852 0 0.3288410404878227 0.2348757256337824 0 0.31607427666693672 0.2331905299380852 0 0.32372534117020862 0.22390137225637691 0 0.30659550557489001 0.220783432460853 0 0.31607427666693672 0.2331905299380852 0 0.32372534117020862 0.22390137225637691 0 0.3288410404878227 0.2348757256337824 0 0.32372534117020862 0.22390137225637691 0 0.33832986301458301 0.22348170923356889 0 0.34183468199228573 0.23727684870966961 0 0.3288410404878227 0.2348757256337824 0 0.33832986301458301 0.22348170923356889 0 0.32372534117020862 0.22390137225637691 0 0.33832986301458301 0.22348170923356889 0 0.32878602010681029 0.20717546401559489 0 0.33832986301458301 0.22348170923356889 0 0.32878602010681029 0.20717546401559489 0 0.35089693608391498 0.21212819010674691 0 0.32878602010681029 0.20717546401559489 0 0.35097653463873058 0.19356749557033681 0 0.35089693608391498 0.21212819010674691 0 0.30659550557489001 0.220783432460853 0 0.32372534117020862 0.22390137225637691 0 0.32878602010681029 0.20717546401559489 0 0.31162694501442678 0.19735313208654229 0 0.30371198994873311 0.20766104105629449 0 0.32878602010681029 0.20717546401559489 0 0.30371198994873311 0.20766104105629449 0 0.30659550557489001 0.220783432460853 0 0.32878602010681029 0.20717546401559489 0 0.30659550557489001 0.220783432460853 0 0.32878602010681029 0.20717546401559489 0 0.32878602010681029 0.20717546401559489 0 0.31972446529152482 0.19052244909679969 0 0.3336272658304279 0.18895925974375941 0 0.31162694501442678 0.19735313208654229 0 0.32878602010681029 0.20717546401559489 0 0.31972446529152482 0.19052244909679969 0 0.30929675685570829 0.1858318568065235 0 0.31162694501442678 0.19735313208654229 0 0.31972446529152482 0.19052244909679969 0 0.32878602010681029 0.20717546401559489 0 0.3336272658304279 0.18895925974375941 0 0.35097653463873058 0.19356749557033681 0 0.32878602010681029 0.20717546401559489 0 0.35097653463873058 0.19356749557033681 0 0.3336272658304279 0.18895925974375941 0 0.35097653463873058 0.19356749557033681 0 0.35656535024169428 0.1804169243242798 0 0.35097653463873058 0.19356749557033681 0 0.35896651107905142 0.20360726904620211 0 0.35089693608391498 0.21212819010674691 0 0.35097653463873058 0.19356749557033681 0 0.36405518175537521 0.19484170215684679 0 0.35896651107905142 0.20360726904620211 0 0.35097653463873058 0.19356749557033681 0 0.36405518175537521 0.19484170215684679 0 0.35656535024169428 0.1804169243242798 0 0.36405518175537521 0.19484170215684679 0 0.35656535024169428 0.1804169243242798 0 0.38464328683150451 0.18806222539781059 0 0.36405518175537521 0.19484170215684679 0 0.36923798170140371 0.20928007436804161 0 0.38464328683150451 0.18806222539781059 0 0.36405518175537521 0.19484170215684679 0 0.36923798170140371 0.20928007436804161 0 0.35896651107905142 0.20360726904620211 0 0.36923798170140371 0.20928007436804161 0 0.36132702422268731 0.21787493872225441 0 0.35896651107905142 0.20360726904620211 0 0.36923798170140371 0.20928007436804161 0 0.36132702422268731 0.21787493872225441 0 0.37292139258550783 0.22672254500020811 0 0.36132702422268731 0.21787493872225441 0 0.35896651107905142 0.20360726904620211 0 0.35089693608391498 0.21212819010674691 0 0.34183468199228573 0.23727684870966961 0 0.33832986301458301 0.22348170923356889 0 0.35524969613090918 0.22837961108452459 0 0.36132702422268731 0.21787493872225441 0 0.35089693608391498 0.21212819010674691 0 0.35524969613090918 0.22837961108452459 0 0.33832986301458301 0.22348170923356889 0 0.35089693608391498 0.21212819010674691 0 0.35524969613090918 0.22837961108452459 0 0.36132702422268731 0.21787493872225441 0 0.35524969613090918 0.22837961108452459 0 0.37292139258550783 0.22672254500020811 0 0.35524969613090918 0.22837961108452459 0 0.37292139258550783 0.22672254500020811 0 0.36587213359177301 0.2378375665458646 0 0.37292139258550783 0.22672254500020811 0 0.36587213359177301 0.2378375665458646 0 0.3757768555661396 0.240133652284411 0 0.36587213359177301 0.2378375665458646 0 0.37169426656027921 0.24972740256563611 0 0.3757768555661396 0.240133652284411 0 0.36587213359177301 0.2378375665458646 0 0.37169426656027921 0.24972740256563611 0 0.36205361842742478 0.24882498742118489 0 0.36587213359177301 0.2378375665458646 0 0.36205361842742478 0.24882498742118489 0 0.35356337405553911 0.24205426642971811 0 0.35175757775775729 0.2532797976346674 0 0.36205361842742478 0.24882498742118489 0 0.35356337405553911 0.24205426642971811 0 0.35524969613090918 0.22837961108452459 0 0.36587213359177301 0.2378375665458646 0 0.35356337405553911 0.24205426642971811 0 0.34183468199228573 0.23727684870966961 0 0.35524969613090918 0.22837961108452459 0 0.35356337405553911 0.24205426642971811 0 0.3433555784436142 0.25004320974280247 0 0.34183468199228573 0.23727684870966961 0 0.35356337405553911 0.24205426642971811 0 0.3433555784436142 0.25004320974280247 0 0.35175757775775729 0.2532797976346674 0 0.35356337405553911 0.24205426642971811 0 0.33379856680907583 0.1437068241164389 0 0.32007589174333823 0.14676000458717811 0 0.33365817402274128 0.15789089208148979 0 0.33379856680907583 0.1437068241164389 0 0.33365817402274128 0.15789089208148979 0 0.34780073530519279 0.14835628742565241 0 0.33379856680907583 0.1437068241164389 0 0.34780073530519279 0.14835628742565241 0 0.34586764947947463 0.1362539899128139 0 0.33379856680907583 0.1437068241164389 0 0.33436770153514289 0.13112975471366969 0 0.34586764947947463 0.1362539899128139 0 0.34956654336434939 0.1234914401014125 0 0.33436770153514289 0.13112975471366969 0 0.34586764947947463 0.1362539899128139 0 0.33379856680907583 0.1437068241164389 0 0.33436770153514289 0.13112975471366969 0 0.3195478300457561 0.1332621056988223 0 0.32606950933900308 0.1158177097477945 0 0.33436770153514289 0.13112975471366969 0 0.3195478300457561 0.1332621056988223 0 0.30873747279203018 0.14281046260302349 0 0.3195478300457561 0.1332621056988223 0 0.32007589174333823 0.14676000458717811 0 0.30453528129870422 0.15487579661148021 0 0.32007589174333823 0.14676000458717811 0 0.33365817402274128 0.15789089208148979 0 0.33379856680907583 0.1437068241164389 0 0.3195478300457561 0.1332621056988223 0 0.32007589174333823 0.14676000458717811 0 0.30453528129870422 0.15487579661148021 0 0.33365817402274128 0.15789089208148979 0 0.30453528129870422 0.15487579661148021 0 0.32848741365188411 0.1727716232507491 0 0.33365817402274128 0.15789089208148979 0 0.30040947706207388 0.16512632217721829 0 0.32848741365188411 0.1727716232507491 0 0.3101655001798202 0.17563615506282959 0 0.30040947706207388 0.16512632217721829 0 0.32848741365188411 0.1727716232507491 0 0.3101655001798202 0.17563615506282959 0 0.31983557186529732 0.18171103000860481 0 0.32848741365188411 0.1727716232507491 0 0.3336272658304279 0.18895925974375941 0 0.31983557186529732 0.18171103000860481 0 0.32848741365188411 0.1727716232507491 0 0.3101655001798202 0.17563615506282959 0 0.30929675685570829 0.1858318568065235 0 0.31983557186529732 0.18171103000860481 0 0.30929675685570829 0.1858318568065235 0 0.31972446529152482 0.19052244909679969 0 0.31983557186529732 0.18171103000860481 0 0.31972446529152482 0.19052244909679969 0 0.3336272658304279 0.18895925974375941 0 0.31983557186529732 0.18171103000860481 0 0.32848741365188411 0.1727716232507491 0 0.34507730906385942 0.16855187839241309 0 0.35656535024169428 0.1804169243242798 0 0.3336272658304279 0.18895925974375941 0 0.32848741365188411 0.1727716232507491 0 0.35656535024169428 0.1804169243242798 0 0.32848741365188411 0.1727716232507491 0 0.35656535024169428 0.1804169243242798 0 0.32848741365188411 0.1727716232507491 0 0.33365817402274128 0.15789089208148979 0 0.34507730906385942 0.16855187839241309 0 0.33365817402274128 0.15789089208148979 0 0.34507730906385942 0.16855187839241309 0 0.36278106674677829 0.1609059875514994 0 0.34507730906385942 0.16855187839241309 0 0.35656535024169428 0.1804169243242798 0 0.36278106674677829 0.1609059875514994 0 0.33365817402274128 0.15789089208148979 0 0.36278106674677829 0.1609059875514994 0 0.35656535024169428 0.1804169243242798 0 0.37356219856206202 0.1741215612114578 0 0.38464328683150451 0.18806222539781059 0 0.35656535024169428 0.1804169243242798 0 0.38464328683150451 0.18806222539781059 0 0.35656535024169428 0.1804169243242798 0 0.37356219856206202 0.1741215612114578 0 0.36278106674677829 0.1609059875514994 0 0.36278106674677829 0.1609059875514994 0 0.36531512046589693 0.1378839500987098 0 0.37680076681991098 0.15092733218095339 0 0.36278106674677829 0.1609059875514994 0 0.34780073530519279 0.14835628742565241 0 0.36531512046589693 0.1378839500987098 0 0.34780073530519279 0.14835628742565241 0 0.34586764947947463 0.1362539899128139 0 0.36531512046589693 0.1378839500987098 0 0.33365817402274128 0.15789089208148979 0 0.36278106674677829 0.1609059875514994 0 0.34780073530519279 0.14835628742565241 0 0.34956654336434939 0.1234914401014125 0 0.34586764947947463 0.1362539899128139 0 0.36531512046589693 0.1378839500987098 0 0.34956654336434939 0.1234914401014125 0 0.36322639358210312 0.11848039068348271 0 0.36531512046589693 0.1378839500987098 0 0.36322639358210312 0.11848039068348271 0 0.36531512046589693 0.1378839500987098 0 0.38482072671029011 0.13725767299229241 0 0.36322639358210312 0.11848039068348271 0 0.38482072671029011 0.13725767299229241 0 0.36322639358210312 0.11848039068348271 0 0.38482072671029011 0.13725767299229241 0 0.38005682511468147 0.12140739343396729 0 0.38482072671029011 0.13725767299229241 0 0.39398634319161102 0.12556361147638159 0 0.38005682511468147 0.12140739343396729 0 0.38482072671029011 0.13725767299229241 0 0.39398634319161102 0.12556361147638159 0 0.40386822996399702 0.1370092008917044 0 0.39398634319161102 0.12556361147638159 0 0.40386822996399702 0.1370092008917044 0 0.40630256149234217 0.12337914253670321 0 0.38482072671029011 0.13725767299229241 0 0.40641505983847698 0.15603495530110209 0 0.38482072671029011 0.13725767299229241 0 0.40386822996399702 0.1370092008917044 0 0.40641505983847698 0.15603495530110209 0 0.38482072671029011 0.13725767299229241 0 0.39190395947081519 0.16392108302150901 0 0.40641505983847698 0.15603495530110209 0 0.36531512046589693 0.1378839500987098 0 0.38482072671029011 0.13725767299229241 0 0.37680076681991098 0.15092733218095339 0 0.38482072671029011 0.13725767299229241 0 0.37680076681991098 0.15092733218095339 0 0.39190395947081519 0.16392108302150901 0 0.36278106674677829 0.1609059875514994 0 0.39190395947081519 0.16392108302150901 0 0.36278106674677829 0.1609059875514994 0 0.37680076681991098 0.15092733218095339 0 0.39190395947081519 0.16392108302150901 0 0.37356219856206202 0.1741215612114578 0 0.36278106674677829 0.1609059875514994 0 0.39190395947081519 0.16392108302150901 0 0.37356219856206202 0.1741215612114578 0 0.39190395947081519 0.16392108302150901 0 0.38464328683150451 0.18806222539781059 0 0.4059128807594603 0.17981630131623391 0 0.39190395947081519 0.16392108302150901 0 0.38464328683150451 0.18806222539781059 0 0.39190395947081519 0.16392108302150901 0 0.42102685219485209 0.16693617849151851 0 0.40641505983847698 0.15603495530110209 0 0.4059128807594603 0.17981630131623391 0 0.39190395947081519 0.16392108302150901 0 0.42102685219485209 0.16693617849151851 0 0.42102685219485209 0.16693617849151851 0 0.40641505983847698 0.15603495530110209 0 0.41490094777653419 0.14712571815411829 0 0.39190395947081519 0.16392108302150901 0 0.42102685219485209 0.16693617849151851 0 0.4059128807594603 0.17981630131623391 0 0.42102685219485209 0.16693617849151851 0 0.42759287120751482 0.1799189573059411 0 0.4059128807594603 0.17981630131623391 0 0.42759287120751482 0.1799189573059411 0 0.42045703890892938 0.19185412915784311 0 0.42102685219485209 0.16693617849151851 0 0.42759287120751482 0.1799189573059411 0 0.45014974491888898 0.16995127396152809 0 0.42759287120751482 0.1799189573059411 0 0.42045703890892938 0.19185412915784311 0 0.43799329450951457 0.1898848624547933 0 0.42102685219485209 0.16693617849151851 0 0.45014974491888898 0.16995127396152809 0 0.42102685219485209 0.16693617849151851 0 0.43641214087317609 0.15776157540708571 0 0.42820809332857229 0.14540676379554701 0 0.42102685219485209 0.16693617849151851 0 0.43641214087317609 0.15776157540708571 0 0.45014974491888898 0.16995127396152809 0 0.43641214087317609 0.15776157540708571 0 0.42820809332857229 0.14540676379554701 0 0.44305345270963392 0.14224085277467549 0 0.42820809332857229 0.14540676379554701 0 0.43267139290449452 0.12562392175117529 0 0.41815906511665779 0.13368892679480551 0 0.42820809332857229 0.14540676379554701 0 0.43267139290449452 0.12562392175117529 0 0.44305345270963392 0.14224085277467549 0 0.43267139290449452 0.12562392175117529 0 0.41815906511665779 0.13368892679480551 0 0.41840244549433692 0.1204435227777134 0 0.41815906511665779 0.13368892679480551 0 0.41840244549433692 0.1204435227777134 0 0.40630256149234217 0.12337914253670321 0 0.40386822996399702 0.1370092008917044 0 0.41815906511665779 0.13368892679480551 0 0.40630256149234217 0.12337914253670321 0 0.40386822996399702 0.1370092008917044 0 0.41815906511665779 0.13368892679480551 0 0.41490094777653419 0.14712571815411829 0 0.42102685219485209 0.16693617849151851 0 0.42820809332857229 0.14540676379554701 0 0.41490094777653419 0.14712571815411829 0 0.40386822996399702 0.1370092008917044 0 0.40641505983847698 0.15603495530110209 0 0.41490094777653419 0.14712571815411829 0 0.42820809332857229 0.14540676379554701 0 0.41815906511665779 0.13368892679480551 0 0.41490094777653419 0.14712571815411829 0 0.39196586341458151 0.242441409442547 0 0.40329821407583749 0.23025496453590971 0 0.40866327585672191 0.24600766979752939 0 0.38129994004966872 0.25577407136566988 0 0.39196586341458151 0.242441409442547 0 0.40866327585672191 0.24600766979752939 0 0.38129994004966872 0.25577407136566988 0 0.39196586341458151 0.242441409442547 0 0.38106847269238292 0.24536179082341181 0 0.37169426656027921 0.24972740256563611 0 0.38106847269238292 0.24536179082341181 0 0.3757768555661396 0.240133652284411 0 0.37292139258550783 0.22672254500020811 0 0.3757768555661396 0.240133652284411 0 0.38460543787124563 0.238732418458795 0 0.38106847269238292 0.24536179082341181 0 0.3757768555661396 0.240133652284411 0 0.38460543787124563 0.238732418458795 0 0.39196586341458151 0.242441409442547 0 0.38106847269238292 0.24536179082341181 0 0.38460543787124563 0.238732418458795 0 0.39196586341458151 0.242441409442547 0 0.38460543787124563 0.238732418458795 0 0.38844350160088592 0.2284985707660753 0 0.37292139258550783 0.22672254500020811 0 0.38460543787124563 0.238732418458795 0 0.38844350160088592 0.2284985707660753 0 0.37292139258550783 0.22672254500020811 0 0.38844350160088592 0.2284985707660753 0 0.38369130631537601 0.21297307403445409 0 0.38844350160088592 0.2284985707660753 0 0.39679964264504158 0.21937630878092959 0 0.38369130631537601 0.21297307403445409 0 0.38844350160088592 0.2284985707660753 0 0.39679964264504158 0.21937630878092959 0 0.40329821407583749 0.23025496453590971 0 0.39196586341458151 0.242441409442547 0 0.38844350160088592 0.2284985707660753 0 0.40329821407583749 0.23025496453590971 0 0.39679964264504158 0.21937630878092959 0 0.40329821407583749 0.23025496453590971 0 0.41066806580544729 0.2160617609406458 0 0.39598296716959969 0.20626700748070109 0 0.40513352984814438 0.19492560706685999 0 0.41066806580544729 0.2160617609406458 0 0.39679964264504158 0.21937630878092959 0 0.39598296716959969 0.20626700748070109 0 0.41066806580544729 0.2160617609406458 0 0.39679964264504158 0.21937630878092959 0 0.39598296716959969 0.20626700748070109 0 0.38369130631537601 0.21297307403445409 0 0.36923798170140371 0.20928007436804161 0 0.37292139258550783 0.22672254500020811 0 0.38369130631537601 0.21297307403445409 0 0.36923798170140371 0.20928007436804161 0 0.38369130631537601 0.21297307403445409 0 0.38464328683150451 0.18806222539781059 0 0.39598296716959969 0.20626700748070109 0 0.38369130631537601 0.21297307403445409 0 0.38464328683150451 0.18806222539781059 0 0.39598296716959969 0.20626700748070109 0 0.38464328683150451 0.18806222539781059 0 0.40513352984814438 0.19492560706685999 0 0.4059128807594603 0.17981630131623391 0 0.38464328683150451 0.18806222539781059 0 0.40513352984814438 0.19492560706685999 0 0.40513352984814438 0.19492560706685999 0 0.42045703890892938 0.19185412915784311 0 0.42444067869502011 0.20693424997503959 0 0.4059128807594603 0.17981630131623391 0 0.40513352984814438 0.19492560706685999 0 0.42045703890892938 0.19185412915784311 0 0.42045703890892938 0.19185412915784311 0 0.42444067869502011 0.20693424997503959 0 0.43799329450951457 0.1898848624547933 0 0.42444067869502011 0.20693424997503959 0 0.44184419378540352 0.2076794424592901 0 0.43799329450951457 0.1898848624547933 0 0.42444067869502011 0.20693424997503959 0 0.4302098735549707 0.2206458244329694 0 0.44184419378540352 0.2076794424592901 0 0.42444067869502011 0.20693424997503959 0 0.41066806580544729 0.2160617609406458 0 0.4302098735549707 0.2206458244329694 0 0.40513352984814438 0.19492560706685999 0 0.42444067869502011 0.20693424997503959 0 0.41066806580544729 0.2160617609406458 0 0.41066806580544729 0.2160617609406458 0 0.41777320819135039 0.22984229758728861 0 0.4302098735549707 0.2206458244329694 0 0.40329821407583749 0.23025496453590971 0 0.41066806580544729 0.2160617609406458 0 0.41777320819135039 0.22984229758728861 0 0.4302098735549707 0.2206458244329694 0 0.43602661166377499 0.2362412682293889 0 0.44584438813649652 0.2203436080528294 0 0.41777320819135039 0.22984229758728861 0 0.4302098735549707 0.2206458244329694 0 0.43602661166377499 0.2362412682293889 0 0.43602661166377499 0.2362412682293889 0 0.43076425121212841 0.2486853010718087 0 0.40866327585672191 0.24600766979752939 0 0.43602661166377499 0.2362412682293889 0 0.40866327585672191 0.24600766979752939 0 0.41777320819135039 0.22984229758728861 0 0.43602661166377499 0.2362412682293889 0 0.40866327585672191 0.24600766979752939 0 0.41664462513020523 0.25422696758609492 0 0.43076425121212841 0.2486853010718087 0 0.40866327585672191 0.24600766979752939 0 0.40329821407583749 0.23025496453590971 0 0.41777320819135039 0.22984229758728861 0 0.40866327585672191 0.24600766979752939 0 0.45166362976964691 0.25106894999712381 0 0.45384283414141641 0.23962742592169059 0 0.47583181488482379 0.2451422378191761 0 0.45166362976964691 0.25106894999712381 0 0.47583181488482379 0.2451422378191761 0 0.45384283414141641 0.23962742592169059 0 0.47692141707070451 0.23056955077157251 0 0.45166362976964691 0.25106894999712381 0 0.43076425121212841 0.2486853010718087 0 0.45384283414141641 0.23962742592169059 0 0.43602661166377499 0.2362412682293889 0 0.43076425121212841 0.2486853010718087 0 0.45384283414141641 0.23962742592169059 0 0.43076425121212841 0.2486853010718087 0 0.45384283414141641 0.23962742592169059 0 0.43602661166377499 0.2362412682293889 0 0.46338994747082818 0.22647486666124839 0 0.43602661166377499 0.2362412682293889 0 0.44584438813649652 0.2203436080528294 0 0.46338994747082818 0.22647486666124839 0 0.43602661166377499 0.2362412682293889 0 0.45384283414141641 0.23962742592169059 0 0.46338994747082818 0.22647486666124839 0 0.44584438813649652 0.2203436080528294 0 0.46338994747082818 0.22647486666124839 0 0.4574246187180494 0.20998202225832771 0 0.45384283414141641 0.23962742592169059 0 0.46338994747082818 0.22647486666124839 0 0.47692141707070451 0.23056955077157251 0 0.46338994747082818 0.22647486666124839 0 0.4574246187180494 0.20998202225832771 0 0.47311107537994651 0.21060674662752529 0 0.4574246187180494 0.20998202225832771 0 0.46861366351278472 0.19789432193598561 0 0.47311107537994651 0.21060674662752529 0 0.44584438813649652 0.2203436080528294 0 0.4574246187180494 0.20998202225832771 0 0.44184419378540352 0.2076794424592901 0 0.4302098735549707 0.2206458244329694 0 0.44584438813649652 0.2203436080528294 0 0.44184419378540352 0.2076794424592901 0 0.4574246187180494 0.20998202225832771 0 0.44184419378540352 0.2076794424592901 0 0.45120510308892831 0.19507838461398491 0 0.44184419378540352 0.2076794424592901 0 0.43799329450951457 0.1898848624547933 0 0.45120510308892831 0.19507838461398491 0 0.4574246187180494 0.20998202225832771 0 0.45120510308892831 0.19507838461398491 0 0.46861366351278472 0.19789432193598561 0 0.45120510308892831 0.19507838461398491 0 0.46861366351278472 0.19789432193598561 0 0.45014974491888898 0.16995127396152809 0 0.46861366351278472 0.19789432193598561 0 0.48377650321145821 0.20030440734603891 0 0.47890777313388699 0.17818810929941131 0 0.46861366351278472 0.19789432193598561 0 0.48377650321145821 0.20030440734603891 0 0.47311107537994651 0.21060674662752529 0 0.48377650321145821 0.20030440734603891 0 0.5 0.19442179120654851 0 0.47890777313388699 0.17818810929941131 0 0.48377650321145821 0.20030440734603891 0 0.5 0.19442179120654851 0 0.49075328327788142 0.2167084650931079 0 0.5 0.19442179120654851 0 0.49075328327788142 0.2167084650931079 0 0.49999999999999339 0.2215116756214566 0 0.48377650321145821 0.20030440734603891 0 0.49075328327788142 0.2167084650931079 0 0.47311107537994651 0.21060674662752529 0 0.46338994747082818 0.22647486666124839 0 0.49075328327788142 0.2167084650931079 0 0.47311107537994651 0.21060674662752529 0 0.46338994747082818 0.22647486666124839 0 0.49075328327788142 0.2167084650931079 0 0.46338994747082818 0.22647486666124839 0 0.49075328327788142 0.2167084650931079 0 0.47692141707070451 0.23056955077157251 0 0.47692141707070451 0.23056955077157251 0 0.49999999999999339 0.2215116756214566 0 0.50000000000000067 0.2392155256412283 0 0.49075328327788142 0.2167084650931079 0 0.47692141707070451 0.23056955077157251 0 0.49999999999999339 0.2215116756214566 0 0.47692141707070451 0.23056955077157251 0 0.49999999999999339 0.2215116756214566 0 0.50000000000000067 0.2392155256412283 0 0.47583181488482379 0.2451422378191761 0 0.48341195364679568 0.26002408893105827 0 0.50000000000000067 0.2392155256412283 0 0.47583181488482379 0.2451422378191761 0 0.47692141707070451 0.23056955077157251 0 0.50000000000000067 0.2392155256412283 0 0.47583181488482379 0.2451422378191761 0 0.45384283414141641 0.23962742592169059 0 0.47692141707070451 0.23056955077157251 0 0.47583181488482379 0.2451422378191761 0 0.46053260521531592 0.14091734283165991 0 0.45014974491888898 0.16995127396152809 0 0.47759274938693741 0.15337993901402261 0 0.46053260521531592 0.14091734283165991 0 0.47596637305353268 0.1236489788231635 0 0.45094723062946279 0.12208098845927939 0 0.46053260521531592 0.14091734283165991 0 0.44305345270963392 0.14224085277467549 0 0.45094723062946279 0.12208098845927939 0 0.43267139290449452 0.12562392175117529 0 0.44305345270963392 0.14224085277467549 0 0.45094723062946279 0.12208098845927939 0 0.46053260521531592 0.14091734283165991 0 0.44305345270963392 0.14224085277467549 0 0.45014974491888898 0.16995127396152809 0 0.43641214087317609 0.15776157540708571 0 0.44305345270963392 0.14224085277467549 0 0.45014974491888898 0.16995127396152809 0 0.42759287120751482 0.1799189573059411 0 0.43799329450951457 0.1898848624547933 0 0.45014974491888898 0.16995127396152809 0 0.43799329450951457 0.1898848624547933 0 0.45120510308892831 0.19507838461398491 0 0.45014974491888898 0.16995127396152809 0 0.46861366351278472 0.19789432193598561 0 0.45014974491888898 0.16995127396152809 0 0.47890777313388699 0.17818810929941131 0 0.45014974491888898 0.16995127396152809 0 0.47890777313388699 0.17818810929941131 0 0.47759274938693741 0.15337993901402261 0 0.5 0.19442179120654851 0 0.47890777313388699 0.17818810929941131 0 0.5 0.16733190679164031 0 0.47890777313388699 0.17818810929941131 0 0.5 0.16733190679164031 0 0.47759274938693741 0.15337993901402261 0 0.5 0.16733190679164031 0 0.47759274938693741 0.15337993901402261 0 0.5 0.14024202237673219 0 0.46053260521531592 0.14091734283165991 0 0.47759274938693741 0.15337993901402261 0 0.47596637305353268 0.1236489788231635 0 0.5 0.14024202237673219 0 0.5 0.11315213796182411 0 0.47596637305353268 0.1236489788231635 0 0.47759274938693741 0.15337993901402261 0 0.5 0.14024202237673219 0 0.47596637305353268 0.1236489788231635 0 0.5 0.11315213796182411 0 0.48146508414057748 0.097867616362435003 0 0.47596637305353268 0.1236489788231635 0 0.5 0.11315213796182411 0 0.48146508414057748 0.097867616362435003 0 0.5 0.08606225354691599 0 0.48146508414057748 0.097867616362435003 0 0.46684480345772023 0.083704774648097419 0 0.46085076100455152 0.1051260388446932 0 0.48146508414057748 0.097867616362435003 0 0.47596637305353268 0.1236489788231635 0 0.46085076100455152 0.1051260388446932 0 0.5 0.08606225354691599 0 0.48297411160829701 0.071419164250366693 0 0.5 0.058972369132007867 0 0.48146508414057748 0.097867616362435003 0 0.5 0.08606225354691599 0 0.48297411160829701 0.071419164250366693 0 0.48146508414057748 0.097867616362435003 0 0.48297411160829701 0.071419164250366693 0 0.46684480345772023 0.083704774648097419 0 0.48297411160829701 0.071419164250366693 0 0.46368779630991369 0.062884433647911922 0 0.46684480345772023 0.083704774648097419 0 0.46368779630991369 0.062884433647911922 0 0.4455316944648699 0.078385408113317706 0 0.46368779630991369 0.062884433647911922 0 0.46684480345772023 0.083704774648097419 0 0.4455316944648699 0.078385408113317706 0 0.46684480345772023 0.083704774648097419 0 0.4455316944648699 0.078385408113317706 0 0.46085076100455152 0.1051260388446932 0 0.4455316944648699 0.078385408113317706 0 0.46085076100455152 0.1051260388446932 0 0.43655847815144871 0.087567909291679069 0 0.4455316944648699 0.078385408113317706 0 0.43655847815144871 0.087567909291679069 0 0.43300293116684879 0.070359854062556224 0 0.4455316944648699 0.078385408113317706 0 0.43300293116684879 0.070359854062556224 0 0.44432728466234178 0.059795406129610977 0 0.46368779630991369 0.062884433647911922 0 0.4455316944648699 0.078385408113317706 0 0.44432728466234178 0.059795406129610977 0 0.47596637305353268 0.1236489788231635 0 0.46085076100455152 0.1051260388446932 0 0.45094723062946279 0.12208098845927939 0 0.46085076100455152 0.1051260388446932 0 0.43655847815144871 0.087567909291679069 0 0.46085076100455152 0.1051260388446932 0 0.43845481143497073 0.110031162788742 0 0.43302597451412722 0.09911942802672713 0 0.46085076100455152 0.1051260388446932 0 0.43302597451412722 0.09911942802672713 0 0.43655847815144871 0.087567909291679069 0 0.43267139290449452 0.12562392175117529 0 0.45094723062946279 0.12208098845927939 0 0.43845481143497073 0.110031162788742 0 0.46085076100455152 0.1051260388446932 0 0.45094723062946279 0.12208098845927939 0 0.43845481143497073 0.110031162788742 0 0.43267139290449452 0.12562392175117529 0 0.43845481143497073 0.110031162788742 0 0.42512360996164289 0.1101942667169049 0 0.43267139290449452 0.12562392175117529 0 0.42512360996164289 0.1101942667169049 0 0.41840244549433692 0.1204435227777134 0 0.42512360996164289 0.1101942667169049 0 0.41840244549433692 0.1204435227777134 0 0.41145911669595331 0.1096997076075869 0 0.41840244549433692 0.1204435227777134 0 0.41145911669595331 0.1096997076075869 0 0.40630256149234217 0.12337914253670321 0 0.41145911669595331 0.1096997076075869 0 0.41782870111656589 0.098086010242617663 0 0.40188519574572068 0.098349840232826835 0 0.41782870111656589 0.098086010242617663 0 0.41132824907511162 0.087668761689670915 0 0.40188519574572068 0.098349840232826835 0 0.42512360996164289 0.1101942667169049 0 0.41145911669595331 0.1096997076075869 0 0.41782870111656589 0.098086010242617663 0 0.41782870111656589 0.098086010242617663 0 0.43302597451412722 0.09911942802672713 0 0.42198136315300161 0.08812274721924529 0 0.42512360996164289 0.1101942667169049 0 0.41782870111656589 0.098086010242617663 0 0.43302597451412722 0.09911942802672713 0 0.43845481143497073 0.110031162788742 0 0.42512360996164289 0.1101942667169049 0 0.43302597451412722 0.09911942802672713 0 0.43655847815144871 0.087567909291679069 0 0.42198136315300161 0.08812274721924529 0 0.41226619529834591 0.070009779738664735 0 0.43655847815144871 0.087567909291679069 0 0.41226619529834591 0.070009779738664735 0 0.43302597451412722 0.09911942802672713 0 0.43655847815144871 0.087567909291679069 0 0.42198136315300161 0.08812274721924529 0 0.43300293116684879 0.070359854062556224 0 0.41226619529834591 0.070009779738664735 0 0.42739758089851382 0.054541393999090262 0 0.43655847815144871 0.087567909291679069 0 0.43300293116684879 0.070359854062556224 0 0.41226619529834591 0.070009779738664735 0 0.42198136315300161 0.08812274721924529 0 0.41226619529834591 0.070009779738664735 0 0.41132824907511162 0.087668761689670915 0 0.41226619529834591 0.070009779738664735 0 0.41132824907511162 0.087668761689670915 0 0.39992923875424519 0.082621500021195282 0 0.41782870111656589 0.098086010242617663 0 0.42198136315300161 0.08812274721924529 0 0.41132824907511162 0.087668761689670915 0 0.41132824907511162 0.087668761689670915 0 0.39992923875424519 0.082621500021195282 0 0.40188519574572068 0.098349840232826835 0 0.39992923875424519 0.082621500021195282 0 0.38759228221014619 0.095233220303727467 0 0.40188519574572068 0.098349840232826835 0 0.39992923875424519 0.082621500021195282 0 0.38759228221014619 0.095233220303727467 0 0.41226619529834591 0.070009779738664735 0 0.39707386889515511 0.070908779594843374 0 0.39683376059791597 0.058855427163935138 0 0.41226619529834591 0.070009779738664735 0 0.39683376059791597 0.058855427163935138 0 0.41226619529834591 0.070009779738664735 0 0.39992923875424519 0.082621500021195282 0 0.41226619529834591 0.070009779738664735 0 0.39992923875424519 0.082621500021195282 0 0.39707386889515511 0.070908779594843374 0 0.39992923875424519 0.082621500021195282 0 0.39707386889515511 0.070908779594843374 0 0.38583977896057609 0.075316135258006081 0 0.39707386889515511 0.070908779594843374 0 0.38282045226763678 0.060547433734587333 0 0.39683376059791597 0.058855427163935138 0 0.39707386889515511 0.070908779594843374 0 0.38583977896057609 0.075316135258006081 0 0.38282045226763678 0.060547433734587333 0 0.38583977896057609 0.075316135258006081 0 0.37596532967213542 0.069868995675824025 0 0.37682589963749002 0.081332762740894418 0 0.37307104071443398 0.061065176941414383 0 0.37596532967213542 0.069868995675824025 0 0.38282045226763678 0.060547433734587333 0 0.38583977896057609 0.075316135258006081 0 0.37596532967213542 0.069868995675824025 0 0.38282045226763678 0.060547433734587333 0 0.39992923875424519 0.082621500021195282 0 0.38412803848747967 0.086259474622970303 0 0.38759228221014619 0.095233220303727467 0 0.39992923875424519 0.082621500021195282 0 0.38583977896057609 0.075316135258006081 0 0.38412803848747967 0.086259474622970303 0 0.37045299287494049 0.09679375479102828 0 0.38412803848747967 0.086259474622970303 0 0.38759228221014619 0.095233220303727467 0 0.38583977896057609 0.075316135258006081 0 0.38412803848747967 0.086259474622970303 0 0.37682589963749002 0.081332762740894418 0 0.37045299287494049 0.09679375479102828 0 0.38412803848747967 0.086259474622970303 0 0.37682589963749002 0.081332762740894418 0 0.37045299287494049 0.09679375479102828 0 0.38005682511468147 0.12140739343396729 0 0.37045299287494049 0.09679375479102828 0 0.38759228221014619 0.095233220303727467 0 0.38890959528695412 0.1083938038889192 0 0.37045299287494049 0.09679375479102828 0 0.38890959528695412 0.1083938038889192 0 0.38005682511468147 0.12140739343396729 0 0.39398634319161102 0.12556361147638159 0 0.38890959528695412 0.1083938038889192 0 0.38005682511468147 0.12140739343396729 0 0.39398634319161102 0.12556361147638159 0 0.38890959528695412 0.1083938038889192 0 0.39948393258462489 0.11301500309558379 0 0.39398634319161102 0.12556361147638159 0 0.40630256149234217 0.12337914253670321 0 0.39948393258462489 0.11301500309558379 0 0.41145911669595331 0.1096997076075869 0 0.40630256149234217 0.12337914253670321 0 0.39948393258462489 0.11301500309558379 0 0.41145911669595331 0.1096997076075869 0 0.39948393258462489 0.11301500309558379 0 0.40188519574572068 0.098349840232826835 0 0.38759228221014619 0.095233220303727467 0 0.38890959528695412 0.1083938038889192 0 0.40188519574572068 0.098349840232826835 0 0.38890959528695412 0.1083938038889192 0 0.39948393258462489 0.11301500309558379 0 0.40188519574572068 0.098349840232826835 0 0.3912475249538237 0.025882868266216091 0 0.40325323122183843 0.024352223252143548 0 0.39536881189699241 0.01378873843063998 0 0.3912475249538237 0.025882868266216091 0 0.40325323122183843 0.024352223252143548 0 0.39805180056669343 0.032772735105760037 0 0.40325323122183843 0.024352223252143548 0 0.39805180056669343 0.032772735105760037 0 0.40655765028286611 0.035582104639029083 0 0.40325323122183843 0.024352223252143548 0 0.39536881189699241 0.01378873843063998 0 0.40720094273855439 0.01372602960598159 0 0.40060323373222451 0.0042547197705496897 0 0.39536881189699241 0.01378873843063998 0 0.40720094273855439 0.01372602960598159 0 0.40060323373222451 0.0042547197705496897 0 0.41081432206005303 0.0037114498956348132 0 0.4046584776842293 -0.0050702490882302163 0 0.40060323373222451 0.0042547197705496897 0 0.41081432206005303 0.0037114498956348132 0 0.40720094273855439 0.01372602960598159 0 0.40060323373222451 0.0042547197705496897 0 0.39025836247721268 0.0036292771787240202 0 0.39531848553630572 -0.0042569273994520467 0 0.40060323373222451 0.0042547197705496897 0 0.39536881189699241 0.01378873843063998 0 0.39025836247721268 0.0036292771787240202 0 0.37844401144479839 0.012609093579625891 0 0.38356146703633898 -0.0078565650350033434 0 0.37844401144479839 0.012609093579625891 0 0.39025836247721268 0.0036292771787240202 0 0.38356146703633898 -0.0078565650350033434 0 0.39536881189699241 0.01378873843063998 0 0.37844401144479839 0.012609093579625891 0 0.39025836247721268 0.0036292771787240202 0 0.3912475249538237 0.025882868266216091 0 0.37844401144479839 0.012609093579625891 0 0.38063223185621792 0.036578263657106522 0 0.37844401144479839 0.012609093579625891 0 0.38063223185621792 0.036578263657106522 0 0.37146335928247548 0.04052602251159599 0 0.37844401144479839 0.012609093579625891 0 0.38063223185621792 0.036578263657106522 0 0.3912475249538237 0.025882868266216091 0 0.39536881189699241 0.01378873843063998 0 0.37844401144479839 0.012609093579625891 0 0.37146335928247548 0.04052602251159599 0 0.38063223185621792 0.036578263657106522 0 0.38282045226763678 0.060547433734587333 0 0.3912475249538237 0.025882868266216091 0 0.38063223185621792 0.036578263657106522 0 0.3908528121234538 0.035995570554822158 0 0.38063223185621792 0.036578263657106522 0 0.38791705742610771 0.044539104287684539 0 0.3908528121234538 0.035995570554822158 0 0.38791705742610771 0.044539104287684539 0 0.38282045226763678 0.060547433734587333 0 0.39079668350586277 0.051215399393808793 0 0.37307104071443398 0.061065176941414383 0 0.37146335928247548 0.04052602251159599 0 0.38282045226763678 0.060547433734587333 0 0.38063223185621792 0.036578263657106522 0 0.38791705742610771 0.044539104287684539 0 0.38282045226763678 0.060547433734587333 0 0.38063223185621792 0.036578263657106522 0 0.38282045226763678 0.060547433734587333 0 0.38282045226763678 0.060547433734587333 0 0.39683376059791597 0.058855427163935138 0 0.39079668350586277 0.051215399393808793 0 0.41226619529834591 0.070009779738664735 0 0.39683376059791597 0.058855427163935138 0 0.40948896714378957 0.05055434744181983 0 0.39683376059791597 0.058855427163935138 0 0.39079668350586277 0.051215399393808793 0 0.39674782008621368 0.04348041067995833 0 0.39683376059791597 0.058855427163935138 0 0.39674782008621368 0.04348041067995833 0 0.40948896714378957 0.05055434744181983 0 0.3908528121234538 0.035995570554822158 0 0.39805180056669343 0.032772735105760037 0 0.39674782008621368 0.04348041067995833 0 0.3912475249538237 0.025882868266216091 0 0.3908528121234538 0.035995570554822158 0 0.39805180056669343 0.032772735105760037 0 0.38791705742610771 0.044539104287684539 0 0.3908528121234538 0.035995570554822158 0 0.39674782008621368 0.04348041067995833 0 0.38791705742610771 0.044539104287684539 0 0.39079668350586277 0.051215399393808793 0 0.39674782008621368 0.04348041067995833 0 0.39674782008621368 0.04348041067995833 0 0.40655765028286611 0.035582104639029083 0 0.40948896714378957 0.05055434744181983 0 0.39805180056669343 0.032772735105760037 0 0.39674782008621368 0.04348041067995833 0 0.40655765028286611 0.035582104639029083 0 0.40655765028286611 0.035582104639029083 0 0.41713079569888262 0.040856968430241461 0 0.41557099838193923 0.024039796491718179 0 0.41713079569888262 0.040856968430241461 0 0.42755741698364552 0.032815777208855347 0 0.41557099838193923 0.024039796491718179 0 0.40655765028286611 0.035582104639029083 0 0.41713079569888262 0.040856968430241461 0 0.40948896714378957 0.05055434744181983 0 0.41226619529834591 0.070009779738664735 0 0.40948896714378957 0.05055434744181983 0 0.42739758089851382 0.054541393999090262 0 0.41713079569888262 0.040856968430241461 0 0.40948896714378957 0.05055434744181983 0 0.42739758089851382 0.054541393999090262 0 0.41226619529834591 0.070009779738664735 0 0.42739758089851382 0.054541393999090262 0 0.43300293116684879 0.070359854062556224 0 0.42739758089851382 0.054541393999090262 0 0.44432728466234178 0.059795406129610977 0 0.41713079569888262 0.040856968430241461 0 0.42739758089851382 0.054541393999090262 0 0.42755741698364552 0.032815777208855347 0 0.42739758089851382 0.054541393999090262 0 0.42755741698364552 0.032815777208855347 0 0.44252896649868317 0.039073008259517338 0 0.42739758089851382 0.054541393999090262 0 0.44252896649868317 0.039073008259517338 0 0.42755741698364552 0.032815777208855347 0 0.4358194844604939 0.024219735287320941 0 0.44252896649868317 0.039073008259517338 0 0.42755741698364552 0.032815777208855347 0 0.41557099838193923 0.024039796491718179 0 0.4265644217351573 0.014684511896395219 0 0.4358194844604939 0.024219735287320941 0 0.4265644217351573 0.014684511896395219 0 0.44548351627008242 0.01642882659412407 0 0.42755741698364552 0.032815777208855347 0 0.4358194844604939 0.024219735287320941 0 0.4265644217351573 0.014684511896395219 0 0.41557099838193923 0.024039796491718179 0 0.4165272652869268 0.01155925859927168 0 0.4265644217351573 0.014684511896395219 0 0.41557099838193923 0.024039796491718179 0 0.40720094273855439 0.01372602960598159 0 0.4165272652869268 0.01155925859927168 0 0.40325323122183843 0.024352223252143548 0 0.41557099838193923 0.024039796491718179 0 0.40720094273855439 0.01372602960598159 0 0.40325323122183843 0.024352223252143548 0 0.40655765028286611 0.035582104639029083 0 0.41557099838193923 0.024039796491718179 0 0.41081432206005303 0.0037114498956348132 0 0.40720094273855439 0.01372602960598159 0 0.4165272652869268 0.01155925859927168 0 0.4165272652869268 0.01155925859927168 0 0.42248564151892998 0.0016345051066286029 0 0.4265644217351573 0.014684511896395219 0 0.41081432206005303 0.0037114498956348132 0 0.4165272652869268 0.01155925859927168 0 0.42248564151892998 0.0016345051066286029 0 0.42248564151892998 0.0016345051066286029 0 0.4265644217351573 0.014684511896395219 0 0.4382820622288856 -0.0014159552958160841 0 0.4265644217351573 0.014684511896395219 0 0.44548351627008242 0.01642882659412407 0 0.4382820622288856 -0.0014159552958160841 0 0.45100246047295739 0.0046664116742636159 0 0.44548351627008242 0.01642882659412407 0 0.4382820622288856 -0.0014159552958160841 0 0.45100246047295739 0.0046664116742636159 0 0.44548351627008242 0.01642882659412407 0 0.4580470330794123 0.0188547641718908 0 0.4358194844604939 0.024219735287320941 0 0.4514029071021442 0.02821869916314456 0 0.44548351627008242 0.01642882659412407 0 0.4358194844604939 0.024219735287320941 0 0.4514029071021442 0.02821869916314456 0 0.44252896649868317 0.039073008259517338 0 0.4514029071021442 0.02821869916314456 0 0.44548351627008242 0.01642882659412407 0 0.4580470330794123 0.0188547641718908 0 0.4514029071021442 0.02821869916314456 0 0.4580470330794123 0.0188547641718908 0 0.46553563141862692 0.027383902935855992 0 0.4580470330794123 0.0188547641718908 0 0.46553563141862692 0.027383902935855992 0 0.471035018561343 0.01684384088441979 0 0.4580470330794123 0.0188547641718908 0 0.4620271672997433 0.0081957990277541914 0 0.471035018561343 0.01684384088441979 0 0.4620271672997433 0.0081957990277541914 0 0.47207727543944228 0.0077163925679632076 0 0.45540766643685782 -0.0078732224449345398 0 0.4620271672997433 0.0081957990277541914 0 0.47207727543944228 0.0077163925679632076 0 0.471035018561343 0.01684384088441979 0 0.45100246047295739 0.0046664116742636159 0 0.4620271672997433 0.0081957990277541914 0 0.45540766643685782 -0.0078732224449345398 0 0.45100246047295739 0.0046664116742636159 0 0.4580470330794123 0.0188547641718908 0 0.4620271672997433 0.0081957990277541914 0 0.42739758089851382 0.054541393999090262 0 0.44432728466234178 0.059795406129610977 0 0.44252896649868317 0.039073008259517338 0 0.44432728466234178 0.059795406129610977 0 0.44252896649868317 0.039073008259517338 0 0.46100281088556699 0.043351957730158222 0 0.4514029071021442 0.02821869916314456 0 0.44252896649868317 0.039073008259517338 0 0.46100281088556699 0.043351957730158222 0 0.4514029071021442 0.02821869916314456 0 0.46553563141862692 0.027383902935855992 0 0.46100281088556699 0.043351957730158222 0 0.46553563141862692 0.027383902935855992 0 0.46100281088556699 0.043351957730158222 0 0.4764725540003833 0.035303178421407518 0 0.46368779630991369 0.062884433647911922 0 0.44432728466234178 0.059795406129610977 0 0.46100281088556699 0.043351957730158222 0 0.48297411160829701 0.071419164250366693 0 0.46368779630991369 0.062884433647911922 0 0.48184389815495748 0.047383459182506117 0 0.46368779630991369 0.062884433647911922 0 0.46100281088556699 0.043351957730158222 0 0.48184389815495748 0.047383459182506117 0 0.46368779630991369 0.062884433647911922 0 0.48184389815495748 0.047383459182506117 0 0.46100281088556699 0.043351957730158222 0 0.48184389815495748 0.047383459182506117 0 0.4764725540003833 0.035303178421407518 0 0.48184389815495748 0.047383459182506117 0 0.50000000000000089 0.031882484717099757 0 0.48184389815495748 0.047383459182506117 0 0.50000000000000089 0.031882484717099757 0 0.5 0.058972369132007867 0 0.48184389815495748 0.047383459182506117 0 0.4764725540003833 0.035303178421407518 0 0.50000000000000089 0.031882484717099757 0 0.48297411160829701 0.071419164250366693 0 0.48184389815495748 0.047383459182506117 0 0.5 0.058972369132007867 0 0.48173822001607031 0.002441982684480838 0 0.47207727543944228 0.0077163925679632076 0 0.45540766643685782 -0.0078732224449345398 0 0.48073089036299149 0.01447516008145705 0 0.48088876464914698 0.0066420825236524483 0 0.47207727543944228 0.0077163925679632076 0 0.48088876464914698 0.0066420825236524483 0 0.48173822001607031 0.002441982684480838 0 0.48944624590280772 0.014576472087587141 0 0.48073089036299149 0.01447516008145705 0 0.48088876464914698 0.0066420825236524483 0 0.48944624590280772 0.014576472087587141 0 0.48088876464914698 0.0066420825236524483 0 0.48173822001607031 0.002441982684480838 0 0.47207727543944228 0.0077163925679632076 0 0.48088876464914698 0.0066420825236524483 0 0.48173822001607031 0.002441982684480838 0 0.48073089036299149 0.01447516008145705 0 0.47207727543944228 0.0077163925679632076 0 0.471035018561343 0.01684384088441979 0 0.46553563141862692 0.027383902935855992 0 0.471035018561343 0.01684384088441979 0 0.48098968552297122 0.023479159592672289 0 0.46553563141862692 0.027383902935855992 0 0.4764725540003833 0.035303178421407518 0 0.48098968552297122 0.023479159592672289 0 0.48073089036299149 0.01447516008145705 0 0.471035018561343 0.01684384088441979 0 0.48098968552297122 0.023479159592672289 0 0.48073089036299149 0.01447516008145705 0 0.48098968552297122 0.023479159592672289 0 0.48944624590280772 0.014576472087587141 0 0.50000000000000089 0.031882484717099757 0 0.50000000000000044 0.0095961811708810997 0 0.48944624590280772 0.014576472087587141 0 0.4764725540003833 0.035303178421407518 0 0.50000000000000089 0.031882484717099757 0 0.48098968552297122 0.023479159592672289 0 0.50000000000000089 0.031882484717099757 0 0.48098968552297122 0.023479159592672289 0 0.48944624590280772 0.014576472087587141 0 0.48173822001607031 0.002441982684480838 0 0.50000000000000044 0.0095961811708810997 0 0.48944624590280772 0.014576472087587141 0 0.48173822001607031 0.002441982684480838 0 0.50000000000000044 0.0095961811708810997 0 0.48173822001607031 0.002441982684480838 0 0.50000000000000044 0.0095961811708810997 0 0.5 -0.01553848795347695 0 0.48173822001607031 0.002441982684480838 0 0.5 -0.01553848795347695 0 0.48723509010938909 -0.024737082977995831 0 0.48173822001607031 0.002441982684480838 0 0.48723509010938909 -0.024737082977995831 0 0.48173822001607031 0.002441982684480838 0 0.46944239540012012 -0.021901386132034111 0 0.45540766643685782 -0.0078732224449345398 0 0.48173822001607031 0.002441982684480838 0 0.46944239540012012 -0.021901386132034111 0 0.48723509010938909 -0.024737082977995831 0 0.46944239540012012 -0.021901386132034111 0 0.48723509010938909 -0.024737082977995831 0 0.47311684284700922 -0.039980301183512167 0 0.5 -0.01553848795347695 0 0.48723509010938909 -0.024737082977995831 0 0.5 -0.040673157077835087 0 0.48723509010938909 -0.024737082977995831 0 0.49273196020270971 -0.051916148640471983 0 0.48034048547664182 -0.050194577481915269 0 0.48723509010938909 -0.024737082977995831 0 0.49273196020270971 -0.051916148640471983 0 0.48723509010938909 -0.024737082977995831 0 0.5 -0.040673157077835087 0 0.49273196020270971 -0.051916148640471983 0 0.5 -0.040673157077835087 0 0.49273196020270971 -0.051916148640471983 0 0.5 -0.065807826202193331 0 0.49273196020270971 -0.051916148640471983 0 0.48384360039889979 -0.062204599920787272 0 0.48034048547664182 -0.050194577481915269 0 0.48034048547664182 -0.050194577481915269 0 0.47035120232490191 -0.060528185902064997 0 0.47311684284700922 -0.039980301183512167 0 0.47035120232490191 -0.060528185902064997 0 0.47311684284700922 -0.039980301183512167 0 0.48384360039889979 -0.062204599920787272 0 0.48034048547664182 -0.050194577481915269 0 0.47035120232490191 -0.060528185902064997 0 0.48723509010938909 -0.024737082977995831 0 0.48034048547664182 -0.050194577481915269 0 0.47311684284700922 -0.039980301183512167 0 0.46944239540012012 -0.021901386132034111 0 0.47311684284700922 -0.039980301183512167 0 0.44971415759127392 -0.039358306738208573 0 0.47035120232490191 -0.060528185902064997 0 0.47311684284700922 -0.039980301183512167 0 0.44971415759127392 -0.039358306738208573 0 0.47035120232490191 -0.060528185902064997 0 0.44971415759127392 -0.039358306738208573 0 0.47035120232490191 -0.060528185902064997 0 0.43963483674523918 -0.055334607978488382 0 0.44971415759127392 -0.039358306738208573 0 0.43963483674523918 -0.055334607978488382 0 0.44971415759127392 -0.039358306738208573 0 0.42419530264354072 -0.042652000491910397 0 0.46944239540012012 -0.021901386132034111 0 0.44971415759127392 -0.039358306738208573 0 0.45540766643685782 -0.0078732224449345398 0 0.44971415759127392 -0.039358306738208573 0 0.42907711285764621 -0.01818842757435184 0 0.44971415759127392 -0.039358306738208573 0 0.45540766643685782 -0.0078732224449345398 0 0.42907711285764621 -0.01818842757435184 0 0.45540766643685782 -0.0078732224449345398 0 0.42907711285764621 -0.01818842757435184 0 0.45100246047295739 0.0046664116742636159 0 0.4382820622288856 -0.0014159552958160841 0 0.45540766643685782 -0.0078732224449345398 0 0.4382820622288856 -0.0014159552958160841 0 0.45540766643685782 -0.0078732224449345398 0 0.42907711285764621 -0.01818842757435184 0 0.48173822001607031 0.002441982684480838 0 0.45540766643685782 -0.0078732224449345398 0 0.47129126618897188 -0.1223351355815797 0 0.47148248434309947 -0.114916285604633 0 0.48087269318342413 -0.1216818802472065 0 0.47148248434309947 -0.114916285604633 0 0.48087269318342413 -0.1216818802472065 0 0.47838814501791832 -0.1066654575105275 0 0.48087269318342413 -0.1216818802472065 0 0.48924328608656842 -0.1141618265083332 0 0.47838814501791832 -0.1066654575105275 0 0.5 -0.1122204549214597 0 0.48924328608656842 -0.1141618265083332 0 0.5 -0.13349841451636779 0 0.48087269318342413 -0.1216818802472065 0 0.48924328608656842 -0.1141618265083332 0 0.5 -0.13349841451636779 0 0.5 -0.1122204549214597 0 0.48924328608656842 -0.1141618265083332 0 0.48827073793524339 -0.097774102912636218 0 0.48924328608656842 -0.1141618265083332 0 0.48827073793524339 -0.097774102912636218 0 0.47838814501791832 -0.1066654575105275 0 0.5 -0.1122204549214597 0 0.48827073793524339 -0.097774102912636218 0 0.50000000000000266 -0.090942495326551576 0 0.47652975213937199 -0.091635549067057065 0 0.46683976751390588 -0.086617099886465918 0 0.46456669494636288 -0.10350535152343909 0 0.48827073793524339 -0.097774102912636218 0 0.47838814501791832 -0.1066654575105275 0 0.47652975213937199 -0.091635549067057065 0 0.47148248434309947 -0.114916285604633 0 0.47838814501791832 -0.1066654575105275 0 0.46456669494636288 -0.10350535152343909 0 0.47838814501791832 -0.1066654575105275 0 0.47652975213937199 -0.091635549067057065 0 0.46456669494636288 -0.10350535152343909 0 0.48827073793524339 -0.097774102912636218 0 0.47652975213937199 -0.091635549067057065 0 0.48517560116245317 -0.075735340614307423 0 0.47652975213937199 -0.091635549067057065 0 0.48517560116245317 -0.075735340614307423 0 0.46683976751390588 -0.086617099886465918 0 0.47652975213937199 -0.091635549067057065 0 0.46683976751390588 -0.086617099886465918 0 0.50000000000000266 -0.090942495326551576 0 0.49822883029603021 -0.079095214302948247 0 0.5 -0.065807826202193331 0 0.48827073793524339 -0.097774102912636218 0 0.50000000000000266 -0.090942495326551576 0 0.48517560116245317 -0.075735340614307423 0 0.50000000000000266 -0.090942495326551576 0 0.48517560116245317 -0.075735340614307423 0 0.50000000000000266 -0.090942495326551576 0 0.49822883029603021 -0.079095214302948247 0 0.48517560116245317 -0.075735340614307423 0 0.49273196020270971 -0.051916148640471983 0 0.49822883029603021 -0.079095214302948247 0 0.48384360039889979 -0.062204599920787272 0 0.49822883029603021 -0.079095214302948247 0 0.48517560116245317 -0.075735340614307423 0 0.49273196020270971 -0.051916148640471983 0 0.48384360039889979 -0.062204599920787272 0 0.49822883029603021 -0.079095214302948247 0 0.49273196020270971 -0.051916148640471983 0 0.49822883029603021 -0.079095214302948247 0 0.5 -0.065807826202193331 0 0.47035120232490191 -0.060528185902064997 0 0.48517560116245317 -0.075735340614307423 0 0.47035120232490191 -0.060528185902064997 0 0.48517560116245317 -0.075735340614307423 0 0.46683976751390588 -0.086617099886465918 0 0.48384360039889979 -0.062204599920787272 0 0.47035120232490191 -0.060528185902064997 0 0.48517560116245317 -0.075735340614307423 0 0.47035120232490191 -0.060528185902064997 0 0.46683976751390588 -0.086617099886465918 0 0.47035120232490191 -0.060528185902064997 0 0.44249197108241189 -0.074007360679063244 0 0.46683976751390588 -0.086617099886465918 0 0.47035120232490191 -0.060528185902064997 0 0.43963483674523918 -0.055334607978488382 0 0.44249197108241189 -0.074007360679063244 0 0.44249197108241189 -0.074007360679063244 0 0.46683976751390588 -0.086617099886465918 0 0.4490662803509099 -0.094083529251462475 0 0.44249197108241189 -0.074007360679063244 0 0.4490662803509099 -0.094083529251462475 0 0.42834270349958448 -0.099226311759436261 0 0.44249197108241189 -0.074007360679063244 0 0.46683976751390588 -0.086617099886465918 0 0.46683976751390588 -0.086617099886465918 0 0.46456669494636288 -0.10350535152343909 0 0.4490662803509099 -0.094083529251462475 0 0.46683976751390588 -0.086617099886465918 0 0.46456669494636288 -0.10350535152343909 0 0.46456669494636288 -0.10350535152343909 0 0.4490662803509099 -0.094083529251462475 0 0.44386094964032902 -0.11054798122052439 0 0.4490662803509099 -0.094083529251462475 0 0.44386094964032902 -0.11054798122052439 0 0.42834270349958448 -0.099226311759436261 0 0.44386094964032902 -0.11054798122052439 0 0.46257396642688631 -0.12529077885077469 0 0.45239247298790419 -0.125419693033265 0 0.44386094964032902 -0.11054798122052439 0 0.42916935431308728 -0.1205456085246996 0 0.4435038969132965 -0.12540022695152131 0 0.44386094964032902 -0.11054798122052439 0 0.45239247298790419 -0.125419693033265 0 0.4435038969132965 -0.12540022695152131 0 0.44386094964032902 -0.11054798122052439 0 0.46229362237882032 -0.1203936031604123 0 0.46257396642688631 -0.12529077885077469 0 0.46456669494636288 -0.10350535152343909 0 0.46229362237882032 -0.1203936031604123 0 0.46456669494636288 -0.10350535152343909 0 0.44386094964032902 -0.11054798122052439 0 0.46229362237882032 -0.1203936031604123 0 0.44386094964032902 -0.11054798122052439 0 0.46257396642688631 -0.12529077885077469 0 0.47148248434309947 -0.114916285604633 0 0.46456669494636288 -0.10350535152343909 0 0.46229362237882032 -0.1203936031604123 0 0.47129126618897188 -0.1223351355815797 0 0.46229362237882032 -0.1203936031604123 0 0.46257396642688631 -0.12529077885077469 0 0.47129126618897188 -0.1223351355815797 0 0.47148248434309947 -0.114916285604633 0 0.46229362237882032 -0.1203936031604123 0 0.44386094964032902 -0.11054798122052439 0 0.42916935431308728 -0.1205456085246996 0 0.42834270349958448 -0.099226311759436261 0 0.41143930547928681 -0.11934523636421419 0 0.42916935431308728 -0.1205456085246996 0 0.42834270349958448 -0.099226311759436261 0 0.41143930547928681 -0.11934523636421419 0 0.40555832972599831 -0.095826118330896617 0 0.41143930547928681 -0.11934523636421419 0 0.42834270349958448 -0.099226311759436261 0 0.40555832972599831 -0.095826118330896617 0 0.42834270349958448 -0.099226311759436261 0 0.41884290658632428 -0.080552882507727325 0 0.40555832972599831 -0.095826118330896617 0 0.41884290658632428 -0.080552882507727325 0 0.39967735397270959 -0.072307000297579083 0 0.40555832972599831 -0.095826118330896617 0 0.44249197108241189 -0.074007360679063244 0 0.42834270349958448 -0.099226311759436261 0 0.41884290658632428 -0.080552882507727325 0 0.44249197108241189 -0.074007360679063244 0 0.41814417465091752 -0.061397621471661459 0 0.43963483674523918 -0.055334607978488382 0 0.44249197108241189 -0.074007360679063244 0 0.41814417465091752 -0.061397621471661459 0 0.44249197108241189 -0.074007360679063244 0 0.41884290658632428 -0.080552882507727325 0 0.41814417465091752 -0.061397621471661459 0 0.41884290658632428 -0.080552882507727325 0 0.39967735397270959 -0.072307000297579083 0 0.41814417465091752 -0.061397621471661459 0 0.39967735397270959 -0.072307000297579083 0 0.38669795957132042 -0.057310603286660967 0 0.37240766699872252 -0.068318548019290964 0 0.39967735397270959 -0.072307000297579083 0 0.37781097748786241 -0.089314889372882261 0 0.37240766699872252 -0.068318548019290964 0 0.39967735397270959 -0.072307000297579083 0 0.37781097748786241 -0.089314889372882261 0 0.40555832972599831 -0.095826118330896617 0 0.39967735397270959 -0.072307000297579083 0 0.40555832972599831 -0.095826118330896617 0 0.40555832972599831 -0.095826118330896617 0 0.38953803654933628 -0.10754997095337659 0 0.39823574772599779 -0.11763079726210079 0 0.37781097748786241 -0.089314889372882261 0 0.40555832972599831 -0.095826118330896617 0 0.38953803654933628 -0.10754997095337659 0 0.37781097748786241 -0.089314889372882261 0 0.38953803654933628 -0.10754997095337659 0 0.37644505785585192 -0.1058120404938334 0 0.38953803654933628 -0.10754997095337659 0 0.37644505785585192 -0.1058120404938334 0 0.37720890243704291 -0.12310924361699779 0 0.38953803654933628 -0.10754997095337659 0 0.37720890243704291 -0.12310924361699779 0 0.38918813321375051 -0.12739880168557821 0 0.38953803654933628 -0.10754997095337659 0 0.39823574772599779 -0.11763079726210079 0 0.38918813321375051 -0.12739880168557821 0 0.41143930547928681 -0.11934523636421419 0 0.39823574772599779 -0.11763079726210079 0 0.40257569972698831 -0.13396225485532559 0 0.41143930547928681 -0.11934523636421419 0 0.40555832972599831 -0.095826118330896617 0 0.39823574772599779 -0.11763079726210079 0 0.42011428296152808 -0.02169968792975261 0 0.41401194260749391 -0.028450411104576211 0 0.41343304557213612 -0.018371446868227208 0 0.42011428296152808 -0.02169968792975261 0 0.41343304557213612 -0.018371446868227208 0 0.41928481904255338 -0.01548900553927589 0 0.42011428296152808 -0.02169968792975261 0 0.41928481904255338 -0.01548900553927589 0 0.42542521438275183 -0.0144422395697206 0 0.42011428296152808 -0.02169968792975261 0 0.41401194260749391 -0.028450411104576211 0 0.42742255973229643 -0.030069766767760062 0 0.41401194260749391 -0.028450411104576211 0 0.40522076275047969 -0.019933987949522329 0 0.40044964155059998 -0.029094842751199331 0 0.41401194260749391 -0.028450411104576211 0 0.41343304557213612 -0.018371446868227208 0 0.40522076275047969 -0.019933987949522329 0 0.41343304557213612 -0.018371446868227208 0 0.40806592415966281 -0.01253819616599721 0 0.40522076275047969 -0.019933987949522329 0 0.40806592415966281 -0.01253819616599721 0 0.4135204533098043 -0.0054466611181140526 0 0.41498054603746559 -0.011947546426581419 0 0.41343304557213612 -0.018371446868227208 0 0.40806592415966281 -0.01253819616599721 0 0.41498054603746559 -0.011947546426581419 0 0.41081432206005303 0.0037114498956348132 0 0.4135204533098043 -0.0054466611181140526 0 0.4046584776842293 -0.0050702490882302163 0 0.40806592415966281 -0.01253819616599721 0 0.4135204533098043 -0.0054466611181140526 0 0.4046584776842293 -0.0050702490882302163 0 0.41081432206005303 0.0037114498956348132 0 0.42248564151892998 0.0016345051066286029 0 0.4135204533098043 -0.0054466611181140526 0 0.42248564151892998 0.0016345051066286029 0 0.4135204533098043 -0.0054466611181140526 0 0.42119781252485211 -0.0083000839364812864 0 0.41343304557213612 -0.018371446868227208 0 0.41498054603746559 -0.011947546426581419 0 0.41928481904255338 -0.01548900553927589 0 0.4135204533098043 -0.0054466611181140526 0 0.41498054603746559 -0.011947546426581419 0 0.42119781252485211 -0.0083000839364812864 0 0.41498054603746559 -0.011947546426581419 0 0.42119781252485211 -0.0083000839364812864 0 0.41928481904255338 -0.01548900553927589 0 0.42542521438275183 -0.0144422395697206 0 0.42820760236351979 -0.0076976995852137747 0 0.42907711285764621 -0.01818842757435184 0 0.4382820622288856 -0.0014159552958160841 0 0.42820760236351979 -0.0076976995852137747 0 0.42907711285764621 -0.01818842757435184 0 0.42119781252485211 -0.0083000839364812864 0 0.41928481904255338 -0.01548900553927589 0 0.42542521438275183 -0.0144422395697206 0 0.42248564151892998 0.0016345051066286029 0 0.4382820622288856 -0.0014159552958160841 0 0.42820760236351979 -0.0076976995852137747 0 0.42119781252485211 -0.0083000839364812864 0 0.42542521438275183 -0.0144422395697206 0 0.42820760236351979 -0.0076976995852137747 0 0.42248564151892998 0.0016345051066286029 0 0.42119781252485211 -0.0083000839364812864 0 0.42820760236351979 -0.0076976995852137747 0 0.44971415759127392 -0.039358306738208573 0 0.42907711285764621 -0.01818842757435184 0 0.42742255973229643 -0.030069766767760062 0 0.42011428296152808 -0.02169968792975261 0 0.42907711285764621 -0.01818842757435184 0 0.42742255973229643 -0.030069766767760062 0 0.42011428296152808 -0.02169968792975261 0 0.42542521438275183 -0.0144422395697206 0 0.42907711285764621 -0.01818842757435184 0 0.42011428296152808 -0.02169968792975261 0 0.42907711285764621 -0.01818842757435184 0 0.42542521438275183 -0.0144422395697206 0 0.42907711285764621 -0.01818842757435184 0 0.44971415759127392 -0.039358306738208573 0 0.42742255973229643 -0.030069766767760062 0 0.42419530264354072 -0.042652000491910397 0 0.41401194260749391 -0.028450411104576211 0 0.42742255973229643 -0.030069766767760062 0 0.42419530264354072 -0.042652000491910397 0 0.43963483674523918 -0.055334607978488382 0 0.42419530264354072 -0.042652000491910397 0 0.41814417465091752 -0.061397621471661459 0 0.41814417465091752 -0.061397621471661459 0 0.41107184061272262 -0.047596707948501772 0 0.39379637821942232 -0.04878788226426127 0 0.42419530264354072 -0.042652000491910397 0 0.41814417465091752 -0.061397621471661459 0 0.41107184061272262 -0.047596707948501772 0 0.41401194260749391 -0.028450411104576211 0 0.42419530264354072 -0.042652000491910397 0 0.40815150693701141 -0.037549327566173699 0 0.42419530264354072 -0.042652000491910397 0 0.41107184061272262 -0.047596707948501772 0 0.40815150693701141 -0.037549327566173699 0 0.41401194260749391 -0.028450411104576211 0 0.40815150693701141 -0.037549327566173699 0 0.40044964155059998 -0.029094842751199331 0 0.41107184061272262 -0.047596707948501772 0 0.40815150693701141 -0.037549327566173699 0 0.39379637821942232 -0.04878788226426127 0 0.40815150693701141 -0.037549327566173699 0 0.39379637821942232 -0.04878788226426127 0 0.40044964155059998 -0.029094842751199331 0 0.39379637821942232 -0.04878788226426127 0 0.38867892262788012 -0.028322223649632432 0 0.39379637821942232 -0.04878788226426127 0 0.38867892262788012 -0.028322223649632432 0 0.40044964155059998 -0.029094842751199331 0 0.39967735397270959 -0.072307000297579083 0 0.39379637821942232 -0.04878788226426127 0 0.38669795957132042 -0.057310603286660967 0 0.41814417465091752 -0.061397621471661459 0 0.39379637821942232 -0.04878788226426127 0 0.39967735397270959 -0.072307000297579083 0 0.39379637821942232 -0.04878788226426127 0 0.39967735397270959 -0.072307000297579083 0 0.41814417465091752 -0.061397621471661459 0 0.39379637821942232 -0.04878788226426127 0 0.39379637821942232 -0.04878788226426127 0 0.38896036142985008 -0.046283306103098283 0 0.38669795957132042 -0.057310603286660967 0 0.37839056082150663 -0.050608978831784571 0 0.37240766699872252 -0.068318548019290964 0 0.38669795957132042 -0.057310603286660967 0 0.37839056082150663 -0.050608978831784571 0 0.38896036142985008 -0.046283306103098283 0 0.39379637821942232 -0.04878788226426127 0 0.38669795957132042 -0.057310603286660967 0 0.38896036142985008 -0.046283306103098283 0 0.39379637821942232 -0.04878788226426127 0 0.38896036142985008 -0.046283306103098283 0 0.38867892262788012 -0.028322223649632432 0 0.3834615598562825 -0.037386722635115492 0 0.38896036142985008 -0.046283306103098283 0 0.38867892262788012 -0.028322223649632432 0 0.37839056082150663 -0.050608978831784571 0 0.3834615598562825 -0.037386722635115492 0 0.38896036142985008 -0.046283306103098283 0 0.37839056082150663 -0.050608978831784571 0 0.3834615598562825 -0.037386722635115492 0 0.37356965880113402 -0.040783236975350308 0 0.38867892262788012 -0.028322223649632432 0 0.38356146703633898 -0.0078565650350033434 0 0.3834615598562825 -0.037386722635115492 0 0.37600683512296651 -0.014087071697862221 0 0.37356965880113402 -0.040783236975350308 0 0.3834615598562825 -0.037386722635115492 0 0.38867892262788012 -0.028322223649632432 0 0.37600683512296651 -0.014087071697862221 0 0.38867892262788012 -0.028322223649632432 0 0.37600683512296651 -0.014087071697862221 0 0.38356146703633898 -0.0078565650350033434 0 0.38867892262788012 -0.028322223649632432 0 0.39658225960386179 -0.014459285545308009 0 0.38356146703633898 -0.0078565650350033434 0 0.38867892262788012 -0.028322223649632432 0 0.40044964155059998 -0.029094842751199331 0 0.39658225960386179 -0.014459285545308009 0 0.40522076275047969 -0.019933987949522329 0 0.40044964155059998 -0.029094842751199331 0 0.39658225960386179 -0.014459285545308009 0 0.40806592415966281 -0.01253819616599721 0 0.40522076275047969 -0.019933987949522329 0 0.39658225960386179 -0.014459285545308009 0 0.40060323373222451 0.0042547197705496897 0 0.4046584776842293 -0.0050702490882302163 0 0.39531848553630572 -0.0042569273994520467 0 0.40806592415966281 -0.01253819616599721 0 0.4046584776842293 -0.0050702490882302163 0 0.39658225960386179 -0.014459285545308009 0 0.4046584776842293 -0.0050702490882302163 0 0.39658225960386179 -0.014459285545308009 0 0.39531848553630572 -0.0042569273994520467 0 0.39658225960386179 -0.014459285545308009 0 0.39531848553630572 -0.0042569273994520467 0 0.38356146703633898 -0.0078565650350033434 0 0.39025836247721268 0.0036292771787240202 0 0.39531848553630572 -0.0042569273994520467 0 0.38356146703633898 -0.0078565650350033434 0 0.37844401144479839 0.012609093579625891 0 0.37600683512296651 -0.014087071697862221 0 0.37844401144479839 0.012609093579625891 0 0.37600683512296651 -0.014087071697862221 0 0.38356146703633898 -0.0078565650350033434 0 0.37600683512296651 -0.014087071697862221 0 0.36665723294200347 -0.001883505129568449 0 0.35850646790810559 -0.01395473468271459 0 0.37844401144479839 0.012609093579625891 0 0.37600683512296651 -0.014087071697862221 0 0.36665723294200347 -0.001883505129568449 0 0.36665723294200347 -0.001883505129568449 0 0.35531676971978082 -0.0033532784323768001 0 0.35850646790810559 -0.01395473468271459 0 0.37600683512296651 -0.014087071697862221 0 0.37356965880113402 -0.040783236975350308 0 0.37600683512296651 -0.014087071697862221 0 0.36404947753274258 -0.026706798856440471 0 0.35850646790810559 -0.01395473468271459 0 0.37600683512296651 -0.014087071697862221 0 0.36404947753274258 -0.026706798856440471 0 0.37356965880113402 -0.040783236975350308 0 0.34748556133762742 -0.02738266599094942 0 0.35850646790810559 -0.01395473468271459 0 0.34370628527030811 -0.0115647124322744 0 0.36404947753274258 -0.026706798856440471 0 0.34748556133762742 -0.02738266599094942 0 0.35850646790810559 -0.01395473468271459 0 0.36404947753274258 -0.026706798856440471 0 0.34748556133762742 -0.02738266599094942 0 0.36012817770438982 -0.039413746555128387 0 0.33689267375143878 0.0039255003288513873 0 0.35531676971978082 -0.0033532784323768001 0 0.34370628527030811 -0.0115647124322744 0 0.35531676971978082 -0.0033532784323768001 0 0.35850646790810559 -0.01395473468271459 0 0.34370628527030811 -0.0115647124322744 0 0.33689267375143878 0.0039255003288513873 0 0.34370628527030811 -0.0115647124322744 0 0.32469666258817742 -0.019557632270551 0 0.33689267375143878 0.0039255003288513873 0 0.30352242257352219 0.0039185454548519476 0 0.32469666258817742 -0.019557632270551 0 0.34748556133762742 -0.02738266599094942 0 0.34370628527030811 -0.0115647124322744 0 0.32469666258817742 -0.019557632270551 0 0.34748556133762742 -0.02738266599094942 0 0.32469666258817742 -0.019557632270551 0 0.33457477032001748 -0.043965109755099818 0 0.31326255248553708 -0.043768501277314603 0 0.32924913997341337 -0.063603686862235317 0 0.31014365419524398 -0.06072536978512106 0 0.31326255248553708 -0.043768501277314603 0 0.32924913997341337 -0.063603686862235317 0 0.31326255248553708 -0.043768501277314603 0 0.33457477032001748 -0.043965109755099818 0 0.32924913997341337 -0.063603686862235317 0 0.32469666258817742 -0.019557632270551 0 0.31326255248553708 -0.043768501277314603 0 0.33457477032001748 -0.043965109755099818 0 0.33457477032001748 -0.043965109755099818 0 0.34313363496153881 -0.061193084728204693 0 0.35029003257871461 -0.048624574981710279 0 0.33457477032001748 -0.043965109755099818 0 0.34313363496153881 -0.061193084728204693 0 0.32924913997341337 -0.063603686862235317 0 0.35029003257871461 -0.048624574981710279 0 0.36524615827173029 -0.053571455971191423 0 0.35631850447425872 -0.066333179594821989 0 0.34313363496153881 -0.061193084728204693 0 0.35029003257871461 -0.048624574981710279 0 0.35631850447425872 -0.066333179594821989 0 0.35029003257871461 -0.048624574981710279 0 0.36012817770438982 -0.039413746555128387 0 0.36524615827173029 -0.053571455971191423 0 0.34748556133762742 -0.02738266599094942 0 0.33457477032001748 -0.043965109755099818 0 0.35029003257871461 -0.048624574981710279 0 0.34748556133762742 -0.02738266599094942 0 0.35029003257871461 -0.048624574981710279 0 0.36012817770438982 -0.039413746555128387 0 0.36404947753274258 -0.026706798856440471 0 0.36012817770438982 -0.039413746555128387 0 0.37356965880113402 -0.040783236975350308 0 0.36012817770438982 -0.039413746555128387 0 0.37356965880113402 -0.040783236975350308 0 0.36524615827173029 -0.053571455971191423 0 0.37839056082150663 -0.050608978831784571 0 0.36524615827173029 -0.053571455971191423 0 0.37240766699872252 -0.068318548019290964 0 0.37839056082150663 -0.050608978831784571 0 0.37356965880113402 -0.040783236975350308 0 0.36524615827173029 -0.053571455971191423 0 0.36524615827173029 -0.053571455971191423 0 0.37240766699872252 -0.068318548019290964 0 0.35631850447425872 -0.066333179594821989 0 0.37240766699872252 -0.068318548019290964 0 0.36259903827425999 -0.08213590949324566 0 0.35631850447425872 -0.066333179594821989 0 0.37781097748786241 -0.089314889372882261 0 0.37240766699872252 -0.068318548019290964 0 0.36259903827425999 -0.08213590949324566 0 0.37781097748786241 -0.089314889372882261 0 0.36259903827425999 -0.08213590949324566 0 0.3612223149491664 -0.1032740580320769 0 0.34523572746128989 -0.083438872447156087 0 0.3612223149491664 -0.1032740580320769 0 0.36259903827425999 -0.08213590949324566 0 0.34523572746128989 -0.083438872447156087 0 0.3612223149491664 -0.1032740580320769 0 0.34313363496153881 -0.061193084728204693 0 0.34523572746128989 -0.083438872447156087 0 0.35631850447425872 -0.066333179594821989 0 0.36259903827425999 -0.08213590949324566 0 0.34523572746128989 -0.083438872447156087 0 0.35631850447425872 -0.066333179594821989 0 0.37720890243704291 -0.12310924361699779 0 0.36253108037134668 -0.1248744885805331 0 0.3612223149491664 -0.1032740580320769 0 0.37644505785585192 -0.1058120404938334 0 0.37720890243704291 -0.12310924361699779 0 0.3612223149491664 -0.1032740580320769 0 0.37720890243704291 -0.12310924361699779 0 0.3612223149491664 -0.1032740580320769 0 0.37781097748786241 -0.089314889372882261 0 0.37644505785585192 -0.1058120404938334 0 0.3612223149491664 -0.1032740580320769 0 0.34523572746128989 -0.083438872447156087 0 0.3612223149491664 -0.1032740580320769 0 0.33932087337301742 -0.1007066993955318 0 0.3612223149491664 -0.1032740580320769 0 0.34941185211170689 -0.1127717253903176 0 0.33932087337301742 -0.1007066993955318 0 0.36253108037134668 -0.1248744885805331 0 0.33587402752894302 -0.122350175475488 0 0.36253108037134668 -0.1248744885805331 0 0.34941185211170689 -0.1127717253903176 0 0.33587402752894302 -0.122350175475488 0 0.36253108037134668 -0.1248744885805331 0 0.3612223149491664 -0.1032740580320769 0 0.34941185211170689 -0.1127717253903176 0 0.34941185211170689 -0.1127717253903176 0 0.33587402752894302 -0.122350175475488 0 0.33932087337301742 -0.1007066993955318 0 0.33587402752894302 -0.122350175475488 0 0.33932087337301742 -0.1007066993955318 0 0.31943204723016899 -0.10139701157958859 0 0.33932087337301742 -0.1007066993955318 0 0.31943204723016899 -0.10139701157958859 0 0.32474927095682959 -0.081008353448563344 0 0.33587402752894302 -0.122350175475488 0 0.31943204723016899 -0.10139701157958859 0 0.3092169746865393 -0.1198258623704429 0 0.33587402752894302 -0.122350175475488 0 0.3092169746865393 -0.1198258623704429 0 0.34523572746128989 -0.083438872447156087 0 0.32924913997341337 -0.063603686862235317 0 0.32474927095682959 -0.081008353448563344 0 0.34523572746128989 -0.083438872447156087 0 0.32924913997341337 -0.063603686862235317 0 0.34313363496153881 -0.061193084728204693 0 0.34523572746128989 -0.083438872447156087 0 0.32924913997341337 -0.063603686862235317 0 0.34523572746128989 -0.083438872447156087 0 0.33932087337301742 -0.1007066993955318 0 0.32474927095682959 -0.081008353448563344 0 0.31943204723016899 -0.10139701157958859 0 0.32474927095682959 -0.081008353448563344 0 0.31117343018006932 -0.08835554327446378 0 0.32474927095682959 -0.081008353448563344 0 0.30201438303726968 -0.075929904193525521 0 0.32474927095682959 -0.081008353448563344 0 0.30201438303726968 -0.075929904193525521 0 0.31117343018006932 -0.08835554327446378 0 0.32924913997341337 -0.063603686862235317 0 0.32474927095682959 -0.081008353448563344 0 0.31014365419524398 -0.06072536978512106 0 0.32474927095682959 -0.081008353448563344 0 0.30201438303726968 -0.075929904193525521 0 0.31014365419524398 -0.06072536978512106 0 0.30201438303726968 -0.075929904193525521 0 0.31014365419524398 -0.06072536978512106 0 0.29222542489931519 -0.060978945333093171 0 0.31117343018006932 -0.08835554327446378 0 0.29442961060618023 -0.089764156713605506 0 0.30306705175182019 -0.101009202806625 0 0.30201438303726968 -0.075929904193525521 0 0.31117343018006932 -0.08835554327446378 0 0.29442961060618023 -0.089764156713605506 0 0.29442961060618023 -0.089764156713605506 0 0.28691460331806928 -0.079185378374353493 0 0.27734124638624891 -0.089737863242296378 0 0.30201438303726968 -0.075929904193525521 0 0.29442961060618023 -0.089764156713605506 0 0.28691460331806928 -0.079185378374353493 0 0.30201438303726968 -0.075929904193525521 0 0.27927949511770961 -0.070851454938488739 0 0.29222542489931519 -0.060978945333093171 0 0.30201438303726968 -0.075929904193525521 0 0.27927949511770961 -0.070851454938488739 0 0.30201438303726968 -0.075929904193525521 0 0.28691460331806928 -0.079185378374353493 0 0.27927949511770961 -0.070851454938488739 0 0.28691460331806928 -0.079185378374353493 0 0.27927949511770961 -0.070851454938488739 0 0.27809334201771629 -0.079209584513290715 0 0.28691460331806928 -0.079185378374353493 0 0.27927949511770961 -0.070851454938488739 0 0.27927949511770961 -0.070851454938488739 0 0.27868582307562201 -0.055886184139343542 0 0.29222542489931519 -0.060978945333093171 0 0.31943204723016899 -0.10139701157958859 0 0.3092169746865393 -0.1198258623704429 0 0.30306705175182019 -0.101009202806625 0 0.3092169746865393 -0.1198258623704429 0 0.30306705175182019 -0.101009202806625 0 0.28879183359809052 -0.10393054527906551 0 0.31943204723016899 -0.10139701157958859 0 0.31117343018006932 -0.08835554327446378 0 0.30306705175182019 -0.101009202806625 0 0.28879183359809052 -0.10393054527906551 0 0.28255992184413548 -0.11730154926539781 0 0.27267591943638608 -0.1048970298088977 0 0.29442961060618023 -0.089764156713605506 0 0.28879183359809052 -0.10393054527906551 0 0.27734124638624891 -0.089737863242296378 0 0.29442961060618023 -0.089764156713605506 0 0.30306705175182019 -0.101009202806625 0 0.28879183359809052 -0.10393054527906551 0 0.3092169746865393 -0.1198258623704429 0 0.28255992184413548 -0.11730154926539781 0 0.3092169746865393 -0.1198258623704429 0 0.28879183359809052 -0.10393054527906551 0 0.28255992184413548 -0.11730154926539781 0 0.3092169746865393 -0.1198258623704429 0 0.28255992184413548 -0.11730154926539781 0 0.28721398294742878 -0.13035474923543569 0 0.28255992184413548 -0.11730154926539781 0 0.26776517015272971 -0.1222840496799191 0 0.28721398294742878 -0.13035474923543569 0 0.28255992184413548 -0.11730154926539781 0 0.26776517015272971 -0.1222840496799191 0 0.27267591943638608 -0.1048970298088977 0 0.26776517015272971 -0.1222840496799191 0 0.27267591943638608 -0.1048970298088977 0 0.26047800574605201 -0.11084537767631369 0 0.28879183359809052 -0.10393054527906551 0 0.27267591943638608 -0.1048970298088977 0 0.27734124638624891 -0.089737863242296378 0 0.27267591943638608 -0.1048970298088977 0 0.27734124638624891 -0.089737863242296378 0 0.26256105175446781 -0.092679464148907056 0 0.25771864553297669 -0.099620140202181948 0 0.26047800574605201 -0.11084537767631369 0 0.24375228786211539 -0.116580291014256 0 0.27267591943638608 -0.1048970298088977 0 0.25771864553297669 -0.099620140202181948 0 0.26256105175446781 -0.092679464148907056 0 0.25771864553297669 -0.099620140202181948 0 0.25304747237378489 -0.090741332181114118 0 0.24292322406264641 -0.096552741650977186 0 0.25771864553297669 -0.099620140202181948 0 0.26256105175446781 -0.092679464148907056 0 0.25304747237378489 -0.090741332181114118 0 0.27267591943638608 -0.1048970298088977 0 0.25771864553297669 -0.099620140202181948 0 0.26047800574605201 -0.11084537767631369 0 0.26776517015272971 -0.1222840496799191 0 0.26153006621115998 -0.13421007507225571 0 0.24375228786211539 -0.116580291014256 0 0.26776517015272971 -0.1222840496799191 0 0.24375228786211539 -0.116580291014256 0 0.26776517015272971 -0.1222840496799191 0 0.26047800574605201 -0.11084537767631369 0 0.24375228786211539 -0.116580291014256 0 0.27927949511770961 -0.070851454938488739 0 0.25811154610651499 -0.066123023671663908 0 0.26329678137076351 -0.053405898285071182 0 0.27927949511770961 -0.070851454938488739 0 0.25811154610651499 -0.066123023671663908 0 0.26883802324883782 -0.077063641498024305 0 0.27927949511770961 -0.070851454938488739 0 0.25811154610651499 -0.066123023671663908 0 0.26883802324883782 -0.077063641498024305 0 0.27927949511770961 -0.070851454938488739 0 0.27809334201771629 -0.079209584513290715 0 0.26883802324883782 -0.077063641498024305 0 0.27809334201771629 -0.079209584513290715 0 0.27734124638624891 -0.089737863242296378 0 0.26883802324883782 -0.077063641498024305 0 0.27734124638624891 -0.089737863242296378 0 0.25202197504294188 -0.078400955310045109 0 0.28691460331806928 -0.079185378374353493 0 0.27809334201771629 -0.079209584513290715 0 0.27734124638624891 -0.089737863242296378 0 0.27734124638624891 -0.089737863242296378 0 0.26256105175446781 -0.092679464148907056 0 0.25202197504294188 -0.078400955310045109 0 0.27734124638624891 -0.089737863242296378 0 0.25202197504294188 -0.078400955310045109 0 0.26256105175446781 -0.092679464148907056 0 0.25304747237378489 -0.090741332181114118 0 0.25202197504294188 -0.078400955310045109 0 0.25304747237378489 -0.090741332181114118 0 0.25202197504294188 -0.078400955310045109 0 0.24624903761231479 -0.086847438891893419 0 0.26883802324883782 -0.077063641498024305 0 0.25202197504294188 -0.078400955310045109 0 0.25811154610651499 -0.066123023671663908 0 0.25811154610651499 -0.066123023671663908 0 0.26329678137076351 -0.053405898285071182 0 0.24870160087168189 -0.052882304334001928 0 0.26329678137076351 -0.053405898285071182 0 0.24870160087168189 -0.052882304334001928 0 0.24731406762381819 -0.035960341631652723 0 0.27927949511770961 -0.070851454938488739 0 0.26329678137076351 -0.053405898285071182 0 0.27868582307562201 -0.055886184139343542 0 0.27927949511770961 -0.070851454938488739 0 0.26329678137076351 -0.053405898285071182 0 0.26329678137076351 -0.053405898285071182 0 0.27868582307562201 -0.055886184139343542 0 0.27337213238318842 -0.044040078526876879 0 0.27868582307562201 -0.055886184139343542 0 0.27337213238318842 -0.044040078526876879 0 0.28525528160713332 -0.050154543613187753 0 0.26329678137076351 -0.053405898285071182 0 0.27337213238318842 -0.044040078526876879 0 0.26311483972878968 -0.036713614733010089 0 0.27337213238318842 -0.044040078526876879 0 0.27217486102646721 -0.027861542379398439 0 0.28494473946257981 -0.034556038004921102 0 0.27337213238318842 -0.044040078526876879 0 0.26311483972878968 -0.036713614733010089 0 0.27217486102646721 -0.027861542379398439 0 0.27337213238318842 -0.044040078526876879 0 0.28525528160713332 -0.050154543613187753 0 0.28494473946257981 -0.034556038004921102 0 0.26311483972878968 -0.036713614733010089 0 0.25941635623971138 -0.02230021284205122 0 0.24731406762381819 -0.035960341631652723 0 0.26329678137076351 -0.053405898285071182 0 0.24731406762381819 -0.035960341631652723 0 0.26329678137076351 -0.053405898285071182 0 0.26311483972878968 -0.036713614733010089 0 0.24731406762381819 -0.035960341631652723 0 0.25941635623971138 -0.02230021284205122 0 0.24731406762381819 -0.035960341631652723 0 0.2482857443068576 -0.021714794414400052 0 0.25941635623971138 -0.02230021284205122 0 0.25508119948702751 -0.010083838205662381 0 0.2482857443068576 -0.021714794414400052 0 0.26311483972878968 -0.036713614733010089 0 0.25941635623971138 -0.02230021284205122 0 0.27217486102646721 -0.027861542379398439 0 0.2541426920980116 -0.0036136263454906951 0 0.25508119948702751 -0.010083838205662381 0 0.24138147174972829 -0.0061427828714447699 0 0.2541426920980116 -0.0036136263454906951 0 0.25508119948702751 -0.010083838205662381 0 0.26047117107291767 -0.0019720443344692288 0 0.25446675038947358 0.0029162606258486688 0 0.2541426920980116 -0.0036136263454906951 0 0.26047117107291767 -0.0019720443344692288 0 0.25941635623971138 -0.02230021284205122 0 0.25508119948702751 -0.010083838205662381 0 0.26474460583379889 -0.01023883548432745 0 0.25941635623971138 -0.02230021284205122 0 0.26474460583379889 -0.01023883548432745 0 0.27166734417845928 -0.01430021117376327 0 0.25508119948702751 -0.010083838205662381 0 0.26474460583379889 -0.01023883548432745 0 0.26047117107291767 -0.0019720443344692288 0 0.26474460583379889 -0.01023883548432745 0 0.26047117107291767 -0.0019720443344692288 0 0.27708695819087842 -0.0025378708656911609 0 0.26474460583379889 -0.01023883548432745 0 0.27166734417845928 -0.01430021117376327 0 0.27708695819087842 -0.0025378708656911609 0 0.27166734417845928 -0.01430021117376327 0 0.27708695819087842 -0.0025378708656911609 0 0.28469269166600031 -0.01545933141113482 0 0.27217486102646721 -0.027861542379398439 0 0.28469269166600031 -0.01545933141113482 0 0.28494473946257981 -0.034556038004921102 0 0.25941635623971138 -0.02230021284205122 0 0.27166734417845928 -0.01430021117376327 0 0.27217486102646721 -0.027861542379398439 0 0.27166734417845928 -0.01430021117376327 0 0.27217486102646721 -0.027861542379398439 0 0.28469269166600031 -0.01545933141113482 0 0.28469269166600031 -0.01545933141113482 0 0.29727596499766062 -0.023933315692393788 0 0.28494473946257981 -0.034556038004921102 0 0.30352242257352219 0.0039185454548519476 0 0.28469269166600031 -0.01545933141113482 0 0.29727596499766062 -0.023933315692393788 0 0.30352242257352219 0.0039185454548519476 0 0.27708695819087842 -0.0025378708656911609 0 0.28469269166600031 -0.01545933141113482 0 0.30352242257352219 0.0039185454548519476 0 0.32469666258817742 -0.019557632270551 0 0.29727596499766062 -0.023933315692393788 0 0.32469666258817742 -0.019557632270551 0 0.31326255248553708 -0.043768501277314603 0 0.29727596499766062 -0.023933315692393788 0 0.31326255248553708 -0.043768501277314603 0 0.29727596499766062 -0.023933315692393788 0 0.2968975050950291 -0.045887416406534938 0 0.31326255248553708 -0.043768501277314603 0 0.29727596499766062 -0.023933315692393788 0 0.31326255248553708 -0.043768501277314603 0 0.2968975050950291 -0.045887416406534938 0 0.31014365419524398 -0.06072536978512106 0 0.2968975050950291 -0.045887416406534938 0 0.31014365419524398 -0.06072536978512106 0 0.29222542489931519 -0.060978945333093171 0 0.2968975050950291 -0.045887416406534938 0 0.29222542489931519 -0.060978945333093171 0 0.28525528160713332 -0.050154543613187753 0 0.27868582307562201 -0.055886184139343542 0 0.29222542489931519 -0.060978945333093171 0 0.28525528160713332 -0.050154543613187753 0 0.2968975050950291 -0.045887416406534938 0 0.28525528160713332 -0.050154543613187753 0 0.28494473946257981 -0.034556038004921102 0 0.29727596499766062 -0.023933315692393788 0 0.2968975050950291 -0.045887416406534938 0 0.28494473946257981 -0.034556038004921102 0 0.29579617193404978 -0.19432558104056491 0 0.30588539897632072 -0.22256652654210629 0 0.2776594049058328 -0.2175861504380624 0 0.29579617193404978 -0.19432558104056491 0 0.2776594049058328 -0.2175861504380624 0 0.2764107852420567 -0.19644220614923899 0 0.29579617193404978 -0.19432558104056491 0 0.2764107852420567 -0.19644220614923899 0 0.2792899687438003 -0.18116405860585089 0 0.29579617193404978 -0.19432558104056491 0 0.31045946319455608 -0.20263901644370941 0 0.31057073564158039 -0.17760626025882659 0 0.29579617193404978 -0.19432558104056491 0 0.30588539897632072 -0.22256652654210629 0 0.31045946319455608 -0.20263901644370941 0 0.30588539897632072 -0.22256652654210629 0 0.32020032842118662 -0.2136972324735969 0 0.29579617193404978 -0.19432558104056491 0 0.31045946319455608 -0.20263901644370941 0 0.30588539897632072 -0.22256652654210629 0 0.29681701546221179 -0.23419681124085551 0 0.31597462601859122 -0.25080747204364812 0 0.30111904597271899 -0.2536098058489899 0 0.30588539897632072 -0.22256652654210629 0 0.29681701546221179 -0.23419681124085551 0 0.31597462601859122 -0.25080747204364812 0 0.30588539897632072 -0.22256652654210629 0 0.31597462601859122 -0.25080747204364812 0 0.29681701546221179 -0.23419681124085551 0 0.31597462601859122 -0.25080747204364812 0 0.29681701546221179 -0.23419681124085551 0 0.30111904597271899 -0.2536098058489899 0 0.28456511698073272 -0.25518130134833977 0 0.29681701546221179 -0.23419681124085551 0 0.27830026498091959 -0.23745462562099759 0 0.28456511698073272 -0.25518130134833977 0 0.30588539897632072 -0.22256652654210629 0 0.29681701546221179 -0.23419681124085551 0 0.2776594049058328 -0.2175861504380624 0 0.29681701546221179 -0.23419681124085551 0 0.27830026498091959 -0.23745462562099759 0 0.2776594049058328 -0.2175861504380624 0 0.29681701546221179 -0.23419681124085551 0 0.2776594049058328 -0.2175861504380624 0 0.26584409390649738 -0.23415831621220631 0 0.27830026498091959 -0.23745462562099759 0 0.2776594049058328 -0.2175861504380624 0 0.26584409390649738 -0.23415831621220631 0 0.25658827463044448 -0.2222138965281123 0 0.2776594049058328 -0.2175861504380624 0 0.27830026498091959 -0.23745462562099759 0 0.28456511698073272 -0.25518130134833977 0 0.26629969424128969 -0.25192769388052821 0 0.26584409390649738 -0.23415831621220631 0 0.27830026498091959 -0.23745462562099759 0 0.26629969424128969 -0.25192769388052821 0 0.26584409390649738 -0.23415831621220631 0 0.25037283077400019 -0.2416092145933311 0 0.26629969424128969 -0.25192769388052821 0 0.25037283077400019 -0.2416092145933311 0 0.25658827463044448 -0.2222138965281123 0 0.2446094219978813 -0.2276121794933563 0 0.26584409390649738 -0.23415831621220631 0 0.25037283077400019 -0.2416092145933311 0 0.25658827463044448 -0.2222138965281123 0 0.25658827463044448 -0.2222138965281123 0 0.2776594049058328 -0.2175861504380624 0 0.25850179434945381 -0.20097548963526929 0 0.25658827463044448 -0.2222138965281123 0 0.25850179434945381 -0.20097548963526929 0 0.23907695871134879 -0.21289681242661959 0 0.2776594049058328 -0.2175861504380624 0 0.25850179434945381 -0.20097548963526929 0 0.2776594049058328 -0.2175861504380624 0 0.2764107852420567 -0.19644220614923899 0 0.25850179434945381 -0.20097548963526929 0 0.2764107852420567 -0.19644220614923899 0 0.25850179434945381 -0.20097548963526929 0 0.26539786460737957 -0.18100391429238191 0 0.25850179434945381 -0.20097548963526929 0 0.26539786460737957 -0.18100391429238191 0 0.23934418379307471 -0.18436482883247621 0 0.26539786460737957 -0.18100391429238191 0 0.25449645062408999 -0.16331052089379791 0 0.23934418379307471 -0.18436482883247621 0 0.26539786460737957 -0.18100391429238191 0 0.25449645062408999 -0.16331052089379791 0 0.27043371620885309 -0.16438603764101259 0 0.25449645062408999 -0.16331052089379791 0 0.27043371620885309 -0.16438603764101259 0 0.2633734196266177 -0.15149826902969399 0 0.27043371620885309 -0.16438603764101259 0 0.2792899687438003 -0.18116405860585089 0 0.28570694489177878 -0.1660846355390232 0 0.27043371620885309 -0.16438603764101259 0 0.27930784456020519 -0.15183985913025491 0 0.28570694489177878 -0.1660846355390232 0 0.26539786460737957 -0.18100391429238191 0 0.27043371620885309 -0.16438603764101259 0 0.2792899687438003 -0.18116405860585089 0 0.2764107852420567 -0.19644220614923899 0 0.26539786460737957 -0.18100391429238191 0 0.2792899687438003 -0.18116405860585089 0 0.26153006621115998 -0.13421007507225571 0 0.24375228786211539 -0.116580291014256 0 0.24955680073527009 -0.143898101237383 0 0.26153006621115998 -0.13421007507225571 0 0.24375228786211539 -0.116580291014256 0 0.25449645062408999 -0.16331052089379791 0 0.2633734196266177 -0.15149826902969399 0 0.24955680073527009 -0.143898101237383 0 0.26153006621115998 -0.13421007507225571 0 0.2633734196266177 -0.15149826902969399 0 0.24955680073527009 -0.143898101237383 0 0.27043371620885309 -0.16438603764101259 0 0.2633734196266177 -0.15149826902969399 0 0.27930784456020519 -0.15183985913025491 0 0.27561771784950778 -0.13784369003748159 0 0.28570694489177878 -0.1660846355390232 0 0.26153006621115998 -0.13421007507225571 0 0.27930784456020519 -0.15183985913025491 0 0.27561771784950778 -0.13784369003748159 0 0.27930784456020519 -0.15183985913025491 0 0.27561771784950778 -0.13784369003748159 0 0.28570694489177878 -0.1660846355390232 0 0.26153006621115998 -0.13421007507225571 0 0.2633734196266177 -0.15149826902969399 0 0.27930784456020519 -0.15183985913025491 0 0.26153006621115998 -0.13421007507225571 0 0.27930784456020519 -0.15183985913025491 0 0.26776517015272971 -0.1222840496799191 0 0.27561771784950778 -0.13784369003748159 0 0.28721398294742878 -0.13035474923543569 0 0.26776517015272971 -0.1222840496799191 0 0.26153006621115998 -0.13421007507225571 0 0.27561771784950778 -0.13784369003748159 0 0.27561771784950778 -0.13784369003748159 0 0.28721398294742878 -0.13035474923543569 0 0.28891568690104508 -0.14625428249578579 0 0.28721398294742878 -0.13035474923543569 0 0.28891568690104508 -0.14625428249578579 0 0.29920842625061578 -0.1386190615635868 0 0.28891568690104508 -0.14625428249578579 0 0.29920842625061578 -0.1386190615635868 0 0.29789574789403661 -0.15876522012859751 0 0.27561771784950778 -0.13784369003748159 0 0.28891568690104508 -0.14625428249578579 0 0.28570694489177878 -0.1660846355390232 0 0.30985117626407932 -0.1486491484402036 0 0.29920842625061578 -0.1386190615635868 0 0.29789574789403661 -0.15876522012859751 0 0.30985117626407932 -0.1486491484402036 0 0.29789574789403661 -0.15876522012859751 0 0.3134799250960158 -0.16133035304856411 0 0.30985117626407932 -0.1486491484402036 0 0.29920842625061578 -0.1386190615635868 0 0.31980994510895661 -0.13408045692276491 0 0.3092169746865393 -0.1198258623704429 0 0.28721398294742878 -0.13035474923543569 0 0.29920842625061578 -0.1386190615635868 0 0.3092169746865393 -0.1198258623704429 0 0.29920842625061578 -0.1386190615635868 0 0.31980994510895661 -0.13408045692276491 0 0.29579617193404978 -0.19432558104056491 0 0.2792899687438003 -0.18116405860585089 0 0.28570694489177878 -0.1660846355390232 0 0.29579617193404978 -0.19432558104056491 0 0.28570694489177878 -0.1660846355390232 0 0.29579617193404978 -0.19432558104056491 0 0.28570694489177878 -0.1660846355390232 0 0.29784246694311001 -0.17248502473641619 0 0.28891568690104508 -0.14625428249578579 0 0.28570694489177878 -0.1660846355390232 0 0.29789574789403661 -0.15876522012859751 0 0.28570694489177878 -0.1660846355390232 0 0.29789574789403661 -0.15876522012859751 0 0.29784246694311001 -0.17248502473641619 0 0.29789574789403661 -0.15876522012859751 0 0.31057073564158039 -0.17760626025882659 0 0.3134799250960158 -0.16133035304856411 0 0.29789574789403661 -0.15876522012859751 0 0.31057073564158039 -0.17760626025882659 0 0.29784246694311001 -0.17248502473641619 0 0.29789574789403661 -0.15876522012859751 0 0.31057073564158039 -0.17760626025882659 0 0.29579617193404978 -0.19432558104056491 0 0.31057073564158039 -0.17760626025882659 0 0.29784246694311001 -0.17248502473641619 0 0.31057073564158039 -0.17760626025882659 0 0.33117051957001492 -0.16690810347740409 0 0.33960500058918919 -0.18923554211963439 0 0.31057073564158039 -0.17760626025882659 0 0.32324572338912438 -0.19644730038905581 0 0.3134799250960158 -0.16133035304856411 0 0.33117051957001492 -0.16690810347740409 0 0.32297156368297691 -0.15191279281852399 0 0.31057073564158039 -0.17760626025882659 0 0.3134799250960158 -0.16133035304856411 0 0.33117051957001492 -0.16690810347740409 0 0.33117051957001492 -0.16690810347740409 0 0.34312821131240068 -0.1490342399984359 0 0.35150112372442083 -0.17432517416681301 0 0.33117051957001492 -0.16690810347740409 0 0.35150112372442083 -0.17432517416681301 0 0.33960500058918919 -0.18923554211963439 0 0.33587402752894302 -0.122350175475488 0 0.3092169746865393 -0.1198258623704429 0 0.31980994510895661 -0.13408045692276491 0 0.30985117626407932 -0.1486491484402036 0 0.31980994510895661 -0.13408045692276491 0 0.32297156368297691 -0.15191279281852399 0 0.30985117626407932 -0.1486491484402036 0 0.3134799250960158 -0.16133035304856411 0 0.32297156368297691 -0.15191279281852399 0 0.33117051957001492 -0.16690810347740409 0 0.32297156368297691 -0.15191279281852399 0 0.34312821131240068 -0.1490342399984359 0 0.31980994510895661 -0.13408045692276491 0 0.32297156368297691 -0.15191279281852399 0 0.34312821131240068 -0.1490342399984359 0 0.33587402752894302 -0.122350175475488 0 0.31980994510895661 -0.13408045692276491 0 0.34312821131240068 -0.1490342399984359 0 0.36253108037134668 -0.1248744885805331 0 0.33587402752894302 -0.122350175475488 0 0.3555623608711499 -0.1359942506039106 0 0.33587402752894302 -0.122350175475488 0 0.34312821131240068 -0.1490342399984359 0 0.3555623608711499 -0.1359942506039106 0 0.34312821131240068 -0.1490342399984359 0 0.3555623608711499 -0.1359942506039106 0 0.36858459771950869 -0.15733985743645959 0 0.3555623608711499 -0.1359942506039106 0 0.36652086356581781 -0.12946943863695781 0 0.36858459771950869 -0.15733985743645959 0 0.36652086356581781 -0.12946943863695781 0 0.36858459771950869 -0.15733985743645959 0 0.36652086356581781 -0.12946943863695781 0 0.36858459771950869 -0.15733985743645959 0 0.3787995421462832 -0.1425544525875144 0 0.36652086356581781 -0.12946943863695781 0 0.37808333446084269 -0.1309391893982525 0 0.3787995421462832 -0.1425544525875144 0 0.36253108037134668 -0.1248744885805331 0 0.36652086356581781 -0.12946943863695781 0 0.37808333446084269 -0.1309391893982525 0 0.36253108037134668 -0.1248744885805331 0 0.3555623608711499 -0.1359942506039106 0 0.36652086356581781 -0.12946943863695781 0 0.35150112372442083 -0.17432517416681301 0 0.37064833187319962 -0.1852102762359614 0 0.35587008128221181 -0.19822302573298239 0 0.35150112372442083 -0.17432517416681301 0 0.35587008128221181 -0.19822302573298239 0 0.33960500058918919 -0.18923554211963439 0 0.34312821131240068 -0.1490342399984359 0 0.35150112372442083 -0.17432517416681301 0 0.36858459771950869 -0.15733985743645959 0 0.36858459771950869 -0.15733985743645959 0 0.37064833187319962 -0.1852102762359614 0 0.35150112372442083 -0.17432517416681301 0 0.36858459771950869 -0.15733985743645959 0 0.37064833187319962 -0.1852102762359614 0 0.36858459771950869 -0.15733985743645959 0 0.37064833187319962 -0.1852102762359614 0 0.3834788620725188 -0.17954848884060079 0 0.37064833187319962 -0.1852102762359614 0 0.37271206602689039 -0.21308069503546309 0 0.38139900114097952 -0.20469292352659629 0 0.37064833187319962 -0.1852102762359614 0 0.37271206602689039 -0.21308069503546309 0 0.37064833187319962 -0.1852102762359614 0 0.37271206602689039 -0.21308069503546309 0 0.35587008128221181 -0.19822302573298239 0 0.37271206602689039 -0.21308069503546309 0 0.35603419272415182 -0.2169366224123114 0 0.35587008128221181 -0.19822302573298239 0 0.35603419272415182 -0.2169366224123114 0 0.35587008128221181 -0.19822302573298239 0 0.33592071113666833 -0.21528834051928489 0 0.35587008128221181 -0.19822302573298239 0 0.33960500058918919 -0.18923554211963439 0 0.33592071113666833 -0.21528834051928489 0 0.33960500058918919 -0.18923554211963439 0 0.33592071113666833 -0.21528834051928489 0 0.32324572338912438 -0.19644730038905581 0 0.33592071113666833 -0.21528834051928489 0 0.32324572338912438 -0.19644730038905581 0 0.33592071113666833 -0.21528834051928489 0 0.32020032842118662 -0.2136972324735969 0 0.32324572338912438 -0.19644730038905581 0 0.31045946319455608 -0.20263901644370941 0 0.32020032842118662 -0.2136972324735969 0 0.32324572338912438 -0.19644730038905581 0 0.31057073564158039 -0.17760626025882659 0 0.33960500058918919 -0.18923554211963439 0 0.32324572338912438 -0.19644730038905581 0 0.31045946319455608 -0.20263901644370941 0 0.31057073564158039 -0.17760626025882659 0 0.32324572338912438 -0.19644730038905581 0 0.32549034540926353 -0.23154497847382799 0 0.33517615116993849 -0.24743488902137309 0 0.31597462601859122 -0.25080747204364812 0 0.30588539897632072 -0.22256652654210629 0 0.32549034540926353 -0.23154497847382799 0 0.31597462601859122 -0.25080747204364812 0 0.30588539897632072 -0.22256652654210629 0 0.32020032842118662 -0.2136972324735969 0 0.32549034540926353 -0.23154497847382799 0 0.33592071113666833 -0.21528834051928489 0 0.32020032842118662 -0.2136972324735969 0 0.32549034540926353 -0.23154497847382799 0 0.33592071113666833 -0.21528834051928489 0 0.32549034540926353 -0.23154497847382799 0 0.34859569888421221 -0.23412938064951411 0 0.33592071113666833 -0.21528834051928489 0 0.34859569888421221 -0.23412938064951411 0 0.32549034540926353 -0.23154497847382799 0 0.33517615116993849 -0.24743488902137309 0 0.34859569888421221 -0.23412938064951411 0 0.33517615116993849 -0.24743488902137309 0 0.34859569888421221 -0.23412938064951411 0 0.35185333732921159 -0.25428502110151557 0 0.34859569888421221 -0.23412938064951411 0 0.36075586336603621 -0.2426037127049111 0 0.35185333732921159 -0.25428502110151557 0 0.34859569888421221 -0.23412938064951411 0 0.36291464790978972 -0.22902601310760301 0 0.36075586336603621 -0.2426037127049111 0 0.35603419272415182 -0.2169366224123114 0 0.34859569888421221 -0.23412938064951411 0 0.36291464790978972 -0.22902601310760301 0 0.35603419272415182 -0.2169366224123114 0 0.33592071113666833 -0.21528834051928489 0 0.34859569888421221 -0.23412938064951411 0 0.37271206602689039 -0.21308069503546309 0 0.35603419272415182 -0.2169366224123114 0 0.36291464790978972 -0.22902601310760301 0 0.37271206602689039 -0.21308069503546309 0 0.37477580018058132 -0.24095111383496479 0 0.37555308153547928 -0.22286467051027881 0 0.37271206602689039 -0.21308069503546309 0 0.37477580018058132 -0.24095111383496479 0 0.37271206602689039 -0.21308069503546309 0 0.36291464790978972 -0.22902601310760301 0 0.37477580018058132 -0.24095111383496479 0 0.36075586336603621 -0.2426037127049111 0 0.37477580018058132 -0.24095111383496479 0 0.36563983252638571 -0.25462703483095822 0 0.36291464790978972 -0.22902601310760301 0 0.36075586336603621 -0.2426037127049111 0 0.37477580018058132 -0.24095111383496479 0 0.37477580018058132 -0.24095111383496479 0 0.39321551516580561 -0.23618023300957031 0 0.38725375881062551 -0.25185160038302579 0 0.39321551516580561 -0.23618023300957031 0 0.41087794879613182 -0.2494957955088617 0 0.40741230325918792 -0.23450562481703699 0 0.39321551516580561 -0.23618023300957031 0 0.41087794879613182 -0.2494957955088617 0 0.39321551516580561 -0.23618023300957031 0 0.38725375881062551 -0.25185160038302579 0 0.39640803358832022 -0.25154779433757402 0 0.39321551516580561 -0.23618023300957031 0 0.41087794879613182 -0.2494957955088617 0 0.39640803358832022 -0.25154779433757402 0 0.4055308246994358 -0.22407667781788709 0 0.39424069285124719 -0.22310079746779379 0 0.40434357831770951 -0.21487406561090469 0 0.4055308246994358 -0.22407667781788709 0 0.39424069285124719 -0.22310079746779379 0 0.40741230325918792 -0.23450562481703699 0 0.39321551516580561 -0.23618023300957031 0 0.39424069285124719 -0.22310079746779379 0 0.40741230325918792 -0.23450562481703699 0 0.37477580018058132 -0.24095111383496479 0 0.39321551516580561 -0.23618023300957031 0 0.37555308153547928 -0.22286467051027881 0 0.39424069285124719 -0.22310079746779379 0 0.37555308153547928 -0.22286467051027881 0 0.38300691860546521 -0.21527996176244341 0 0.39321551516580561 -0.23618023300957031 0 0.37555308153547928 -0.22286467051027881 0 0.39321551516580561 -0.23618023300957031 0 0.39424069285124719 -0.22310079746779379 0 0.37555308153547928 -0.22286467051027881 0 0.37271206602689039 -0.21308069503546309 0 0.37555308153547928 -0.22286467051027881 0 0.38300691860546521 -0.21527996176244341 0 0.37271206602689039 -0.21308069503546309 0 0.38139900114097952 -0.20469292352659629 0 0.38300691860546521 -0.21527996176244341 0 0.38139900114097952 -0.20469292352659629 0 0.39078770323730427 -0.19674260859680251 0 0.39112975147272949 -0.2126607222720846 0 0.38139900114097952 -0.20469292352659629 0 0.38300691860546521 -0.21527996176244341 0 0.39112975147272949 -0.2126607222720846 0 0.39424069285124719 -0.22310079746779379 0 0.38300691860546521 -0.21527996176244341 0 0.39112975147272949 -0.2126607222720846 0 0.37064833187319962 -0.1852102762359614 0 0.38139900114097952 -0.20469292352659629 0 0.39078770323730427 -0.19674260859680251 0 0.39078770323730427 -0.19674260859680251 0 0.40475141021500721 -0.1910589369573561 0 0.39510197637232292 -0.1839605883432579 0 0.39078770323730427 -0.19674260859680251 0 0.40426546228868082 -0.20108352786525729 0 0.397631623829106 -0.20634023108626229 0 0.39078770323730427 -0.19674260859680251 0 0.40426546228868082 -0.20108352786525729 0 0.40475141021500721 -0.1910589369573561 0 0.39078770323730427 -0.19674260859680251 0 0.39112975147272949 -0.2126607222720846 0 0.397631623829106 -0.20634023108626229 0 0.39112975147272949 -0.2126607222720846 0 0.397631623829106 -0.20634023108626229 0 0.40434357831770951 -0.21487406561090469 0 0.39424069285124719 -0.22310079746779379 0 0.39112975147272949 -0.2126607222720846 0 0.40434357831770951 -0.21487406561090469 0 0.40426546228868082 -0.20108352786525729 0 0.397631623829106 -0.20634023108626229 0 0.40434357831770951 -0.21487406561090469 0 0.40434357831770951 -0.21487406561090469 0 0.41713092845542321 -0.20900944133272009 0 0.41612672436959858 -0.22382622337581301 0 0.40426546228868082 -0.20108352786525729 0 0.40434357831770951 -0.21487406561090469 0 0.41713092845542321 -0.20900944133272009 0 0.41713092845542321 -0.20900944133272009 0 0.42330136258736267 -0.2174116668913772 0 0.41612672436959858 -0.22382622337581301 0 0.40475141021500721 -0.1910589369573561 0 0.41487892771890261 -0.19826025474908979 0 0.4146572714410397 -0.186958864794112 0 0.40426546228868082 -0.20108352786525729 0 0.41713092845542321 -0.20900944133272009 0 0.41487892771890261 -0.19826025474908979 0 0.40426546228868082 -0.20108352786525729 0 0.40475141021500721 -0.1910589369573561 0 0.41487892771890261 -0.19826025474908979 0 0.41713092845542321 -0.20900944133272009 0 0.41487892771890261 -0.19826025474908979 0 0.42701217502226602 -0.19751647228806199 0 0.41487892771890261 -0.19826025474908979 0 0.42053294087941678 -0.1923617771039739 0 0.42701217502226602 -0.19751647228806199 0 0.42053294087941678 -0.1923617771039739 0 0.4146572714410397 -0.186958864794112 0 0.42558338933545942 -0.1867115165846317 0 0.41487892771890261 -0.19826025474908979 0 0.42053294087941678 -0.1923617771039739 0 0.4146572714410397 -0.186958864794112 0 0.42701217502226602 -0.19751647228806199 0 0.43844209377108118 -0.18689286854296691 0 0.44355474576021348 -0.2050869029196882 0 0.42053294087941678 -0.1923617771039739 0 0.42701217502226602 -0.19751647228806199 0 0.42558338933545942 -0.1867115165846317 0 0.42701217502226602 -0.19751647228806199 0 0.42558338933545942 -0.1867115165846317 0 0.43844209377108118 -0.18689286854296691 0 0.42701217502226602 -0.19751647228806199 0 0.43006687167525981 -0.21185300334864521 0 0.44355474576021348 -0.2050869029196882 0 0.41713092845542321 -0.20900944133272009 0 0.42330136258736267 -0.2174116668913772 0 0.43006687167525981 -0.21185300334864521 0 0.42330136258736267 -0.2174116668913772 0 0.43006687167525981 -0.21185300334864521 0 0.42988092584916948 -0.2249579995083304 0 0.41713092845542321 -0.20900944133272009 0 0.42701217502226602 -0.19751647228806199 0 0.43006687167525981 -0.21185300334864521 0 0.43006687167525981 -0.21185300334864521 0 0.42988092584916948 -0.2249579995083304 0 0.44009267276725389 -0.2176624614444449 0 0.42330136258736267 -0.2174116668913772 0 0.42988092584916948 -0.2249579995083304 0 0.41612672436959858 -0.22382622337581301 0 0.42988092584916948 -0.2249579995083304 0 0.43458399188612801 -0.2397076170126072 0 0.42159465327244361 -0.23640953485310751 0 0.42988092584916948 -0.2249579995083304 0 0.42159465327244361 -0.23640953485310751 0 0.41612672436959858 -0.22382622337581301 0 0.42988092584916948 -0.2249579995083304 0 0.43458399188612801 -0.2397076170126072 0 0.44416109061426973 -0.22983272991065171 0 0.43458399188612801 -0.2397076170126072 0 0.42656562700980838 -0.24831468624349931 0 0.4372088962240912 -0.25169219704383999 0 0.43458399188612801 -0.2397076170126072 0 0.42656562700980838 -0.24831468624349931 0 0.42159465327244361 -0.23640953485310751 0 0.42656562700980838 -0.24831468624349931 0 0.42159465327244361 -0.23640953485310751 0 0.41087794879613182 -0.2494957955088617 0 0.42159465327244361 -0.23640953485310751 0 0.41087794879613182 -0.2494957955088617 0 0.40741230325918792 -0.23450562481703699 0 0.4055308246994358 -0.22407667781788709 0 0.40741230325918792 -0.23450562481703699 0 0.41612672436959858 -0.22382622337581301 0 0.4055308246994358 -0.22407667781788709 0 0.40434357831770951 -0.21487406561090469 0 0.41612672436959858 -0.22382622337581301 0 0.42159465327244361 -0.23640953485310751 0 0.40741230325918792 -0.23450562481703699 0 0.41612672436959858 -0.22382622337581301 0 0.39823574772599779 -0.11763079726210079 0 0.40257569972698831 -0.13396225485532559 0 0.38918813321375051 -0.12739880168557821 0 0.40257569972698831 -0.13396225485532559 0 0.38918813321375051 -0.12739880168557821 0 0.39017348084279901 -0.13955387731924049 0 0.38918813321375051 -0.12739880168557821 0 0.37808333446084269 -0.1309391893982525 0 0.39017348084279901 -0.13955387731924049 0 0.37720890243704291 -0.12310924361699779 0 0.36253108037134668 -0.1248744885805331 0 0.38918813321375051 -0.12739880168557821 0 0.36253108037134668 -0.1248744885805331 0 0.38918813321375051 -0.12739880168557821 0 0.37808333446084269 -0.1309391893982525 0 0.36253108037134668 -0.1248744885805331 0 0.38918813321375051 -0.12739880168557821 0 0.37808333446084269 -0.1309391893982525 0 0.39017348084279901 -0.13955387731924049 0 0.3787995421462832 -0.1425544525875144 0 0.36858459771950869 -0.15733985743645959 0 0.3787995421462832 -0.1425544525875144 0 0.38535727780346091 -0.1527557998392445 0 0.39017348084279901 -0.13955387731924049 0 0.3787995421462832 -0.1425544525875144 0 0.38535727780346091 -0.1527557998392445 0 0.40257569972698831 -0.13396225485532559 0 0.39822107621443897 -0.1501202070538992 0 0.41732028123257531 -0.14286435439753159 0 0.40257569972698831 -0.13396225485532559 0 0.39017348084279901 -0.13955387731924049 0 0.39822107621443897 -0.1501202070538992 0 0.39017348084279901 -0.13955387731924049 0 0.38535727780346091 -0.1527557998392445 0 0.39822107621443897 -0.1501202070538992 0 0.39822107621443897 -0.1501202070538992 0 0.39107178753907162 -0.16851380255406381 0 0.40713652226246821 -0.16744863749245631 0 0.39107178753907162 -0.16851380255406381 0 0.40713652226246821 -0.16744863749245631 0 0.38535727780346091 -0.1527557998392445 0 0.39822107621443897 -0.1501202070538992 0 0.39107178753907162 -0.16851380255406381 0 0.39107178753907162 -0.16851380255406381 0 0.40460499843718001 -0.17902112385493851 0 0.40713652226246821 -0.16744863749245631 0 0.36858459771950869 -0.15733985743645959 0 0.38535727780346091 -0.1527557998392445 0 0.39107178753907162 -0.16851380255406381 0 0.36858459771950869 -0.15733985743645959 0 0.39107178753907162 -0.16851380255406381 0 0.3834788620725188 -0.17954848884060079 0 0.39107178753907162 -0.16851380255406381 0 0.3834788620725188 -0.17954848884060079 0 0.39510197637232292 -0.1839605883432579 0 0.39078770323730427 -0.19674260859680251 0 0.3834788620725188 -0.17954848884060079 0 0.39510197637232292 -0.1839605883432579 0 0.37064833187319962 -0.1852102762359614 0 0.39078770323730427 -0.19674260859680251 0 0.3834788620725188 -0.17954848884060079 0 0.39107178753907162 -0.16851380255406381 0 0.39510197637232292 -0.1839605883432579 0 0.40460499843718001 -0.17902112385493851 0 0.40475141021500721 -0.1910589369573561 0 0.39510197637232292 -0.1839605883432579 0 0.40460499843718001 -0.17902112385493851 0 0.40475141021500721 -0.1910589369573561 0 0.40460499843718001 -0.17902112385493851 0 0.4146572714410397 -0.186958864794112 0 0.40460499843718001 -0.17902112385493851 0 0.41491102279317088 -0.17618591298838529 0 0.4146572714410397 -0.186958864794112 0 0.40460499843718001 -0.17902112385493851 0 0.41491102279317088 -0.17618591298838529 0 0.40713652226246821 -0.16744863749245631 0 0.41491102279317088 -0.17618591298838529 0 0.42527009306055918 -0.1746571334479238 0 0.4232012569858648 -0.16638347243084889 0 0.41491102279317088 -0.17618591298838529 0 0.42095079563492938 -0.18072636251124541 0 0.42527009306055918 -0.1746571334479238 0 0.41491102279317088 -0.17618591298838529 0 0.42095079563492938 -0.18072636251124541 0 0.4146572714410397 -0.186958864794112 0 0.42095079563492938 -0.18072636251124541 0 0.4146572714410397 -0.186958864794112 0 0.42558338933545942 -0.1867115165846317 0 0.43180268423531071 -0.1802632517690351 0 0.42527009306055918 -0.1746571334479238 0 0.44880083799057491 -0.164686103644653 0 0.42095079563492938 -0.18072636251124541 0 0.42558338933545942 -0.1867115165846317 0 0.43180268423531071 -0.1802632517690351 0 0.42558338933545942 -0.1867115165846317 0 0.43180268423531071 -0.1802632517690351 0 0.43844209377108118 -0.18689286854296691 0 0.42095079563492938 -0.18072636251124541 0 0.43180268423531071 -0.1802632517690351 0 0.42527009306055918 -0.1746571334479238 0 0.42527009306055918 -0.1746571334479238 0 0.4232012569858648 -0.16638347243084889 0 0.44880083799057491 -0.164686103644653 0 0.4232012569858648 -0.16638347243084889 0 0.43334283997313311 -0.15135273030925811 0 0.44880083799057491 -0.164686103644653 0 0.4232012569858648 -0.16638347243084889 0 0.44880083799057491 -0.164686103644653 0 0.42527009306055918 -0.1746571334479238 0 0.4232012569858648 -0.16638347243084889 0 0.4232012569858648 -0.16638347243084889 0 0.40713652226246821 -0.16744863749245631 0 0.41732028123257531 -0.14286435439753159 0 0.41491102279317088 -0.17618591298838529 0 0.4232012569858648 -0.16638347243084889 0 0.40713652226246821 -0.16744863749245631 0 0.4232012569858648 -0.16638347243084889 0 0.40713652226246821 -0.16744863749245631 0 0.4232012569858648 -0.16638347243084889 0 0.41732028123257531 -0.14286435439753159 0 0.39822107621443897 -0.1501202070538992 0 0.40713652226246821 -0.16744863749245631 0 0.41732028123257531 -0.14286435439753159 0 0.41732028123257531 -0.14286435439753159 0 0.43334283997313311 -0.15135273030925811 0 0.43763345530417341 -0.13584027725706749 0 0.4232012569858648 -0.16638347243084889 0 0.41732028123257531 -0.14286435439753159 0 0.43334283997313311 -0.15135273030925811 0 0.42916935431308728 -0.1205456085246996 0 0.41732028123257531 -0.14286435439753159 0 0.43763345530417341 -0.13584027725706749 0 0.42916935431308728 -0.1205456085246996 0 0.4435038969132965 -0.12540022695152131 0 0.43763345530417341 -0.13584027725706749 0 0.41143930547928681 -0.11934523636421419 0 0.42916935431308728 -0.1205456085246996 0 0.41732028123257531 -0.14286435439753159 0 0.41143930547928681 -0.11934523636421419 0 0.40257569972698831 -0.13396225485532559 0 0.41732028123257531 -0.14286435439753159 0 0.41143930547928681 -0.11934523636421419 0 0.41732028123257531 -0.14286435439753159 0 0.46257396642688631 -0.12529077885077469 0 0.46381730130484328 -0.1363472541609663 0 0.4585659370706795 -0.1308283620105129 0 0.46381730130484328 -0.1363472541609663 0 0.4585659370706795 -0.1308283620105129 0 0.45274550479158487 -0.1345999168850856 0 0.46381730130484328 -0.1363472541609663 0 0.45274550479158487 -0.1345999168850856 0 0.46138481906560302 -0.14686228775601681 0 0.46257396642688631 -0.12529077885077469 0 0.4585659370706795 -0.1308283620105129 0 0.45239247298790419 -0.125419693033265 0 0.4585659370706795 -0.1308283620105129 0 0.45239247298790419 -0.125419693033265 0 0.45274550479158487 -0.1345999168850856 0 0.45239247298790419 -0.125419693033265 0 0.4435038969132965 -0.12540022695152131 0 0.45274550479158487 -0.1345999168850856 0 0.4435038969132965 -0.12540022695152131 0 0.43763345530417341 -0.13584027725706749 0 0.45274550479158487 -0.1345999168850856 0 0.43763345530417341 -0.13584027725706749 0 0.45274550479158487 -0.1345999168850856 0 0.44678149142501389 -0.1466682631704162 0 0.43334283997313311 -0.15135273030925811 0 0.44678149142501389 -0.1466682631704162 0 0.44880083799057491 -0.164686103644653 0 0.44678149142501389 -0.1466682631704162 0 0.46138481906560302 -0.14686228775601681 0 0.44880083799057491 -0.164686103644653 0 0.43334283997313311 -0.15135273030925811 0 0.43763345530417341 -0.13584027725706749 0 0.44678149142501389 -0.1466682631704162 0 0.45274550479158487 -0.1345999168850856 0 0.44678149142501389 -0.1466682631704162 0 0.46138481906560302 -0.14686228775601681 0 0.46138481906560302 -0.14686228775601681 0 0.44880083799057491 -0.164686103644653 0 0.47440041899528501 -0.16298873485845719 0 0.44880083799057491 -0.164686103644653 0 0.46834799031954211 -0.17915452781490099 0 0.47440041899528501 -0.16298873485845719 0 0.44880083799057491 -0.164686103644653 0 0.47440041899528501 -0.16298873485845719 0 0.43180268423531071 -0.1802632517690351 0 0.44880083799057491 -0.164686103644653 0 0.43844209377108118 -0.18689286854296691 0 0.44880083799057491 -0.164686103644653 0 0.43844209377108118 -0.18689286854296691 0 0.45508032593701309 -0.1914137801830845 0 0.44880083799057491 -0.164686103644653 0 0.46834799031954211 -0.17915452781490099 0 0.45508032593701309 -0.1914137801830845 0 0.46834799031954211 -0.17915452781490099 0 0.48419704391512092 -0.17843144908975531 0 0.47440041899528501 -0.16298873485845719 0 0.46834799031954211 -0.17915452781490099 0 0.48419704391512092 -0.17843144908975531 0 0.47823681026078202 -0.19812675643970101 0 0.48419704391512092 -0.17843144908975531 0 0.49999999999999523 -0.16129136607226169 0 0.5 -0.1905958602634561 0 0.49999999999999523 -0.16129136607226169 0 0.47440041899528501 -0.16298873485845719 0 0.50000000000000067 -0.1547763741112759 0 0.48419704391512092 -0.17843144908975531 0 0.49999999999999523 -0.16129136607226169 0 0.47440041899528501 -0.16298873485845719 0 0.49999999999999523 -0.16129136607226169 0 0.47440041899528501 -0.16298873485845719 0 0.46138481906560302 -0.14686228775601681 0 0.47440041899528501 -0.16298873485845719 0 0.48128698321344371 -0.14003357648102521 0 0.46381730130484328 -0.1363472541609663 0 0.46138481906560302 -0.14686228775601681 0 0.48128698321344371 -0.14003357648102521 0 0.50000000000000067 -0.1547763741112759 0 0.48128698321344371 -0.14003357648102521 0 0.50000000000000067 -0.1547763741112759 0 0.5 -0.13349841451636779 0 0.48128698321344371 -0.14003357648102521 0 0.47440041899528501 -0.16298873485845719 0 0.50000000000000067 -0.1547763741112759 0 0.48128698321344371 -0.14003357648102521 0 0.48087269318342413 -0.1216818802472065 0 0.5 -0.13349841451636779 0 0.48128698321344371 -0.14003357648102521 0 0.46257396642688631 -0.12529077885077469 0 0.48128698321344371 -0.14003357648102521 0 0.46257396642688631 -0.12529077885077469 0 0.46381730130484328 -0.1363472541609663 0 0.48128698321344371 -0.14003357648102521 0 0.47129126618897188 -0.1223351355815797 0 0.48087269318342413 -0.1216818802472065 0 0.48128698321344371 -0.14003357648102521 0 0.47129126618897188 -0.1223351355815797 0 0.46257396642688631 -0.12529077885077469 0 0.48128698321344371 -0.14003357648102521 0 0.46029750420545162 -0.23134667767863379 0 0.45079963313025367 -0.219495204315066 0 0.46126535540865482 -0.21094244298034759 0 0.46029750420545162 -0.23134667767863379 0 0.46126535540865482 -0.21094244298034759 0 0.47937109712497578 -0.22608105856418539 0 0.46029750420545162 -0.23134667767863379 0 0.44856132313442931 -0.24393079079591279 0 0.47387431588802909 -0.25499376211151131 0 0.46029750420545162 -0.23134667767863379 0 0.44856132313442931 -0.24393079079591279 0 0.44416109061426973 -0.22983272991065171 0 0.43458399188612801 -0.2397076170126072 0 0.44856132313442931 -0.24393079079591279 0 0.4372088962240912 -0.25169219704383999 0 0.43458399188612801 -0.2397076170126072 0 0.44856132313442931 -0.24393079079591279 0 0.44416109061426973 -0.22983272991065171 0 0.46029750420545162 -0.23134667767863379 0 0.44416109061426973 -0.22983272991065171 0 0.45079963313025367 -0.219495204315066 0 0.44416109061426973 -0.22983272991065171 0 0.45079963313025367 -0.219495204315066 0 0.44009267276725389 -0.2176624614444449 0 0.42988092584916948 -0.2249579995083304 0 0.44416109061426973 -0.22983272991065171 0 0.44009267276725389 -0.2176624614444449 0 0.45079963313025367 -0.219495204315066 0 0.44355474576021348 -0.2050869029196882 0 0.46126535540865482 -0.21094244298034759 0 0.43006687167525981 -0.21185300334864521 0 0.44009267276725389 -0.2176624614444449 0 0.44355474576021348 -0.2050869029196882 0 0.45079963313025367 -0.219495204315066 0 0.44009267276725389 -0.2176624614444449 0 0.44355474576021348 -0.2050869029196882 0 0.43844209377108118 -0.18689286854296691 0 0.44355474576021348 -0.2050869029196882 0 0.45508032593701309 -0.1914137801830845 0 0.46834799031954211 -0.17915452781490099 0 0.45508032593701309 -0.1914137801830845 0 0.47823681026078202 -0.19812675643970101 0 0.44355474576021348 -0.2050869029196882 0 0.45508032593701309 -0.1914137801830845 0 0.46126535540865482 -0.21094244298034759 0 0.45508032593701309 -0.1914137801830845 0 0.46126535540865482 -0.21094244298034759 0 0.47823681026078202 -0.19812675643970101 0 0.46126535540865482 -0.21094244298034759 0 0.47823681026078202 -0.19812675643970101 0 0.47937109712497578 -0.22608105856418539 0 0.48419704391512092 -0.17843144908975531 0 0.47823681026078202 -0.19812675643970101 0 0.5 -0.1905958602634561 0 0.47823681026078202 -0.19812675643970101 0 0.5 -0.1905958602634561 0 0.5 -0.21990035445465039 0 0.47823681026078202 -0.19812675643970101 0 0.5 -0.21990035445465039 0 0.47937109712497578 -0.22608105856418539 0 0.5 -0.21990035445465039 0 0.47937109712497578 -0.22608105856418539 0 0.50000000000000444 -0.24920484864584491 0 0.46029750420545162 -0.23134667767863379 0 0.47937109712497578 -0.22608105856418539 0 0.47387431588802909 -0.25499376211151131 0 0.47937109712497578 -0.22608105856418539 0 0.50000000000000444 -0.24920484864584491 0 0.47387431588802909 -0.25499376211151131 0 0.50000000000000444 -0.24920484864584491 0 0.4915669900217115 -0.25615479242606781 0 0.5 -0.27170772691138367 0 0.50000000000000444 -0.24920484864584491 0 0.4915669900217115 -0.25615479242606781 0 0.47387431588802909 -0.25499376211151131 0 0.50000000000000444 -0.24920484864584491 0 0.47387431588802909 -0.25499376211151131 0 0.4915669900217115 -0.25615479242606781 0 0.48280749151585822 -0.27129304150170008 0 0.47954864786353962 -0.26301133191085868 0 0.4915669900217115 -0.25615479242606781 0 0.5 -0.27170772691138367 0 0.48280749151585822 -0.27129304150170008 0 0.5 -0.27170772691138367 0 0.48280749151585822 -0.27129304150170008 0 0.48951500520952212 -0.28458010338455908 0 0.48280749151585822 -0.27129304150170008 0 0.47474596181800061 -0.28621450290334632 0 0.48951500520952212 -0.28458010338455908 0 0.48280749151585822 -0.27129304150170008 0 0.47416229901770612 -0.26612875971404459 0 0.47954864786353962 -0.26301133191085868 0 0.48280749151585822 -0.27129304150170008 0 0.47416229901770612 -0.26612875971404459 0 0.47052118473631321 -0.27447720361836658 0 0.47416229901770612 -0.26612875971404459 0 0.47052118473631321 -0.27447720361836658 0 0.46319689217890331 -0.26835660325056299 0 0.48280749151585822 -0.27129304150170008 0 0.47052118473631321 -0.27447720361836658 0 0.47474596181800061 -0.28621450290334632 0 0.4915669900217115 -0.25615479242606781 0 0.46965781089888248 -0.25846873400162218 0 0.4915669900217115 -0.25615479242606781 0 0.47387431588802909 -0.25499376211151131 0 0.46965781089888248 -0.25846873400162218 0 0.4915669900217115 -0.25615479242606781 0 0.47954864786353962 -0.26301133191085868 0 0.46965781089888248 -0.25846873400162218 0 0.47416229901770612 -0.26612875971404459 0 0.47954864786353962 -0.26301133191085868 0 0.46965781089888248 -0.25846873400162218 0 0.47416229901770612 -0.26612875971404459 0 0.46965781089888248 -0.25846873400162218 0 0.46319689217890331 -0.26835660325056299 0 0.46965781089888248 -0.25846873400162218 0 0.46319689217890331 -0.26835660325056299 0 0.4477486317760534 -0.26078267557717671 0 0.44856132313442931 -0.24393079079591279 0 0.47387431588802909 -0.25499376211151131 0 0.4477486317760534 -0.26078267557717671 0 0.47387431588802909 -0.25499376211151131 0 0.4477486317760534 -0.26078267557717671 0 0.46965781089888248 -0.25846873400162218 0 0.4477486317760534 -0.26078267557717671 0 0.47387431588802909 -0.25499376211151131 0 0.46965781089888248 -0.25846873400162218 0 0.4477486317760534 -0.26078267557717671 0 0.47052118473631321 -0.27447720361836658 0 0.45389453446556111 -0.28192564334160541 0 0.47474596181800061 -0.28621450290334632 0 0.47052118473631321 -0.27447720361836658 0 0.46319689217890331 -0.26835660325056299 0 0.45389453446556111 -0.28192564334160541 0 0.46319689217890331 -0.26835660325056299 0 0.4477486317760534 -0.26078267557717671 0 0.45389453446556111 -0.28192564334160541 0 0.45389453446556111 -0.28192564334160541 0 0.430823863629894 -0.26453285558412298 0 0.45389453446556111 -0.28192564334160541 0 0.430823863629894 -0.26453285558412298 0 0.43570592202634773 -0.28205449164250063 0 0.4477486317760534 -0.26078267557717671 0 0.45389453446556111 -0.28192564334160541 0 0.430823863629894 -0.26453285558412298 0 0.4477486317760534 -0.26078267557717671 0 0.42854038242645709 -0.26281135800815408 0 0.44856132313442931 -0.24393079079591279 0 0.4477486317760534 -0.26078267557717671 0 0.4372088962240912 -0.25169219704383999 0 0.4477486317760534 -0.26078267557717671 0 0.42854038242645709 -0.26281135800815408 0 0.4372088962240912 -0.25169219704383999 0 0.4477486317760534 -0.26078267557717671 0 0.430823863629894 -0.26453285558412298 0 0.44815314542162782 -0.30273998798419938 0 0.44271266904340639 -0.31513600928105973 0 0.43092107089682352 -0.30573631325696571 0 0.44815314542162782 -0.30273998798419938 0 0.43874415768382158 -0.29310671547163403 0 0.43092107089682352 -0.30573631325696571 0 0.43874415768382158 -0.29310671547163403 0 0.45389453446556111 -0.28192564334160541 0 0.43570592202634773 -0.28205449164250063 0 0.44815314542162782 -0.30273998798419938 0 0.43874415768382158 -0.29310671547163403 0 0.45389453446556111 -0.28192564334160541 0 0.45389453446556111 -0.28192564334160541 0 0.46668010371271101 -0.29937682325086112 0 0.47474596181800061 -0.28621450290334632 0 0.44815314542162782 -0.30273998798419938 0 0.45389453446556111 -0.28192564334160541 0 0.46668010371271101 -0.29937682325086112 0 0.46668010371271101 -0.29937682325086112 0 0.45907432653114449 -0.32014896664993769 0 0.44815314542162782 -0.30273998798419938 0 0.46668010371271101 -0.29937682325086112 0 0.45907432653114449 -0.32014896664993769 0 0.46668010371271101 -0.29937682325086112 0 0.48375110351916628 -0.30725513966339157 0 0.45907432653114449 -0.32014896664993769 0 0.46668010371271101 -0.29937682325086112 0 0.48375110351916628 -0.30725513966339157 0 0.47474596181800061 -0.28621450290334632 0 0.48375110351916628 -0.30725513966339157 0 0.47474596181800061 -0.28621450290334632 0 0.48951500520952212 -0.28458010338455908 0 0.48375110351916628 -0.30725513966339157 0 0.5 -0.29421060517692271 0 0.48951500520952212 -0.28458010338455908 0 0.5 -0.27170772691138367 0 0.5 -0.29421060517692271 0 0.48951500520952212 -0.28458010338455908 0 0.48375110351916628 -0.30725513966339157 0 0.5 -0.29421060517692271 0 0.49999999999999972 -0.31671348344246159 0 0.48375110351916628 -0.30725513966339157 0 0.49999999999999972 -0.31671348344246159 0 0.48658745812515303 -0.32591538654610069 0 0.49999999999999972 -0.31671348344246159 0 0.49107839048707969 -0.33844651150006611 0 0.49999999999999972 -0.31671348344246159 0 0.48658745812515303 -0.32591538654610069 0 0.49107839048707969 -0.33844651150006611 0 0.49999999999999972 -0.31671348344246159 0 0.5 -0.34354646621870782 0 0.49107839048707969 -0.33844651150006611 0 0.48658745812515303 -0.32591538654610069 0 0.49107839048707969 -0.33844651150006611 0 0.48013111160135669 -0.33592777501669763 0 0.48658745812515303 -0.32591538654610069 0 0.48013111160135669 -0.33592777501669763 0 0.47588582758327369 -0.32632043512378739 0 0.48013111160135669 -0.33592777501669763 0 0.46883970942210401 -0.33989811375075968 0 0.47588582758327369 -0.32632043512378739 0 0.48375110351916628 -0.30725513966339157 0 0.48658745812515303 -0.32591538654610069 0 0.47588582758327369 -0.32632043512378739 0 0.48375110351916628 -0.30725513966339157 0 0.47588582758327369 -0.32632043512378739 0 0.45907432653114449 -0.32014896664993769 0 0.5 -0.37037944899495368 0 0.48466784746851571 -0.3739080713738358 0 0.48215678097416009 -0.36017953955767068 0 0.5 -0.34354646621870782 0 0.49107839048707969 -0.33844651150006611 0 0.48215678097416009 -0.36017953955767068 0 0.49107839048707969 -0.33844651150006611 0 0.48013111160135669 -0.33592777501669763 0 0.48215678097416009 -0.36017953955767068 0 0.5 -0.34354646621870782 0 0.5 -0.37037944899495368 0 0.48215678097416009 -0.36017953955767068 0 0.49107839048707969 -0.33844651150006611 0 0.48215678097416009 -0.36017953955767068 0 0.48013111160135669 -0.33592777501669763 0 0.46883970942210401 -0.33989811375075968 0 0.48215678097416009 -0.36017953955767068 0 0.46883970942210401 -0.33989811375075968 0 0.48215678097416009 -0.36017953955767068 0 0.46166172922915721 -0.35810144835948332 0 0.48215678097416009 -0.36017953955767068 0 0.47323517146124039 -0.38191256761527542 0 0.48215678097416009 -0.36017953955767068 0 0.4671179630262795 -0.37324494563770522 0 0.47323517146124039 -0.38191256761527542 0 0.48466784746851571 -0.3739080713738358 0 0.48215678097416009 -0.36017953955767068 0 0.47323517146124039 -0.38191256761527542 0 0.48215678097416009 -0.36017953955767068 0 0.4671179630262795 -0.37324494563770522 0 0.46166172922915721 -0.35810144835948332 0 0.45652460043480969 -0.37267172771365881 0 0.46166172922915721 -0.35810144835948332 0 0.44386277216801179 -0.36169325344809122 0 0.45652460043480969 -0.37267172771365881 0 0.4671179630262795 -0.37324494563770522 0 0.46166172922915721 -0.35810144835948332 0 0.46883970942210401 -0.33989811375075968 0 0.46166172922915721 -0.35810144835948332 0 0.45146854934957792 -0.34092111004901438 0 0.43963091224731599 -0.34751792105314822 0 0.44386277216801179 -0.36169325344809122 0 0.45146854934957792 -0.34092111004901438 0 0.44386277216801179 -0.36169325344809122 0 0.45146854934957792 -0.34092111004901438 0 0.46166172922915721 -0.35810144835948332 0 0.44386277216801179 -0.36169325344809122 0 0.45146854934957792 -0.34092111004901438 0 0.44386277216801179 -0.36169325344809122 0 0.43376943787959182 -0.36708850497004442 0 0.43808065797110041 -0.37748478958974491 0 0.45652460043480969 -0.37267172771365881 0 0.44386277216801179 -0.36169325344809122 0 0.44783900322824399 -0.38008781189722518 0 0.44386277216801179 -0.36169325344809122 0 0.43808065797110041 -0.37748478958974491 0 0.44386277216801179 -0.36169325344809122 0 0.43808065797110041 -0.37748478958974491 0 0.44783900322824399 -0.38008781189722518 0 0.45652460043480969 -0.37267172771365881 0 0.44386277216801179 -0.36169325344809122 0 0.46883970942210401 -0.33989811375075968 0 0.45907432653114449 -0.32014896664993769 0 0.45146854934957792 -0.34092111004901438 0 0.45907432653114449 -0.32014896664993769 0 0.45146854934957792 -0.34092111004901438 0 0.46883970942210401 -0.33989811375075968 0 0.47588582758327369 -0.32632043512378739 0 0.45907432653114449 -0.32014896664993769 0 0.43963091224731599 -0.34751792105314822 0 0.45146854934957792 -0.34092111004901438 0 0.43565299676263758 -0.3352386806192425 0 0.45146854934957792 -0.34092111004901438 0 0.44493724809618768 -0.32603283426431229 0 0.43565299676263758 -0.3352386806192425 0 0.45907432653114449 -0.32014896664993769 0 0.45146854934957792 -0.34092111004901438 0 0.44493724809618768 -0.32603283426431229 0 0.45907432653114449 -0.32014896664993769 0 0.44493724809618768 -0.32603283426431229 0 0.44271266904340639 -0.31513600928105973 0 0.44493724809618768 -0.32603283426431229 0 0.44271266904340639 -0.31513600928105973 0 0.43047755427124879 -0.32102194424988317 0 0.44815314542162782 -0.30273998798419938 0 0.45907432653114449 -0.32014896664993769 0 0.44271266904340639 -0.31513600928105973 0 0.44271266904340639 -0.31513600928105973 0 0.43047755427124879 -0.32102194424988317 0 0.43092107089682352 -0.30573631325696571 0 0.43047755427124879 -0.32102194424988317 0 0.41919911313656122 -0.31385112706466711 0 0.41739686236043672 -0.32199345155319897 0 0.43047755427124879 -0.32102194424988317 0 0.41919911313656122 -0.31385112706466711 0 0.43092107089682352 -0.30573631325696571 0 0.43047755427124879 -0.32102194424988317 0 0.42053718701310799 -0.32957674384091618 0 0.41739686236043672 -0.32199345155319897 0 0.44493724809618768 -0.32603283426431229 0 0.43047755427124879 -0.32102194424988317 0 0.43565299676263758 -0.3352386806192425 0 0.43565299676263758 -0.3352386806192425 0 0.42053718701310799 -0.32957674384091618 0 0.4250793590774925 -0.34540704162396091 0 0.43963091224731599 -0.34751792105314822 0 0.43565299676263758 -0.3352386806192425 0 0.4250793590774925 -0.34540704162396091 0 0.43047755427124879 -0.32102194424988317 0 0.43565299676263758 -0.3352386806192425 0 0.42053718701310799 -0.32957674384091618 0 0.4062959459869725 -0.32912082979983148 0 0.4250793590774925 -0.34540704162396091 0 0.41055923831377589 -0.34398547157316572 0 0.42053718701310799 -0.32957674384091618 0 0.4062959459869725 -0.32912082979983148 0 0.4250793590774925 -0.34540704162396091 0 0.4062959459869725 -0.32912082979983148 0 0.4250793590774925 -0.34540704162396091 0 0.42053718701310799 -0.32957674384091618 0 0.4062959459869725 -0.32912082979983148 0 0.40802480504278882 -0.32457497099322458 0 0.4062959459869725 -0.32912082979983148 0 0.40802480504278882 -0.32457497099322458 0 0.4062959459869725 -0.32912082979983148 0 0.40802480504278882 -0.32457497099322458 0 0.40572459905769331 -0.31910551143285631 0 0.40802480504278882 -0.32457497099322458 0 0.4119015194344513 -0.31818912214386269 0 0.41739686236043672 -0.32199345155319897 0 0.40802480504278882 -0.32457497099322458 0 0.4119015194344513 -0.31818912214386269 0 0.40572459905769331 -0.31910551143285631 0 0.4119015194344513 -0.31818912214386269 0 0.41919911313656122 -0.31385112706466711 0 0.40916221757477672 -0.31142054967536659 0 0.4119015194344513 -0.31818912214386269 0 0.40572459905769331 -0.31910551143285631 0 0.40916221757477672 -0.31142054967536659 0 0.4119015194344513 -0.31818912214386269 0 0.41919911313656122 -0.31385112706466711 0 0.41739686236043672 -0.32199345155319897 0 0.42053718701310799 -0.32957674384091618 0 0.40802480504278882 -0.32457497099322458 0 0.41739686236043672 -0.32199345155319897 0 0.44386277216801179 -0.36169325344809122 0 0.43376943787959182 -0.36708850497004442 0 0.42728564025893462 -0.35958684797927032 0 0.42489657602010461 -0.37065940299189432 0 0.43376943787959182 -0.36708850497004442 0 0.43808065797110041 -0.37748478958974491 0 0.42489657602010461 -0.37065940299189432 0 0.43376943787959182 -0.36708850497004442 0 0.42728564025893462 -0.35958684797927032 0 0.44386277216801179 -0.36169325344809122 0 0.4250793590774925 -0.34540704162396091 0 0.43963091224731599 -0.34751792105314822 0 0.44386277216801179 -0.36169325344809122 0 0.4250793590774925 -0.34540704162396091 0 0.44386277216801179 -0.36169325344809122 0 0.42728564025893462 -0.35958684797927032 0 0.4250793590774925 -0.34540704162396091 0 0.42728564025893462 -0.35958684797927032 0 0.4250793590774925 -0.34540704162396091 0 0.41069622259092692 -0.35617360609135817 0 0.4250793590774925 -0.34540704162396091 0 0.41055923831377589 -0.34398547157316572 0 0.41069622259092692 -0.35617360609135817 0 0.41055923831377589 -0.34398547157316572 0 0.41069622259092692 -0.35617360609135817 0 0.40016542559971202 -0.34524040877751239 0 0.42489657602010461 -0.37065940299189432 0 0.42728564025893462 -0.35958684797927032 0 0.41069622259092692 -0.35617360609135817 0 0.42489657602010461 -0.37065940299189432 0 0.41069622259092692 -0.35617360609135817 0 0.4070765621089808 -0.37107032214525337 0 0.42489657602010461 -0.37065940299189432 0 0.41069622259092692 -0.35617360609135817 0 0.39585190457779329 -0.37201308858561799 0 0.3940349052124521 -0.36135998775519362 0 0.38601585554704992 -0.38244526212700758 0 0.41069622259092692 -0.35617360609135817 0 0.4070765621089808 -0.37107032214525337 0 0.3940349052124521 -0.36135998775519362 0 0.4070765621089808 -0.37107032214525337 0 0.39585190457779329 -0.37201308858561799 0 0.3940349052124521 -0.36135998775519362 0 0.39585190457779329 -0.37201308858561799 0 0.3940349052124521 -0.36135998775519362 0 0.3940349052124521 -0.36135998775519362 0 0.40016542559971202 -0.34524040877751239 0 0.38974443050024338 -0.33620485529262373 0 0.3940349052124521 -0.36135998775519362 0 0.38974443050024338 -0.33620485529262373 0 0.3940349052124521 -0.36135998775519362 0 0.40016542559971202 -0.34524040877751239 0 0.41069622259092692 -0.35617360609135817 0 0.3940349052124521 -0.36135998775519362 0 0.40016542559971202 -0.34524040877751239 0 0.3940349052124521 -0.36135998775519362 0 0.38974443050024338 -0.33620485529262373 0 0.37368731816096312 -0.34897020548070451 0 0.3940349052124521 -0.36135998775519362 0 0.38601585554704992 -0.38244526212700758 0 0.3940349052124521 -0.36135998775519362 0 0.38601585554704992 -0.38244526212700758 0 0.3689120952668708 -0.37284951495870189 0 0.3940349052124521 -0.36135998775519362 0 0.3689120952668708 -0.37284951495870189 0 0.37368731816096312 -0.34897020548070451 0 0.4062959459869725 -0.32912082979983148 0 0.40572459905769331 -0.31910551143285631 0 0.39816778062817881 -0.31191488097197773 0 0.4062959459869725 -0.32912082979983148 0 0.38974443050024338 -0.33620485529262373 0 0.38545395578803499 -0.31104972283005378 0 0.4062959459869725 -0.32912082979983148 0 0.38545395578803499 -0.31104972283005378 0 0.4062959459869725 -0.32912082979983148 0 0.38545395578803499 -0.31104972283005378 0 0.39816778062817881 -0.31191488097197773 0 0.40572459905769331 -0.31910551143285631 0 0.39816778062817881 -0.31191488097197773 0 0.40916221757477672 -0.31142054967536659 0 0.4062959459869725 -0.32912082979983148 0 0.40016542559971202 -0.34524040877751239 0 0.38974443050024338 -0.33620485529262373 0 0.4062959459869725 -0.32912082979983148 0 0.40016542559971202 -0.34524040877751239 0 0.4062959459869725 -0.32912082979983148 0 0.41055923831377589 -0.34398547157316572 0 0.40016542559971202 -0.34524040877751239 0 0.38974443050024338 -0.33620485529262373 0 0.36945761595668469 -0.32738841673247931 0 0.37368731816096312 -0.34897020548070451 0 0.38974443050024338 -0.33620485529262373 0 0.38545395578803499 -0.31104972283005378 0 0.36945761595668469 -0.32738841673247931 0 0.38974443050024338 -0.33620485529262373 0 0.38545395578803499 -0.31104972283005378 0 0.38545395578803499 -0.31104972283005378 0 0.38245755150739558 -0.29348174920317632 0 0.37101427446782781 -0.29852975601036341 0 0.38545395578803499 -0.31104972283005378 0 0.38245755150739558 -0.29348174920317632 0 0.38545395578803499 -0.31104972283005378 0 0.37101427446782781 -0.29852975601036341 0 0.38545395578803499 -0.31104972283005378 0 0.39567659353887108 -0.29306988619604551 0 0.38245755150739558 -0.29348174920317632 0 0.39816778062817881 -0.31191488097197773 0 0.40563314249086863 -0.30155395497769039 0 0.39567659353887108 -0.29306988619604551 0 0.38545395578803499 -0.31104972283005378 0 0.39816778062817881 -0.31191488097197773 0 0.39567659353887108 -0.29306988619604551 0 0.39816778062817881 -0.31191488097197773 0 0.40563314249086863 -0.30155395497769039 0 0.40916221757477672 -0.31142054967536659 0 0.39567659353887108 -0.29306988619604551 0 0.40514250542832608 -0.27022331558021301 0 0.41160024963212011 -0.28933460066763711 0 0.40563314249086863 -0.30155395497769039 0 0.39567659353887108 -0.29306988619604551 0 0.41160024963212011 -0.28933460066763711 0 0.38245755150739558 -0.29348174920317632 0 0.37946114722675722 -0.27591377557629859 0 0.39567659353887108 -0.29306988619604551 0 0.38245755150739558 -0.29348174920317632 0 0.37946114722675722 -0.27591377557629859 0 0.38245755150739558 -0.29348174920317632 0 0.37795999762798671 -0.28395322059410122 0 0.37946114722675722 -0.27591377557629859 0 0.37519981906117678 -0.29055939022370142 0 0.38245755150739558 -0.29348174920317632 0 0.37101427446782781 -0.29852975601036341 0 0.37519981906117678 -0.29055939022370142 0 0.38245755150739558 -0.29348174920317632 0 0.37795999762798671 -0.28395322059410122 0 0.37795999762798671 -0.28395322059410122 0 0.37946114722675722 -0.27591377557629859 0 0.37739853904771847 -0.27637080706343392 0 0.37739853904771847 -0.27637080706343392 0 0.37683953433427181 -0.26882153263446662 0 0.37273728942595791 -0.27740364396778311 0 0.37795999762798671 -0.28395322059410122 0 0.37739853904771847 -0.27637080706343392 0 0.37273728942595791 -0.27740364396778311 0 0.37946114722675722 -0.27591377557629859 0 0.38774772661347989 -0.26664574742688191 0 0.3964002279028962 -0.26984905957103239 0 0.37946114722675722 -0.27591377557629859 0 0.3964002279028962 -0.26984905957103239 0 0.37795999762798671 -0.28395322059410122 0 0.37739853904771847 -0.27637080706343392 0 0.37739853904771847 -0.27637080706343392 0 0.37273728942595791 -0.27740364396778311 0 0.37946114722675722 -0.27591377557629859 0 0.37739853904771847 -0.27637080706343392 0 0.37683953433427181 -0.26882153263446662 0 0.37946114722675722 -0.27591377557629859 0 0.37739853904771847 -0.27637080706343392 0 0.37946114722675722 -0.27591377557629859 0 0.37843581040967561 -0.26746760801825881 0 0.38284686623937531 -0.26497045393317709 0 0.37946114722675722 -0.27591377557629859 0 0.37683953433427181 -0.26882153263446662 0 0.37843581040967561 -0.26746760801825881 0 0.37739853904771847 -0.27637080706343392 0 0.37683953433427181 -0.26882153263446662 0 0.37683953433427181 -0.26882153263446662 0 0.37843581040967561 -0.26746760801825881 0 0.37946114722675722 -0.27591377557629859 0 0.38774772661347989 -0.26664574742688191 0 0.38284686623937531 -0.26497045393317709 0 0.37477580018058132 -0.24095111383496479 0 0.37683953433427181 -0.26882153263446662 0 0.38107906364546162 -0.25934379353391329 0 0.37477580018058132 -0.24095111383496479 0 0.37683953433427181 -0.26882153263446662 0 0.37477580018058132 -0.24095111383496479 0 0.38107906364546162 -0.25934379353391329 0 0.38725375881062551 -0.25185160038302579 0 0.37843581040967561 -0.26746760801825881 0 0.38107906364546162 -0.25934379353391329 0 0.38284686623937531 -0.26497045393317709 0 0.37683953433427181 -0.26882153263446662 0 0.37843581040967561 -0.26746760801825881 0 0.38107906364546162 -0.25934379353391329 0 0.38107906364546162 -0.25934379353391329 0 0.38632261189823958 -0.26200045239958702 0 0.38284686623937531 -0.26497045393317709 0 0.38774772661347989 -0.26664574742688191 0 0.38632261189823958 -0.26200045239958702 0 0.38284686623937531 -0.26497045393317709 0 0.38774772661347989 -0.26664574742688191 0 0.38955528694719099 -0.2630172622662057 0 0.39295554709344072 -0.26445586107842978 0 0.38774772661347989 -0.26664574742688191 0 0.38632261189823958 -0.26200045239958702 0 0.38955528694719099 -0.2630172622662057 0 0.38632261189823958 -0.26200045239958702 0 0.38955528694719099 -0.2630172622662057 0 0.39119526218360401 -0.25896698815992442 0 0.38632261189823958 -0.26200045239958702 0 0.38725375881062551 -0.25185160038302579 0 0.39119526218360401 -0.25896698815992442 0 0.38107906364546162 -0.25934379353391329 0 0.38632261189823958 -0.26200045239958702 0 0.38725375881062551 -0.25185160038302579 0 0.40314688718896508 -0.2619981766022052 0 0.39707581272688741 -0.26613449373937459 0 0.41345304600685079 -0.26440480953867462 0 0.39707581272688741 -0.26613449373937459 0 0.41345304600685079 -0.26440480953867462 0 0.38725375881062551 -0.25185160038302579 0 0.39640803358832022 -0.25154779433757402 0 0.39119526218360401 -0.25896698815992442 0 0.39640803358832022 -0.25154779433757402 0 0.39702034872720737 -0.26014738253762237 0 0.39119526218360401 -0.25896698815992442 0 0.39702034872720737 -0.26014738253762237 0 0.39119526218360401 -0.25896698815992442 0 0.39295554709344072 -0.26445586107842978 0 0.38955528694719099 -0.2630172622662057 0 0.39119526218360401 -0.25896698815992442 0 0.39295554709344072 -0.26445586107842978 0 0.39702034872720737 -0.26014738253762237 0 0.39295554709344072 -0.26445586107842978 0 0.39707581272688741 -0.26613449373937459 0 0.39702034872720737 -0.26014738253762237 0 0.40314688718896508 -0.2619981766022052 0 0.39707581272688741 -0.26613449373937459 0 0.40314688718896508 -0.2619981766022052 0 0.40257909468765629 -0.25704117102420471 0 0.40998094690083942 -0.2590606397541646 0 0.39702034872720737 -0.26014738253762237 0 0.40314688718896508 -0.2619981766022052 0 0.40257909468765629 -0.25704117102420471 0 0.39640803358832022 -0.25154779433757402 0 0.39702034872720737 -0.26014738253762237 0 0.40257909468765629 -0.25704117102420471 0 0.41087794879613182 -0.2494957955088617 0 0.39640803358832022 -0.25154779433757402 0 0.40257909468765629 -0.25704117102420471 0 0.40514250542832608 -0.27022331558021301 0 0.3964002279028962 -0.26984905957103239 0 0.41345304600685079 -0.26440480953867462 0 0.37946114722675722 -0.27591377557629859 0 0.40514250542832608 -0.27022331558021301 0 0.3964002279028962 -0.26984905957103239 0 0.39707581272688741 -0.26613449373937459 0 0.3964002279028962 -0.26984905957103239 0 0.41345304600685079 -0.26440480953867462 0 0.37946114722675722 -0.27591377557629859 0 0.40514250542832608 -0.27022331558021301 0 0.3964002279028962 -0.26984905957103239 0 0.41345304600685079 -0.26440480953867462 0 0.39567659353887108 -0.29306988619604551 0 0.37946114722675722 -0.27591377557629859 0 0.40514250542832608 -0.27022331558021301 0 0.38774772661347989 -0.26664574742688191 0 0.39295554709344072 -0.26445586107842978 0 0.3964002279028962 -0.26984905957103239 0 0.39295554709344072 -0.26445586107842978 0 0.39707581272688741 -0.26613449373937459 0 0.3964002279028962 -0.26984905957103239 0 0.40514250542832608 -0.27022331558021301 0 0.41345304600685079 -0.26440480953867462 0 0.430823863629894 -0.26453285558412298 0 0.40514250542832608 -0.27022331558021301 0 0.430823863629894 -0.26453285558412298 0 0.40514250542832608 -0.27022331558021301 0 0.42166373126508722 -0.27984448092147479 0 0.41160024963212011 -0.28933460066763711 0 0.40514250542832608 -0.27022331558021301 0 0.42166373126508722 -0.27984448092147479 0 0.430823863629894 -0.26453285558412298 0 0.41087794879613182 -0.2494957955088617 0 0.41984775782459283 -0.2623632460968765 0 0.42854038242645709 -0.26281135800815408 0 0.41087794879613182 -0.2494957955088617 0 0.42854038242645709 -0.26281135800815408 0 0.41087794879613182 -0.2494957955088617 0 0.40257909468765629 -0.25704117102420471 0 0.40998094690083942 -0.2590606397541646 0 0.41087794879613182 -0.2494957955088617 0 0.40998094690083942 -0.2590606397541646 0 0.41984775782459283 -0.2623632460968765 0 0.40314688718896508 -0.2619981766022052 0 0.40998094690083942 -0.2590606397541646 0 0.41345304600685079 -0.26440480953867462 0 0.41345304600685079 -0.26440480953867462 0 0.41984775782459283 -0.2623632460968765 0 0.42854038242645709 -0.26281135800815408 0 0.40998094690083942 -0.2590606397541646 0 0.41345304600685079 -0.26440480953867462 0 0.41984775782459283 -0.2623632460968765 0 0.41345304600685079 -0.26440480953867462 0 0.42854038242645709 -0.26281135800815408 0 0.41345304600685079 -0.26440480953867462 0 0.41984775782459283 -0.2623632460968765 0 0.42656562700980838 -0.24831468624349931 0 0.41087794879613182 -0.2494957955088617 0 0.42854038242645709 -0.26281135800815408 0 0.4477486317760534 -0.26078267557717671 0 0.42854038242645709 -0.26281135800815408 0 0.430823863629894 -0.26453285558412298 0 0.41345304600685079 -0.26440480953867462 0 0.42854038242645709 -0.26281135800815408 0 0.430823863629894 -0.26453285558412298 0 0.42854038242645709 -0.26281135800815408 0 0.430823863629894 -0.26453285558412298 0 0.42656562700980838 -0.24831468624349931 0 0.42854038242645709 -0.26281135800815408 0 0.4372088962240912 -0.25169219704383999 0 0.42166373126508722 -0.27984448092147479 0 0.430823863629894 -0.26453285558412298 0 0.43570592202634773 -0.28205449164250063 0 0.42166373126508722 -0.27984448092147479 0 0.43570592202634773 -0.28205449164250063 0 0.42504611560874761 -0.29307714113289868 0 0.43874415768382158 -0.29310671547163403 0 0.43570592202634773 -0.28205449164250063 0 0.42504611560874761 -0.29307714113289868 0 0.43874415768382158 -0.29310671547163403 0 0.42504611560874761 -0.29307714113289868 0 0.43092107089682352 -0.30573631325696571 0 0.41919911313656122 -0.31385112706466711 0 0.43092107089682352 -0.30573631325696571 0 0.41692698488998292 -0.30249561446253759 0 0.42504611560874761 -0.29307714113289868 0 0.43092107089682352 -0.30573631325696571 0 0.41692698488998292 -0.30249561446253759 0 0.41919911313656122 -0.31385112706466711 0 0.41692698488998292 -0.30249561446253759 0 0.40916221757477672 -0.31142054967536659 0 0.40563314249086863 -0.30155395497769039 0 0.41692698488998292 -0.30249561446253759 0 0.40916221757477672 -0.31142054967536659 0 0.40563314249086863 -0.30155395497769039 0 0.41692698488998292 -0.30249561446253759 0 0.41160024963212011 -0.28933460066763711 0 0.42166373126508722 -0.27984448092147479 0 0.42504611560874761 -0.29307714113289868 0 0.41160024963212011 -0.28933460066763711 0 0.42504611560874761 -0.29307714113289868 0 0.41692698488998292 -0.30249561446253759 0 0.41160024963212011 -0.28933460066763711 0 0.5 -0.5 0 0.47532784176218862 -0.47257481327436679 0 0.43264288253940292 -0.48275234633568048 0 0.5 -0.5 0 0.41749257905485199 -0.50000000000000033 0 0.43264288253940292 -0.48275234633568048 0 0.47532784176218862 -0.47257481327436679 0 0.44779318602395363 -0.46550469267136052 0 0.43264288253940292 -0.48275234633568048 0 0.44779318602395363 -0.46550469267136052 0 0.43264288253940292 -0.48275234633568048 0 0.5 -0.5 0 0.47532784176218862 -0.47257481327436679 0 0.49999999999999828 -0.44642064777577001 0 0.47532784176218862 -0.47257481327436679 0 0.47918453573141367 -0.4495963838019249 0 0.46294348950850428 -0.44825703900704061 0 0.47532784176218862 -0.47257481327436679 0 0.49999999999999828 -0.44642064777577001 0 0.47918453573141367 -0.4495963838019249 0 0.49999999999999828 -0.44642064777577001 0 0.47846681165496419 -0.4311330351505217 0 0.49999999999999828 -0.44642064777577001 0 0.47918453573141367 -0.4495963838019249 0 0.47846681165496419 -0.4311330351505217 0 0.47918453573141367 -0.4495963838019249 0 0.46294348950850428 -0.44825703900704061 0 0.47846681165496419 -0.4311330351505217 0 0.46294348950850428 -0.44825703900704061 0 0.44442683605218691 -0.44583817528272968 0 0.45721208074107311 -0.43281318479414382 0 0.46294348950850428 -0.44825703900704061 0 0.44779318602395363 -0.46550469267136052 0 0.47532784176218862 -0.47257481327436679 0 0.46294348950850428 -0.44825703900704061 0 0.44779318602395363 -0.46550469267136052 0 0.44779318602395363 -0.46550469267136052 0 0.44442683605218691 -0.44583817528272968 0 0.43057418754349119 -0.46211781715143319 0 0.46294348950850428 -0.44825703900704061 0 0.44779318602395363 -0.46550469267136052 0 0.44442683605218691 -0.44583817528272968 0 0.44442683605218691 -0.44583817528272968 0 0.44324354583686831 -0.42153379012121539 0 0.45721208074107311 -0.43281318479414382 0 0.44442683605218691 -0.44583817528272968 0 0.44324354583686831 -0.42153379012121539 0 0.42653452723640378 -0.44279137365393179 0 0.44324354583686831 -0.42153379012121539 0 0.45693362330993059 -0.41584542252527262 0 0.45721208074107311 -0.43281318479414382 0 0.45693362330993059 -0.41584542252527262 0 0.4354004349648965 -0.40055780990002432 0 0.44324354583686831 -0.42153379012121539 0 0.45693362330993059 -0.41584542252527262 0 0.4354004349648965 -0.40055780990002432 0 0.45693362330993059 -0.41584542252527262 0 0.46461049463358839 -0.41117161714406408 0 0.47846681165496419 -0.4311330351505217 0 0.45693362330993059 -0.41584542252527262 0 0.46461049463358839 -0.41117161714406408 0 0.45329728287846061 -0.39963099679296588 0 0.46294348950850428 -0.44825703900704061 0 0.45721208074107311 -0.43281318479414382 0 0.47846681165496419 -0.4311330351505217 0 0.45693362330993059 -0.41584542252527262 0 0.45721208074107311 -0.43281318479414382 0 0.47846681165496419 -0.4311330351505217 0 0.45693362330993059 -0.41584542252527262 0 0.47846681165496419 -0.4311330351505217 0 0.49999999999999828 -0.44642064777577001 0 0.47846681165496419 -0.4311330351505217 0 0.5 -0.42181653977348488 0 0.5 -0.42181653977348488 0 0.48394518954555588 -0.41195106762427058 0 0.49999999999999789 -0.3972124317711998 0 0.47846681165496419 -0.4311330351505217 0 0.5 -0.42181653977348488 0 0.48394518954555588 -0.41195106762427058 0 0.46461049463358839 -0.41117161714406408 0 0.47846681165496419 -0.4311330351505217 0 0.48394518954555588 -0.41195106762427058 0 0.46461049463358839 -0.41117161714406408 0 0.48394518954555588 -0.41195106762427058 0 0.47664864143922919 -0.39842171428208217 0 0.47664864143922919 -0.39842171428208217 0 0.47975395238035062 -0.3854291032725421 0 0.46812846895096999 -0.38912968091376021 0 0.47664864143922919 -0.39842171428208217 0 0.49999999999999789 -0.3972124317711998 0 0.48779058149940679 -0.38751051868815611 0 0.48394518954555588 -0.41195106762427058 0 0.47664864143922919 -0.39842171428208217 0 0.49999999999999789 -0.3972124317711998 0 0.47664864143922919 -0.39842171428208217 0 0.49999999999999789 -0.3972124317711998 0 0.5 -0.37037944899495368 0 0.49999999999999789 -0.3972124317711998 0 0.48779058149940679 -0.38751051868815611 0 0.5 -0.37037944899495368 0 0.48466784746851571 -0.3739080713738358 0 0.48779058149940679 -0.38751051868815611 0 0.48466784746851571 -0.3739080713738358 0 0.47975395238035062 -0.3854291032725421 0 0.47323517146124039 -0.38191256761527542 0 0.48466784746851571 -0.3739080713738358 0 0.48779058149940679 -0.38751051868815611 0 0.47975395238035062 -0.3854291032725421 0 0.47664864143922919 -0.39842171428208217 0 0.48779058149940679 -0.38751051868815611 0 0.47975395238035062 -0.3854291032725421 0 0.47975395238035062 -0.3854291032725421 0 0.47323517146124039 -0.38191256761527542 0 0.46812846895096999 -0.38912968091376021 0 0.46918642870160698 -0.38365020197922722 0 0.47323517146124039 -0.38191256761527542 0 0.46812846895096999 -0.38912968091376021 0 0.4671179630262795 -0.37324494563770522 0 0.46918642870160698 -0.38365020197922722 0 0.47323517146124039 -0.38191256761527542 0 0.45652460043480969 -0.37267172771365881 0 0.4671179630262795 -0.37324494563770522 0 0.46918642870160698 -0.38365020197922722 0 0.45652460043480969 -0.37267172771365881 0 0.46918642870160698 -0.38365020197922722 0 0.45652460043480969 -0.37267172771365881 0 0.45606522570456098 -0.38599652494351028 0 0.44783900322824399 -0.38008781189722518 0 0.45652460043480969 -0.37267172771365881 0 0.46918642870160698 -0.38365020197922722 0 0.45606522570456098 -0.38599652494351028 0 0.46918642870160698 -0.38365020197922722 0 0.45606522570456098 -0.38599652494351028 0 0.46812846895096999 -0.38912968091376021 0 0.46461049463358839 -0.41117161714406408 0 0.47664864143922919 -0.39842171428208217 0 0.45329728287846061 -0.39963099679296588 0 0.47664864143922919 -0.39842171428208217 0 0.45329728287846061 -0.39963099679296588 0 0.47664864143922919 -0.39842171428208217 0 0.46812846895096999 -0.38912968091376021 0 0.45329728287846061 -0.39963099679296588 0 0.46461049463358839 -0.41117161714406408 0 0.45329728287846061 -0.39963099679296588 0 0.45606522570456098 -0.38599652494351028 0 0.46812846895096999 -0.38912968091376021 0 0.45329728287846061 -0.39963099679296588 0 0.45693362330993059 -0.41584542252527262 0 0.45329728287846061 -0.39963099679296588 0 0.4354004349648965 -0.40055780990002432 0 0.45329728287846061 -0.39963099679296588 0 0.4354004349648965 -0.40055780990002432 0 0.45329728287846061 -0.39963099679296588 0 0.4390969294492823 -0.3851451998924304 0 0.4354004349648965 -0.40055780990002432 0 0.45329728287846061 -0.39963099679296588 0 0.4390969294492823 -0.3851451998924304 0 0.45606522570456098 -0.38599652494351028 0 0.4390969294492823 -0.3851451998924304 0 0.44783900322824399 -0.38008781189722518 0 0.45606522570456098 -0.38599652494351028 0 0.45329728287846061 -0.39963099679296588 0 0.4390969294492823 -0.3851451998924304 0 0.4390969294492823 -0.3851451998924304 0 0.43808065797110041 -0.37748478958974491 0 0.44783900322824399 -0.38008781189722518 0 0.42782015831496062 -0.38505662608606978 0 0.4354004349648965 -0.40055780990002432 0 0.41188669282555868 -0.38386409155992901 0 0.42489657602010461 -0.37065940299189432 0 0.4390969294492823 -0.3851451998924304 0 0.42782015831496062 -0.38505662608606978 0 0.42489657602010461 -0.37065940299189432 0 0.4390969294492823 -0.3851451998924304 0 0.43808065797110041 -0.37748478958974491 0 0.42489657602010461 -0.37065940299189432 0 0.4390969294492823 -0.3851451998924304 0 0.4390969294492823 -0.3851451998924304 0 0.42782015831496062 -0.38505662608606978 0 0.4354004349648965 -0.40055780990002432 0 0.4354004349648965 -0.40055780990002432 0 0.41188669282555868 -0.38386409155992901 0 0.4354004349648965 -0.40055780990002432 0 0.40669862042327182 -0.40204417319942209 0 0.4354004349648965 -0.40055780990002432 0 0.40669862042327182 -0.40204417319942209 0 0.41188669282555868 -0.38386409155992901 0 0.42489657602010461 -0.37065940299189432 0 0.42782015831496062 -0.38505662608606978 0 0.41188669282555868 -0.38386409155992901 0 0.42489657602010461 -0.37065940299189432 0 0.4070765621089808 -0.37107032214525337 0 0.41188669282555868 -0.38386409155992901 0 0.4070765621089808 -0.37107032214525337 0 0.39585190457779329 -0.37201308858561799 0 0.39886607975096749 -0.38470810625682389 0 0.40669862042327182 -0.40204417319942209 0 0.41188669282555868 -0.38386409155992901 0 0.39886607975096749 -0.38470810625682389 0 0.4070765621089808 -0.37107032214525337 0 0.41188669282555868 -0.38386409155992901 0 0.39886607975096749 -0.38470810625682389 0 0.39585190457779329 -0.37201308858561799 0 0.39886607975096749 -0.38470810625682389 0 0.38601585554704992 -0.38244526212700758 0 0.39886607975096749 -0.38470810625682389 0 0.38601585554704992 -0.38244526212700758 0 0.37799680588164719 -0.40353053649882148 0 0.38601585554704992 -0.38244526212700758 0 0.37799680588164719 -0.40353053649882148 0 0.38601585554704992 -0.38244526212700758 0 0.37799680588164719 -0.40353053649882148 0 0.36816388811638329 -0.39545065246060412 0 0.37799680588164719 -0.40353053649882148 0 0.37635446215448021 -0.40784891206015261 0 0.37799680588164719 -0.40353053649882148 0 0.37505152225636262 -0.40368306209891941 0 0.37635446215448021 -0.40784891206015261 0 0.37799680588164719 -0.40353053649882148 0 0.37505152225636262 -0.40368306209891941 0 0.40669862042327182 -0.40204417319942209 0 0.39886607975096749 -0.38470810625682389 0 0.37799680588164719 -0.40353053649882148 0 0.40669862042327182 -0.40204417319942209 0 0.37799680588164719 -0.40353053649882148 0 0.40669862042327182 -0.40204417319942209 0 0.38553791301154328 -0.41840677215457472 0 0.40567792500840172 -0.4277251834563135 0 0.40669862042327182 -0.40204417319942209 0 0.37799680588164719 -0.40353053649882148 0 0.38553791301154328 -0.41840677215457472 0 0.38553791301154328 -0.41840677215457472 0 0.36905142820508552 -0.42917232846767789 0 0.37241381966677689 -0.417360225696081 0 0.38553791301154328 -0.41840677215457472 0 0.37635446215448021 -0.40784891206015261 0 0.37241381966677689 -0.417360225696081 0 0.37799680588164719 -0.40353053649882148 0 0.38553791301154328 -0.41840677215457472 0 0.37635446215448021 -0.40784891206015261 0 0.38553791301154328 -0.41840677215457472 0 0.38807715457860831 -0.4388905332329941 0 0.36905142820508552 -0.42917232846767789 0 0.38553791301154328 -0.41840677215457472 0 0.40567792500840172 -0.4277251834563135 0 0.38807715457860831 -0.4388905332329941 0 0.40567792500840172 -0.4277251834563135 0 0.42351101069396863 -0.41893046606618117 0 0.42653452723640378 -0.44279137365393179 0 0.4354004349648965 -0.40055780990002432 0 0.40669862042327182 -0.40204417319942209 0 0.42351101069396863 -0.41893046606618117 0 0.40669862042327182 -0.40204417319942209 0 0.40567792500840172 -0.4277251834563135 0 0.42351101069396863 -0.41893046606618117 0 0.44324354583686831 -0.42153379012121539 0 0.4354004349648965 -0.40055780990002432 0 0.42351101069396863 -0.41893046606618117 0 0.44324354583686831 -0.42153379012121539 0 0.42653452723640378 -0.44279137365393179 0 0.44324354583686831 -0.42153379012121539 0 0.42351101069396863 -0.41893046606618117 0 0.42653452723640378 -0.44279137365393179 0 0.44442683605218691 -0.44583817528272968 0 0.42653452723640378 -0.44279137365393179 0 0.43057418754349119 -0.46211781715143319 0 0.42653452723640378 -0.44279137365393179 0 0.43057418754349119 -0.46211781715143319 0 0.40982550863593931 -0.46404895718664829 0 0.42653452723640378 -0.44279137365393179 0 0.40982550863593931 -0.46404895718664829 0 0.42653452723640378 -0.44279137365393179 0 0.40982550863593931 -0.46404895718664829 0 0.4036378289262339 -0.44671034290208689 0 0.40567792500840172 -0.4277251834563135 0 0.42653452723640378 -0.44279137365393179 0 0.4036378289262339 -0.44671034290208689 0 0.40567792500840172 -0.4277251834563135 0 0.4036378289262339 -0.44671034290208689 0 0.38807715457860831 -0.4388905332329941 0 0.4036378289262339 -0.44671034290208689 0 0.38807715457860831 -0.4388905332329941 0 0.38807402917181633 -0.46009566698054732 0 0.38807715457860831 -0.4388905332329941 0 0.3733961412993268 -0.45022493016754961 0 0.36905142820508552 -0.42917232846767789 0 0.38807715457860831 -0.4388905332329941 0 0.38807402917181633 -0.46009566698054732 0 0.3733961412993268 -0.45022493016754961 0 0.38807402917181633 -0.46009566698054732 0 0.36593927904035028 -0.47432204071884282 0 0.3733961412993268 -0.45022493016754961 0 0.40982550863593931 -0.46404895718664829 0 0.4036378289262339 -0.44671034290208689 0 0.38807402917181633 -0.46009566698054732 0 0.40982550863593931 -0.46404895718664829 0 0.39311649003547477 -0.48530654071936469 0 0.40982550863593931 -0.46404895718664829 0 0.38807402917181633 -0.46009566698054732 0 0.39311649003547477 -0.48530654071936469 0 0.38807402917181633 -0.46009566698054732 0 0.39311649003547477 -0.48530654071936469 0 0.36593927904035028 -0.47432204071884282 0 0.37603974257992701 -0.49999999999999978 0 0.39311649003547477 -0.48530654071936469 0 0.36593927904035028 -0.47432204071884282 0 0.37603974257992701 -0.49999999999999978 0 0.39676616081738958 -0.5 0 0.39311649003547477 -0.48530654071936469 0 0.39676616081738958 -0.5 0 0.39311649003547477 -0.48530654071936469 0 0.41749257905485199 -0.50000000000000033 0 0.40982550863593931 -0.46404895718664829 0 0.41749257905485199 -0.50000000000000033 0 0.43264288253940292 -0.48275234633568048 0 0.40982550863593931 -0.46404895718664829 0 0.39311649003547477 -0.48530654071936469 0 0.41749257905485199 -0.50000000000000033 0 0.43057418754349119 -0.46211781715143319 0 0.40982550863593931 -0.46404895718664829 0 0.43264288253940292 -0.48275234633568048 0 0.44779318602395363 -0.46550469267136052 0 0.43057418754349119 -0.46211781715143319 0 0.43264288253940292 -0.48275234633568048 0 0.41749257905485199 -0.50000000000000033 0 0.43264288253940292 -0.48275234633568048 0 0.32215468257820618 -0.5 0 0.33760568703239408 -0.47417818032706111 0 0.31005432530219129 -0.48106067464861729 0 0.33760568703239408 -0.47417818032706111 0 0.3189449745883719 -0.46117016543644002 0 0.31005432530219129 -0.48106067464861729 0 0.32215468257820618 -0.5 0 0.33760568703239408 -0.47417818032706111 0 0.34909721257906662 -0.5 0 0.37603974257992701 -0.49999999999999978 0 0.34909721257906662 -0.5 0 0.36593927904035028 -0.47432204071884282 0 0.37603974257992701 -0.49999999999999978 0 0.36593927904035028 -0.47432204071884282 0 0.33760568703239408 -0.47417818032706111 0 0.34909721257906662 -0.5 0 0.36593927904035028 -0.47432204071884282 0 0.33760568703239408 -0.47417818032706111 0 0.36593927904035028 -0.47432204071884282 0 0.35583881550077368 -0.44864408143768569 0 0.36593927904035028 -0.47432204071884282 0 0.35583881550077368 -0.44864408143768569 0 0.36593927904035028 -0.47432204071884282 0 0.3733961412993268 -0.45022493016754961 0 0.35583881550077368 -0.44864408143768569 0 0.3733961412993268 -0.45022493016754961 0 0.35583881550077368 -0.44864408143768569 0 0.36905142820508552 -0.42917232846767789 0 0.35583881550077368 -0.44864408143768569 0 0.33540415989768779 -0.44905252560006492 0 0.34573835196119679 -0.42296612215652868 0 0.33760568703239408 -0.47417818032706111 0 0.35583881550077368 -0.44864408143768569 0 0.33540415989768779 -0.44905252560006492 0 0.33760568703239408 -0.47417818032706111 0 0.33540415989768779 -0.44905252560006492 0 0.3189449745883719 -0.46117016543644002 0 0.33540415989768779 -0.44905252560006492 0 0.3189449745883719 -0.46117016543644002 0 0.32126124445813709 -0.43429719032362252 0 0.3189449745883719 -0.46117016543644002 0 0.32126124445813709 -0.43429719032362252 0 0.30480654487456732 -0.44641521679941309 0 0.32126124445813709 -0.43429719032362252 0 0.3193156137706864 -0.40941365839269389 0 0.29937418247959258 -0.41817563384508599 0 0.3193156137706864 -0.40941365839269389 0 0.34573835196119679 -0.42296612215652868 0 0.33563788842162012 -0.39728816287537172 0 0.34573835196119679 -0.42296612215652868 0 0.33563788842162012 -0.39728816287537172 0 0.33540415989768779 -0.44905252560006492 0 0.32126124445813709 -0.43429719032362252 0 0.34573835196119679 -0.42296612215652868 0 0.32126124445813709 -0.43429719032362252 0 0.3193156137706864 -0.40941365839269389 0 0.34573835196119679 -0.42296612215652868 0 0.35583881550077368 -0.44864408143768569 0 0.34573835196119679 -0.42296612215652868 0 0.36905142820508552 -0.42917232846767789 0 0.35583881550077368 -0.44864408143768569 0 0.34573835196119679 -0.42296612215652868 0 0.36905142820508552 -0.42917232846767789 0 0.37241381966677689 -0.417360225696081 0 0.36195200988480669 -0.41065981681110758 0 0.36990343230398692 -0.40830781576793279 0 0.37241381966677689 -0.417360225696081 0 0.36195200988480669 -0.41065981681110758 0 0.37635446215448021 -0.40784891206015261 0 0.36990343230398692 -0.40830781576793279 0 0.37241381966677689 -0.417360225696081 0 0.37505152225636262 -0.40368306209891941 0 0.37635446215448021 -0.40784891206015261 0 0.36990343230398692 -0.40830781576793279 0 0.36990343230398692 -0.40830781576793279 0 0.36195200988480669 -0.41065981681110758 0 0.36876771314038492 -0.40452533678464098 0 0.34573835196119679 -0.42296612215652868 0 0.36195200988480669 -0.41065981681110758 0 0.35211107663302149 -0.40015425695529971 0 0.34573835196119679 -0.42296612215652868 0 0.36905142820508552 -0.42917232846767789 0 0.36195200988480669 -0.41065981681110758 0 0.34573835196119679 -0.42296612215652868 0 0.35211107663302149 -0.40015425695529971 0 0.33563788842162012 -0.39728816287537172 0 0.35211107663302149 -0.40015425695529971 0 0.35352794608594401 -0.38791341326287138 0 0.33563788842162012 -0.39728816287537172 0 0.35211107663302149 -0.40015425695529971 0 0.36816388811638329 -0.39545065246060412 0 0.35352794608594401 -0.38791341326287138 0 0.36195200988480669 -0.41065981681110758 0 0.36816388811638329 -0.39545065246060412 0 0.36876771314038492 -0.40452533678464098 0 0.36195200988480669 -0.41065981681110758 0 0.35211107663302149 -0.40015425695529971 0 0.36816388811638329 -0.39545065246060412 0 0.37505152225636262 -0.40368306209891941 0 0.36816388811638329 -0.39545065246060412 0 0.36876771314038492 -0.40452533678464098 0 0.37799680588164719 -0.40353053649882148 0 0.37505152225636262 -0.40368306209891941 0 0.36816388811638329 -0.39545065246060412 0 0.37505152225636262 -0.40368306209891941 0 0.36990343230398692 -0.40830781576793279 0 0.36876771314038492 -0.40452533678464098 0 0.38601585554704992 -0.38244526212700758 0 0.36816388811638329 -0.39545065246060412 0 0.3689120952668708 -0.37284951495870189 0 0.36816388811638329 -0.39545065246060412 0 0.35352794608594401 -0.38791341326287138 0 0.3689120952668708 -0.37284951495870189 0 0.35352794608594401 -0.38791341326287138 0 0.33563788842162012 -0.39728816287537172 0 0.34467783115022588 -0.37252705130409253 0 0.35352794608594401 -0.38791341326287138 0 0.3689120952668708 -0.37284951495870189 0 0.34467783115022588 -0.37252705130409253 0 0.33563788842162012 -0.39728816287537172 0 0.3255374248820434 -0.37161020359421471 0 0.33563788842162012 -0.39728816287537172 0 0.34467783115022588 -0.37252705130409253 0 0.3255374248820434 -0.37161020359421471 0 0.3193156137706864 -0.40941365839269389 0 0.33563788842162012 -0.39728816287537172 0 0.30534853388527528 -0.38930881101125692 0 0.33563788842162012 -0.39728816287537172 0 0.30534853388527528 -0.38930881101125692 0 0.3255374248820434 -0.37161020359421471 0 0.30534853388527528 -0.38930881101125692 0 0.3255374248820434 -0.37161020359421471 0 0.30525369772634148 -0.37164386163485291 0 0.30534853388527528 -0.38930881101125692 0 0.28783989868818821 -0.37644057584389279 0 0.30525369772634148 -0.37164386163485291 0 0.3193156137706864 -0.40941365839269389 0 0.30534853388527528 -0.38930881101125692 0 0.29937418247959258 -0.41817563384508599 0 0.30534853388527528 -0.38930881101125692 0 0.28922044672054198 -0.39637746652331562 0 0.29937418247959258 -0.41817563384508599 0 0.28922044672054198 -0.39637746652331562 0 0.27510086349567708 -0.39798721671617321 0 0.28320928432356041 -0.41012407252970262 0 0.28922044672054198 -0.39637746652331562 0 0.28783989868818821 -0.37644057584389279 0 0.27924907625512951 -0.38731579260330862 0 0.30534853388527528 -0.38930881101125692 0 0.28922044672054198 -0.39637746652331562 0 0.28783989868818821 -0.37644057584389279 0 0.30534853388527528 -0.38930881101125692 0 0.28783989868818821 -0.37644057584389279 0 0.28783989868818821 -0.37644057584389279 0 0.27447250226623809 -0.37821124143188289 0 0.27924907625512951 -0.38731579260330862 0 0.27447250226623809 -0.37821124143188289 0 0.27924907625512951 -0.38731579260330862 0 0.26961167010500181 -0.38756246250127813 0 0.27447250226623809 -0.37821124143188289 0 0.26961167010500181 -0.38756246250127813 0 0.26423397132697279 -0.37890457124200982 0 0.26961167010500181 -0.38756246250127813 0 0.26423397132697279 -0.37890457124200982 0 0.25687819372407023 -0.38903915957053298 0 0.26423397132697279 -0.37890457124200982 0 0.25687819372407023 -0.38903915957053298 0 0.24987622704845311 -0.37613765202982719 0 0.25108303853213881 -0.40002667887407228 0 0.26390234922262928 -0.39930308446362528 0 0.256136481120742 -0.41447562176841068 0 0.25687819372407023 -0.38903915957053298 0 0.25108303853213881 -0.40002667887407228 0 0.24309899287842279 -0.39271330151873202 0 0.25687819372407023 -0.38903915957053298 0 0.25108303853213881 -0.40002667887407228 0 0.26390234922262928 -0.39930308446362528 0 0.26961167010500181 -0.38756246250127813 0 0.25687819372407023 -0.38903915957053298 0 0.26390234922262928 -0.39930308446362528 0 0.26390234922262928 -0.39930308446362528 0 0.27510086349567708 -0.39798721671617321 0 0.2708804648698091 -0.41009655218672442 0 0.26961167010500181 -0.38756246250127813 0 0.26390234922262928 -0.39930308446362528 0 0.27510086349567708 -0.39798721671617321 0 0.28922044672054198 -0.39637746652331562 0 0.27924907625512951 -0.38731579260330862 0 0.27510086349567708 -0.39798721671617321 0 0.27924907625512951 -0.38731579260330862 0 0.26961167010500181 -0.38756246250127813 0 0.27510086349567708 -0.39798721671617321 0 0.27510086349567708 -0.39798721671617321 0 0.2708804648698091 -0.41009655218672442 0 0.28320928432356041 -0.41012407252970262 0 0.2708804648698091 -0.41009655218672442 0 0.256136481120742 -0.41447562176841068 0 0.27433621812851161 -0.42550461519375637 0 0.2708804648698091 -0.41009655218672442 0 0.27433621812851161 -0.42550461519375637 0 0.28320928432356041 -0.41012407252970262 0 0.26390234922262928 -0.39930308446362528 0 0.2708804648698091 -0.41009655218672442 0 0.256136481120742 -0.41447562176841068 0 0.25108303853213881 -0.40002667887407228 0 0.256136481120742 -0.41447562176841068 0 0.24629253832767661 -0.41022035877505542 0 0.256136481120742 -0.41447562176841068 0 0.25513396950241118 -0.43290986753561628 0 0.2453827316299185 -0.42192330194190181 0 0.256136481120742 -0.41447562176841068 0 0.25513396950241118 -0.43290986753561628 0 0.27433621812851161 -0.42550461519375637 0 0.25513396950241118 -0.43290986753561628 0 0.27433621812851161 -0.42550461519375637 0 0.26752346795397081 -0.44788636482661331 0 0.27433621812851161 -0.42550461519375637 0 0.29937418247959258 -0.41817563384508599 0 0.28546596250580908 -0.44246723239800262 0 0.29937418247959258 -0.41817563384508599 0 0.30480654487456732 -0.44641521679941309 0 0.28546596250580908 -0.44246723239800262 0 0.28922044672054198 -0.39637746652331562 0 0.28320928432356041 -0.41012407252970262 0 0.29937418247959258 -0.41817563384508599 0 0.27433621812851161 -0.42550461519375637 0 0.28320928432356041 -0.41012407252970262 0 0.29937418247959258 -0.41817563384508599 0 0.32126124445813709 -0.43429719032362252 0 0.29937418247959258 -0.41817563384508599 0 0.30480654487456732 -0.44641521679941309 0 0.3189449745883719 -0.46117016543644002 0 0.30480654487456732 -0.44641521679941309 0 0.28880919487484108 -0.4658549053918814 0 0.30480654487456732 -0.44641521679941309 0 0.28880919487484108 -0.4658549053918814 0 0.28546596250580908 -0.44246723239800262 0 0.27433621812851161 -0.42550461519375637 0 0.28546596250580908 -0.44246723239800262 0 0.26752346795397081 -0.44788636482661331 0 0.28880919487484108 -0.4658549053918814 0 0.28546596250580908 -0.44246723239800262 0 0.26752346795397081 -0.44788636482661331 0 0.25513396950241118 -0.43290986753561628 0 0.26752346795397081 -0.44788636482661331 0 0.24480843210435321 -0.45079661158300749 0 0.26752346795397081 -0.44788636482661331 0 0.2588368117714554 -0.46700690363883102 0 0.24480843210435321 -0.45079661158300749 0 0.28880919487484108 -0.4658549053918814 0 0.26752346795397081 -0.44788636482661331 0 0.2588368117714554 -0.46700690363883102 0 0.28880919487484108 -0.4658549053918814 0 0.2588368117714554 -0.46700690363883102 0 0.27227655507569209 -0.48076744006000099 0 0.2588368117714554 -0.46700690363883102 0 0.27227655507569209 -0.48076744006000099 0 0.25270961841775552 -0.48460016746525392 0 0.2588368117714554 -0.46700690363883102 0 0.25270961841775552 -0.48460016746525392 0 0.23949561189523169 -0.47426551941090739 0 0.25270961841775552 -0.48460016746525392 0 0.26826962257648529 -0.5 0 0.2413270925756249 -0.5 0 0.27227655507569209 -0.48076744006000099 0 0.25270961841775552 -0.48460016746525392 0 0.26826962257648529 -0.5 0 0.27227655507569209 -0.48076744006000099 0 0.26826962257648529 -0.5 0 0.29521215257734579 -0.5 0 0.28880919487484108 -0.4658549053918814 0 0.27227655507569209 -0.48076744006000099 0 0.29521215257734579 -0.5 0 0.28880919487484108 -0.4658549053918814 0 0.29521215257734579 -0.5 0 0.31005432530219129 -0.48106067464861729 0 0.3189449745883719 -0.46117016543644002 0 0.28880919487484108 -0.4658549053918814 0 0.31005432530219129 -0.48106067464861729 0 0.32215468257820618 -0.5 0 0.29521215257734579 -0.5 0 0.31005432530219129 -0.48106067464861729 0 0.33463237856908817 -0.28956894479377399 0 0.33485830675890288 -0.30442904333306592 0 0.35657459314761941 -0.2860097891906741 0 0.33463237856908817 -0.28956894479377399 0 0.32894302133540282 -0.28710755170783531 0 0.35195887039823659 -0.28200771363307098 0 0.32894302133540282 -0.28710755170783531 0 0.35195887039823659 -0.28200771363307098 0 0.32894302133540282 -0.28710755170783531 0 0.33255663915089151 -0.29722249741805129 0 0.33463237856908817 -0.28956894479377399 0 0.32894302133540282 -0.28710755170783531 0 0.33255663915089151 -0.29722249741805129 0 0.32894302133540282 -0.28710755170783531 0 0.33255663915089151 -0.29722249741805129 0 0.32301709761150521 -0.2972128627914089 0 0.33485830675890288 -0.30442904333306592 0 0.34824447571033601 -0.30253517369681238 0 0.34533870308018377 -0.31598934501886372 0 0.33485830675890288 -0.30442904333306592 0 0.33255663915089151 -0.29722249741805129 0 0.32434770264142349 -0.30499280498860082 0 0.33463237856908817 -0.28956894479377399 0 0.33485830675890288 -0.30442904333306592 0 0.33255663915089151 -0.29722249741805129 0 0.32301709761150521 -0.2972128627914089 0 0.32434770264142349 -0.30499280498860082 0 0.3171485971304504 -0.30589952111326829 0 0.32434770264142349 -0.30499280498860082 0 0.3171485971304504 -0.30589952111326829 0 0.31314202037018413 -0.32284829747545468 0 0.33485830675890288 -0.30442904333306592 0 0.32434770264142349 -0.30499280498860082 0 0.31314202037018413 -0.32284829747545468 0 0.33255663915089151 -0.29722249741805129 0 0.32301709761150521 -0.2972128627914089 0 0.32434770264142349 -0.30499280498860082 0 0.3171485971304504 -0.30589952111326829 0 0.31208952779935789 -0.2908419387292881 0 0.30833746379913463 -0.30503745501229762 0 0.32301709761150521 -0.2972128627914089 0 0.3171485971304504 -0.30589952111326829 0 0.31208952779935789 -0.2908419387292881 0 0.32894302133540282 -0.28710755170783531 0 0.31611371382327402 -0.28007222207304999 0 0.31208952779935789 -0.2908419387292881 0 0.32894302133540282 -0.28710755170783531 0 0.32301709761150521 -0.2972128627914089 0 0.31208952779935789 -0.2908419387292881 0 0.32894302133540282 -0.28710755170783531 0 0.31208952779935789 -0.2908419387292881 0 0.32894302133540282 -0.28710755170783531 0 0.32245882367699719 -0.26895751187574157 0 0.32894302133540282 -0.28710755170783531 0 0.31611371382327402 -0.28007222207304999 0 0.32245882367699719 -0.26895751187574157 0 0.31611371382327402 -0.28007222207304999 0 0.32245882367699719 -0.26895751187574157 0 0.30706455279928557 -0.27339796693147528 0 0.32245882367699719 -0.26895751187574157 0 0.30981211567343969 -0.26250129009931661 0 0.30706455279928557 -0.27339796693147528 0 0.32245882367699719 -0.26895751187574157 0 0.31597462601859122 -0.25080747204364812 0 0.32245882367699719 -0.26895751187574157 0 0.31597462601859122 -0.25080747204364812 0 0.30981211567343969 -0.26250129009931661 0 0.32245882367699719 -0.26895751187574157 0 0.31597462601859122 -0.25080747204364812 0 0.33396674820841349 -0.26640759283836002 0 0.31597462601859122 -0.25080747204364812 0 0.33396674820841349 -0.26640759283836002 0 0.33517615116993849 -0.24743488902137309 0 0.33396674820841349 -0.26640759283836002 0 0.35185333732921159 -0.25428502110151557 0 0.33517615116993849 -0.24743488902137309 0 0.31597462601859122 -0.25080747204364812 0 0.33396674820841349 -0.26640759283836002 0 0.32894302133540282 -0.28710755170783531 0 0.32245882367699719 -0.26895751187574157 0 0.33396674820841349 -0.26640759283836002 0 0.33396674820841349 -0.26640759283836002 0 0.35195887039823659 -0.28200771363307098 0 0.32894302133540282 -0.28710755170783531 0 0.33396674820841349 -0.26640759283836002 0 0.35195887039823659 -0.28200771363307098 0 0.33396674820841349 -0.26640759283836002 0 0.35159414215374007 -0.26901089914998932 0 0.35195887039823659 -0.28200771363307098 0 0.35159414215374007 -0.26901089914998932 0 0.36459381448795669 -0.2792080702757721 0 0.35195887039823659 -0.28200771363307098 0 0.36459381448795669 -0.2792080702757721 0 0.35195887039823659 -0.28200771363307098 0 0.33396674820841349 -0.26640759283836002 0 0.35159414215374007 -0.26901089914998932 0 0.35185333732921159 -0.25428502110151557 0 0.35159414215374007 -0.26901089914998932 0 0.35185333732921159 -0.25428502110151557 0 0.36435388824524378 -0.26651308148643732 0 0.37477580018058132 -0.24095111383496479 0 0.37683953433427181 -0.26882153263446662 0 0.36563983252638571 -0.25462703483095822 0 0.36075586336603621 -0.2426037127049111 0 0.35185333732921159 -0.25428502110151557 0 0.36563983252638571 -0.25462703483095822 0 0.35185333732921159 -0.25428502110151557 0 0.36563983252638571 -0.25462703483095822 0 0.36435388824524378 -0.26651308148643732 0 0.37683953433427181 -0.26882153263446662 0 0.36563983252638571 -0.25462703483095822 0 0.36435388824524378 -0.26651308148643732 0 0.36459381448795669 -0.2792080702757721 0 0.36308990924476459 -0.28048364807874221 0 0.35195887039823659 -0.28200771363307098 0 0.36459381448795669 -0.2792080702757721 0 0.36308990924476459 -0.28048364807874221 0 0.37273728942595791 -0.27740364396778311 0 0.36459381448795669 -0.2792080702757721 0 0.36308990924476459 -0.28048364807874221 0 0.35159414215374007 -0.26901089914998932 0 0.36459381448795669 -0.2792080702757721 0 0.36435388824524378 -0.26651308148643732 0 0.37683953433427181 -0.26882153263446662 0 0.36459381448795669 -0.2792080702757721 0 0.36435388824524378 -0.26651308148643732 0 0.36459381448795669 -0.2792080702757721 0 0.37273728942595791 -0.27740364396778311 0 0.37683953433427181 -0.26882153263446662 0 0.36459381448795669 -0.2792080702757721 0 0.37273728942595791 -0.27740364396778311 0 0.37683953433427181 -0.26882153263446662 0 0.36459381448795669 -0.2792080702757721 0 0.36308990924476459 -0.28048364807874221 0 0.37273728942595791 -0.27740364396778311 0 0.37795999762798671 -0.28395322059410122 0 0.37273728942595791 -0.27740364396778311 0 0.36936745264149701 -0.28627283508716472 0 0.35657459314761941 -0.2860097891906741 0 0.35620629985463748 -0.30371251724464648 0 0.37101427446782781 -0.29852975601036341 0 0.36308990924476459 -0.28048364807874221 0 0.37273728942595791 -0.27740364396778311 0 0.36936745264149701 -0.28627283508716472 0 0.37519981906117678 -0.29055939022370142 0 0.37795999762798671 -0.28395322059410122 0 0.36936745264149701 -0.28627283508716472 0 0.37519981906117678 -0.29055939022370142 0 0.36936745264149701 -0.28627283508716472 0 0.37101427446782781 -0.29852975601036341 0 0.36936745264149701 -0.28627283508716472 0 0.35657459314761941 -0.2860097891906741 0 0.37101427446782781 -0.29852975601036341 0 0.35657459314761941 -0.2860097891906741 0 0.37101427446782781 -0.29852975601036341 0 0.36308990924476459 -0.28048364807874221 0 0.36936745264149701 -0.28627283508716472 0 0.35657459314761941 -0.2860097891906741 0 0.36308990924476459 -0.28048364807874221 0 0.35657459314761941 -0.2860097891906741 0 0.36308990924476459 -0.28048364807874221 0 0.35366972758071469 -0.28349111722646431 0 0.33463237856908817 -0.28956894479377399 0 0.35366972758071469 -0.28349111722646431 0 0.33463237856908817 -0.28956894479377399 0 0.35366972758071469 -0.28349111722646431 0 0.35195887039823659 -0.28200771363307098 0 0.36308990924476459 -0.28048364807874221 0 0.35366972758071469 -0.28349111722646431 0 0.35195887039823659 -0.28200771363307098 0 0.33485830675890288 -0.30442904333306592 0 0.35657459314761941 -0.2860097891906741 0 0.36308990924476459 -0.28048364807874221 0 0.35366972758071469 -0.28349111722646431 0 0.35657459314761941 -0.2860097891906741 0 0.33463237856908817 -0.28956894479377399 0 0.35366972758071469 -0.28349111722646431 0 0.35657459314761941 -0.2860097891906741 0 0.35366972758071469 -0.28349111722646431 0 0.35657459314761941 -0.2860097891906741 0 0.35366972758071469 -0.28349111722646431 0 0.35195887039823659 -0.28200771363307098 0 0.35620629985463748 -0.30371251724464648 0 0.36380134767337091 -0.31365371592763602 0 0.34533870308018377 -0.31598934501886372 0 0.35657459314761941 -0.2860097891906741 0 0.34824447571033601 -0.30253517369681238 0 0.35620629985463748 -0.30371251724464648 0 0.33485830675890288 -0.30442904333306592 0 0.35657459314761941 -0.2860097891906741 0 0.34824447571033601 -0.30253517369681238 0 0.34824447571033601 -0.30253517369681238 0 0.35620629985463748 -0.30371251724464648 0 0.34533870308018377 -0.31598934501886372 0 0.38545395578803499 -0.31104972283005378 0 0.37101427446782781 -0.29852975601036341 0 0.36380134767337091 -0.31365371592763602 0 0.35620629985463748 -0.30371251724464648 0 0.37101427446782781 -0.29852975601036341 0 0.36380134767337091 -0.31365371592763602 0 0.38545395578803499 -0.31104972283005378 0 0.36380134767337091 -0.31365371592763602 0 0.36945761595668469 -0.32738841673247931 0 0.36380134767337091 -0.31365371592763602 0 0.36945761595668469 -0.32738841673247931 0 0.35533723689285712 -0.32525253772940937 0 0.36945761595668469 -0.32738841673247931 0 0.35618710249729552 -0.34088690244721892 0 0.35533723689285712 -0.32525253772940937 0 0.36945761595668469 -0.32738841673247931 0 0.35618710249729552 -0.34088690244721892 0 0.37368731816096312 -0.34897020548070451 0 0.35618710249729552 -0.34088690244721892 0 0.33810128782584858 -0.35072533414536311 0 0.34064131712366241 -0.33181983138849169 0 0.35618710249729552 -0.34088690244721892 0 0.35533723689285712 -0.32525253772940937 0 0.34064131712366241 -0.33181983138849169 0 0.34533870308018377 -0.31598934501886372 0 0.35533723689285712 -0.32525253772940937 0 0.34064131712366241 -0.33181983138849169 0 0.36380134767337091 -0.31365371592763602 0 0.34533870308018377 -0.31598934501886372 0 0.35533723689285712 -0.32525253772940937 0 0.3689120952668708 -0.37284951495870189 0 0.37368731816096312 -0.34897020548070451 0 0.35738528973841999 -0.35772904562383351 0 0.35618710249729552 -0.34088690244721892 0 0.37368731816096312 -0.34897020548070451 0 0.35738528973841999 -0.35772904562383351 0 0.35618710249729552 -0.34088690244721892 0 0.35738528973841999 -0.35772904562383351 0 0.33810128782584858 -0.35072533414536311 0 0.35738528973841999 -0.35772904562383351 0 0.34467783115022588 -0.37252705130409253 0 0.33810128782584858 -0.35072533414536311 0 0.3689120952668708 -0.37284951495870189 0 0.35738528973841999 -0.35772904562383351 0 0.34467783115022588 -0.37252705130409253 0 0.34467783115022588 -0.37252705130409253 0 0.33810128782584858 -0.35072533414536311 0 0.3255374248820434 -0.37161020359421471 0 0.31543696134246668 -0.34593224431305769 0 0.3255374248820434 -0.37161020359421471 0 0.30900602422585888 -0.35865430802761772 0 0.31543696134246668 -0.34593224431305769 0 0.3255374248820434 -0.37161020359421471 0 0.33810128782584858 -0.35072533414536311 0 0.31543696134246668 -0.34593224431305769 0 0.3255374248820434 -0.37161020359421471 0 0.3255374248820434 -0.37161020359421471 0 0.30525369772634148 -0.37164386163485291 0 0.30900602422585888 -0.35865430802761772 0 0.34533870308018377 -0.31598934501886372 0 0.33130220335757699 -0.32186248444176119 0 0.34064131712366241 -0.33181983138849169 0 0.33485830675890288 -0.30442904333306592 0 0.34533870308018377 -0.31598934501886372 0 0.33130220335757699 -0.32186248444176119 0 0.33810128782584858 -0.35072533414536311 0 0.34064131712366241 -0.33181983138849169 0 0.3268430880468266 -0.33457206034663262 0 0.33130220335757699 -0.32186248444176119 0 0.34064131712366241 -0.33181983138849169 0 0.3268430880468266 -0.33457206034663262 0 0.31543696134246668 -0.34593224431305769 0 0.3268430880468266 -0.33457206034663262 0 0.31314202037018413 -0.32284829747545468 0 0.33810128782584858 -0.35072533414536311 0 0.31543696134246668 -0.34593224431305769 0 0.3268430880468266 -0.33457206034663262 0 0.33130220335757699 -0.32186248444176119 0 0.3268430880468266 -0.33457206034663262 0 0.31314202037018413 -0.32284829747545468 0 0.33485830675890288 -0.30442904333306592 0 0.31314202037018413 -0.32284829747545468 0 0.3171485971304504 -0.30589952111326829 0 0.31314202037018413 -0.32284829747545468 0 0.3109911447756647 -0.31350988965823029 0 0.33485830675890288 -0.30442904333306592 0 0.33130220335757699 -0.32186248444176119 0 0.31314202037018413 -0.32284829747545468 0 0.31314202037018413 -0.32284829747545468 0 0.30533649780288991 -0.32025428503190068 0 0.3109911447756647 -0.31350988965823029 0 0.30533649780288991 -0.32025428503190068 0 0.3109911447756647 -0.31350988965823029 0 0.30833746379913463 -0.30503745501229762 0 0.31543696134246668 -0.34593224431305769 0 0.30533649780288991 -0.32025428503190068 0 0.30314188851555429 -0.3464145030398364 0 0.30533649780288991 -0.32025428503190068 0 0.29792146783109758 -0.32077626486014349 0 0.30314188851555429 -0.3464145030398364 0 0.31543696134246668 -0.34593224431305769 0 0.31314202037018413 -0.32284829747545468 0 0.30533649780288991 -0.32025428503190068 0 0.29792146783109758 -0.32077626486014349 0 0.30314188851555429 -0.3464145030398364 0 0.31543696134246668 -0.34593224431305769 0 0.30533649780288991 -0.32025428503190068 0 0.29792146783109758 -0.32077626486014349 0 0.29422135484035322 -0.33366994296298719 0 0.30314188851555429 -0.3464145030398364 0 0.29422135484035322 -0.33366994296298719 0 0.29546103181119637 -0.34185893253319311 0 0.30314188851555429 -0.3464145030398364 0 0.29422135484035322 -0.33366994296298719 0 0.29546103181119637 -0.34185893253319311 0 0.28827175492889229 -0.34275780055790278 0 0.29546103181119637 -0.34185893253319311 0 0.28827175492889229 -0.34275780055790278 0 0.29811044553331972 -0.34650788457159087 0 0.29422135484035322 -0.33366994296298719 0 0.28827175492889229 -0.34275780055790278 0 0.27955848846152698 -0.33666113426449551 0 0.29422135484035322 -0.33366994296298719 0 0.28744860979629389 -0.32474860906702402 0 0.27955848846152698 -0.33666113426449551 0 0.28744860979629389 -0.32474860906702402 0 0.29019889155513462 -0.31620785207956748 0 0.28097437988070417 -0.31138482246715898 0 0.29792146783109758 -0.32077626486014349 0 0.29019889155513462 -0.31620785207956748 0 0.29244758100571983 -0.32385066724243061 0 0.29422135484035322 -0.33366994296298719 0 0.28744860979629389 -0.32474860906702402 0 0.29244758100571983 -0.32385066724243061 0 0.29792146783109758 -0.32077626486014349 0 0.29422135484035322 -0.33366994296298719 0 0.29244758100571983 -0.32385066724243061 0 0.28744860979629389 -0.32474860906702402 0 0.29019889155513462 -0.31620785207956748 0 0.29244758100571983 -0.32385066724243061 0 0.30525369772634148 -0.37164386163485291 0 0.30031449930387721 -0.36082981960256849 0 0.30900602422585888 -0.35865430802761772 0 0.30525369772634148 -0.37164386163485291 0 0.30031449930387721 -0.36082981960256849 0 0.29483415024835152 -0.36747827247447862 0 0.30080593951138668 -0.35381036279877531 0 0.30900602422585888 -0.35865430802761772 0 0.30314188851555429 -0.3464145030398364 0 0.30080593951138668 -0.35381036279877531 0 0.29811044553331972 -0.34650788457159087 0 0.29345683997832372 -0.35664529875226292 0 0.30031449930387721 -0.36082981960256849 0 0.30080593951138668 -0.35381036279877531 0 0.30900602422585888 -0.35865430802761772 0 0.30031449930387721 -0.36082981960256849 0 0.30080593951138668 -0.35381036279877531 0 0.29345683997832372 -0.35664529875226292 0 0.31543696134246668 -0.34593224431305769 0 0.30900602422585888 -0.35865430802761772 0 0.30314188851555429 -0.3464145030398364 0 0.30080593951138668 -0.35381036279877531 0 0.30314188851555429 -0.3464145030398364 0 0.29811044553331972 -0.34650788457159087 0 0.29546103181119637 -0.34185893253319311 0 0.30314188851555429 -0.3464145030398364 0 0.29811044553331972 -0.34650788457159087 0 0.29811044553331972 -0.34650788457159087 0 0.29345683997832372 -0.35664529875226292 0 0.28122462644821988 -0.35688066365974619 0 0.28827175492889229 -0.34275780055790278 0 0.29811044553331972 -0.34650788457159087 0 0.28122462644821988 -0.35688066365974619 0 0.28827175492889229 -0.34275780055790278 0 0.28122462644821988 -0.35688066365974619 0 0.27955848846152698 -0.33666113426449551 0 0.29811044553331972 -0.34650788457159087 0 0.28122462644821988 -0.35688066365974619 0 0.29345683997832372 -0.35664529875226292 0 0.28676543400443838 -0.36101512068260139 0 0.28122462644821988 -0.35688066365974619 0 0.28676543400443838 -0.36101512068260139 0 0.28122462644821988 -0.35688066365974619 0 0.28783989868818821 -0.37644057584389279 0 0.30525369772634148 -0.37164386163485291 0 0.29483415024835152 -0.36747827247447862 0 0.28783989868818821 -0.37644057584389279 0 0.28676543400443838 -0.36101512068260139 0 0.27033126349110148 -0.36357234067652822 0 0.29357505063040601 -0.36145191270551408 0 0.28676543400443838 -0.36101512068260139 0 0.29483415024835152 -0.36747827247447862 0 0.30031449930387721 -0.36082981960256849 0 0.29357505063040601 -0.36145191270551408 0 0.29483415024835152 -0.36747827247447862 0 0.30031449930387721 -0.36082981960256849 0 0.29345683997832372 -0.35664529875226292 0 0.29357505063040601 -0.36145191270551408 0 0.29345683997832372 -0.35664529875226292 0 0.29357505063040601 -0.36145191270551408 0 0.28676543400443838 -0.36101512068260139 0 0.28783989868818821 -0.37644057584389279 0 0.28676543400443838 -0.36101512068260139 0 0.29483415024835152 -0.36747827247447862 0 0.28783989868818821 -0.37644057584389279 0 0.27033126349110148 -0.36357234067652822 0 0.28783989868818821 -0.37644057584389279 0 0.27447250226623809 -0.37821124143188289 0 0.27033126349110148 -0.36357234067652822 0 0.28676543400443838 -0.36101512068260139 0 0.27033126349110148 -0.36357234067652822 0 0.28122462644821988 -0.35688066365974619 0 0.27447250226623809 -0.37821124143188289 0 0.26423397132697279 -0.37890457124200982 0 0.27033126349110148 -0.36357234067652822 0 0.27033126349110148 -0.36357234067652822 0 0.28122462644821988 -0.35688066365974619 0 0.28122462644821988 -0.35688066365974619 0 0.26082083375001269 -0.34165569813656432 0 0.27033126349110148 -0.36357234067652822 0 0.28122462644821988 -0.35688066365974619 0 0.26082083375001269 -0.34165569813656432 0 0.28122462644821988 -0.35688066365974619 0 0.27955848846152698 -0.33666113426449551 0 0.26082083375001269 -0.34165569813656432 0 0.27033126349110148 -0.36357234067652822 0 0.25099839141978419 -0.34936335514031408 0 0.27033126349110148 -0.36357234067652822 0 0.25099839141978419 -0.34936335514031408 0 0.26082083375001269 -0.34165569813656432 0 0.27033126349110148 -0.36357234067652822 0 0.25099839141978419 -0.34936335514031408 0 0.24534349961555019 -0.36253701182870851 0 0.26423397132697279 -0.37890457124200982 0 0.27033126349110148 -0.36357234067652822 0 0.24987622704845311 -0.37613765202982719 0 0.27033126349110148 -0.36357234067652822 0 0.24534349961555019 -0.36253701182870851 0 0.24987622704845311 -0.37613765202982719 0 0.27033126349110148 -0.36357234067652822 0 0.24987622704845311 -0.37613765202982719 0 0.28744860979629389 -0.32474860906702402 0 0.26598899428458778 -0.32103793389256657 0 0.27955848846152698 -0.33666113426449551 0 0.28744860979629389 -0.32474860906702402 0 0.26598899428458778 -0.32103793389256657 0 0.28097437988070417 -0.31138482246715898 0 0.26598899428458778 -0.32103793389256657 0 0.27955848846152698 -0.33666113426449551 0 0.26082083375001269 -0.34165569813656432 0 0.26082083375001269 -0.34165569813656432 0 0.2404170410518052 -0.32643073261338312 0 0.26598899428458778 -0.32103793389256657 0 0.26082083375001269 -0.34165569813656432 0 0.2404170410518052 -0.32643073261338312 0 0.25099839141978419 -0.34936335514031408 0 0.26082083375001269 -0.34165569813656432 0 0.2404170410518052 -0.32643073261338312 0 0.26598899428458778 -0.32103793389256657 0 0.24423538898563429 -0.30587701823941071 0 0.2404170410518052 -0.32643073261338312 0 0.26846821806613752 -0.30050752245993012 0 0.24423538898563429 -0.30587701823941071 0 0.25301376652256202 -0.2892367573709661 0 0.26846821806613752 -0.30050752245993012 0 0.24423538898563429 -0.30587701823941071 0 0.26598899428458778 -0.32103793389256657 0 0.26846821806613752 -0.30050752245993012 0 0.24423538898563429 -0.30587701823941071 0 0.25301376652256202 -0.2892367573709661 0 0.26500420865911251 -0.28331687632378699 0 0.26846821806613752 -0.30050752245993012 0 0.25301376652256202 -0.2892367573709661 0 0.26500420865911251 -0.28331687632378699 0 0.2507153324002197 -0.27704953531328702 0 0.26500420865911251 -0.28331687632378699 0 0.27805302037335089 -0.28584974436810762 0 0.26846821806613752 -0.30050752245993012 0 0.27805302037335089 -0.28584974436810762 0 0.26846821806613752 -0.30050752245993012 0 0.29270104714664102 -0.29513802668045069 0 0.26500420865911251 -0.28331687632378699 0 0.27805302037335089 -0.28584974436810762 0 0.27342558025451552 -0.27498979272208851 0 0.26598899428458778 -0.32103793389256657 0 0.26846821806613752 -0.30050752245993012 0 0.28097437988070417 -0.31138482246715898 0 0.26846821806613752 -0.30050752245993012 0 0.28097437988070417 -0.31138482246715898 0 0.29270104714664102 -0.29513802668045069 0 0.26846821806613752 -0.30050752245993012 0 0.29270104714664102 -0.29513802668045069 0 0.29792146783109758 -0.32077626486014349 0 0.29270104714664102 -0.29513802668045069 0 0.29019889155513462 -0.31620785207956748 0 0.28097437988070417 -0.31138482246715898 0 0.29270104714664102 -0.29513802668045069 0 0.29792146783109758 -0.32077626486014349 0 0.29019889155513462 -0.31620785207956748 0 0.29270104714664102 -0.29513802668045069 0 0.29792146783109758 -0.32077626486014349 0 0.29270104714664102 -0.29513802668045069 0 0.29523603426331357 -0.29457632575074338 0 0.27805302037335089 -0.28584974436810762 0 0.29026987947112831 -0.28319821192468808 0 0.29270104714664102 -0.29513802668045069 0 0.27805302037335089 -0.28584974436810762 0 0.29026987947112831 -0.28319821192468808 0 0.28863308206368682 -0.27515966401439529 0 0.29026987947112831 -0.28319821192468808 0 0.29523603426331357 -0.29457632575074338 0 0.29026987947112831 -0.28319821192468808 0 0.29523603426331357 -0.29457632575074338 0 0.30320790951940702 -0.28313078900162059 0 0.29026987947112831 -0.28319821192468808 0 0.29270104714664102 -0.29513802668045069 0 0.29523603426331357 -0.29457632575074338 0 0.29026987947112831 -0.28319821192468808 0 0.29270104714664102 -0.29513802668045069 0 0.29270104714664102 -0.29513802668045069 0 0.29523603426331357 -0.29457632575074338 0 0.29523603426331357 -0.29457632575074338 0 0.31208952779935789 -0.2908419387292881 0 0.29523603426331357 -0.29457632575074338 0 0.30320790951940702 -0.28313078900162059 0 0.31208952779935789 -0.2908419387292881 0 0.29523603426331357 -0.29457632575074338 0 0.31208952779935789 -0.2908419387292881 0 0.30833746379913463 -0.30503745501229762 0 0.31611371382327402 -0.28007222207304999 0 0.30320790951940702 -0.28313078900162059 0 0.31208952779935789 -0.2908419387292881 0 0.30533649780288991 -0.32025428503190068 0 0.29523603426331357 -0.29457632575074338 0 0.30833746379913463 -0.30503745501229762 0 0.30533649780288991 -0.32025428503190068 0 0.29792146783109758 -0.32077626486014349 0 0.29523603426331357 -0.29457632575074338 0 0.30533649780288991 -0.32025428503190068 0 0.29523603426331357 -0.29457632575074338 0 0.3171485971304504 -0.30589952111326829 0 0.3109911447756647 -0.31350988965823029 0 0.30833746379913463 -0.30503745501229762 0 0.29812220868357159 -0.26533402464574418 0 0.30111904597271899 -0.2536098058489899 0 0.30981211567343969 -0.26250129009931661 0 0.31597462601859122 -0.25080747204364812 0 0.30111904597271899 -0.2536098058489899 0 0.30981211567343969 -0.26250129009931661 0 0.29812220868357159 -0.26533402464574418 0 0.30981211567343969 -0.26250129009931661 0 0.30706455279928557 -0.27339796693147528 0 0.31611371382327402 -0.28007222207304999 0 0.30320790951940702 -0.28313078900162059 0 0.30706455279928557 -0.27339796693147528 0 0.29026987947112831 -0.28319821192468808 0 0.30320790951940702 -0.28313078900162059 0 0.29755036247591721 -0.27602563541609298 0 0.30320790951940702 -0.28313078900162059 0 0.30706455279928557 -0.27339796693147528 0 0.29755036247591721 -0.27602563541609298 0 0.29812220868357159 -0.26533402464574418 0 0.30706455279928557 -0.27339796693147528 0 0.29755036247591721 -0.27602563541609298 0 0.29812220868357159 -0.26533402464574418 0 0.29755036247591721 -0.27602563541609298 0 0.28863308206368682 -0.27515966401439529 0 0.29026987947112831 -0.28319821192468808 0 0.28863308206368682 -0.27515966401439529 0 0.29026987947112831 -0.28319821192468808 0 0.29755036247591721 -0.27602563541609298 0 0.28863308206368682 -0.27515966401439529 0 0.28863308206368682 -0.27515966401439529 0 0.28456511698073272 -0.25518130134833977 0 0.29812220868357159 -0.26533402464574418 0 0.28863308206368682 -0.27515966401439529 0 0.28456511698073272 -0.25518130134833977 0 0.29812220868357159 -0.26533402464574418 0 0.30111904597271899 -0.2536098058489899 0 0.28456511698073272 -0.25518130134833977 0 0.28863308206368682 -0.27515966401439529 0 0.28456511698073272 -0.25518130134833977 0 0.27223885194073971 -0.26265851400849172 0 0.28456511698073272 -0.25518130134833977 0 0.27223885194073971 -0.26265851400849172 0 0.26629969424128969 -0.25192769388052821 0 0.27223885194073971 -0.26265851400849172 0 0.26629969424128969 -0.25192769388052821 0 0.2629172406837702 -0.26740365320709081 0 0.26500420865911251 -0.28331687632378699 0 0.27342558025451552 -0.27498979272208851 0 0.2629172406837702 -0.26740365320709081 0 0.28863308206368682 -0.27515966401439529 0 0.27223885194073971 -0.26265851400849172 0 0.27342558025451552 -0.27498979272208851 0 0.27805302037335089 -0.28584974436810762 0 0.28863308206368682 -0.27515966401439529 0 0.27342558025451552 -0.27498979272208851 0 0.27223885194073971 -0.26265851400849172 0 0.27342558025451552 -0.27498979272208851 0 0.2629172406837702 -0.26740365320709081 0 0.26500420865911251 -0.28331687632378699 0 0.2629172406837702 -0.26740365320709081 0 0.2507153324002197 -0.27704953531328702 0 0.2629172406837702 -0.26740365320709081 0 0.2507153324002197 -0.27704953531328702 0 0.2466218950091964 -0.26012473444713258 0 0.25037283077400019 -0.2416092145933311 0 0.26629969424128969 -0.25192769388052821 0 0.2466218950091964 -0.26012473444713258 0 0.26629969424128969 -0.25192769388052821 0 0.2629172406837702 -0.26740365320709081 0 0.2466218950091964 -0.26012473444713258 0 0.25037283077400019 -0.2416092145933311 0 0.2466218950091964 -0.26012473444713258 0 0.2339549802858914 -0.24933471903745599 0 0.2466218950091964 -0.26012473444713258 0 0.22717476572977791 -0.26325637954660608 0 0.2339549802858914 -0.24933471903745599 0 0.2466218950091964 -0.26012473444713258 0 0.23628574795648369 -0.27498419313581679 0 0.22717476572977791 -0.26325637954660608 0 0.2507153324002197 -0.27704953531328702 0 0.2466218950091964 -0.26012473444713258 0 0.23628574795648369 -0.27498419313581679 0 0.2507153324002197 -0.27704953531328702 0 0.23628574795648369 -0.27498419313581679 0 0.24044913557019401 -0.28723099739492908 0 0.2247339410531527 -0.27667652802353632 0 0.21554844428562811 -0.26491471108287651 0 0.21653111649902579 -0.28712771180040292 0 0.23628574795648369 -0.27498419313581679 0 0.2247339410531527 -0.27667652802353632 0 0.22717476572977791 -0.26325637954660608 0 0.2247339410531527 -0.27667652802353632 0 0.22717476572977791 -0.26325637954660608 0 0.21554844428562811 -0.26491471108287651 0 0.22717476572977791 -0.26325637954660608 0 0.22331750647786899 -0.25281133177650322 0 0.2339549802858914 -0.24933471903745599 0 0.22717476572977791 -0.26325637954660608 0 0.22331750647786899 -0.25281133177650322 0 0.21554844428562811 -0.26491471108287651 0 0.2084475354763706 -0.25511513831035743 0 0.21554844428562811 -0.26491471108287651 0 0.1982966667633215 -0.26354120971092698 0 0.21554844428562811 -0.26491471108287651 0 0.21456577207223029 -0.24270171036535029 0 0.22331750647786899 -0.25281133177650322 0 0.21554844428562811 -0.26491471108287651 0 0.21456577207223029 -0.24270171036535029 0 0.2084475354763706 -0.25511513831035743 0 0.21554844428562811 -0.26491471108287651 0 0.21336353465090491 -0.24693864317134839 0 0.21554844428562811 -0.26491471108287651 0 0.21336353465090491 -0.24693864317134839 0 0.21456577207223029 -0.24270171036535029 0 0.2084475354763706 -0.25511513831035743 0 0.1982966667633215 -0.26354120971092698 0 0.2080714594183444 -0.2424179483002232 0 0.1982966667633215 -0.26354120971092698 0 0.2080714594183444 -0.2424179483002232 0 0.21554844428562811 -0.26491471108287651 0 0.21653111649902579 -0.28712771180040292 0 0.21554844428562811 -0.26491471108287651 0 0.20859607852913339 -0.28093905456482821 0 0.21653111649902579 -0.28712771180040292 0 0.21554844428562811 -0.26491471108287651 0 0.20859607852913339 -0.28093905456482821 0 0.2011380539128553 -0.27767933622792518 0 0.21554844428562811 -0.26491471108287651 0 0.2011380539128553 -0.27767933622792518 0 0.1982966667633215 -0.26354120971092698 0 0.1982966667633215 -0.26354120971092698 0 0.18852187410829821 -0.28466447112163068 0 0.1982966667633215 -0.26354120971092698 0 0.18852187410829821 -0.28466447112163068 0 0.1845366839674035 -0.26640487959885623 0 0.2011380539128553 -0.27767933622792518 0 0.1982966667633215 -0.26354120971092698 0 0.18852187410829821 -0.28466447112163068 0 0.1982966667633215 -0.26354120971092698 0 0.2080714594183444 -0.2424179483002232 0 0.19254414318066221 -0.24961624770678509 0 0.1982966667633215 -0.26354120971092698 0 0.18706352147094041 -0.25756661524031438 0 0.1845366839674035 -0.26640487959885623 0 0.1982966667633215 -0.26354120971092698 0 0.18706352147094041 -0.25756661524031438 0 0.19254414318066221 -0.24961624770678509 0 0.18706352147094041 -0.25756661524031438 0 0.19254414318066221 -0.24961624770678509 0 0.18399505531774341 -0.24981832115951039 0 0.20249447748908611 -0.29813355613580778 0 0.1976485991634879 -0.30796138879627621 0 0.19462594870140809 -0.30164723750547567 0 0.20249447748908611 -0.29813355613580778 0 0.19462594870140809 -0.30164723750547567 0 0.19392418081794471 -0.29575522021664652 0 0.20249447748908611 -0.29813355613580778 0 0.1976485991634879 -0.30796138879627621 0 0.20782414549410869 -0.30817847155873718 0 0.1976485991634879 -0.30796138879627621 0 0.20782414549410869 -0.30817847155873718 0 0.20282381327660201 -0.31505297042611552 0 0.1976485991634879 -0.30796138879627621 0 0.19009702279388629 -0.3064242775921906 0 0.18802618722583669 -0.31833181955932999 0 0.1976485991634879 -0.30796138879627621 0 0.19009702279388629 -0.3064242775921906 0 0.19462594870140809 -0.30164723750547567 0 0.19009702279388629 -0.3064242775921906 0 0.19462594870140809 -0.30164723750547567 0 0.1880606218677118 -0.30022154946313712 0 0.19462594870140809 -0.30164723750547567 0 0.19110113081553529 -0.29631368747161629 0 0.19392418081794471 -0.29575522021664652 0 0.1880606218677118 -0.30022154946313712 0 0.19110113081553529 -0.29631368747161629 0 0.18734834214976739 -0.29514628785519947 0 0.19462594870140809 -0.30164723750547567 0 0.1880606218677118 -0.30022154946313712 0 0.19110113081553529 -0.29631368747161629 0 0.20249447748908611 -0.29813355613580778 0 0.18747516626574931 -0.28692639975368628 0 0.20249447748908611 -0.29813355613580778 0 0.19392418081794471 -0.29575522021664652 0 0.18747516626574931 -0.28692639975368628 0 0.19110113081553529 -0.29631368747161629 0 0.19392418081794471 -0.29575522021664652 0 0.18747516626574931 -0.28692639975368628 0 0.19110113081553529 -0.29631368747161629 0 0.18747516626574931 -0.28692639975368628 0 0.18734834214976739 -0.29514628785519947 0 0.18852187410829821 -0.28466447112163068 0 0.19787122383615691 -0.29172525818392958 0 0.18852187410829821 -0.28466447112163068 0 0.19731262536099689 -0.28481999283041842 0 0.19787122383615691 -0.29172525818392958 0 0.18852187410829821 -0.28466447112163068 0 0.19787122383615691 -0.29172525818392958 0 0.18747516626574931 -0.28692639975368628 0 0.18852187410829821 -0.28466447112163068 0 0.18747516626574931 -0.28692639975368628 0 0.2011380539128553 -0.27767933622792518 0 0.18852187410829821 -0.28466447112163068 0 0.19731262536099689 -0.28481999283041842 0 0.201719349586677 -0.2852109057881882 0 0.19787122383615691 -0.29172525818392958 0 0.206049533411369 -0.28982701925762389 0 0.19731262536099689 -0.28481999283041842 0 0.201719349586677 -0.2852109057881882 0 0.19787122383615691 -0.29172525818392958 0 0.2011380539128553 -0.27767933622792518 0 0.19731262536099689 -0.28481999283041842 0 0.201719349586677 -0.2852109057881882 0 0.20249447748908611 -0.29813355613580778 0 0.19787122383615691 -0.29172525818392958 0 0.18747516626574931 -0.28692639975368628 0 0.20249447748908611 -0.29813355613580778 0 0.19787122383615691 -0.29172525818392958 0 0.206049533411369 -0.28982701925762389 0 0.20249447748908611 -0.29813355613580778 0 0.206049533411369 -0.28982701925762389 0 0.20903552332543929 -0.29406903275804652 0 0.206049533411369 -0.28982701925762389 0 0.20903552332543929 -0.29406903275804652 0 0.21653111649902579 -0.28712771180040292 0 0.20249447748908611 -0.29813355613580778 0 0.20903552332543929 -0.29406903275804652 0 0.2123558614978226 -0.29827812898856709 0 0.20859607852913339 -0.28093905456482821 0 0.206049533411369 -0.28982701925762389 0 0.21653111649902579 -0.28712771180040292 0 0.20859607852913339 -0.28093905456482821 0 0.201719349586677 -0.2852109057881882 0 0.206049533411369 -0.28982701925762389 0 0.20859607852913339 -0.28093905456482821 0 0.2011380539128553 -0.27767933622792518 0 0.201719349586677 -0.2852109057881882 0 0.20903552332543929 -0.29406903275804652 0 0.21653111649902579 -0.28712771180040292 0 0.2123558614978226 -0.29827812898856709 0 0.21653111649902579 -0.28712771180040292 0 0.2175137887124228 -0.30934071251792922 0 0.21653111649902579 -0.28712771180040292 0 0.2123558614978226 -0.29827812898856709 0 0.2175137887124228 -0.30934071251792922 0 0.20249447748908611 -0.29813355613580778 0 0.2123558614978226 -0.29827812898856709 0 0.2175137887124228 -0.30934071251792922 0 0.20249447748908611 -0.29813355613580778 0 0.2175137887124228 -0.30934071251792922 0 0.20782414549410869 -0.30817847155873718 0 0.2176214393273678 -0.31177412129290383 0 0.20282381327660201 -0.31505297042611552 0 0.20249447748908611 -0.29813355613580778 0 0.20782414549410869 -0.30817847155873718 0 0.2175137887124228 -0.30934071251792922 0 0.20782414549410869 -0.30817847155873718 0 0.2175137887124228 -0.30934071251792922 0 0.2176214393273678 -0.31177412129290383 0 0.2175137887124228 -0.30934071251792922 0 0.2176214393273678 -0.31177412129290383 0 0.2175137887124228 -0.30934071251792922 0 0.2176214393273678 -0.31177412129290383 0 0.21999804566891551 -0.31122614102315033 0 0.21999804566891551 -0.31122614102315033 0 0.24423538898563429 -0.30587701823941071 0 0.2175137887124228 -0.30934071251792922 0 0.21999804566891551 -0.31122614102315033 0 0.22812963079484819 -0.29309964455197901 0 0.21999804566891551 -0.31122614102315033 0 0.22812963079484819 -0.29309964455197901 0 0.21999804566891551 -0.31122614102315033 0 0.22812963079484819 -0.29309964455197901 0 0.24423538898563429 -0.30587701823941071 0 0.2176214393273678 -0.31177412129290383 0 0.21999804566891551 -0.31122614102315033 0 0.2175137887124228 -0.30934071251792922 0 0.21999804566891551 -0.31122614102315033 0 0.23628574795648369 -0.27498419313581679 0 0.22812963079484819 -0.29309964455197901 0 0.2247339410531527 -0.27667652802353632 0 0.21653111649902579 -0.28712771180040292 0 0.22812963079484819 -0.29309964455197901 0 0.23628574795648369 -0.27498419313581679 0 0.2247339410531527 -0.27667652802353632 0 0.22812963079484819 -0.29309964455197901 0 0.21653111649902579 -0.28712771180040292 0 0.2175137887124228 -0.30934071251792922 0 0.22812963079484819 -0.29309964455197901 0 0.23628574795648369 -0.27498419313581679 0 0.22812963079484819 -0.29309964455197901 0 0.24044913557019401 -0.28723099739492908 0 0.25301376652256202 -0.2892367573709661 0 0.24044913557019401 -0.28723099739492908 0 0.24423538898563429 -0.30587701823941071 0 0.22812963079484819 -0.29309964455197901 0 0.24044913557019401 -0.28723099739492908 0 0.24423538898563429 -0.30587701823941071 0 0.25301376652256202 -0.2892367573709661 0 0.2507153324002197 -0.27704953531328702 0 0.24044913557019401 -0.28723099739492908 0 0.21999804566891551 -0.31122614102315033 0 0.24423538898563429 -0.30587701823941071 0 0.2404170410518052 -0.32643073261338312 0 0.25099839141978419 -0.34936335514031408 0 0.2316655193484673 -0.33515436960409939 0 0.25099839141978419 -0.34936335514031408 0 0.2404170410518052 -0.32643073261338312 0 0.2316655193484673 -0.33515436960409939 0 0.2404170410518052 -0.32643073261338312 0 0.2316655193484673 -0.33515436960409939 0 0.2247705650129608 -0.32491873692320528 0 0.2316655193484673 -0.33515436960409939 0 0.22208049410379579 -0.34309390150507102 0 0.22867514261462599 -0.34782526071452929 0 0.2316655193484673 -0.33515436960409939 0 0.22208049410379579 -0.34309390150507102 0 0.220555537226792 -0.33578323097752499 0 0.22208049410379579 -0.34309390150507102 0 0.220555537226792 -0.33578323097752499 0 0.21451162402718699 -0.34512658597487872 0 0.220555537226792 -0.33578323097752499 0 0.2247705650129608 -0.32491873692320528 0 0.21820242441149371 -0.32490710899175251 0 0.2316655193484673 -0.33515436960409939 0 0.220555537226792 -0.33578323097752499 0 0.2247705650129608 -0.32491873692320528 0 0.21999804566891551 -0.31122614102315033 0 0.2404170410518052 -0.32643073261338312 0 0.2247705650129608 -0.32491873692320528 0 0.21999804566891551 -0.31122614102315033 0 0.2404170410518052 -0.32643073261338312 0 0.2247705650129608 -0.32491873692320528 0 0.21780935440599439 -0.31602188338433101 0 0.21820242441149371 -0.32490710899175251 0 0.21999804566891551 -0.31122614102315033 0 0.2247705650129608 -0.32491873692320528 0 0.21780935440599439 -0.31602188338433101 0 0.21999804566891551 -0.31122614102315033 0 0.21780935440599439 -0.31602188338433101 0 0.23679608458568241 -0.3713456781615978 0 0.24534349961555019 -0.36253701182870851 0 0.24987622704845311 -0.37613765202982719 0 0.23679608458568241 -0.3713456781615978 0 0.24534349961555019 -0.36253701182870851 0 0.23133102347449649 -0.35950822589080189 0 0.25099839141978419 -0.34936335514031408 0 0.2316655193484673 -0.33515436960409939 0 0.23760271529458479 -0.35087764463569071 0 0.24534349961555019 -0.36253701182870851 0 0.23760271529458479 -0.35087764463569071 0 0.23133102347449649 -0.35950822589080189 0 0.25099839141978419 -0.34936335514031408 0 0.24534349961555019 -0.36253701182870851 0 0.23760271529458479 -0.35087764463569071 0 0.2316655193484673 -0.33515436960409939 0 0.23760271529458479 -0.35087764463569071 0 0.22867514261462599 -0.34782526071452929 0 0.22208049410379579 -0.34309390150507102 0 0.22076837523631451 -0.35267920974236072 0 0.21451162402718699 -0.34512658597487872 0 0.22208049410379579 -0.34309390150507102 0 0.22867514261462599 -0.34782526071452929 0 0.22076837523631451 -0.35267920974236072 0 0.22076837523631451 -0.35267920974236072 0 0.22341137818785181 -0.36337688942730773 0 0.21609027172906259 -0.36087537471117581 0 0.22076837523631451 -0.35267920974236072 0 0.23133102347449649 -0.35950822589080189 0 0.22341137818785181 -0.36337688942730773 0 0.22867514261462599 -0.34782526071452929 0 0.22076837523631451 -0.35267920974236072 0 0.23133102347449649 -0.35950822589080189 0 0.23760271529458479 -0.35087764463569071 0 0.22867514261462599 -0.34782526071452929 0 0.23133102347449649 -0.35950822589080189 0 0.23133102347449649 -0.35950822589080189 0 0.22341137818785181 -0.36337688942730773 0 0.22699371624108439 -0.37103399677892651 0 0.22341137818785181 -0.36337688942730773 0 0.22699371624108439 -0.37103399677892651 0 0.21663927632257499 -0.37152038636996992 0 0.22699371624108439 -0.37103399677892651 0 0.21663927632257499 -0.37152038636996992 0 0.22189277223980711 -0.38054577212349588 0 0.23679608458568241 -0.3713456781615978 0 0.22699371624108439 -0.37103399677892651 0 0.23010576568282681 -0.37607478874810818 0 0.23679608458568241 -0.3713456781615978 0 0.23133102347449649 -0.35950822589080189 0 0.22699371624108439 -0.37103399677892651 0 0.21663927632257499 -0.37152038636996992 0 0.20683644217058031 -0.36558797855932218 0 0.20576161095015591 -0.37595213443190167 0 0.22341137818785181 -0.36337688942730773 0 0.21663927632257499 -0.37152038636996992 0 0.21609027172906259 -0.36087537471117581 0 0.21609027172906259 -0.36087537471117581 0 0.20683644217058031 -0.36558797855932218 0 0.21089823393406021 -0.35324530101306001 0 0.21663927632257499 -0.37152038636996992 0 0.21609027172906259 -0.36087537471117581 0 0.20683644217058031 -0.36558797855932218 0 0.19940837682496099 -0.35689206815154528 0 0.20777431361625601 -0.33831058893907762 0 0.21089823393406021 -0.35324530101306001 0 0.19940837682496099 -0.35689206815154528 0 0.20777431361625601 -0.33831058893907762 0 0.20683644217058031 -0.36558797855932218 0 0.21089823393406021 -0.35324530101306001 0 0.19940837682496099 -0.35689206815154528 0 0.22076837523631451 -0.35267920974236072 0 0.21609027172906259 -0.36087537471117581 0 0.21089823393406021 -0.35324530101306001 0 0.21089823393406021 -0.35324530101306001 0 0.21451162402718699 -0.34512658597487872 0 0.20777431361625601 -0.33831058893907762 0 0.22076837523631451 -0.35267920974236072 0 0.21089823393406021 -0.35324530101306001 0 0.21451162402718699 -0.34512658597487872 0 0.1971616983813648 -0.34495631128618592 0 0.19940837682496099 -0.35689206815154528 0 0.20777431361625601 -0.33831058893907762 0 0.1971616983813648 -0.34495631128618592 0 0.18787137947787569 -0.35180034780069419 0 0.18864170350563411 -0.33720407153827198 0 0.1971616983813648 -0.34495631128618592 0 0.18787137947787569 -0.35180034780069419 0 0.19940837682496099 -0.35689206815154528 0 0.20683644217058031 -0.36558797855932218 0 0.20576161095015591 -0.37595213443190167 0 0.1910424400336663 -0.37547354736401328 0 0.18787137947787569 -0.35180034780069419 0 0.19940837682496099 -0.35689206815154528 0 0.1910424400336663 -0.37547354736401328 0 0.19940837682496099 -0.35689206815154528 0 0.1910424400336663 -0.37547354736401328 0 0.20683644217058031 -0.36558797855932218 0 0.19940837682496099 -0.35689206815154528 0 0.1910424400336663 -0.37547354736401328 0 0.21780935440599439 -0.31602188338433101 0 0.20777431361625601 -0.33831058893907762 0 0.21780935440599439 -0.31602188338433101 0 0.20777431361625601 -0.33831058893907762 0 0.20282381327660201 -0.31505297042611552 0 0.21780935440599439 -0.31602188338433101 0 0.21820242441149371 -0.32490710899175251 0 0.20777431361625601 -0.33831058893907762 0 0.2176214393273678 -0.31177412129290383 0 0.20282381327660201 -0.31505297042611552 0 0.2176214393273678 -0.31177412129290383 0 0.21780935440599439 -0.31602188338433101 0 0.20282381327660201 -0.31505297042611552 0 0.2176214393273678 -0.31177412129290383 0 0.21780935440599439 -0.31602188338433101 0 0.2176214393273678 -0.31177412129290383 0 0.21999804566891551 -0.31122614102315033 0 0.21780935440599439 -0.31602188338433101 0 0.21780935440599439 -0.31602188338433101 0 0.21820242441149371 -0.32490710899175251 0 0.220555537226792 -0.33578323097752499 0 0.21820242441149371 -0.32490710899175251 0 0.20777431361625601 -0.33831058893907762 0 0.220555537226792 -0.33578323097752499 0 0.21451162402718699 -0.34512658597487872 0 0.20777431361625601 -0.33831058893907762 0 0.21451162402718699 -0.34512658597487872 0 0.20777431361625601 -0.33831058893907762 0 0.1971616983813648 -0.34495631128618592 0 0.20777431361625601 -0.33831058893907762 0 0.18864170350563411 -0.33720407153827198 0 0.20777431361625601 -0.33831058893907762 0 0.18802618722583669 -0.31833181955932999 0 0.20777431361625601 -0.33831058893907762 0 0.18864170350563411 -0.33720407153827198 0 0.18802618722583669 -0.31833181955932999 0 0.20777431361625601 -0.33831058893907762 0 0.20282381327660201 -0.31505297042611552 0 0.18802618722583669 -0.31833181955932999 0 0.20282381327660201 -0.31505297042611552 0 0.18802618722583669 -0.31833181955932999 0 0.1976485991634879 -0.30796138879627621 0 0.20282381327660201 -0.31505297042611552 0 0.18802618722583669 -0.31833181955932999 0 0.18802618722583669 -0.31833181955932999 0 0.1791507244663583 -0.32983729973660558 0 0.16791254130802971 -0.3227885891963716 0 0.18802618722583669 -0.31833181955932999 0 0.17151825735526699 -0.31325416760549368 0 0.16791254130802971 -0.3227885891963716 0 0.18802618722583669 -0.31833181955932999 0 0.16791254130802971 -0.3227885891963716 0 0.18864170350563411 -0.33720407153827198 0 0.18802618722583669 -0.31833181955932999 0 0.1791507244663583 -0.32983729973660558 0 0.17202246582593331 -0.34102471865244838 0 0.1791507244663583 -0.32983729973660558 0 0.16791254130802971 -0.3227885891963716 0 0.18787137947787569 -0.35180034780069419 0 0.18864170350563411 -0.33720407153827198 0 0.17202246582593331 -0.34102471865244838 0 0.18864170350563411 -0.33720407153827198 0 0.17202246582593331 -0.34102471865244838 0 0.1791507244663583 -0.32983729973660558 0 0.17202246582593331 -0.34102471865244838 0 0.1546435437787094 -0.34381338892778002 0 0.1557586906108582 -0.32786840018592928 0 0.17202246582593331 -0.34102471865244838 0 0.16791254130802971 -0.3227885891963716 0 0.1557586906108582 -0.32786840018592928 0 0.16791254130802971 -0.3227885891963716 0 0.1557586906108582 -0.32786840018592928 0 0.1602411687519314 -0.31190927739118429 0 0.17151825735526699 -0.31325416760549368 0 0.16791254130802971 -0.3227885891963716 0 0.1602411687519314 -0.31190927739118429 0 0.18787137947787569 -0.35180034780069419 0 0.17662324672053431 -0.35795823269279659 0 0.1910424400336663 -0.37547354736401328 0 0.17662324672053431 -0.35795823269279659 0 0.17035242753357599 -0.36877211446365682 0 0.1910424400336663 -0.37547354736401328 0 0.17035242753357599 -0.36877211446365682 0 0.1910424400336663 -0.37547354736401328 0 0.1737051017910701 -0.38004230502140057 0 0.18787137947787569 -0.35180034780069419 0 0.17202246582593331 -0.34102471865244838 0 0.17662324672053431 -0.35795823269279659 0 0.17202246582593331 -0.34102471865244838 0 0.17662324672053431 -0.35795823269279659 0 0.16265844046108829 -0.35526087104265458 0 0.17202246582593331 -0.34102471865244838 0 0.16265844046108829 -0.35526087104265458 0 0.1546435437787094 -0.34381338892778002 0 0.17662324672053431 -0.35795823269279659 0 0.16265844046108829 -0.35526087104265458 0 0.17035242753357599 -0.36877211446365682 0 0.16265844046108829 -0.35526087104265458 0 0.1569593121701936 -0.36832063090657668 0 0.17035242753357599 -0.36877211446365682 0 0.1569593121701936 -0.36832063090657668 0 0.17035242753357599 -0.36877211446365682 0 0.16307541855137739 -0.37743582412871929 0 0.14536400873927011 -0.3681220756701501 0 0.1426630499740982 -0.35652090160864008 0 0.13524945632583441 -0.37311377610700652 0 0.16265844046108829 -0.35526087104265458 0 0.1569593121701936 -0.36832063090657668 0 0.1426630499740982 -0.35652090160864008 0 0.14536400873927011 -0.3681220756701501 0 0.13524945632583441 -0.37311377610700652 0 0.14973869037300869 -0.38096853745143089 0 0.1569593121701936 -0.36832063090657668 0 0.14536400873927011 -0.3681220756701501 0 0.14973869037300869 -0.38096853745143089 0 0.1569593121701936 -0.36832063090657668 0 0.14536400873927011 -0.3681220756701501 0 0.1426630499740982 -0.35652090160864008 0 0.1546435437787094 -0.34381338892778002 0 0.1426630499740982 -0.35652090160864008 0 0.1424354920479888 -0.33775294740649747 0 0.16265844046108829 -0.35526087104265458 0 0.1546435437787094 -0.34381338892778002 0 0.1426630499740982 -0.35652090160864008 0 0.13449730155472761 -0.34743155680512378 0 0.12784456261830821 -0.36308533366748658 0 0.123981461538115 -0.35128285539313481 0 0.1426630499740982 -0.35652090160864008 0 0.13449730155472761 -0.34743155680512378 0 0.1424354920479888 -0.33775294740649747 0 0.1426630499740982 -0.35652090160864008 0 0.13449730155472761 -0.34743155680512378 0 0.12784456261830821 -0.36308533366748658 0 0.13449730155472761 -0.34743155680512378 0 0.13051916655351839 -0.33696304048325831 0 0.123981461538115 -0.35128285539313481 0 0.1426630499740982 -0.35652090160864008 0 0.12784456261830821 -0.36308533366748658 0 0.13524945632583441 -0.37311377610700652 0 0.12784456261830821 -0.36308533366748658 0 0.13524945632583441 -0.37311377610700652 0 0.12609635470998201 -0.38402791619100712 0 0.14855409589738661 -0.31441038212804873 0 0.1557586906108582 -0.32786840018592928 0 0.1602411687519314 -0.31190927739118429 0 0.1445015266660287 -0.32337949759917511 0 0.14855409589738661 -0.31441038212804873 0 0.13871327718005111 -0.31332369293528212 0 0.1445015266660287 -0.32337949759917511 0 0.14855409589738661 -0.31441038212804873 0 0.1557586906108582 -0.32786840018592928 0 0.1546435437787094 -0.34381338892778002 0 0.1557586906108582 -0.32786840018592928 0 0.1424354920479888 -0.33775294740649747 0 0.1445015266660287 -0.32337949759917511 0 0.1557586906108582 -0.32786840018592928 0 0.1424354920479888 -0.33775294740649747 0 0.1445015266660287 -0.32337949759917511 0 0.1424354920479888 -0.33775294740649747 0 0.13219802669416811 -0.32498852212276208 0 0.1424354920479888 -0.33775294740649747 0 0.13051916655351839 -0.33696304048325831 0 0.13219802669416811 -0.32498852212276208 0 0.13449730155472761 -0.34743155680512378 0 0.1424354920479888 -0.33775294740649747 0 0.13051916655351839 -0.33696304048325831 0 0.13051916655351839 -0.33696304048325831 0 0.13219802669416811 -0.32498852212276208 0 0.12260601330919629 -0.33072698382653798 0 0.1445015266660287 -0.32337949759917511 0 0.13219802669416811 -0.32498852212276208 0 0.13871327718005111 -0.31332369293528212 0 0.13219802669416811 -0.32498852212276208 0 0.1265219532001009 -0.3124330460259736 0 0.1192961391526948 -0.32261879728377291 0 0.13219802669416811 -0.32498852212276208 0 0.13871327718005111 -0.31332369293528212 0 0.1265219532001009 -0.3124330460259736 0 0.1265219532001009 -0.3124330460259736 0 0.1332586495603032 -0.30031372317270688 0 0.1198701537204314 -0.30089140532399938 0 0.1332586495603032 -0.30031372317270688 0 0.1242383748246253 -0.29131174999725179 0 0.1198701537204314 -0.30089140532399938 0 0.13871327718005111 -0.31332369293528212 0 0.1265219532001009 -0.3124330460259736 0 0.1332586495603032 -0.30031372317270688 0 0.13871327718005111 -0.31332369293528212 0 0.1332586495603032 -0.30031372317270688 0 0.147245411062319 -0.30441698656302629 0 0.14855409589738661 -0.31441038212804873 0 0.13871327718005111 -0.31332369293528212 0 0.147245411062319 -0.30441698656302629 0 0.147245411062319 -0.30441698656302629 0 0.15432967412725099 -0.29846298066074151 0 0.14327492933615671 -0.29425024746867751 0 0.1332586495603032 -0.30031372317270688 0 0.147245411062319 -0.30441698656302629 0 0.14327492933615671 -0.29425024746867751 0 0.147245411062319 -0.30441698656302629 0 0.15432967412725099 -0.29846298066074151 0 0.1602411687519314 -0.31190927739118429 0 0.14855409589738661 -0.31441038212804873 0 0.147245411062319 -0.30441698656302629 0 0.1602411687519314 -0.31190927739118429 0 0.15432967412725099 -0.29846298066074151 0 0.1517600770447052 -0.28164214899084639 0 0.14327492933615671 -0.29425024746867751 0 0.1517600770447052 -0.28164214899084639 0 0.14327492933615671 -0.29425024746867751 0 0.13646338677899769 -0.28546266283427663 0 0.1332586495603032 -0.30031372317270688 0 0.14327492933615671 -0.29425024746867751 0 0.13646338677899769 -0.28546266283427663 0 0.1332586495603032 -0.30031372317270688 0 0.13646338677899769 -0.28546266283427663 0 0.1242383748246253 -0.29131174999725179 0 0.13646338677899769 -0.28546266283427663 0 0.1233023238440631 -0.28097148456094378 0 0.1242383748246253 -0.29131174999725179 0 0.1517600770447052 -0.28164214899084639 0 0.13646338677899769 -0.28546266283427663 0 0.1311170075682456 -0.27142576198599933 0 0.1517600770447052 -0.28164214899084639 0 0.1311170075682456 -0.27142576198599933 0 0.1364827709165429 -0.26618641562940759 0 0.13646338677899769 -0.28546266283427663 0 0.1311170075682456 -0.27142576198599933 0 0.1233023238440631 -0.28097148456094378 0 0.1311170075682456 -0.27142576198599933 0 0.1364827709165429 -0.26618641562940759 0 0.1212054647883809 -0.25073068226796852 0 0.1364827709165429 -0.26618641562940759 0 0.13217397618885759 -0.25462043987800831 0 0.1212054647883809 -0.25073068226796852 0 0.1364827709165429 -0.26618641562940759 0 0.1212054647883809 -0.25073068226796852 0 0.1364827709165429 -0.26618641562940759 0 0.13217397618885759 -0.25462043987800831 0 0.14275904560399111 -0.25945725309375861 0 0.13217397618885759 -0.25462043987800831 0 0.1429630926125974 -0.2502577086919005 0 0.14275904560399111 -0.25945725309375861 0 0.1429630926125974 -0.2502577086919005 0 0.16574248336044761 -0.26746108990676593 0 0.1429630926125974 -0.2502577086919005 0 0.15128247879849499 -0.26292486595599002 0 0.16574248336044761 -0.26746108990676593 0 0.1429630926125974 -0.2502577086919005 0 0.16574248336044761 -0.26746108990676593 0 0.16001236861667459 -0.2513654190734112 0 0.1429630926125974 -0.2502577086919005 0 0.14275904560399111 -0.25945725309375861 0 0.15128247879849499 -0.26292486595599002 0 0.1364827709165429 -0.26618641562940759 0 0.14275904560399111 -0.25945725309375861 0 0.15128247879849499 -0.26292486595599002 0 0.1517600770447052 -0.28164214899084639 0 0.1364827709165429 -0.26618641562940759 0 0.15128247879849499 -0.26292486595599002 0 0.1517600770447052 -0.28164214899084639 0 0.15128247879849499 -0.26292486595599002 0 0.15776774232478771 -0.26956647822523339 0 0.1517600770447052 -0.28164214899084639 0 0.1311170075682456 -0.27142576198599933 0 0.1517600770447052 -0.28164214899084639 0 0.1364827709165429 -0.26618641562940759 0 0.1517600770447052 -0.28164214899084639 0 0.16209364730358741 -0.27452888323759039 0 0.16594555478614451 -0.28284233368471318 0 0.1517600770447052 -0.28164214899084639 0 0.16209364730358741 -0.27452888323759039 0 0.15776774232478771 -0.26956647822523339 0 0.16209364730358741 -0.27452888323759039 0 0.15776774232478771 -0.26956647822523339 0 0.16574248336044761 -0.26746108990676593 0 0.15128247879849499 -0.26292486595599002 0 0.15776774232478771 -0.26956647822523339 0 0.16574248336044761 -0.26746108990676593 0 0.16209364730358741 -0.27452888323759039 0 0.16574248336044761 -0.26746108990676593 0 0.16920230535812411 -0.27329149954452342 0 0.16209364730358741 -0.27452888323759039 0 0.16920230535812411 -0.27329149954452342 0 0.16594555478614451 -0.28284233368471318 0 0.16920230535812411 -0.27329149954452342 0 0.1710222018321049 -0.28124575318360368 0 0.16594555478614451 -0.28284233368471318 0 0.16574248336044761 -0.26746108990676593 0 0.16001236861667459 -0.2513654190734112 0 0.16988601458932601 -0.2589500224365659 0 0.16574248336044761 -0.26746108990676593 0 0.16988601458932601 -0.2589500224365659 0 0.17628584543496439 -0.26683535894776161 0 0.16001236861667459 -0.2513654190734112 0 0.16988601458932601 -0.2589500224365659 0 0.16978669848249819 -0.25098739912941831 0 0.1767458594742066 -0.25730285456071711 0 0.17619278994504239 -0.24587918172992959 0 0.18399505531774341 -0.24981832115951039 0 0.16978669848249819 -0.25098739912941831 0 0.1767458594742066 -0.25730285456071711 0 0.17619278994504239 -0.24587918172992959 0 0.16988601458932601 -0.2589500224365659 0 0.16978669848249819 -0.25098739912941831 0 0.1767458594742066 -0.25730285456071711 0 0.16988601458932601 -0.2589500224365659 0 0.1767458594742066 -0.25730285456071711 0 0.17628584543496439 -0.26683535894776161 0 0.1767458594742066 -0.25730285456071711 0 0.17628584543496439 -0.26683535894776161 0 0.1845366839674035 -0.26640487959885623 0 0.1767458594742066 -0.25730285456071711 0 0.18706352147094041 -0.25756661524031438 0 0.1845366839674035 -0.26640487959885623 0 0.1767458594742066 -0.25730285456071711 0 0.18706352147094041 -0.25756661524031438 0 0.18399505531774341 -0.24981832115951039 0 0.18852187410829821 -0.28466447112163068 0 0.17628584543496439 -0.26683535894776161 0 0.1845366839674035 -0.26640487959885623 0 0.18852187410829821 -0.28466447112163068 0 0.16574248336044761 -0.26746108990676593 0 0.18852187410829821 -0.28466447112163068 0 0.16574248336044761 -0.26746108990676593 0 0.17628584543496439 -0.26683535894776161 0 0.16920230535812411 -0.27329149954452342 0 0.18747516626574931 -0.28692639975368628 0 0.17602993407772211 -0.2832030986568283 0 0.18852187410829821 -0.28466447112163068 0 0.16574248336044761 -0.26746108990676593 0 0.16920230535812411 -0.27329149954452342 0 0.16920230535812411 -0.27329149954452342 0 0.18747516626574931 -0.28692639975368628 0 0.16920230535812411 -0.27329149954452342 0 0.1710222018321049 -0.28124575318360368 0 0.17602993407772211 -0.2832030986568283 0 0.18747516626574931 -0.28692639975368628 0 0.1806905449634813 -0.28832929748571318 0 0.17602993407772211 -0.2832030986568283 0 0.18852187410829821 -0.28466447112163068 0 0.16920230535812411 -0.27329149954452342 0 0.18747516626574931 -0.28692639975368628 0 0.18747516626574931 -0.28692639975368628 0 0.1806905449634813 -0.28832929748571318 0 0.18301660310609241 -0.29114958545392738 0 0.17291101310642881 -0.28564608084835003 0 0.17864991096044419 -0.29495009963706692 0 0.16594555478614451 -0.28284233368471318 0 0.1806905449634813 -0.28832929748571318 0 0.17602993407772211 -0.2832030986568283 0 0.17673138357400531 -0.28840876668861409 0 0.17602993407772211 -0.2832030986568283 0 0.17673138357400531 -0.28840876668861409 0 0.17291101310642881 -0.28564608084835003 0 0.1710222018321049 -0.28124575318360368 0 0.17602993407772211 -0.2832030986568283 0 0.17291101310642881 -0.28564608084835003 0 0.17673138357400531 -0.28840876668861409 0 0.17291101310642881 -0.28564608084835003 0 0.17864991096044419 -0.29495009963706692 0 0.17673138357400531 -0.28840876668861409 0 0.17909088347012619 -0.29088019083727579 0 0.17864991096044419 -0.29495009963706692 0 0.1806905449634813 -0.28832929748571318 0 0.17673138357400531 -0.28840876668861409 0 0.17909088347012619 -0.29088019083727579 0 0.17909088347012619 -0.29088019083727579 0 0.17864991096044419 -0.29495009963706692 0 0.18114425154506539 -0.29221912984395187 0 0.18747516626574931 -0.28692639975368628 0 0.18734834214976739 -0.29514628785519947 0 0.1827564496500734 -0.29712351473235832 0 0.18747516626574931 -0.28692639975368628 0 0.18301660310609241 -0.29114958545392738 0 0.1827564496500734 -0.29712351473235832 0 0.18114425154506539 -0.29221912984395187 0 0.18301660310609241 -0.29114958545392738 0 0.1827564496500734 -0.29712351473235832 0 0.17864991096044419 -0.29495009963706692 0 0.18114425154506539 -0.29221912984395187 0 0.1827564496500734 -0.29712351473235832 0 0.18747516626574931 -0.28692639975368628 0 0.1827564496500734 -0.29712351473235832 0 0.1806905449634813 -0.28832929748571318 0 0.18114425154506539 -0.29221912984395187 0 0.18301660310609241 -0.29114958545392738 0 0.1806905449634813 -0.28832929748571318 0 0.17909088347012619 -0.29088019083727579 0 0.18114425154506539 -0.29221912984395187 0 0.18802618722583669 -0.31833181955932999 0 0.18221347423979239 -0.30458962683289892 0 0.1698931321352706 -0.29998698427508858 0 0.1880606218677118 -0.30022154946313712 0 0.18734834214976739 -0.29514628785519947 0 0.1827564496500734 -0.29712351473235832 0 0.19009702279388629 -0.3064242775921906 0 0.1880606218677118 -0.30022154946313712 0 0.18221347423979239 -0.30458962683289892 0 0.18802618722583669 -0.31833181955932999 0 0.17151825735526699 -0.31325416760549368 0 0.1698931321352706 -0.29998698427508858 0 0.1880606218677118 -0.30022154946313712 0 0.18221347423979239 -0.30458962683289892 0 0.1827564496500734 -0.29712351473235832 0 0.18802618722583669 -0.31833181955932999 0 0.1698931321352706 -0.29998698427508858 0 0.17864991096044419 -0.29495009963706692 0 0.1827564496500734 -0.29712351473235832 0 0.17837824174639511 -0.29916255636935318 0 0.18221347423979239 -0.30458962683289892 0 0.1827564496500734 -0.29712351473235832 0 0.17837824174639511 -0.29916255636935318 0 0.19009702279388629 -0.3064242775921906 0 0.18802618722583669 -0.31833181955932999 0 0.18221347423979239 -0.30458962683289892 0 0.18221347423979239 -0.30458962683289892 0 0.17837824174639511 -0.29916255636935318 0 0.1698931321352706 -0.29998698427508858 0 0.17864991096044419 -0.29495009963706692 0 0.17837824174639511 -0.29916255636935318 0 0.1698931321352706 -0.29998698427508858 0 0.17151825735526699 -0.31325416760549368 0 0.1698931321352706 -0.29998698427508858 0 0.1602411687519314 -0.31190927739118429 0 0.15432967412725099 -0.29846298066074151 0 0.1698931321352706 -0.29998698427508858 0 0.1602411687519314 -0.31190927739118429 0 0.1517600770447052 -0.28164214899084639 0 0.17864991096044419 -0.29495009963706692 0 0.1698931321352706 -0.29998698427508858 0 0.1517600770447052 -0.28164214899084639 0 0.1698931321352706 -0.29998698427508858 0 0.15432967412725099 -0.29846298066074151 0 0.1517600770447052 -0.28164214899084639 0 0.1698931321352706 -0.29998698427508858 0 0.1517600770447052 -0.28164214899084639 0 0.17864991096044419 -0.29495009963706692 0 0.1517600770447052 -0.28164214899084639 0 0.17864991096044419 -0.29495009963706692 0 0.16594555478614451 -0.28284233368471318 0 0.1710222018321049 -0.28124575318360368 0 0.17291101310642881 -0.28564608084835003 0 0.16594555478614451 -0.28284233368471318 0 0.21438456257476449 -0.5 0 0.2048745361024723 -0.48472171768082351 0 0.18744203257390391 -0.5 0 0.19122796324104871 -0.48466606029959602 0 0.2048745361024723 -0.48472171768082351 0 0.18744203257390391 -0.5 0 0.19122796324104871 -0.48466606029959602 0 0.20365346230900849 -0.47086657296764728 0 0.1938641377332887 -0.4633108835168005 0 0.19122796324104871 -0.48466606029959602 0 0.20365346230900849 -0.47086657296764728 0 0.2048745361024723 -0.48472171768082351 0 0.21766866328091511 -0.47157360957620892 0 0.2048745361024723 -0.48472171768082351 0 0.22288060450936709 -0.48400008360299168 0 0.20365346230900849 -0.47086657296764728 0 0.21766866328091511 -0.47157360957620892 0 0.2048745361024723 -0.48472171768082351 0 0.21438456257476449 -0.5 0 0.2048745361024723 -0.48472171768082351 0 0.22288060450936709 -0.48400008360299168 0 0.21438456257476449 -0.5 0 0.23633351028628971 -0.48712361601618398 0 0.2413270925756249 -0.5 0 0.21438456257476449 -0.5 0 0.23633351028628971 -0.48712361601618398 0 0.22288060450936709 -0.48400008360299168 0 0.25270961841775552 -0.48460016746525392 0 0.23633351028628971 -0.48712361601618398 0 0.2413270925756249 -0.5 0 0.25270961841775552 -0.48460016746525392 0 0.23633351028628971 -0.48712361601618398 0 0.23949561189523169 -0.47426551941090739 0 0.23949561189523169 -0.47426551941090739 0 0.22288060450936709 -0.48400008360299168 0 0.22545312399173489 -0.46028769725088831 0 0.21766866328091511 -0.47157360957620892 0 0.22288060450936709 -0.48400008360299168 0 0.22545312399173489 -0.46028769725088831 0 0.23633351028628971 -0.48712361601618398 0 0.23949561189523169 -0.47426551941090739 0 0.22288060450936709 -0.48400008360299168 0 0.22288060450936709 -0.48400008360299168 0 0.22545312399173489 -0.46028769725088831 0 0.21766866328091511 -0.47157360957620892 0 0.22545312399173489 -0.46028769725088831 0 0.2186728293425339 -0.44755637628226819 0 0.2588368117714554 -0.46700690363883102 0 0.23949561189523169 -0.47426551941090739 0 0.2409729068143365 -0.46262444708906358 0 0.22545312399173489 -0.46028769725088831 0 0.2409729068143365 -0.46262444708906358 0 0.24480843210435321 -0.45079661158300749 0 0.2588368117714554 -0.46700690363883102 0 0.2409729068143365 -0.46262444708906358 0 0.24480843210435321 -0.45079661158300749 0 0.23949561189523169 -0.47426551941090739 0 0.22545312399173489 -0.46028769725088831 0 0.2409729068143365 -0.46262444708906358 0 0.24480843210435321 -0.45079661158300749 0 0.22802564347410281 -0.43657531089878487 0 0.2418992233321238 -0.43333026798624508 0 0.25513396950241118 -0.43290986753561628 0 0.24480843210435321 -0.45079661158300749 0 0.2418992233321238 -0.43333026798624508 0 0.22545312399173489 -0.46028769725088831 0 0.22802564347410281 -0.43657531089878487 0 0.2186728293425339 -0.44755637628226819 0 0.21246462128442831 -0.43168381348743168 0 0.22802564347410281 -0.43657531089878487 0 0.22545312399173489 -0.46028769725088831 0 0.2186728293425339 -0.44755637628226819 0 0.22802564347410281 -0.43657531089878487 0 0.22545312399173489 -0.46028769725088831 0 0.24480843210435321 -0.45079661158300749 0 0.22802564347410281 -0.43657531089878487 0 0.20442019459899149 -0.44533796874460208 0 0.2186728293425339 -0.44755637628226819 0 0.21246462128442831 -0.43168381348743168 0 0.21766866328091511 -0.47157360957620892 0 0.20442019459899149 -0.44533796874460208 0 0.21766866328091511 -0.47157360957620892 0 0.20442019459899149 -0.44533796874460208 0 0.2186728293425339 -0.44755637628226819 0 0.20365346230900849 -0.47086657296764728 0 0.21766866328091511 -0.47157360957620892 0 0.20442019459899149 -0.44533796874460208 0 0.20365346230900849 -0.47086657296764728 0 0.20442019459899149 -0.44533796874460208 0 0.1938641377332887 -0.4633108835168005 0 0.20442019459899149 -0.44533796874460208 0 0.18484232774876749 -0.43033534366960768 0 0.18590039067086719 -0.44115637567916172 0 0.20442019459899149 -0.44533796874460208 0 0.18923595964957429 -0.45067509688328122 0 0.18590039067086719 -0.44115637567916172 0 0.20442019459899149 -0.44533796874460208 0 0.1938641377332887 -0.4633108835168005 0 0.18923595964957429 -0.45067509688328122 0 0.20442019459899149 -0.44533796874460208 0 0.1911717259170673 -0.41910232791299562 0 0.20473537155931409 -0.42802668409371708 0 0.20442019459899149 -0.44533796874460208 0 0.1911717259170673 -0.41910232791299562 0 0.20442019459899149 -0.44533796874460208 0 0.1911717259170673 -0.41910232791299562 0 0.18484232774876749 -0.43033534366960768 0 0.1911717259170673 -0.41910232791299562 0 0.21088494443676881 -0.41598262622983972 0 0.20473537155931409 -0.42802668409371708 0 0.18851111772050869 -0.41383358608972459 0 0.208966154163157 -0.40126827473642579 0 0.1911717259170673 -0.41910232791299562 0 0.21088494443676881 -0.41598262622983972 0 0.1911717259170673 -0.41910232791299562 0 0.18851111772050869 -0.41383358608972459 0 0.21088494443676881 -0.41598262622983972 0 0.18851111772050869 -0.41383358608972459 0 0.21088494443676881 -0.41598262622983972 0 0.208966154163157 -0.40126827473642579 0 0.1911717259170673 -0.41910232791299562 0 0.18851111772050869 -0.41383358608972459 0 0.21088494443676881 -0.41598262622983972 0 0.22155668588658281 -0.40529615173032069 0 0.208966154163157 -0.40126827473642579 0 0.21088494443676881 -0.41598262622983972 0 0.20473537155931409 -0.42802668409371708 0 0.21246462128442831 -0.43168381348743168 0 0.21088494443676881 -0.41598262622983972 0 0.21246462128442831 -0.43168381348743168 0 0.21959695705502991 -0.42408781639437282 0 0.20442019459899149 -0.44533796874460208 0 0.20473537155931409 -0.42802668409371708 0 0.21246462128442831 -0.43168381348743168 0 0.21246462128442831 -0.43168381348743168 0 0.21959695705502991 -0.42408781639437282 0 0.22802564347410281 -0.43657531089878487 0 0.22802564347410281 -0.43657531089878487 0 0.23614533994983331 -0.4244462479719151 0 0.23059816295646979 -0.4128629245466815 0 0.22802564347410281 -0.43657531089878487 0 0.23059816295646979 -0.4128629245466815 0 0.21959695705502991 -0.42408781639437282 0 0.22802564347410281 -0.43657531089878487 0 0.23059816295646979 -0.4128629245466815 0 0.22802564347410281 -0.43657531089878487 0 0.2418992233321238 -0.43333026798624508 0 0.23614533994983331 -0.4244462479719151 0 0.2418992233321238 -0.43333026798624508 0 0.23614533994983331 -0.4244462479719151 0 0.2453827316299185 -0.42192330194190181 0 0.25513396950241118 -0.43290986753561628 0 0.2418992233321238 -0.43333026798624508 0 0.2453827316299185 -0.42192330194190181 0 0.256136481120742 -0.41447562176841068 0 0.2453827316299185 -0.42192330194190181 0 0.24629253832767661 -0.41022035877505542 0 0.2453827316299185 -0.42192330194190181 0 0.24629253832767661 -0.41022035877505542 0 0.2366098857920339 -0.41191154353144788 0 0.23614533994983331 -0.4244462479719151 0 0.2366098857920339 -0.41191154353144788 0 0.23059816295646979 -0.4128629245466815 0 0.23614533994983331 -0.4244462479719151 0 0.2453827316299185 -0.42192330194190181 0 0.2366098857920339 -0.41191154353144788 0 0.24629253832767661 -0.41022035877505542 0 0.2366098857920339 -0.41191154353144788 0 0.2422505545635501 -0.40276464775944387 0 0.21088494443676881 -0.41598262622983972 0 0.23059816295646979 -0.4128629245466815 0 0.2366098857920339 -0.41191154353144788 0 0.23059816295646979 -0.4128629245466815 0 0.23156745731421779 -0.4039283829592023 0 0.23059816295646979 -0.4128629245466815 0 0.22155668588658281 -0.40529615173032069 0 0.23156745731421779 -0.4039283829592023 0 0.23059816295646979 -0.4128629245466815 0 0.23156745731421779 -0.4039283829592023 0 0.21088494443676881 -0.41598262622983972 0 0.23059816295646979 -0.4128629245466815 0 0.22155668588658281 -0.40529615173032069 0 0.21088494443676881 -0.41598262622983972 0 0.21959695705502991 -0.42408781639437282 0 0.23059816295646979 -0.4128629245466815 0 0.2366098857920339 -0.41191154353144788 0 0.23059816295646979 -0.4128629245466815 0 0.22155668588658281 -0.40529615173032069 0 0.22942119060580499 -0.38870296338312649 0 0.208966154163157 -0.40126827473642579 0 0.22155668588658281 -0.40529615173032069 0 0.23156745731421779 -0.4039283829592023 0 0.22942119060580499 -0.38870296338312649 0 0.22942119060580499 -0.38870296338312649 0 0.208966154163157 -0.40126827473642579 0 0.23156745731421779 -0.4039283829592023 0 0.24309899287842279 -0.39271330151873202 0 0.2422505545635501 -0.40276464775944387 0 0.2366098857920339 -0.41191154353144788 0 0.23156745731421779 -0.4039283829592023 0 0.2422505545635501 -0.40276464775944387 0 0.23156745731421779 -0.4039283829592023 0 0.24309899287842279 -0.39271330151873202 0 0.22942119060580499 -0.38870296338312649 0 0.25108303853213881 -0.40002667887407228 0 0.24629253832767661 -0.41022035877505542 0 0.2422505545635501 -0.40276464775944387 0 0.25108303853213881 -0.40002667887407228 0 0.24309899287842279 -0.39271330151873202 0 0.2422505545635501 -0.40276464775944387 0 0.24987622704845311 -0.37613765202982719 0 0.22942119060580499 -0.38870296338312649 0 0.24309899287842279 -0.39271330151873202 0 0.24987622704845311 -0.37613765202982719 0 0.22942119060580499 -0.38870296338312649 0 0.24987622704845311 -0.37613765202982719 0 0.23474048966473349 -0.38137370792841258 0 0.22942119060580499 -0.38870296338312649 0 0.25687819372407023 -0.38903915957053298 0 0.24309899287842279 -0.39271330151873202 0 0.24987622704845311 -0.37613765202982719 0 0.23679608458568241 -0.3713456781615978 0 0.24987622704845311 -0.37613765202982719 0 0.23474048966473349 -0.38137370792841258 0 0.23474048966473349 -0.38137370792841258 0 0.23010576568282681 -0.37607478874810818 0 0.22189277223980711 -0.38054577212349588 0 0.23474048966473349 -0.38137370792841258 0 0.22189277223980711 -0.38054577212349588 0 0.20961824525516401 -0.3936281247522696 0 0.23474048966473349 -0.38137370792841258 0 0.22942119060580499 -0.38870296338312649 0 0.20961824525516401 -0.3936281247522696 0 0.23679608458568241 -0.3713456781615978 0 0.23474048966473349 -0.38137370792841258 0 0.23010576568282681 -0.37607478874810818 0 0.23474048966473349 -0.38137370792841258 0 0.20961824525516401 -0.3936281247522696 0 0.22699371624108439 -0.37103399677892651 0 0.23010576568282681 -0.37607478874810818 0 0.22189277223980711 -0.38054577212349588 0 0.21663927632257499 -0.37152038636996992 0 0.22189277223980711 -0.38054577212349588 0 0.21119602619295649 -0.38157571206759561 0 0.21663927632257499 -0.37152038636996992 0 0.21119602619295649 -0.38157571206759561 0 0.20576161095015591 -0.37595213443190167 0 0.21119602619295649 -0.38157571206759561 0 0.20576161095015591 -0.37595213443190167 0 0.20229958674085519 -0.38616776423662919 0 0.21119602619295649 -0.38157571206759561 0 0.20961824525516401 -0.3936281247522696 0 0.20229958674085519 -0.38616776423662919 0 0.22189277223980711 -0.38054577212349588 0 0.21119602619295649 -0.38157571206759561 0 0.20961824525516401 -0.3936281247522696 0 0.22942119060580499 -0.38870296338312649 0 0.208966154163157 -0.40126827473642579 0 0.20961824525516401 -0.3936281247522696 0 0.20961824525516401 -0.3936281247522696 0 0.18449600084559339 -0.40588254157612419 0 0.20961824525516401 -0.3936281247522696 0 0.19262774622386039 -0.39991289132556063 0 0.20229958674085519 -0.38616776423662919 0 0.18851111772050869 -0.41383358608972459 0 0.20961824525516401 -0.3936281247522696 0 0.18449600084559339 -0.40588254157612419 0 0.19262774622386039 -0.39991289132556063 0 0.193172237845981 -0.38760648281860499 0 0.20229958674085519 -0.38616776423662919 0 0.20961824525516401 -0.3936281247522696 0 0.19262774622386039 -0.39991289132556063 0 0.18449600084559339 -0.40588254157612419 0 0.18851111772050869 -0.41383358608972459 0 0.208966154163157 -0.40126827473642579 0 0.20961824525516401 -0.3936281247522696 0 0.19262774622386039 -0.39991289132556063 0 0.18963514604776821 -0.39361523539988952 0 0.193172237845981 -0.38760648281860499 0 0.19262774622386039 -0.39991289132556063 0 0.18963514604776821 -0.39361523539988952 0 0.18221634088723479 -0.40136818287387582 0 0.18963514604776821 -0.39361523539988952 0 0.193172237845981 -0.38760648281860499 0 0.18267650324237161 -0.39405502657648112 0 0.193172237845981 -0.38760648281860499 0 0.1910424400336663 -0.37547354736401328 0 0.18267650324237161 -0.39405502657648112 0 0.20576161095015591 -0.37595213443190167 0 0.1910424400336663 -0.37547354736401328 0 0.20229958674085519 -0.38616776423662919 0 0.193172237845981 -0.38760648281860499 0 0.1910424400336663 -0.37547354736401328 0 0.20229958674085519 -0.38616776423662919 0 0.1910424400336663 -0.37547354736401328 0 0.17822948803450961 -0.38676940160015832 0 0.1737051017910701 -0.38004230502140057 0 0.1910424400336663 -0.37547354736401328 0 0.18267650324237161 -0.39405502657648112 0 0.1910424400336663 -0.37547354736401328 0 0.17822948803450961 -0.38676940160015832 0 0.18267650324237161 -0.39405502657648112 0 0.17822948803450961 -0.38676940160015832 0 0.17910183421640119 -0.39520059623836468 0 0.1646215608890387 -0.38907553280053181 0 0.17822948803450961 -0.38676940160015832 0 0.1737051017910701 -0.38004230502140057 0 0.1646215608890387 -0.38907553280053181 0 0.17822948803450961 -0.38676940160015832 0 0.18267650324237161 -0.39405502657648112 0 0.17910183421640119 -0.39520059623836468 0 0.18221634088723479 -0.40136818287387582 0 0.17910183421640119 -0.39520059623836468 0 0.15805845094365739 -0.40474493864538458 0 0.18963514604776821 -0.39361523539988952 0 0.18267650324237161 -0.39405502657648112 0 0.18221634088723479 -0.40136818287387582 0 0.18267650324237161 -0.39405502657648112 0 0.18221634088723479 -0.40136818287387582 0 0.17910183421640119 -0.39520059623836468 0 0.18221634088723479 -0.40136818287387582 0 0.17910183421640119 -0.39520059623836468 0 0.19262774622386039 -0.39991289132556063 0 0.18221634088723479 -0.40136818287387582 0 0.19262774622386039 -0.39991289132556063 0 0.18449600084559339 -0.40588254157612419 0 0.18221634088723479 -0.40136818287387582 0 0.18449600084559339 -0.40588254157612419 0 0.18221634088723479 -0.40136818287387582 0 0.17910183421640119 -0.39520059623836468 0 0.15805845094365739 -0.40474493864538458 0 0.1646215608890387 -0.38907553280053181 0 0.18221634088723479 -0.40136818287387582 0 0.15805845094365739 -0.40474493864538458 0 0.15805845094365739 -0.40474493864538458 0 0.1646215608890387 -0.38907553280053181 0 0.14706277844018539 -0.39464292458295508 0 0.1737051017910701 -0.38004230502140057 0 0.1646215608890387 -0.38907553280053181 0 0.16307541855137739 -0.37743582412871929 0 0.17035242753357599 -0.36877211446365682 0 0.1737051017910701 -0.38004230502140057 0 0.16307541855137739 -0.37743582412871929 0 0.1569593121701936 -0.36832063090657668 0 0.16307541855137739 -0.37743582412871929 0 0.14973869037300869 -0.38096853745143089 0 0.1646215608890387 -0.38907553280053181 0 0.16307541855137739 -0.37743582412871929 0 0.14973869037300869 -0.38096853745143089 0 0.1646215608890387 -0.38907553280053181 0 0.14973869037300869 -0.38096853745143089 0 0.14706277844018539 -0.39464292458295508 0 0.14973869037300869 -0.38096853745143089 0 0.1375772795987745 -0.38493757303029391 0 0.14706277844018539 -0.39464292458295508 0 0.13524945632583441 -0.37311377610700652 0 0.14973869037300869 -0.38096853745143089 0 0.1375772795987745 -0.38493757303029391 0 0.13524945632583441 -0.37311377610700652 0 0.1375772795987745 -0.38493757303029391 0 0.12609635470998201 -0.38402791619100712 0 0.1375772795987745 -0.38493757303029391 0 0.12609635470998201 -0.38402791619100712 0 0.13569313113510631 -0.39589912548093298 0 0.12645644117523869 -0.39722706905544619 0 0.13569313113510631 -0.39589912548093298 0 0.1339005610000801 -0.40812169441689322 0 0.12645644117523869 -0.39722706905544619 0 0.1339005610000801 -0.40812169441689322 0 0.1250254850364893 -0.40936224001308058 0 0.12609635470998201 -0.38402791619100712 0 0.12645644117523869 -0.39722706905544619 0 0.13569313113510631 -0.39589912548093298 0 0.1375772795987745 -0.38493757303029391 0 0.13569313113510631 -0.39589912548093298 0 0.14706277844018539 -0.39464292458295508 0 0.13569313113510631 -0.39589912548093298 0 0.14706277844018539 -0.39464292458295508 0 0.1339005610000801 -0.40812169441689322 0 0.13569313113510631 -0.39589912548093298 0 0.1339005610000801 -0.40812169441689322 0 0.15805845094365739 -0.40474493864538458 0 0.14706277844018539 -0.39464292458295508 0 0.1339005610000801 -0.40812169441689322 0 0.15805845094365739 -0.40474493864538458 0 0.1339005610000801 -0.40812169441689322 0 0.15805845094365739 -0.40474493864538458 0 0.15398562739609989 -0.414436145328195 0 0.14500783119440661 -0.41410657591589572 0 0.15805845094365739 -0.40474493864538458 0 0.14500783119440661 -0.41410657591589572 0 0.1339005610000801 -0.40812169441689322 0 0.15398562739609989 -0.414436145328195 0 0.15088002640467921 -0.42009116626417142 0 0.14500783119440661 -0.41410657591589572 0 0.15088002640467921 -0.42009116626417142 0 0.15979138776423191 -0.42406840149736191 0 0.15636365466176849 -0.41960526040447821 0 0.15398562739609989 -0.414436145328195 0 0.15088002640467921 -0.42009116626417142 0 0.15636365466176849 -0.41960526040447821 0 0.15088002640467921 -0.42009116626417142 0 0.14500783119440661 -0.41410657591589572 0 0.14354831806896931 -0.42663893719234869 0 0.14500783119440661 -0.41410657591589572 0 0.1339005610000801 -0.40812169441689322 0 0.13212255532719441 -0.42024495614079282 0 0.14500783119440661 -0.41410657591589572 0 0.13212255532719441 -0.42024495614079282 0 0.14354831806896931 -0.42663893719234869 0 0.1339005610000801 -0.40812169441689322 0 0.13212255532719441 -0.42024495614079282 0 0.13212255532719441 -0.42024495614079282 0 0.1250254850364893 -0.40936224001308058 0 0.117866085899093 -0.41583132647739651 0 0.13212255532719441 -0.42024495614079282 0 0.1250254850364893 -0.40936224001308058 0 0.1339005610000801 -0.40812169441689322 0 0.13212255532719441 -0.42024495614079282 0 0.1250254850364893 -0.40936224001308058 0 0.1339005610000801 -0.40812169441689322 0 0.1250254850364893 -0.40936224001308058 0 0.13212255532719441 -0.42024495614079282 0 0.14354831806896931 -0.42663893719234869 0 0.1460535583969573 -0.44160689079445481 0 0.13212255532719441 -0.42024495614079282 0 0.128223579302082 -0.44682997076052833 0 0.13212255532719441 -0.42024495614079282 0 0.128223579302082 -0.44682997076052833 0 0.1159996351348133 -0.43474120747525058 0 0.13212255532719441 -0.42024495614079282 0 0.1460535583969573 -0.44160689079445481 0 0.13212255532719441 -0.42024495614079282 0 0.1460535583969573 -0.44160689079445481 0 0.128223579302082 -0.44682997076052833 0 0.15088002640467921 -0.42009116626417142 0 0.14354831806896931 -0.42663893719234869 0 0.15979138776423191 -0.42406840149736191 0 0.14354831806896931 -0.42663893719234869 0 0.15979138776423191 -0.42406840149736191 0 0.14354831806896931 -0.42663893719234869 0 0.15423293294423909 -0.43386412417913311 0 0.1460535583969573 -0.44160689079445481 0 0.14354831806896931 -0.42663893719234869 0 0.15423293294423909 -0.43386412417913311 0 0.15979138776423191 -0.42406840149736191 0 0.15423293294423909 -0.43386412417913311 0 0.16088991666547389 -0.43196094602310392 0 0.16557730454712019 -0.44172028084172121 0 0.1713980071398 -0.42434598792645378 0 0.15979138776423191 -0.42406840149736191 0 0.1760344574594947 -0.42149786580237669 0 0.15423293294423909 -0.43386412417913311 0 0.16088991666547389 -0.43196094602310392 0 0.15979138776423191 -0.42406840149736191 0 0.15979138776423191 -0.42406840149736191 0 0.1760344574594947 -0.42149786580237669 0 0.16626302434537371 -0.43076979168845952 0 0.17509911994716071 -0.43336510097506958 0 0.16557730454712019 -0.44172028084172121 0 0.16088991666547389 -0.43196094602310392 0 0.16626302434537371 -0.43076979168845952 0 0.16557730454712019 -0.44172028084172121 0 0.16626302434537371 -0.43076979168845952 0 0.1713980071398 -0.42434598792645378 0 0.17509911994716071 -0.43336510097506958 0 0.16626302434537371 -0.43076979168845952 0 0.1713980071398 -0.42434598792645378 0 0.15979138776423191 -0.42406840149736191 0 0.16088991666547389 -0.43196094602310392 0 0.16626302434537371 -0.43076979168845952 0 0.15979138776423191 -0.42406840149736191 0 0.15636365466176849 -0.41960526040447821 0 0.16176651730702801 -0.41283252991975622 0 0.17042982775368151 -0.41274390099030239 0 0.18221634088723479 -0.40136818287387582 0 0.15805845094365739 -0.40474493864538458 0 0.17042982775368151 -0.41274390099030239 0 0.15979138776423191 -0.42406840149736191 0 0.15636365466176849 -0.41960526040447821 0 0.17042982775368151 -0.41274390099030239 0 0.15636365466176849 -0.41960526040447821 0 0.17042982775368151 -0.41274390099030239 0 0.15979138776423191 -0.42406840149736191 0 0.17042982775368151 -0.41274390099030239 0 0.1760344574594947 -0.42149786580237669 0 0.15398562739609989 -0.414436145328195 0 0.15636365466176849 -0.41960526040447821 0 0.16176651730702801 -0.41283252991975622 0 0.15805845094365739 -0.40474493864538458 0 0.15398562739609989 -0.414436145328195 0 0.16176651730702801 -0.41283252991975622 0 0.15805845094365739 -0.40474493864538458 0 0.16176651730702801 -0.41283252991975622 0 0.17042982775368151 -0.41274390099030239 0 0.17042982775368151 -0.41274390099030239 0 0.1760344574594947 -0.42149786580237669 0 0.17986785094481991 -0.4134894736146324 0 0.18449600084559339 -0.40588254157612419 0 0.17042982775368151 -0.41274390099030239 0 0.18449600084559339 -0.40588254157612419 0 0.18221634088723479 -0.40136818287387582 0 0.17042982775368151 -0.41274390099030239 0 0.18449600084559339 -0.40588254157612419 0 0.17042982775368151 -0.41274390099030239 0 0.17986785094481991 -0.4134894736146324 0 0.18851111772050869 -0.41383358608972459 0 0.18449600084559339 -0.40588254157612419 0 0.18851111772050869 -0.41383358608972459 0 0.18449600084559339 -0.40588254157612419 0 0.17986785094481991 -0.4134894736146324 0 0.18851111772050869 -0.41383358608972459 0 0.1760344574594947 -0.42149786580237669 0 0.1911717259170673 -0.41910232791299562 0 0.1760344574594947 -0.42149786580237669 0 0.18851111772050869 -0.41383358608972459 0 0.1760344574594947 -0.42149786580237669 0 0.17986785094481991 -0.4134894736146324 0 0.1911717259170673 -0.41910232791299562 0 0.18851111772050869 -0.41383358608972459 0 0.1760344574594947 -0.42149786580237669 0 0.1911717259170673 -0.41910232791299562 0 0.1760344574594947 -0.42149786580237669 0 0.18484232774876749 -0.43033534366960768 0 0.18484232774876749 -0.43033534366960768 0 0.17509911994716071 -0.43336510097506958 0 0.18590039067086719 -0.44115637567916172 0 0.18484232774876749 -0.43033534366960768 0 0.17509911994716071 -0.43336510097506958 0 0.17653319474121221 -0.42750765242104072 0 0.1713980071398 -0.42434598792645378 0 0.17509911994716071 -0.43336510097506958 0 0.17653319474121221 -0.42750765242104072 0 0.1760344574594947 -0.42149786580237669 0 0.18484232774876749 -0.43033534366960768 0 0.17653319474121221 -0.42750765242104072 0 0.1713980071398 -0.42434598792645378 0 0.1760344574594947 -0.42149786580237669 0 0.17653319474121221 -0.42750765242104072 0 0.1713980071398 -0.42434598792645378 0 0.1760344574594947 -0.42149786580237669 0 0.17791556380287959 -0.4455361086535346 0 0.17376504419967539 -0.46076368888843938 0 0.16557730454712019 -0.44172028084172121 0 0.17509911994716071 -0.43336510097506958 0 0.17791556380287959 -0.4455361086535346 0 0.18590039067086719 -0.44115637567916172 0 0.17509911994716071 -0.43336510097506958 0 0.17791556380287959 -0.4455361086535346 0 0.16557730454712019 -0.44172028084172121 0 0.18923595964957429 -0.45067509688328122 0 0.17791556380287959 -0.4455361086535346 0 0.18590039067086719 -0.44115637567916172 0 0.18923595964957429 -0.45067509688328122 0 0.17791556380287959 -0.4455361086535346 0 0.17376504419967539 -0.46076368888843938 0 0.1938641377332887 -0.4633108835168005 0 0.18923595964957429 -0.45067509688328122 0 0.17376504419967539 -0.46076368888843938 0 0.1938641377332887 -0.4633108835168005 0 0.17376504419967539 -0.46076368888843938 0 0.17718182015316611 -0.48165544175840053 0 0.17376504419967539 -0.46076368888843938 0 0.15550290350416551 -0.45157236434768988 0 0.1539044029471725 -0.46809795184702829 0 0.17376504419967539 -0.46076368888843938 0 0.16557730454712019 -0.44172028084172121 0 0.15550290350416551 -0.45157236434768988 0 0.15423293294423909 -0.43386412417913311 0 0.16557730454712019 -0.44172028084172121 0 0.15550290350416551 -0.45157236434768988 0 0.15423293294423909 -0.43386412417913311 0 0.15550290350416551 -0.45157236434768988 0 0.1460535583969573 -0.44160689079445481 0 0.15550290350416551 -0.45157236434768988 0 0.1460535583969573 -0.44160689079445481 0 0.14153074802588431 -0.45654190970348868 0 0.1460535583969573 -0.44160689079445481 0 0.128223579302082 -0.44682997076052833 0 0.14153074802588431 -0.45654190970348868 0 0.128223579302082 -0.44682997076052833 0 0.12432460327697011 -0.47341498538026422 0 0.128223579302082 -0.44682997076052833 0 0.14153074802588431 -0.45654190970348868 0 0.12432460327697011 -0.47341498538026422 0 0.1539044029471725 -0.46809795184702829 0 0.14153074802588431 -0.45654190970348868 0 0.12432460327697011 -0.47341498538026422 0 0.15550290350416551 -0.45157236434768988 0 0.1539044029471725 -0.46809795184702829 0 0.14153074802588431 -0.45654190970348868 0 0.1539044029471725 -0.46809795184702829 0 0.15048103374274721 -0.48484579871078243 0 0.12432460327697011 -0.47341498538026422 0 0.1404625649124509 -0.5 0 0.15048103374274721 -0.48484579871078243 0 0.12432460327697011 -0.47341498538026422 0 0.1404625649124509 -0.5 0 0.12042562725185831 -0.49999999999999989 0 0.12432460327697011 -0.47341498538026422 0 0.1404625649124509 -0.5 0 0.15048103374274721 -0.48484579871078243 0 0.16049950257304349 -0.50000000000000033 0 0.16049950257304349 -0.50000000000000033 0 0.17718182015316611 -0.48165544175840053 0 0.15048103374274721 -0.48484579871078243 0 0.16049950257304349 -0.50000000000000033 0 0.17718182015316611 -0.48165544175840053 0 0.17376504419967539 -0.46076368888843938 0 0.1539044029471725 -0.46809795184702829 0 0.17718182015316611 -0.48165544175840053 0 0.1539044029471725 -0.46809795184702829 0 0.15048103374274721 -0.48484579871078243 0 0.17718182015316611 -0.48165544175840053 0 0.1938641377332887 -0.4633108835168005 0 0.17718182015316611 -0.48165544175840053 0 0.19122796324104871 -0.48466606029959602 0 0.1938641377332887 -0.4633108835168005 0 0.17718182015316611 -0.48165544175840053 0 0.16049950257304349 -0.50000000000000033 0 0.17718182015316611 -0.48165544175840053 0 0.18744203257390391 -0.5 0 0.19122796324104871 -0.48466606029959602 0 0.17718182015316611 -0.48165544175840053 0 0.18744203257390391 -0.5 0 0.072018957471098571 -0.48629524479662273 0 0.069142552082564368 -0.5 0 0.082735946582200875 -0.4892045976485363 0 0.072018957471098571 -0.48629524479662273 0 0.079568506083734697 -0.4785915255016745 0 0.082735946582200875 -0.4892045976485363 0 0.072018957471098571 -0.48629524479662273 0 0.062670741706174135 -0.48944359682069549 0 0.064881374578912687 -0.4815757870058418 0 0.072018957471098571 -0.48629524479662273 0 0.069142552082564368 -0.5 0 0.062670741706174135 -0.48944359682069549 0 0.073180054077148754 -0.46968413697177741 0 0.079568506083734697 -0.4785915255016745 0 0.081395248040860374 -0.46160025678040811 0 0.067447632246636219 -0.45716428258124142 0 0.05849497948899289 -0.47642287528831911 0 0.061758178687080389 -0.47580514524370598 0 0.072018957471098571 -0.48629524479662273 0 0.064881374578912687 -0.4815757870058418 0 0.070673492561877091 -0.4782128222507579 0 0.064881374578912687 -0.4815757870058418 0 0.066280053791524171 -0.47680462027284459 0 0.061758178687080389 -0.47580514524370598 0 0.064881374578912687 -0.4815757870058418 0 0.066280053791524171 -0.47680462027284459 0 0.070673492561877091 -0.4782128222507579 0 0.066280053791524171 -0.47680462027284459 0 0.067807169338226503 -0.47162472659107291 0 0.061758178687080389 -0.47580514524370598 0 0.066280053791524171 -0.47680462027284459 0 0.067807169338226503 -0.47162472659107291 0 0.070673492561877091 -0.4782128222507579 0 0.067807169338226503 -0.47162472659107291 0 0.073180054077148754 -0.46968413697177741 0 0.070673492561877091 -0.4782128222507579 0 0.073180054077148754 -0.46968413697177741 0 0.070673492561877091 -0.4782128222507579 0 0.079568506083734697 -0.4785915255016745 0 0.072018957471098571 -0.48629524479662273 0 0.070673492561877091 -0.4782128222507579 0 0.079568506083734697 -0.4785915255016745 0 0.096876661376123455 -0.48080012839020431 0 0.081395248040860374 -0.46160025678040811 0 0.096876661376123455 -0.48080012839020431 0 0.095349939854524335 -0.46404107218864848 0 0.081395248040860374 -0.46160025678040811 0 0.079568506083734697 -0.4785915255016745 0 0.082735946582200875 -0.4892045976485363 0 0.096876661376123455 -0.48080012839020431 0 0.079568506083734697 -0.4785915255016745 0 0.096876661376123455 -0.48080012839020431 0 0.081395248040860374 -0.46160025678040811 0 0.090750313396975479 -0.5 0 0.082735946582200875 -0.4892045976485363 0 0.096876661376123455 -0.48080012839020431 0 0.069142552082564368 -0.5 0 0.090750313396975479 -0.5 0 0.082735946582200875 -0.4892045976485363 0 0.1123580747113867 -0.50000000000000033 0 0.1124728586670535 -0.48406595427175642 0 0.096876661376123455 -0.48080012839020431 0 0.090750313396975479 -0.5 0 0.1123580747113867 -0.50000000000000033 0 0.096876661376123455 -0.48080012839020431 0 0.1123580747113867 -0.50000000000000033 0 0.096876661376123455 -0.48080012839020431 0 0.1123580747113867 -0.50000000000000033 0 0.12042562725185831 -0.49999999999999989 0 0.1124728586670535 -0.48406595427175642 0 0.12042562725185831 -0.49999999999999989 0 0.1124728586670535 -0.48406595427175642 0 0.12432460327697011 -0.47341498538026422 0 0.12042562725185831 -0.49999999999999989 0 0.12432460327697011 -0.47341498538026422 0 0.1124728586670535 -0.48406595427175642 0 0.12432460327697011 -0.47341498538026422 0 0.1082250197838846 -0.46311527911574241 0 0.096876661376123455 -0.48080012839020431 0 0.095349939854524335 -0.46404107218864848 0 0.1082250197838846 -0.46311527911574241 0 0.1124728586670535 -0.48406595427175642 0 0.096876661376123455 -0.48080012839020431 0 0.1082250197838846 -0.46311527911574241 0 0.095349939854524335 -0.46404107218864848 0 0.1082250197838846 -0.46311527911574241 0 0.094902830217228867 -0.45064862446823939 0 0.128223579302082 -0.44682997076052833 0 0.12432460327697011 -0.47341498538026422 0 0.1082250197838846 -0.46311527911574241 0 0.128223579302082 -0.44682997076052833 0 0.1069391861142964 -0.44299064961396012 0 0.1159996351348133 -0.43474120747525058 0 0.128223579302082 -0.44682997076052833 0 0.1082250197838846 -0.46311527911574241 0 0.1069391861142964 -0.44299064961396012 0 0.1082250197838846 -0.46311527911574241 0 0.1069391861142964 -0.44299064961396012 0 0.094902830217228867 -0.45064862446823939 0 0.1069391861142964 -0.44299064961396012 0 0.091812697424993442 -0.4386357446441016 0 0.098414951810672224 -0.43233268446502993 0 0.1069391861142964 -0.44299064961396012 0 0.094902830217228867 -0.45064862446823939 0 0.091812697424993442 -0.4386357446441016 0 0.094902830217228867 -0.45064862446823939 0 0.091812697424993442 -0.4386357446441016 0 0.082434724511159588 -0.44537142502386151 0 0.094902830217228867 -0.45064862446823939 0 0.082434724511159588 -0.44537142502386151 0 0.081395248040860374 -0.46160025678040811 0 0.091812697424993442 -0.4386357446441016 0 0.082434724511159588 -0.44537142502386151 0 0.078149012167117934 -0.43357211405594609 0 0.095349939854524335 -0.46404107218864848 0 0.094902830217228867 -0.45064862446823939 0 0.081395248040860374 -0.46160025678040811 0 0.067447632246636219 -0.45716428258124142 0 0.065913834705597293 -0.44240038517061198 0 0.057068655694905858 -0.46015288389510001 0 0.067447632246636219 -0.45716428258124142 0 0.05849497948899289 -0.47642287528831911 0 0.067807169338226503 -0.47162472659107291 0 0.067447632246636219 -0.45716428258124142 0 0.061758178687080389 -0.47580514524370598 0 0.081395248040860374 -0.46160025678040811 0 0.067447632246636219 -0.45716428258124142 0 0.065913834705597293 -0.44240038517061198 0 0.073180054077148754 -0.46968413697177741 0 0.081395248040860374 -0.46160025678040811 0 0.067447632246636219 -0.45716428258124142 0 0.067807169338226503 -0.47162472659107291 0 0.073180054077148754 -0.46968413697177741 0 0.067447632246636219 -0.45716428258124142 0 0.081395248040860374 -0.46160025678040811 0 0.065913834705597293 -0.44240038517061198 0 0.082434724511159588 -0.44537142502386151 0 0.081395248040860374 -0.46160025678040811 0 0.065913834705597293 -0.44240038517061198 0 0.082434724511159588 -0.44537142502386151 0 0.065913834705597293 -0.44240038517061198 0 0.078149012167117934 -0.43357211405594609 0 0.065921365320016911 -0.4273577277455588 0 0.073982485551444349 -0.42005290588181732 0 0.078149012167117934 -0.43357211405594609 0 0.065913834705597293 -0.44240038517061198 0 0.065921365320016911 -0.4273577277455588 0 0.078149012167117934 -0.43357211405594609 0 0.073982485551444349 -0.42005290588181732 0 0.069775570718114244 -0.40426700169235308 0 0.060774245729122177 -0.41691050055794487 0 0.065921365320016911 -0.4273577277455588 0 0.073982485551444349 -0.42005290588181732 0 0.060774245729122177 -0.41691050055794487 0 0.073982485551444349 -0.42005290588181732 0 0.086447448161059384 -0.41120764722282821 0 0.069775570718114244 -0.40426700169235308 0 0.073982485551444349 -0.42005290588181732 0 0.086447448161059384 -0.41120764722282821 0 0.088692331433278357 -0.42535053834926723 0 0.086447448161059384 -0.41120764722282821 0 0.093827427438274241 -0.41775801958915132 0 0.099702730965631758 -0.41290181884877419 0 0.086447448161059384 -0.41120764722282821 0 0.088692331433278357 -0.42535053834926723 0 0.093827427438274241 -0.41775801958915132 0 0.088692331433278357 -0.42535053834926723 0 0.097645949564215143 -0.42435504664253748 0 0.093827427438274241 -0.41775801958915132 0 0.073982485551444349 -0.42005290588181732 0 0.088692331433278357 -0.42535053834926723 0 0.078149012167117934 -0.43357211405594609 0 0.091812697424993442 -0.4386357446441016 0 0.088692331433278357 -0.42535053834926723 0 0.078149012167117934 -0.43357211405594609 0 0.091812697424993442 -0.4386357446441016 0 0.088692331433278357 -0.42535053834926723 0 0.098414951810672224 -0.43233268446502993 0 0.098414951810672224 -0.43233268446502993 0 0.097645949564215143 -0.42435504664253748 0 0.1061961683754654 -0.43004895598907111 0 0.088692331433278357 -0.42535053834926723 0 0.098414951810672224 -0.43233268446502993 0 0.097645949564215143 -0.42435504664253748 0 0.1061961683754654 -0.43004895598907111 0 0.11152958735588871 -0.42539382439527612 0 0.1045809803654715 -0.42051706085107571 0 0.097645949564215143 -0.42435504664253748 0 0.1061961683754654 -0.43004895598907111 0 0.1045809803654715 -0.42051706085107571 0 0.1069391861142964 -0.44299064961396012 0 0.098414951810672224 -0.43233268446502993 0 0.1061961683754654 -0.43004895598907111 0 0.1061961683754654 -0.43004895598907111 0 0.1159996351348133 -0.43474120747525058 0 0.11152958735588871 -0.42539382439527612 0 0.13212255532719441 -0.42024495614079282 0 0.1159996351348133 -0.43474120747525058 0 0.11851153239627241 -0.42275952171654291 0 0.1069391861142964 -0.44299064961396012 0 0.1061961683754654 -0.43004895598907111 0 0.1159996351348133 -0.43474120747525058 0 0.1159996351348133 -0.43474120747525058 0 0.11152958735588871 -0.42539382439527612 0 0.11851153239627241 -0.42275952171654291 0 0.11152958735588871 -0.42539382439527612 0 0.11851153239627241 -0.42275952171654291 0 0.1123596205074209 -0.41890237594444008 0 0.1250254850364893 -0.40936224001308058 0 0.117866085899093 -0.41583132647739651 0 0.1096180349996463 -0.41151587164058129 0 0.1250254850364893 -0.40936224001308058 0 0.1096180349996463 -0.41151587164058129 0 0.13212255532719441 -0.42024495614079282 0 0.11851153239627241 -0.42275952171654291 0 0.117866085899093 -0.41583132647739651 0 0.117866085899093 -0.41583132647739651 0 0.1123596205074209 -0.41890237594444008 0 0.1096180349996463 -0.41151587164058129 0 0.11851153239627241 -0.42275952171654291 0 0.117866085899093 -0.41583132647739651 0 0.1123596205074209 -0.41890237594444008 0 0.11152958735588871 -0.42539382439527612 0 0.1123596205074209 -0.41890237594444008 0 0.1045809803654715 -0.42051706085107571 0 0.1123596205074209 -0.41890237594444008 0 0.1096180349996463 -0.41151587164058129 0 0.1065506547415149 -0.41613106226330793 0 0.1096180349996463 -0.41151587164058129 0 0.1065506547415149 -0.41613106226330793 0 0.099702730965631758 -0.41290181884877419 0 0.1096180349996463 -0.41151587164058129 0 0.099702730965631758 -0.41290181884877419 0 0.1096180349996463 -0.41151587164058129 0 0.099702730965631758 -0.41290181884877419 0 0.1041447551606165 -0.40305668800175581 0 0.1123596205074209 -0.41890237594444008 0 0.1065506547415149 -0.41613106226330793 0 0.1045809803654715 -0.42051706085107571 0 0.1065506547415149 -0.41613106226330793 0 0.1045809803654715 -0.42051706085107571 0 0.099702730965631758 -0.41290181884877419 0 0.1045809803654715 -0.42051706085107571 0 0.093827427438274241 -0.41775801958915132 0 0.099702730965631758 -0.41290181884877419 0 0.097645949564215143 -0.42435504664253748 0 0.1045809803654715 -0.42051706085107571 0 0.093827427438274241 -0.41775801958915132 0 0.086447448161059384 -0.41120764722282821 0 0.099702730965631758 -0.41290181884877419 0 0.095691580682652475 -0.39908469234235189 0 0.095691580682652475 -0.39908469234235189 0 0.1041447551606165 -0.40305668800175581 0 0.1115666739945345 -0.38872436917531578 0 0.099702730965631758 -0.41290181884877419 0 0.095691580682652475 -0.39908469234235189 0 0.1041447551606165 -0.40305668800175581 0 0.1096180349996463 -0.41151587164058129 0 0.1041447551606165 -0.40305668800175581 0 0.1115666739945345 -0.38872436917531578 0 0.1250254850364893 -0.40936224001308058 0 0.1115666739945345 -0.38872436917531578 0 0.1096180349996463 -0.41151587164058129 0 0.1115666739945345 -0.38872436917531578 0 0.1250254850364893 -0.40936224001308058 0 0.1096180349996463 -0.41151587164058129 0 0.1115666739945345 -0.38872436917531578 0 0.12645644117523869 -0.39722706905544619 0 0.1250254850364893 -0.40936224001308058 0 0.1115666739945345 -0.38872436917531578 0 0.12609635470998201 -0.38402791619100712 0 0.1115666739945345 -0.38872436917531578 0 0.113745377556003 -0.36324200547299851 0 0.1115666739945345 -0.38872436917531578 0 0.113745377556003 -0.36324200547299851 0 0.12609635470998201 -0.38402791619100712 0 0.12645644117523869 -0.39722706905544619 0 0.1115666739945345 -0.38872436917531578 0 0.1115666739945345 -0.38872436917531578 0 0.096372132326470572 -0.36542491223168638 0 0.1115666739945345 -0.38872436917531578 0 0.089853218628298884 -0.38394717958202601 0 0.096372132326470572 -0.36542491223168638 0 0.095691580682652475 -0.39908469234235189 0 0.1115666739945345 -0.38872436917531578 0 0.089853218628298884 -0.38394717958202601 0 0.089853218628298884 -0.38394717958202601 0 0.082924844884061683 -0.39714926844771359 0 0.072939106935086151 -0.38728773006234168 0 0.089853218628298884 -0.38394717958202601 0 0.072939106935086151 -0.38728773006234168 0 0.07582030708563034 -0.37256671738353597 0 0.095691580682652475 -0.39908469234235189 0 0.089853218628298884 -0.38394717958202601 0 0.082924844884061683 -0.39714926844771359 0 0.086447448161059384 -0.41120764722282821 0 0.082924844884061683 -0.39714926844771359 0 0.069775570718114244 -0.40426700169235308 0 0.086447448161059384 -0.41120764722282821 0 0.095691580682652475 -0.39908469234235189 0 0.082924844884061683 -0.39714926844771359 0 0.069775570718114244 -0.40426700169235308 0 0.072939106935086151 -0.38728773006234168 0 0.058313699768321348 -0.39007371912844929 0 0.082924844884061683 -0.39714926844771359 0 0.069775570718114244 -0.40426700169235308 0 0.072939106935086151 -0.38728773006234168 0 0.072939106935086151 -0.38728773006234168 0 0.05933500968155693 -0.37671477575793533 0 0.058313699768321348 -0.39007371912844929 0 0.072939106935086151 -0.38728773006234168 0 0.05933500968155693 -0.37671477575793533 0 0.07582030708563034 -0.37256671738353597 0 0.05933500968155693 -0.37671477575793533 0 0.043300396670470892 -0.38581293046691678 0 0.039079294002052851 -0.37065651216905859 0 0.05933500968155693 -0.37671477575793533 0 0.058313699768321348 -0.39007371912844929 0 0.043300396670470892 -0.38581293046691678 0 0.058313699768321348 -0.39007371912844929 0 0.0466875803122518 -0.39705513158652528 0 0.054373060569327003 -0.40663711634463268 0 0.069775570718114244 -0.40426700169235308 0 0.058313699768321348 -0.39007371912844929 0 0.054373060569327003 -0.40663711634463268 0 0.058313699768321348 -0.39007371912844929 0 0.054373060569327003 -0.40663711634463268 0 0.0466875803122518 -0.39705513158652528 0 0.042121557959679479 -0.40689397827368962 0 0.054373060569327003 -0.40663711634463268 0 0.058313699768321348 -0.39007371912844929 0 0.0466875803122518 -0.39705513158652528 0 0.043300396670470892 -0.38581293046691678 0 0.0466875803122518 -0.39705513158652528 0 0.032645317368698572 -0.39721328630736241 0 0.043300396670470892 -0.38581293046691678 0 0.0466875803122518 -0.39705513158652528 0 0.032645317368698572 -0.39721328630736241 0 0.042121557959679479 -0.40689397827368962 0 0.032645317368698572 -0.39721328630736241 0 0.043300396670470892 -0.38581293046691678 0 0.025542853711361019 -0.38384675294920401 0 0.043300396670470892 -0.38581293046691678 0 0.025542853711361019 -0.38384675294920401 0 0.039079294002052851 -0.37065651216905859 0 0.025542853711361019 -0.38384675294920401 0 0.009690974369139977 -0.39295199195252922 0 0.016784443680880379 -0.36713146693108112 0 -0.0064694903547723136 -0.38059021958606692 0 0.009690974369139977 -0.39295199195252922 0 0.016784443680880379 -0.36713146693108112 0 0.032645317368698572 -0.39721328630736241 0 0.009690974369139977 -0.39295199195252922 0 0.030062121183744069 -0.41560348860952728 0 0.032645317368698572 -0.39721328630736241 0 0.025542853711361019 -0.38384675294920401 0 0.009690974369139977 -0.39295199195252922 0 0.009690974369139977 -0.39295199195252922 0 0.030062121183744069 -0.41560348860952728 0 0.01224976062295041 -0.42183763890738629 0 -0.0080625817845775948 -0.40608726553411861 0 0.009690974369139977 -0.39295199195252922 0 0.01224976062295041 -0.42183763890738629 0 0.009690974369139977 -0.39295199195252922 0 0.01224976062295041 -0.42183763890738629 0 0.01224976062295041 -0.42183763890738629 0 0.01480854687676085 -0.45072328586224342 0 0.030062121183744069 -0.41560348860952728 0 0.01224976062295041 -0.42183763890738629 0 0.028535899264767479 -0.43733174884408438 0 0.01224976062295041 -0.42183763890738629 0 0.028535899264767479 -0.43733174884408438 0 0.01480854687676085 -0.45072328586224342 0 0.030062121183744069 -0.41560348860952728 0 0.028535899264767479 -0.43733174884408438 0 0.039909128579099777 -0.42893709763038412 0 0.039909128579099777 -0.42893709763038412 0 0.050432421370333713 -0.42320051356081623 0 0.04400553312424714 -0.45021417746364167 0 0.039909128579099777 -0.42893709763038412 0 0.046509667952406512 -0.41833555967385072 0 0.050432421370333713 -0.42320051356081623 0 0.032645317368698572 -0.39721328630736241 0 0.030062121183744069 -0.41560348860952728 0 0.042121557959679479 -0.40689397827368962 0 0.030062121183744069 -0.41560348860952728 0 0.039909128579099777 -0.42893709763038412 0 0.046509667952406512 -0.41833555967385072 0 0.030062121183744069 -0.41560348860952728 0 0.042121557959679479 -0.40689397827368962 0 0.046509667952406512 -0.41833555967385072 0 0.054373060569327003 -0.40663711634463268 0 0.050432421370333713 -0.42320051356081623 0 0.046509667952406512 -0.41833555967385072 0 0.054373060569327003 -0.40663711634463268 0 0.050432421370333713 -0.42320051356081623 0 0.054373060569327003 -0.40663711634463268 0 0.060774245729122177 -0.41691050055794487 0 0.050432421370333713 -0.42320051356081623 0 0.046509667952406512 -0.41833555967385072 0 0.050432421370333713 -0.42320051356081623 0 0.042121557959679479 -0.40689397827368962 0 0.046509667952406512 -0.41833555967385072 0 0.054373060569327003 -0.40663711634463268 0 0.069775570718114244 -0.40426700169235308 0 0.054373060569327003 -0.40663711634463268 0 0.060774245729122177 -0.41691050055794487 0 0.050432421370333713 -0.42320051356081623 0 0.04400553312424714 -0.45021417746364167 0 0.065913834705597293 -0.44240038517061198 0 0.050432421370333713 -0.42320051356081623 0 0.065913834705597293 -0.44240038517061198 0 0.065921365320016911 -0.4273577277455588 0 0.050432421370333713 -0.42320051356081623 0 0.065921365320016911 -0.4273577277455588 0 0.060774245729122177 -0.41691050055794487 0 0.050432421370333713 -0.42320051356081623 0 0.065913834705597293 -0.44240038517061198 0 0.050432421370333713 -0.42320051356081623 0 0.04400553312424714 -0.45021417746364167 0 0.065913834705597293 -0.44240038517061198 0 0.057068655694905858 -0.46015288389510001 0 0.04400553312424714 -0.45021417746364167 0 0.057068655694905858 -0.46015288389510001 0 0.048043393468649283 -0.46676160836513853 0 0.04400553312424714 -0.45021417746364167 0 0.067447632246636219 -0.45716428258124142 0 0.057068655694905858 -0.46015288389510001 0 0.05849497948899289 -0.47642287528831911 0 0.057068655694905858 -0.46015288389510001 0 0.048043393468649283 -0.46676160836513853 0 0.052635520687858477 -0.47072247146996382 0 0.04400553312424714 -0.45021417746364167 0 0.037578644878161642 -0.47722784136646751 0 0.048043393468649283 -0.46676160836513853 0 0.04400553312424714 -0.45021417746364167 0 0.037578644878161642 -0.47722784136646751 0 0.04400553312424714 -0.45021417746364167 0 0.030366658319331299 -0.45781827645911538 0 0.037578644878161642 -0.47722784136646751 0 0.028535899264767479 -0.43733174884408438 0 0.039909128579099777 -0.42893709763038412 0 0.04400553312424714 -0.45021417746364167 0 0.028535899264767479 -0.43733174884408438 0 0.04400553312424714 -0.45021417746364167 0 0.030366658319331299 -0.45781827645911538 0 0.028535899264767479 -0.43733174884408438 0 0.01480854687676085 -0.45072328586224342 0 0.030366658319331299 -0.45781827645911538 0 -0.008216644178786571 -0.4466179140804285 0 0.01224976062295041 -0.42183763890738629 0 0.01480854687676085 -0.45072328586224342 0 0.01480854687676085 -0.45072328586224342 0 0.017367333130571299 -0.47960893281710049 0 0.0084119176919832291 -0.471974008478943 0 -0.0021957942935651631 -0.46571035637089769 0 0.01480854687676085 -0.45072328586224342 0 0.0084119176919832291 -0.471974008478943 0 -0.008216644178786571 -0.4466179140804285 0 -0.0021957942935651631 -0.46571035637089769 0 0.01480854687676085 -0.45072328586224342 0 0.01480854687676085 -0.45072328586224342 0 0.017367333130571299 -0.47960893281710049 0 0.01480854687676085 -0.45072328586224342 0 0.030366658319331299 -0.45781827645911538 0 0.0269046674527194 -0.47359432875914009 0 0.01480854687676085 -0.45072328586224342 0 0.0269046674527194 -0.47359432875914009 0 0.017367333130571299 -0.47960893281710049 0 0.017367333130571299 -0.47960893281710049 0 0.012735562036971701 -0.48508522326900949 0 0.035615270762982369 -0.48075404927866472 0 0.012735562036971701 -0.48508522326900949 0 0.035615270762982369 -0.48075404927866472 0 0.0269046674527194 -0.47359432875914009 0 0.017367333130571299 -0.47960893281710049 0 0.035615270762982369 -0.48075404927866472 0 0.017367333130571299 -0.47960893281710049 0 0.0084119176919832291 -0.471974008478943 0 0.012735562036971701 -0.48508522326900949 0 -0.00065605929082254884 -0.47874224407546379 0 0.0084119176919832291 -0.471974008478943 0 0.012735562036971701 -0.48508522326900949 0 -0.0021957942935651631 -0.46571035637089769 0 -0.00065605929082254884 -0.47874224407546379 0 0.0084119176919832291 -0.471974008478943 0 -0.010144146689038991 -0.48941639725935437 0 -0.00065605929082254884 -0.47874224407546379 0 0.012735562036971701 -0.48508522326900949 0 -0.010144146689038991 -0.48941639725935437 0 0.012735562036971701 -0.48508522326900949 0 -0.011489863113854141 -0.5 0 0.012735562036971701 -0.48508522326900949 0 0.01802246382714956 -0.5 0 0.01802246382714956 -0.5 0 0.025329369399590369 -0.48901546815995378 0 0.047534790768153173 -0.50000000000000044 0 0.012735562036971701 -0.48508522326900949 0 0.025329369399590369 -0.48901546815995378 0 0.035615270762982369 -0.48075404927866472 0 0.012735562036971701 -0.48508522326900949 0 0.01802246382714956 -0.5 0 0.025329369399590369 -0.48901546815995378 0 0.025329369399590369 -0.48901546815995378 0 0.035615270762982369 -0.48075404927866472 0 0.047534790768153173 -0.50000000000000044 0 0.030366658319331299 -0.45781827645911538 0 0.0269046674527194 -0.47359432875914009 0 0.037578644878161642 -0.47722784136646751 0 0.0269046674527194 -0.47359432875914009 0 0.037578644878161642 -0.47722784136646751 0 0.035615270762982369 -0.48075404927866472 0 0.048043393468649283 -0.46676160836513853 0 0.037578644878161642 -0.47722784136646751 0 0.046296380844488463 -0.47463440362945558 0 0.035615270762982369 -0.48075404927866472 0 0.046296380844488463 -0.47463440362945558 0 0.049693011087844949 -0.4756354888466594 0 0.037578644878161642 -0.47722784136646751 0 0.035615270762982369 -0.48075404927866472 0 0.046296380844488463 -0.47463440362945558 0 0.057068655694905858 -0.46015288389510001 0 0.052635520687858477 -0.47072247146996382 0 0.05849497948899289 -0.47642287528831911 0 0.035615270762982369 -0.48075404927866472 0 0.049693011087844949 -0.4756354888466594 0 0.05849497948899289 -0.47642287528831911 0 0.035615270762982369 -0.48075404927866472 0 0.05849497948899289 -0.47642287528831911 0 0.048043393468649283 -0.46676160836513853 0 0.046296380844488463 -0.47463440362945558 0 0.052635520687858477 -0.47072247146996382 0 0.049693011087844949 -0.4756354888466594 0 0.052635520687858477 -0.47072247146996382 0 0.05849497948899289 -0.47642287528831911 0 0.046296380844488463 -0.47463440362945558 0 0.049693011087844949 -0.4756354888466594 0 0.052635520687858477 -0.47072247146996382 0 0.05849497948899289 -0.47642287528831911 0 0.061758178687080389 -0.47580514524370598 0 0.062670741706174135 -0.48944359682069549 0 0.064881374578912687 -0.4815757870058418 0 0.05849497948899289 -0.47642287528831911 0 0.064881374578912687 -0.4815757870058418 0 0.05849497948899289 -0.47642287528831911 0 0.061758178687080389 -0.47580514524370598 0 0.069142552082564368 -0.5 0 0.062670741706174135 -0.48944359682069549 0 0.047534790768153173 -0.50000000000000044 0 0.05849497948899289 -0.47642287528831911 0 0.047534790768153173 -0.50000000000000044 0 0.035615270762982369 -0.48075404927866472 0 0.05849497948899289 -0.47642287528831911 0 0.047534790768153173 -0.50000000000000044 0 0.062670741706174135 -0.48944359682069549 0 0.05849497948899289 -0.47642287528831911 0 0.047534790768153173 -0.50000000000000044 0 0.089727975817252392 -0.29646224842349211 0 0.069967983226982527 -0.30495776272600778 0 0.075483032258224086 -0.28815868119130272 0 0.089727975817252392 -0.29646224842349211 0 0.088503230311337153 -0.27716835087377989 0 0.101883582619993 -0.28460947857741209 0 0.089727975817252392 -0.29646224842349211 0 0.075483032258224086 -0.28815868119130272 0 0.088503230311337153 -0.27716835087377989 0 0.089727975817252392 -0.29646224842349211 0 0.086214248119208581 -0.31193359067875348 0 0.069967983226982527 -0.30495776272600778 0 0.089727975817252392 -0.29646224842349211 0 0.086214248119208581 -0.31193359067875348 0 0.10049372866807189 -0.31082656242210721 0 0.069967983226982527 -0.30495776272600778 0 0.075483032258224086 -0.28815868119130272 0 0.059449054433483903 -0.28956707473318272 0 0.075483032258224086 -0.28815868119130272 0 0.0646939085167762 -0.2722383315448984 0 0.059449054433483903 -0.28956707473318272 0 0.0646939085167762 -0.2722383315448984 0 0.077350866508299074 -0.27549126298099152 0 0.080723294946858856 -0.26439968831398508 0 0.075483032258224086 -0.28815868119130272 0 0.0646939085167762 -0.2722383315448984 0 0.077350866508299074 -0.27549126298099152 0 0.0646939085167762 -0.2722383315448984 0 0.070005134957367529 -0.25889031236374099 0 0.080723294946858856 -0.26439968831398508 0 0.070005134957367529 -0.25889031236374099 0 0.061490933840310687 -0.25382890142296882 0 0.070069103552599196 -0.24823964670048029 0 0.0646939085167762 -0.2722383315448984 0 0.070005134957367529 -0.25889031236374099 0 0.060614126731859473 -0.2624009925450973 0 0.070005134957367529 -0.25889031236374099 0 0.061490933840310687 -0.25382890142296882 0 0.060614126731859473 -0.2624009925450973 0 0.070005134957367529 -0.25889031236374099 0 0.080071368274292315 -0.25145738896057979 0 0.080723294946858856 -0.26439968831398508 0 0.070005134957367529 -0.25889031236374099 0 0.080071368274292315 -0.25145738896057979 0 0.070069103552599196 -0.24823964670048029 0 0.080071368274292315 -0.25145738896057979 0 0.080723294946858856 -0.26439968831398508 0 0.090706365013478091 -0.25245448435890872 0 0.080723294946858856 -0.26439968831398508 0 0.090706365013478091 -0.25245448435890872 0 0.095060577752172304 -0.26241188567384149 0 0.075483032258224086 -0.28815868119130272 0 0.077350866508299074 -0.27549126298099152 0 0.088503230311337153 -0.27716835087377989 0 0.077350866508299074 -0.27549126298099152 0 0.080723294946858856 -0.26439968831398508 0 0.088503230311337153 -0.27716835087377989 0 0.080723294946858856 -0.26439968831398508 0 0.088503230311337153 -0.27716835087377989 0 0.095060577752172304 -0.26241188567384149 0 0.088503230311337153 -0.27716835087377989 0 0.1016952336099234 -0.27235330725820578 0 0.101883582619993 -0.28460947857741209 0 0.088503230311337153 -0.27716835087377989 0 0.1016952336099234 -0.27235330725820578 0 0.095060577752172304 -0.26241188567384149 0 0.1016952336099234 -0.27235330725820578 0 0.1104739380917857 -0.2612093749811526 0 0.1125548392743288 -0.27636744618484282 0 0.1016952336099234 -0.27235330725820578 0 0.1125548392743288 -0.27636744618484282 0 0.101883582619993 -0.28460947857741209 0 0.090706365013478091 -0.25245448435890872 0 0.099550463170151926 -0.25262580003909579 0 0.095060577752172304 -0.26241188567384149 0 0.1016952336099234 -0.27235330725820578 0 0.095060577752172304 -0.26241188567384149 0 0.1104739380917857 -0.2612093749811526 0 0.099550463170151926 -0.25262580003909579 0 0.095060577752172304 -0.26241188567384149 0 0.1104739380917857 -0.2612093749811526 0 0.099550463170151926 -0.25262580003909579 0 0.1104739380917857 -0.2612093749811526 0 0.1078238037173969 -0.24832262031645649 0 0.1311170075682456 -0.27142576198599933 0 0.1104739380917857 -0.2612093749811526 0 0.1212054647883809 -0.25073068226796852 0 0.1104739380917857 -0.2612093749811526 0 0.1212054647883809 -0.25073068226796852 0 0.1078238037173969 -0.24832262031645649 0 0.1311170075682456 -0.27142576198599933 0 0.1104739380917857 -0.2612093749811526 0 0.1311170075682456 -0.27142576198599933 0 0.1104739380917857 -0.2612093749811526 0 0.1193620271946058 -0.27249351692823448 0 0.1104739380917857 -0.2612093749811526 0 0.1125548392743288 -0.27636744618484282 0 0.1193620271946058 -0.27249351692823448 0 0.1125548392743288 -0.27636744618484282 0 0.1193620271946058 -0.27249351692823448 0 0.1233023238440631 -0.28097148456094378 0 0.1311170075682456 -0.27142576198599933 0 0.1193620271946058 -0.27249351692823448 0 0.1233023238440631 -0.28097148456094378 0 0.1233023238440631 -0.28097148456094378 0 0.1242383748246253 -0.29131174999725179 0 0.1141297936923768 -0.28878453930630188 0 0.1242383748246253 -0.29131174999725179 0 0.1141297936923768 -0.28878453930630188 0 0.1198701537204314 -0.30089140532399938 0 0.1141297936923768 -0.28878453930630188 0 0.10622170970645189 -0.29895353846799488 0 0.1198701537204314 -0.30089140532399938 0 0.1125548392743288 -0.27636744618484282 0 0.1233023238440631 -0.28097148456094378 0 0.1141297936923768 -0.28878453930630188 0 0.1125548392743288 -0.27636744618484282 0 0.1141297936923768 -0.28878453930630188 0 0.101883582619993 -0.28460947857741209 0 0.089727975817252392 -0.29646224842349211 0 0.101883582619993 -0.28460947857741209 0 0.10622170970645189 -0.29895353846799488 0 0.1141297936923768 -0.28878453930630188 0 0.101883582619993 -0.28460947857741209 0 0.10622170970645189 -0.29895353846799488 0 0.089727975817252392 -0.29646224842349211 0 0.10049372866807189 -0.31082656242210721 0 0.10622170970645189 -0.29895353846799488 0 0.10049372866807189 -0.31082656242210721 0 0.10622170970645189 -0.29895353846799488 0 0.1134387524627216 -0.31086840579325631 0 0.10622170970645189 -0.29895353846799488 0 0.1134387524627216 -0.31086840579325631 0 0.1198701537204314 -0.30089140532399938 0 0.1265219532001009 -0.3124330460259736 0 0.1134387524627216 -0.31086840579325631 0 0.1198701537204314 -0.30089140532399938 0 0.1265219532001009 -0.3124330460259736 0 0.1134387524627216 -0.31086840579325631 0 0.1192961391526948 -0.32261879728377291 0 0.1134387524627216 -0.31086840579325631 0 0.1192961391526948 -0.32261879728377291 0 0.1082288303285789 -0.31948708523568958 0 0.1192961391526948 -0.32261879728377291 0 0.1093748658769356 -0.32997486192450581 0 0.1082288303285789 -0.31948708523568958 0 0.1192961391526948 -0.32261879728377291 0 0.1168506625355451 -0.3296807312869221 0 0.1093748658769356 -0.32997486192450581 0 0.1192961391526948 -0.32261879728377291 0 0.12260601330919629 -0.33072698382653798 0 0.1168506625355451 -0.3296807312869221 0 0.13219802669416811 -0.32498852212276208 0 0.1192961391526948 -0.32261879728377291 0 0.12260601330919629 -0.33072698382653798 0 0.13051916655351839 -0.33696304048325831 0 0.12260601330919629 -0.33072698382653798 0 0.1159240811174677 -0.33775964177068091 0 0.12260601330919629 -0.33072698382653798 0 0.1159240811174677 -0.33775964177068091 0 0.1161256318033537 -0.33540228211287182 0 0.12260601330919629 -0.33072698382653798 0 0.1168506625355451 -0.3296807312869221 0 0.1161256318033537 -0.33540228211287182 0 0.13051916655351839 -0.33696304048325831 0 0.1159240811174677 -0.33775964177068091 0 0.13051916655351839 -0.33696304048325831 0 0.1159240811174677 -0.33775964177068091 0 0.123981461538115 -0.35128285539313481 0 0.1159240811174677 -0.33775964177068091 0 0.1161256318033537 -0.33540228211287182 0 0.1168506625355451 -0.3296807312869221 0 0.1161256318033537 -0.33540228211287182 0 0.1093748658769356 -0.32997486192450581 0 0.1159240811174677 -0.33775964177068091 0 0.1161256318033537 -0.33540228211287182 0 0.1093748658769356 -0.32997486192450581 0 0.1159240811174677 -0.33775964177068091 0 0.092335912071574502 -0.33904708650077298 0 0.1159240811174677 -0.33775964177068091 0 0.1093748658769356 -0.32997486192450581 0 0.092335912071574502 -0.33904708650077298 0 0.1093748658769356 -0.32997486192450581 0 0.096347407600029022 -0.32440529872184809 0 0.092335912071574502 -0.33904708650077298 0 0.1159240811174677 -0.33775964177068091 0 0.10211321446004019 -0.35101158716873732 0 0.092335912071574502 -0.33904708650077298 0 0.086214248119208581 -0.31193359067875348 0 0.10049372866807189 -0.31082656242210721 0 0.096347407600029022 -0.32440529872184809 0 0.10049372866807189 -0.31082656242210721 0 0.1134387524627216 -0.31086840579325631 0 0.1082288303285789 -0.31948708523568958 0 0.10049372866807189 -0.31082656242210721 0 0.096347407600029022 -0.32440529872184809 0 0.1082288303285789 -0.31948708523568958 0 0.1093748658769356 -0.32997486192450581 0 0.096347407600029022 -0.32440529872184809 0 0.1082288303285789 -0.31948708523568958 0 0.12784456261830821 -0.36308533366748658 0 0.12609635470998201 -0.38402791619100712 0 0.113745377556003 -0.36324200547299851 0 0.1159240811174677 -0.33775964177068091 0 0.113745377556003 -0.36324200547299851 0 0.123981461538115 -0.35128285539313481 0 0.1159240811174677 -0.33775964177068091 0 0.113745377556003 -0.36324200547299851 0 0.1159240811174677 -0.33775964177068091 0 0.113745377556003 -0.36324200547299851 0 0.10211321446004019 -0.35101158716873732 0 0.12784456261830821 -0.36308533366748658 0 0.113745377556003 -0.36324200547299851 0 0.123981461538115 -0.35128285539313481 0 0.1115666739945345 -0.38872436917531578 0 0.113745377556003 -0.36324200547299851 0 0.096372132326470572 -0.36542491223168638 0 0.113745377556003 -0.36324200547299851 0 0.10211321446004019 -0.35101158716873732 0 0.096372132326470572 -0.36542491223168638 0 0.089853218628298884 -0.38394717958202601 0 0.096372132326470572 -0.36542491223168638 0 0.07582030708563034 -0.37256671738353597 0 0.096372132326470572 -0.36542491223168638 0 0.082110249222110576 -0.35466523699539548 0 0.07582030708563034 -0.37256671738353597 0 0.10211321446004019 -0.35101158716873732 0 0.096372132326470572 -0.36542491223168638 0 0.082110249222110576 -0.35466523699539548 0 0.082110249222110576 -0.35466523699539548 0 0.092335912071574502 -0.33904708650077298 0 0.068747743025681235 -0.34033453123086538 0 0.10211321446004019 -0.35101158716873732 0 0.082110249222110576 -0.35466523699539548 0 0.092335912071574502 -0.33904708650077298 0 0.082110249222110576 -0.35466523699539548 0 0.068747743025681235 -0.34033453123086538 0 0.057272186363266697 -0.35960658745677498 0 0.082110249222110576 -0.35466523699539548 0 0.07582030708563034 -0.37256671738353597 0 0.057272186363266697 -0.35960658745677498 0 0.05933500968155693 -0.37671477575793533 0 0.07582030708563034 -0.37256671738353597 0 0.057272186363266697 -0.35960658745677498 0 0.086214248119208581 -0.31193359067875348 0 0.096347407600029022 -0.32440529872184809 0 0.078030795921920637 -0.32434601069550512 0 0.092335912071574502 -0.33904708650077298 0 0.068747743025681235 -0.34033453123086538 0 0.078030795921920637 -0.32434601069550512 0 0.092335912071574502 -0.33904708650077298 0 0.068747743025681235 -0.34033453123086538 0 0.096347407600029022 -0.32440529872184809 0 0.092335912071574502 -0.33904708650077298 0 0.078030795921920637 -0.32434601069550512 0 0.068747743025681235 -0.34033453123086538 0 0.078030795921920637 -0.32434601069550512 0 0.053863538987460123 -0.3232816795844588 0 0.069967983226982527 -0.30495776272600778 0 0.078030795921920637 -0.32434601069550512 0 0.053863538987460123 -0.3232816795844588 0 0.086214248119208581 -0.31193359067875348 0 0.069967983226982527 -0.30495776272600778 0 0.078030795921920637 -0.32434601069550512 0 0.068747743025681235 -0.34033453123086538 0 0.045159573979787898 -0.34162197596095778 0 0.068747743025681235 -0.34033453123086538 0 0.053863538987460123 -0.3232816795844588 0 0.045159573979787898 -0.34162197596095778 0 0.053863538987460123 -0.3232816795844588 0 0.034832013842728909 -0.33032259781876938 0 0.045159573979787898 -0.34162197596095778 0 0.034832013842728909 -0.33032259781876938 0 0.045159573979787898 -0.34162197596095778 0 0.02157140493389462 -0.34290942069105018 0 0.045159573979787898 -0.34162197596095778 0 0.02157140493389462 -0.34290942069105018 0 0.053863538987460123 -0.3232816795844588 0 0.034832013842728909 -0.33032259781876938 0 0.03621734991660093 -0.31670946998547028 0 0.053863538987460123 -0.3232816795844588 0 0.03621734991660093 -0.31670946998547028 0 0.048768037075517537 -0.30442990221103089 0 0.05933500968155693 -0.37671477575793533 0 0.057272186363266697 -0.35960658745677498 0 0.039079294002052851 -0.37065651216905859 0 0.068747743025681235 -0.34033453123086538 0 0.045159573979787898 -0.34162197596095778 0 0.057272186363266697 -0.35960658745677498 0 0.045159573979787898 -0.34162197596095778 0 0.034512899630155462 -0.3545258348651717 0 0.02157140493389462 -0.34290942069105018 0 0.045159573979787898 -0.34162197596095778 0 0.057272186363266697 -0.35960658745677498 0 0.034512899630155462 -0.3545258348651717 0 0.057272186363266697 -0.35960658745677498 0 0.034512899630155462 -0.3545258348651717 0 0.039079294002052851 -0.37065651216905859 0 0.025542853711361019 -0.38384675294920401 0 0.039079294002052851 -0.37065651216905859 0 0.016784443680880379 -0.36713146693108112 0 0.034512899630155462 -0.3545258348651717 0 0.039079294002052851 -0.37065651216905859 0 0.016784443680880379 -0.36713146693108112 0 0.034512899630155462 -0.3545258348651717 0 0.016784443680880379 -0.36713146693108112 0 0.02157140493389462 -0.34290942069105018 0 -0.0043130761299947744 -0.35643483176966217 0 0.016784443680880379 -0.36713146693108112 0 0.02157140493389462 -0.34290942069105018 0 -0.0038616663111063101 -0.33241552487502413 0 -0.0043130761299947744 -0.35643483176966217 0 0.02157140493389462 -0.34290942069105018 0 -0.0043130761299947744 -0.35643483176966217 0 -0.0064694903547723136 -0.38059021958606692 0 0.016784443680880379 -0.36713146693108112 0 0.03621734991660093 -0.31670946998547028 0 0.020048637459846991 -0.32439583124448262 0 0.029165048793799431 -0.30349547286963757 0 0.034832013842728909 -0.33032259781876938 0 0.03621734991660093 -0.31670946998547028 0 0.020048637459846991 -0.32439583124448262 0 0.020048637459846991 -0.32439583124448262 0 0.0094652366165251054 -0.31053241408104548 0 0.029165048793799431 -0.30349547286963757 0 0.034832013842728909 -0.33032259781876938 0 0.020048637459846991 -0.32439583124448262 0 0.02157140493389462 -0.34290942069105018 0 -0.0038616663111063101 -0.33241552487502413 0 0.020048637459846991 -0.32439583124448262 0 0.02157140493389462 -0.34290942069105018 0 -0.0038616663111063101 -0.33241552487502413 0 0.020048637459846991 -0.32439583124448262 0 0.0094652366165251054 -0.31053241408104548 0 -0.01007927323019326 -0.3103345258507364 0 0.0094652366165251054 -0.31053241408104548 0 0.0017563221397047381 -0.2997067901486577 0 0.0094652366165251054 -0.31053241408104548 0 0.0017563221397047381 -0.2997067901486577 0 0.017453688627786131 -0.29322190620108468 0 0.0017563221397047381 -0.2997067901486577 0 0.0066437179820165657 -0.2861171845936395 0 0.017453688627786131 -0.29322190620108468 0 -0.0080748459131490501 -0.2914060437848453 0 0.0017563221397047381 -0.2997067901486577 0 0.0066437179820165657 -0.2861171845936395 0 0.0066437179820165657 -0.2861171845936395 0 0.017453688627786131 -0.29322190620108468 0 0.01908241754038794 -0.28073467218482329 0 0.017453688627786131 -0.29322190620108468 0 0.029398966714908509 -0.28692964748338379 0 0.029165048793799431 -0.30349547286963757 0 0.017453688627786131 -0.29322190620108468 0 0.029398966714908509 -0.28692964748338379 0 0.01908241754038794 -0.28073467218482329 0 0.0094652366165251054 -0.31053241408104548 0 0.017453688627786131 -0.29322190620108468 0 0.029165048793799431 -0.30349547286963757 0 0.03621734991660093 -0.31670946998547028 0 0.029165048793799431 -0.30349547286963757 0 0.048768037075517537 -0.30442990221103089 0 0.029165048793799431 -0.30349547286963757 0 0.043029943860180789 -0.28970337243015992 0 0.048768037075517537 -0.30442990221103089 0 0.029398966714908509 -0.28692964748338379 0 0.029165048793799431 -0.30349547286963757 0 0.043029943860180789 -0.28970337243015992 0 0.029398966714908509 -0.28692964748338379 0 0.043029943860180789 -0.28970337243015992 0 0.038396769586432553 -0.27977596087564799 0 0.043029943860180789 -0.28970337243015992 0 0.051749435803858171 -0.27840569125857739 0 0.038396769586432553 -0.27977596087564799 0 0.043029943860180789 -0.28970337243015992 0 0.059449054433483903 -0.28956707473318272 0 0.051749435803858171 -0.27840569125857739 0 0.043029943860180789 -0.28970337243015992 0 0.059449054433483903 -0.28956707473318272 0 0.048768037075517537 -0.30442990221103089 0 0.069967983226982527 -0.30495776272600778 0 0.059449054433483903 -0.28956707473318272 0 0.048768037075517537 -0.30442990221103089 0 0.069967983226982527 -0.30495776272600778 0 0.053863538987460123 -0.3232816795844588 0 0.048768037075517537 -0.30442990221103089 0 0.053380735395516472 -0.25867595766617779 0 0.04428054005230446 -0.26275141268032309 0 0.045372505498807933 -0.25408090721008542 0 0.053380735395516472 -0.25867595766617779 0 0.053158010572478251 -0.26777612517812432 0 0.04428054005230446 -0.26275141268032309 0 0.053380735395516472 -0.25867595766617779 0 0.045372505498807933 -0.25408090721008542 0 0.05268811686830014 -0.24901610311096159 0 0.053380735395516472 -0.25867595766617779 0 0.061490933840310687 -0.25382890142296882 0 0.05268811686830014 -0.24901610311096159 0 0.053380735395516472 -0.25867595766617779 0 0.060614126731859473 -0.2624009925450973 0 0.053158010572478251 -0.26777612517812432 0 0.053380735395516472 -0.25867595766617779 0 0.061490933840310687 -0.25382890142296882 0 0.060614126731859473 -0.2624009925450973 0 0.0646939085167762 -0.2722383315448984 0 0.060614126731859473 -0.2624009925450973 0 0.053158010572478251 -0.26777612517812432 0 0.0646939085167762 -0.2722383315448984 0 0.059449054433483903 -0.28956707473318272 0 0.051749435803858171 -0.27840569125857739 0 0.0646939085167762 -0.2722383315448984 0 0.051749435803858171 -0.27840569125857739 0 0.053158010572478251 -0.26777612517812432 0 0.053158010572478251 -0.26777612517812432 0 0.044229316934554799 -0.27218436537367241 0 0.04428054005230446 -0.26275141268032309 0 0.051749435803858171 -0.27840569125857739 0 0.053158010572478251 -0.26777612517812432 0 0.044229316934554799 -0.27218436537367241 0 0.044229316934554799 -0.27218436537367241 0 0.031885251388666561 -0.26470215361104171 0 0.04428054005230446 -0.26275141268032309 0 0.051749435803858171 -0.27840569125857739 0 0.044229316934554799 -0.27218436537367241 0 0.038396769586432553 -0.27977596087564799 0 0.044229316934554799 -0.27218436537367241 0 0.038396769586432553 -0.27977596087564799 0 0.029696712261103771 -0.27487286106778819 0 0.029398966714908509 -0.28692964748338379 0 0.038396769586432553 -0.27977596087564799 0 0.029696712261103771 -0.27487286106778819 0 0.044229316934554799 -0.27218436537367241 0 0.031885251388666561 -0.26470215361104171 0 0.029696712261103771 -0.27487286106778819 0 0.037315510146954597 -0.25849363249326118 0 0.031885251388666561 -0.26470215361104171 0 0.04428054005230446 -0.26275141268032309 0 0.037315510146954597 -0.25849363249326118 0 0.031885251388666561 -0.26470215361104171 0 0.03069464768829987 -0.25176037071845259 0 0.037315510146954597 -0.25849363249326118 0 0.04428054005230446 -0.26275141268032309 0 0.045372505498807933 -0.25408090721008542 0 0.045372505498807933 -0.25408090721008542 0 0.03069464768829987 -0.25176037071845259 0 0.042588116356466379 -0.2448823624008481 0 0.037315510146954597 -0.25849363249326118 0 0.045372505498807933 -0.25408090721008542 0 0.03069464768829987 -0.25176037071845259 0 0.031885251388666561 -0.26470215361104171 0 0.021199614426200629 -0.26114166245967918 0 0.019908913466960752 -0.27058631964059482 0 0.031885251388666561 -0.26470215361104171 0 0.03069464768829987 -0.25176037071845259 0 0.021199614426200629 -0.26114166245967918 0 0.03069464768829987 -0.25176037071845259 0 0.021199614426200629 -0.26114166245967918 0 0.016145176335298529 -0.25210595968411048 0 0.029398966714908509 -0.28692964748338379 0 0.029696712261103771 -0.27487286106778819 0 0.01908241754038794 -0.28073467218482329 0 0.031885251388666561 -0.26470215361104171 0 0.029696712261103771 -0.27487286106778819 0 0.019908913466960752 -0.27058631964059482 0 0.019908913466960752 -0.27058631964059482 0 0.01908241754038794 -0.28073467218482329 0 0.01128192931255503 -0.27464126756021451 0 0.029696712261103771 -0.27487286106778819 0 0.019908913466960752 -0.27058631964059482 0 0.01908241754038794 -0.28073467218482329 0 -0.01145854626600548 -0.26602311564559261 0 0.01128192931255503 -0.27464126756021451 0 0.0057158633005241696 -0.26337829885565528 0 0.0066437179820165657 -0.2861171845936395 0 0.01908241754038794 -0.28073467218482329 0 0.01128192931255503 -0.27464126756021451 0 0.019908913466960752 -0.27058631964059482 0 0.01128192931255503 -0.27464126756021451 0 0.0057158633005241696 -0.26337829885565528 0 -0.002848760243290064 -0.27761611820401882 0 0.0066437179820165657 -0.2861171845936395 0 0.01128192931255503 -0.27464126756021451 0 0.016145176335298529 -0.25210595968411048 0 0.0057158633005241696 -0.26337829885565528 0 0.0054759062840018038 -0.25064707341720888 0 0.021199614426200629 -0.26114166245967918 0 0.019908913466960752 -0.27058631964059482 0 0.0057158633005241696 -0.26337829885565528 0 0.021199614426200629 -0.26114166245967918 0 0.016145176335298529 -0.25210595968411048 0 0.0057158633005241696 -0.26337829885565528 0 -0.0009620894167222515 -0.25496392916579452 0 0.0057158633005241696 -0.26337829885565528 0 0.0054759062840018038 -0.25064707341720888 0 -0.0009620894167222515 -0.25496392916579452 0 -0.0029313858115674811 -0.24854412401401971 0 0.0054759062840018038 -0.25064707341720888 0 0.0054759062840018038 -0.25064707341720888 0 0.0026199421412959989 -0.2430643023623929 0 0.011589873569895199 -0.24127835128668559 0 -0.0029313858115674811 -0.24854412401401971 0 0.0054759062840018038 -0.25064707341720888 0 0.0026199421412959989 -0.2430643023623929 0 0.016145176335298529 -0.25210595968411048 0 0.0054759062840018038 -0.25064707341720888 0 0.011589873569895199 -0.24127835128668559 0 0.011589873569895199 -0.24127835128668559 0 0.010668172172219499 -0.2272828987723072 0 0.020574075722817331 -0.2351284197632682 0 0.0026199421412959989 -0.2430643023623929 0 0.011589873569895199 -0.24127835128668559 0 0.0017465435191736189 -0.23378549097037141 0 -0.00080535468136348092 -0.21995366459000901 0 0.010668172172219499 -0.2272828987723072 0 0.01016515501406726 -0.20926501301563591 0 -0.00080535468136348092 -0.21995366459000901 0 0.0017465435191736189 -0.23378549097037141 0 0.010668172172219499 -0.2272828987723072 0 0.010668172172219499 -0.2272828987723072 0 0.02170661161633574 -0.22145314359659171 0 0.01016515501406726 -0.20926501301563591 0 0.011589873569895199 -0.24127835128668559 0 0.0017465435191736189 -0.23378549097037141 0 0.010668172172219499 -0.2272828987723072 0 0.010668172172219499 -0.2272828987723072 0 0.02170661161633574 -0.22145314359659171 0 0.020574075722817331 -0.2351284197632682 0 0.02170661161633574 -0.22145314359659171 0 0.02866695829179056 -0.22960637228307629 0 0.036392787169896093 -0.22322562645731159 0 0.02170661161633574 -0.22145314359659171 0 0.02866695829179056 -0.22960637228307629 0 0.020574075722817331 -0.2351284197632682 0 0.02866695829179056 -0.22960637228307629 0 0.020574075722817331 -0.2351284197632682 0 0.032071787069821417 -0.24054619649286721 0 0.022195152742869501 -0.2444300013669817 0 0.020574075722817331 -0.2351284197632682 0 0.032071787069821417 -0.24054619649286721 0 0.03069464768829987 -0.25176037071845259 0 0.022195152742869501 -0.2444300013669817 0 0.032071787069821417 -0.24054619649286721 0 0.03069464768829987 -0.25176037071845259 0 0.016145176335298529 -0.25210595968411048 0 0.022195152742869501 -0.2444300013669817 0 0.016145176335298529 -0.25210595968411048 0 0.011589873569895199 -0.24127835128668559 0 0.022195152742869501 -0.2444300013669817 0 0.011589873569895199 -0.24127835128668559 0 0.022195152742869501 -0.2444300013669817 0 0.020574075722817331 -0.2351284197632682 0 -0.003739977245034012 -0.19168309442994089 0 0.010514116253606281 -0.1925853606064957 0 0.01016515501406726 -0.20926501301563591 0 0.010514116253606281 -0.1925853606064957 0 0.01016515501406726 -0.20926501301563591 0 0.018596641755985681 -0.20049862993462389 0 0.02170661161633574 -0.22145314359659171 0 0.01016515501406726 -0.20926501301563591 0 0.028304225500431591 -0.20785134554231141 0 0.01016515501406726 -0.20926501301563591 0 0.028304225500431591 -0.20785134554231141 0 0.018596641755985681 -0.20049862993462389 0 0.02170661161633574 -0.22145314359659171 0 0.028304225500431591 -0.20785134554231141 0 0.036392787169896093 -0.22322562645731159 0 0.028304225500431591 -0.20785134554231141 0 0.018596641755985681 -0.20049862993462389 0 0.02540307025583758 -0.19229280057405279 0 0.010514116253606281 -0.1925853606064957 0 0.018596641755985681 -0.20049862993462389 0 0.02540307025583758 -0.19229280057405279 0 0.010514116253606281 -0.1925853606064957 0 0.02540307025583758 -0.19229280057405279 0 0.015764016274472759 -0.1812646672695073 0 0.02540307025583758 -0.19229280057405279 0 0.041440672425083092 -0.19607701236864419 0 0.030421272951226121 -0.1778391783376792 0 0.028304225500431591 -0.20785134554231141 0 0.02540307025583758 -0.19229280057405279 0 0.041440672425083092 -0.19607701236864419 0 0.041440672425083092 -0.19607701236864419 0 0.042310424588804782 -0.2140630995529598 0 0.055497750511994078 -0.2086068857692274 0 0.028304225500431591 -0.20785134554231141 0 0.041440672425083092 -0.19607701236864419 0 0.042310424588804782 -0.2140630995529598 0 0.028304225500431591 -0.20785134554231141 0 0.042310424588804782 -0.2140630995529598 0 0.036392787169896093 -0.22322562645731159 0 0.042310424588804782 -0.2140630995529598 0 0.055497750511994078 -0.2086068857692274 0 0.052955454276687589 -0.2198291654371925 0 0.062338921595789062 -0.21792006704763969 0 0.055497750511994078 -0.2086068857692274 0 0.052955454276687589 -0.2198291654371925 0 0.062338921595789062 -0.21792006704763969 0 0.055497750511994078 -0.2086068857692274 0 0.067863046951983474 -0.20503048868511209 0 0.055497750511994078 -0.2086068857692274 0 0.056257937900538298 -0.19577788601322099 0 0.067863046951983474 -0.20503048868511209 0 0.041440672425083092 -0.19607701236864419 0 0.056257937900538298 -0.19577788601322099 0 0.051449240160577621 -0.1762857105508405 0 0.041440672425083092 -0.19607701236864419 0 0.055497750511994078 -0.2086068857692274 0 0.056257937900538298 -0.19577788601322099 0 0.040491861427302538 -0.2355872617630255 0 0.042588116356466379 -0.2448823624008481 0 0.052307832003780613 -0.23884346229351339 0 0.040491861427302538 -0.2355872617630255 0 0.045866106706223042 -0.22907627795895011 0 0.052307832003780613 -0.23884346229351339 0 0.03069464768829987 -0.25176037071845259 0 0.042588116356466379 -0.2448823624008481 0 0.032071787069821417 -0.24054619649286721 0 0.040491861427302538 -0.2355872617630255 0 0.042588116356466379 -0.2448823624008481 0 0.032071787069821417 -0.24054619649286721 0 0.02866695829179056 -0.22960637228307629 0 0.040491861427302538 -0.2355872617630255 0 0.032071787069821417 -0.24054619649286721 0 0.02866695829179056 -0.22960637228307629 0 0.040491861427302538 -0.2355872617630255 0 0.036392787169896093 -0.22322562645731159 0 0.042310424588804782 -0.2140630995529598 0 0.036392787169896093 -0.22322562645731159 0 0.045866106706223042 -0.22907627795895011 0 0.040491861427302538 -0.2355872617630255 0 0.036392787169896093 -0.22322562645731159 0 0.045866106706223042 -0.22907627795895011 0 0.045866106706223042 -0.22907627795895011 0 0.058764067980626958 -0.22947949685718549 0 0.052307832003780613 -0.23884346229351339 0 0.045866106706223042 -0.22907627795895011 0 0.052955454276687589 -0.2198291654371925 0 0.058764067980626958 -0.22947949685718549 0 0.042310424588804782 -0.2140630995529598 0 0.045866106706223042 -0.22907627795895011 0 0.052955454276687589 -0.2198291654371925 0 0.062338921595789062 -0.21792006704763969 0 0.058764067980626958 -0.22947949685718549 0 0.065719467571416057 -0.22489822263154319 0 0.062338921595789062 -0.21792006704763969 0 0.052955454276687589 -0.2198291654371925 0 0.058764067980626958 -0.22947949685718549 0 0.058764067980626958 -0.22947949685718549 0 0.062159259289524899 -0.2368834247622158 0 0.052307832003780613 -0.23884346229351339 0 0.062159259289524899 -0.2368834247622158 0 0.052307832003780613 -0.23884346229351339 0 0.061229972926465738 -0.2445427902389527 0 0.045372505498807933 -0.25408090721008542 0 0.042588116356466379 -0.2448823624008481 0 0.05268811686830014 -0.24901610311096159 0 0.042588116356466379 -0.2448823624008481 0 0.052307832003780613 -0.23884346229351339 0 0.05268811686830014 -0.24901610311096159 0 0.061490933840310687 -0.25382890142296882 0 0.05268811686830014 -0.24901610311096159 0 0.061229972926465738 -0.2445427902389527 0 0.052307832003780613 -0.23884346229351339 0 0.05268811686830014 -0.24901610311096159 0 0.061229972926465738 -0.2445427902389527 0 0.061490933840310687 -0.25382890142296882 0 0.061229972926465738 -0.2445427902389527 0 0.070069103552599196 -0.24823964670048029 0 0.061229972926465738 -0.2445427902389527 0 0.070069103552599196 -0.24823964670048029 0 0.069856411684105391 -0.23913895996007839 0 0.062159259289524899 -0.2368834247622158 0 0.061229972926465738 -0.2445427902389527 0 0.069856411684105391 -0.23913895996007839 0 0.062159259289524899 -0.2368834247622158 0 0.069856411684105391 -0.23913895996007839 0 0.067142239376285745 -0.23139328163069281 0 0.069856411684105391 -0.23913895996007839 0 0.077788170153509889 -0.24196191377257101 0 0.076767606518392539 -0.23187249677345001 0 0.080071368274292315 -0.25145738896057979 0 0.070069103552599196 -0.24823964670048029 0 0.077788170153509889 -0.24196191377257101 0 0.070069103552599196 -0.24823964670048029 0 0.069856411684105391 -0.23913895996007839 0 0.077788170153509889 -0.24196191377257101 0 0.080071368274292315 -0.25145738896057979 0 0.090706365013478091 -0.25245448435890872 0 0.085906732882507178 -0.24385162082211831 0 0.080071368274292315 -0.25145738896057979 0 0.077788170153509889 -0.24196191377257101 0 0.085906732882507178 -0.24385162082211831 0 0.077788170153509889 -0.24196191377257101 0 0.085906732882507178 -0.24385162082211831 0 0.083256636250354649 -0.23616880796388259 0 0.077788170153509889 -0.24196191377257101 0 0.083256636250354649 -0.23616880796388259 0 0.076767606518392539 -0.23187249677345001 0 0.085906732882507178 -0.24385162082211831 0 0.089657973372422345 -0.23730775202069579 0 0.094006026236525903 -0.2441335510050745 0 0.085906732882507178 -0.24385162082211831 0 0.083256636250354649 -0.23616880796388259 0 0.089657973372422345 -0.23730775202069579 0 0.083256636250354649 -0.23616880796388259 0 0.089657973372422345 -0.23730775202069579 0 0.089763789457938253 -0.2306791647953326 0 0.089657973372422345 -0.23730775202069579 0 0.089763789457938253 -0.2306791647953326 0 0.096012267649498176 -0.23702186761809721 0 0.089657973372422345 -0.23730775202069579 0 0.094006026236525903 -0.2441335510050745 0 0.096012267649498176 -0.23702186761809721 0 0.090706365013478091 -0.25245448435890872 0 0.085906732882507178 -0.24385162082211831 0 0.094006026236525903 -0.2441335510050745 0 0.086446736705125371 -0.22420087797706609 0 0.091303359373345411 -0.22339335178318359 0 0.089763789457938253 -0.2306791647953326 0 0.086446736705125371 -0.22420087797706609 0 0.091303359373345411 -0.22339335178318359 0 0.086853981468707001 -0.2185547472363609 0 0.091303359373345411 -0.22339335178318359 0 0.086853981468707001 -0.2185547472363609 0 0.09077468002378962 -0.21857675351640271 0 0.091303359373345411 -0.22339335178318359 0 0.09077468002378962 -0.21857675351640271 0 0.094530837428433365 -0.22086489816084981 0 0.091303359373345411 -0.22339335178318359 0 0.089763789457938253 -0.2306791647953326 0 0.098670227838192195 -0.22970514568366851 0 0.086446736705125371 -0.22420087797706609 0 0.089763789457938253 -0.2306791647953326 0 0.083020570332336119 -0.22791650227557511 0 0.083256636250354649 -0.23616880796388259 0 0.083020570332336119 -0.22791650227557511 0 0.076767606518392539 -0.23187249677345001 0 0.083256636250354649 -0.23616880796388259 0 0.089763789457938253 -0.2306791647953326 0 0.083020570332336119 -0.22791650227557511 0 0.083020570332336119 -0.22791650227557511 0 0.077930889523722374 -0.22519622511208121 0 0.076767606518392539 -0.23187249677345001 0 0.083020570332336119 -0.22791650227557511 0 0.081291982893300085 -0.22046062379487821 0 0.077930889523722374 -0.22519622511208121 0 0.086446736705125371 -0.22420087797706609 0 0.083020570332336119 -0.22791650227557511 0 0.081291982893300085 -0.22046062379487821 0 0.086446736705125371 -0.22420087797706609 0 0.081291982893300085 -0.22046062379487821 0 0.086853981468707001 -0.2185547472363609 0 0.081291982893300085 -0.22046062379487821 0 0.077930889523722374 -0.22519622511208121 0 0.073706539318973169 -0.21796036257100029 0 0.072234091795087663 -0.22574485878751241 0 0.065719467571416057 -0.22489822263154319 0 0.073706539318973169 -0.21796036257100029 0 0.077930889523722374 -0.22519622511208121 0 0.072234091795087663 -0.22574485878751241 0 0.073706539318973169 -0.21796036257100029 0 0.069856411684105391 -0.23913895996007839 0 0.076767606518392539 -0.23187249677345001 0 0.067142239376285745 -0.23139328163069281 0 0.072234091795087663 -0.22574485878751241 0 0.076767606518392539 -0.23187249677345001 0 0.067142239376285745 -0.23139328163069281 0 0.077930889523722374 -0.22519622511208121 0 0.072234091795087663 -0.22574485878751241 0 0.076767606518392539 -0.23187249677345001 0 0.058764067980626958 -0.22947949685718549 0 0.062159259289524899 -0.2368834247622158 0 0.067142239376285745 -0.23139328163069281 0 0.058764067980626958 -0.22947949685718549 0 0.067142239376285745 -0.23139328163069281 0 0.065719467571416057 -0.22489822263154319 0 0.072234091795087663 -0.22574485878751241 0 0.067142239376285745 -0.23139328163069281 0 0.065719467571416057 -0.22489822263154319 0 0.062338921595789062 -0.21792006704763969 0 0.065719467571416057 -0.22489822263154319 0 0.073706539318973169 -0.21796036257100029 0 0.062338921595789062 -0.21792006704763969 0 0.067863046951983474 -0.20503048868511209 0 0.073706539318973169 -0.21796036257100029 0 0.067863046951983474 -0.20503048868511209 0 0.073706539318973169 -0.21796036257100029 0 0.079094442607528917 -0.20913243433380641 0 0.067863046951983474 -0.20503048868511209 0 0.081482512553192915 -0.1953056794767786 0 0.079094442607528917 -0.20913243433380641 0 0.056257937900538298 -0.19577788601322099 0 0.067863046951983474 -0.20503048868511209 0 0.066040058368007956 -0.18964665730407451 0 0.067863046951983474 -0.20503048868511209 0 0.066040058368007956 -0.18964665730407451 0 0.081482512553192915 -0.1953056794767786 0 0.081482512553192915 -0.1953056794767786 0 0.095454742848087734 -0.19451486061966669 0 0.093505174579280592 -0.1731787749771625 0 0.081482512553192915 -0.1953056794767786 0 0.08833530696517819 -0.21036332105093219 0 0.095454742848087734 -0.19451486061966669 0 0.08833530696517819 -0.21036332105093219 0 0.097404311116896569 -0.21585094626217091 0 0.095454742848087734 -0.19451486061966669 0 0.081291982893300085 -0.22046062379487821 0 0.073706539318973169 -0.21796036257100029 0 0.082946926161669862 -0.2149195339015407 0 0.082946926161669862 -0.2149195339015407 0 0.079094442607528917 -0.20913243433380641 0 0.08833530696517819 -0.21036332105093219 0 0.073706539318973169 -0.21796036257100029 0 0.082946926161669862 -0.2149195339015407 0 0.079094442607528917 -0.20913243433380641 0 0.081291982893300085 -0.22046062379487821 0 0.082946926161669862 -0.2149195339015407 0 0.086853981468707001 -0.2185547472363609 0 0.081482512553192915 -0.1953056794767786 0 0.079094442607528917 -0.20913243433380641 0 0.08833530696517819 -0.21036332105093219 0 0.082946926161669862 -0.2149195339015407 0 0.08833530696517819 -0.21036332105093219 0 0.086853981468707001 -0.2185547472363609 0 0.08833530696517819 -0.21036332105093219 0 0.086853981468707001 -0.2185547472363609 0 0.09077468002378962 -0.21857675351640271 0 0.08833530696517819 -0.21036332105093219 0 0.09077468002378962 -0.21857675351640271 0 0.092213447725184278 -0.21529843562297729 0 0.08833530696517819 -0.21036332105093219 0 0.092213447725184278 -0.21529843562297729 0 0.097404311116896569 -0.21585094626217091 0 0.09077468002378962 -0.21857675351640271 0 0.094501608789943028 -0.21679829355882299 0 0.094530837428433365 -0.22086489816084981 0 0.09077468002378962 -0.21857675351640271 0 0.092213447725184278 -0.21529843562297729 0 0.094501608789943028 -0.21679829355882299 0 0.094501608789943028 -0.21679829355882299 0 0.097404311116896569 -0.21585094626217091 0 0.094530837428433365 -0.22086489816084981 0 0.092213447725184278 -0.21529843562297729 0 0.094501608789943028 -0.21679829355882299 0 0.097404311116896569 -0.21585094626217091 0 0.097404311116896569 -0.21585094626217091 0 0.095454742848087734 -0.19451486061966669 0 0.097404311116896569 -0.21585094626217091 0 0.1059898830346106 -0.20430933332548051 0 0.095454742848087734 -0.19451486061966669 0 0.097404311116896569 -0.21585094626217091 0 0.1089347031997706 -0.21297733173581901 0 0.1146171121197104 -0.21980430615730401 0 0.097404311116896569 -0.21585094626217091 0 0.1059898830346106 -0.20430933332548051 0 0.1089347031997706 -0.21297733173581901 0 0.095454742848087734 -0.19451486061966669 0 0.1128143282819509 -0.19216489626002589 0 0.10772522460311169 -0.17968171223372481 0 0.1059898830346106 -0.20430933332548051 0 0.095454742848087734 -0.19451486061966669 0 0.1128143282819509 -0.19216489626002589 0 0.1128143282819509 -0.19216489626002589 0 0.1237689835273371 -0.19605207676116951 0 0.1178461100078927 -0.20838697738218431 0 0.1059898830346106 -0.20430933332548051 0 0.1128143282819509 -0.19216489626002589 0 0.1178461100078927 -0.20838697738218431 0 0.1128143282819509 -0.19216489626002589 0 0.1237689835273371 -0.19605207676116951 0 0.1232013989280239 -0.1819146573535104 0 0.1089347031997706 -0.21297733173581901 0 0.1178461100078927 -0.20838697738218431 0 0.1146171121197104 -0.21980430615730401 0 0.1059898830346106 -0.20430933332548051 0 0.1089347031997706 -0.21297733173581901 0 0.1178461100078927 -0.20838697738218431 0 0.1178461100078927 -0.20838697738218431 0 0.1146171121197104 -0.21980430615730401 0 0.12895394136930069 -0.22163642029703709 0 0.1146171121197104 -0.21980430615730401 0 0.12018370186474731 -0.23305432747703519 0 0.12895394136930069 -0.22163642029703709 0 0.097404311116896569 -0.21585094626217091 0 0.1146171121197104 -0.21980430615730401 0 0.12018370186474731 -0.23305432747703519 0 0.1212054647883809 -0.25073068226796852 0 0.12018370186474731 -0.23305432747703519 0 0.1059281586602189 -0.23527494890652931 0 0.13217397618885759 -0.25462043987800831 0 0.1212054647883809 -0.25073068226796852 0 0.12018370186474731 -0.23305432747703519 0 0.1212054647883809 -0.25073068226796852 0 0.1059281586602189 -0.23527494890652931 0 0.1078238037173969 -0.24832262031645649 0 0.1212054647883809 -0.25073068226796852 0 0.1059281586602189 -0.23527494890652931 0 0.099550463170151926 -0.25262580003909579 0 0.1078238037173969 -0.24832262031645649 0 0.10103467245524091 -0.24298905409433241 0 0.1059281586602189 -0.23527494890652931 0 0.1078238037173969 -0.24832262031645649 0 0.10103467245524091 -0.24298905409433241 0 0.099550463170151926 -0.25262580003909579 0 0.10103467245524091 -0.24298905409433241 0 0.094006026236525903 -0.2441335510050745 0 0.090706365013478091 -0.25245448435890872 0 0.099550463170151926 -0.25262580003909579 0 0.094006026236525903 -0.2441335510050745 0 0.1059281586602189 -0.23527494890652931 0 0.10103467245524091 -0.24298905409433241 0 0.096012267649498176 -0.23702186761809721 0 0.10103467245524091 -0.24298905409433241 0 0.094006026236525903 -0.2441335510050745 0 0.096012267649498176 -0.23702186761809721 0 0.1059281586602189 -0.23527494890652931 0 0.096012267649498176 -0.23702186761809721 0 0.098670227838192195 -0.22970514568366851 0 0.089763789457938253 -0.2306791647953326 0 0.096012267649498176 -0.23702186761809721 0 0.098670227838192195 -0.22970514568366851 0 0.097404311116896569 -0.21585094626217091 0 0.12018370186474731 -0.23305432747703519 0 0.097404311116896569 -0.21585094626217091 0 0.12018370186474731 -0.23305432747703519 0 0.1059281586602189 -0.23527494890652931 0 0.097404311116896569 -0.21585094626217091 0 0.1059281586602189 -0.23527494890652931 0 0.098670227838192195 -0.22970514568366851 0 0.091303359373345411 -0.22339335178318359 0 0.098670227838192195 -0.22970514568366851 0 0.094530837428433365 -0.22086489816084981 0 0.097404311116896569 -0.21585094626217091 0 0.098670227838192195 -0.22970514568366851 0 0.094530837428433365 -0.22086489816084981 0 0.097404311116896569 -0.21585094626217091 0 0.098670227838192195 -0.22970514568366851 0 0.1071373084330472 -0.14482826815459701 0 0.1035248479174861 -0.15311019857333261 0 0.098760878024456711 -0.14050656481393209 0 0.1071373084330472 -0.14482826815459701 0 0.1035248479174861 -0.15311019857333261 0 0.1121477659277255 -0.1503271840913511 0 0.1035248479174861 -0.15311019857333261 0 0.098760878024456711 -0.14050656481393209 0 0.091560400862706559 -0.15189516094014111 0 0.098760878024456711 -0.14050656481393209 0 0.099399694252258627 -0.1328638184600745 0 0.089615627146132512 -0.13061154690311971 0 0.099399694252258627 -0.1328638184600745 0 0.099525338641528904 -0.12611341339503321 0 0.089615627146132512 -0.13061154690311971 0 0.099525338641528904 -0.12611341339503321 0 0.1096969331969164 -0.13422374872821319 0 0.1121708616464093 -0.1216807098986791 0 0.099399694252258627 -0.1328638184600745 0 0.099525338641528904 -0.12611341339503321 0 0.1096969331969164 -0.13422374872821319 0 0.098760878024456711 -0.14050656481393209 0 0.099399694252258627 -0.1328638184600745 0 0.1096969331969164 -0.13422374872821319 0 0.1071373084330472 -0.14482826815459701 0 0.098760878024456711 -0.14050656481393209 0 0.1096969331969164 -0.13422374872821319 0 0.1096969331969164 -0.13422374872821319 0 0.1155243526086871 -0.14484298486410191 0 0.12532898621889721 -0.13663811256420449 0 0.1096969331969164 -0.13422374872821319 0 0.11997683785091839 -0.1276371159963853 0 0.12532898621889721 -0.13663811256420449 0 0.1096969331969164 -0.13422374872821319 0 0.11997683785091839 -0.1276371159963853 0 0.1121708616464093 -0.1216807098986791 0 0.1217036921304827 -0.1482443959076799 0 0.1155243526086871 -0.14484298486410191 0 0.12532898621889721 -0.13663811256420449 0 0.1217036921304827 -0.1482443959076799 0 0.1155243526086871 -0.14484298486410191 0 0.1179114041550178 -0.15136128022523329 0 0.1071373084330472 -0.14482826815459701 0 0.1155243526086871 -0.14484298486410191 0 0.1121477659277255 -0.1503271840913511 0 0.1071373084330472 -0.14482826815459701 0 0.1096969331969164 -0.13422374872821319 0 0.1155243526086871 -0.14484298486410191 0 0.1035248479174861 -0.15311019857333261 0 0.1121477659277255 -0.1503271840913511 0 0.1169082366172023 -0.15609331882735419 0 0.1155243526086871 -0.14484298486410191 0 0.1121477659277255 -0.1503271840913511 0 0.1179114041550178 -0.15136128022523329 0 0.1121477659277255 -0.1503271840913511 0 0.1169082366172023 -0.15609331882735419 0 0.1179114041550178 -0.15136128022523329 0 0.1169082366172023 -0.15609331882735419 0 0.1179114041550178 -0.15136128022523329 0 0.12324902196630889 -0.15465793599018671 0 0.1217036921304827 -0.1482443959076799 0 0.1179114041550178 -0.15136128022523329 0 0.12324902196630889 -0.15465793599018671 0 0.1217036921304827 -0.1482443959076799 0 0.12324902196630889 -0.15465793599018671 0 0.12831016946945831 -0.1492440347933528 0 0.1035248479174861 -0.15311019857333261 0 0.12443417021765769 -0.1709717485187108 0 0.1227471198665283 -0.15880086614903269 0 0.12098675462827781 -0.16200852072179159 0 0.1290045142054978 -0.1612372837293575 0 0.1035248479174861 -0.15311019857333261 0 0.12443417021765769 -0.1709717485187108 0 0.12083528946942131 -0.1711597280255607 0 0.1035248479174861 -0.15311019857333261 0 0.12098675462827781 -0.16200852072179159 0 0.12443417021765769 -0.1709717485187108 0 0.1035248479174861 -0.15311019857333261 0 0.1169082366172023 -0.15609331882735419 0 0.12098675462827781 -0.16200852072179159 0 0.1169082366172023 -0.15609331882735419 0 0.1227471198665283 -0.15880086614903269 0 0.12098675462827781 -0.16200852072179159 0 0.1169082366172023 -0.15609331882735419 0 0.12324902196630889 -0.15465793599018671 0 0.1227471198665283 -0.15880086614903269 0 0.12098675462827781 -0.16200852072179159 0 0.12443417021765769 -0.1709717485187108 0 0.12715697753007521 -0.16591248018761531 0 0.1128143282819509 -0.19216489626002589 0 0.1232013989280239 -0.1819146573535104 0 0.1157139550245927 -0.18029465614444529 0 0.12083528946942131 -0.1711597280255607 0 0.1232013989280239 -0.1819146573535104 0 0.1157139550245927 -0.18029465614444529 0 0.12443417021765769 -0.1709717485187108 0 0.12083528946942131 -0.1711597280255607 0 0.1232013989280239 -0.1819146573535104 0 0.12083528946942131 -0.1711597280255607 0 0.1157139550245927 -0.18029465614444529 0 0.10772522460311169 -0.17968171223372481 0 0.1128143282819509 -0.19216489626002589 0 0.1157139550245927 -0.18029465614444529 0 0.10772522460311169 -0.17968171223372481 0 0.095454742848087734 -0.19451486061966669 0 0.10772522460311169 -0.17968171223372481 0 0.093505174579280592 -0.1731787749771625 0 0.12083528946942131 -0.1711597280255607 0 0.093505174579280592 -0.1731787749771625 0 0.095454742848087734 -0.19451486061966669 0 0.093505174579280592 -0.1731787749771625 0 0.12083528946942131 -0.1711597280255607 0 0.10772522460311169 -0.17968171223372481 0 0.093505174579280592 -0.1731787749771625 0 0.1035248479174861 -0.15311019857333261 0 0.093505174579280592 -0.1731787749771625 0 0.091560400862706559 -0.15189516094014111 0 0.1035248479174861 -0.15311019857333261 0 0.12083528946942131 -0.1711597280255607 0 0.093505174579280592 -0.1731787749771625 0 0.078133883947979807 -0.15717501910519549 0 0.093505174579280592 -0.1731787749771625 0 0.091560400862706559 -0.15189516094014111 0 0.078133883947979807 -0.15717501910519549 0 0.093505174579280592 -0.1731787749771625 0 0.072477207369929117 -0.17473224276400179 0 0.093505174579280592 -0.1731787749771625 0 0.091560400862706559 -0.15189516094014111 0 0.081482512553192915 -0.1953056794767786 0 0.093505174579280592 -0.1731787749771625 0 0.072477207369929117 -0.17473224276400179 0 0.093505174579280592 -0.1731787749771625 0 0.072477207369929117 -0.17473224276400179 0 0.066040058368007956 -0.18964665730407451 0 0.072477207369929117 -0.17473224276400179 0 0.051449240160577621 -0.1762857105508405 0 0.066040058368007956 -0.18964665730407451 0 0.081482512553192915 -0.1953056794767786 0 0.072477207369929117 -0.17473224276400179 0 0.078133883947979807 -0.15717501910519549 0 0.072477207369929117 -0.17473224276400179 0 0.063878974636528515 -0.16401540189567099 0 0.072477207369929117 -0.17473224276400179 0 0.063878974636528515 -0.16401540189567099 0 0.051449240160577621 -0.1762857105508405 0 0.078133883947979807 -0.15717501910519549 0 0.063878974636528515 -0.16401540189567099 0 0.06522271263887458 -0.15305574504012881 0 0.06522271263887458 -0.15305574504012881 0 0.069316279952888193 -0.14186668388360371 0 0.075278834721760557 -0.14616760919767161 0 0.06522271263887458 -0.15305574504012881 0 0.069316279952888193 -0.14186668388360371 0 0.05757515479497001 -0.1486962131740798 0 0.069316279952888193 -0.14186668388360371 0 0.075278834721760557 -0.14616760919767161 0 0.079765110473415279 -0.13788087003968491 0 0.078133883947979807 -0.15717501910519549 0 0.06522271263887458 -0.15305574504012881 0 0.075278834721760557 -0.14616760919767161 0 0.098760878024456711 -0.14050656481393209 0 0.091560400862706559 -0.15189516094014111 0 0.089615627146132512 -0.13061154690311971 0 0.078133883947979807 -0.15717501910519549 0 0.083611330147541921 -0.14459745320402559 0 0.091560400862706559 -0.15189516094014111 0 0.091560400862706559 -0.15189516094014111 0 0.089615627146132512 -0.13061154690311971 0 0.078133883947979807 -0.15717501910519549 0 0.075278834721760557 -0.14616760919767161 0 0.083611330147541921 -0.14459745320402559 0 0.083611330147541921 -0.14459745320402559 0 0.091560400862706559 -0.15189516094014111 0 0.089615627146132512 -0.13061154690311971 0 0.075278834721760557 -0.14616760919767161 0 0.083611330147541921 -0.14459745320402559 0 0.079765110473415279 -0.13788087003968491 0 0.099525338641528904 -0.12611341339503321 0 0.089615627146132512 -0.13061154690311971 0 0.081894058627025895 -0.12584863130967919 0 0.083611330147541921 -0.14459745320402559 0 0.089615627146132512 -0.13061154690311971 0 0.079765110473415279 -0.13788087003968491 0 0.089615627146132512 -0.13061154690311971 0 0.079765110473415279 -0.13788087003968491 0 0.081894058627025895 -0.12584863130967919 0 0.081894058627025895 -0.12584863130967919 0 0.065576399090336079 -0.13067912082877309 0 0.057907204523981459 -0.13951585418161591 0 0.081894058627025895 -0.12584863130967919 0 0.057907204523981459 -0.13951585418161591 0 0.069316279952888193 -0.14186668388360371 0 0.081894058627025895 -0.12584863130967919 0 0.057907204523981459 -0.13951585418161591 0 0.081894058627025895 -0.12584863130967919 0 0.068207364780656948 -0.12563827965844471 0 0.065576399090336079 -0.13067912082877309 0 0.069316279952888193 -0.14186668388360371 0 0.079765110473415279 -0.13788087003968491 0 0.081894058627025895 -0.12584863130967919 0 0.068207364780656948 -0.12563827965844471 0 0.065576399090336079 -0.13067912082877309 0 0.054296968429680029 -0.13171371816535249 0 0.054296968429680029 -0.13171371816535249 0 0.057907204523981459 -0.13951585418161591 0 0.034849001543539322 -0.1503583031021323 0 0.054296968429680029 -0.13171371816535249 0 0.045553716665441668 -0.12681104972785159 0 0.052448498866582129 -0.1166826243517366 0 0.065576399090336079 -0.13067912082877309 0 0.054296968429680029 -0.13171371816535249 0 0.057907204523981459 -0.13951585418161591 0 0.069316279952888193 -0.14186668388360371 0 0.057907204523981459 -0.13951585418161591 0 0.05757515479497001 -0.1486962131740798 0 0.06522271263887458 -0.15305574504012881 0 0.05757515479497001 -0.1486962131740798 0 0.052111829065281459 -0.15882829201818821 0 0.046808539919221563 -0.15014413002933799 0 0.052111829065281459 -0.15882829201818821 0 0.043031393960321331 -0.1571354857308308 0 0.05757515479497001 -0.1486962131740798 0 0.046808539919221563 -0.15014413002933799 0 0.052111829065281459 -0.15882829201818821 0 0.057907204523981459 -0.13951585418161591 0 0.05757515479497001 -0.1486962131740798 0 0.046808539919221563 -0.15014413002933799 0 0.057907204523981459 -0.13951585418161591 0 0.046808539919221563 -0.15014413002933799 0 0.033920350420936912 -0.1531830770535528 0 0.057907204523981459 -0.13951585418161591 0 0.034849001543539322 -0.1503583031021323 0 0.033920350420936912 -0.1531830770535528 0 0.054296968429680029 -0.13171371816535249 0 0.034849001543539322 -0.1503583031021323 0 0.038558521200612962 -0.14006542407622449 0 0.054296968429680029 -0.13171371816535249 0 0.034849001543539322 -0.1503583031021323 0 0.057907204523981459 -0.13951585418161591 0 0.033920350420936912 -0.1531830770535528 0 0.046808539919221563 -0.15014413002933799 0 0.040219483271594643 -0.15466785876887121 0 0.033920350420936912 -0.1531830770535528 0 0.046808539919221563 -0.15014413002933799 0 0.040219483271594643 -0.15466785876887121 0 0.043031393960321331 -0.1571354857308308 0 0.040219483271594643 -0.15466785876887121 0 0.033920350420936912 -0.1531830770535528 0 0.037117648785898759 -0.15820874226176301 0 0.034849001543539322 -0.1503583031021323 0 0.031672068294339203 -0.14528428076340441 0 0.030051573782975471 -0.15027594372919439 0 0.034849001543539322 -0.1503583031021323 0 0.033920350420936912 -0.1531830770535528 0 0.030051573782975471 -0.15027594372919439 0 0.034849001543539322 -0.1503583031021323 0 0.031672068294339203 -0.14528428076340441 0 0.038558521200612962 -0.14006542407622449 0 0.031672068294339203 -0.14528428076340441 0 0.038558521200612962 -0.14006542407622449 0 0.030566093298411881 -0.13865773310914861 0 0.054296968429680029 -0.13171371816535249 0 0.038558521200612962 -0.14006542407622449 0 0.040644455285911409 -0.1338393175667463 0 0.038558521200612962 -0.14006542407622449 0 0.040644455285911409 -0.1338393175667463 0 0.030566093298411881 -0.13865773310914861 0 0.034824944079593127 -0.12500853882757099 0 0.040644455285911409 -0.1338393175667463 0 0.030566093298411881 -0.13865773310914861 0 0.034824944079593127 -0.12500853882757099 0 0.045553716665441668 -0.12681104972785159 0 0.040644455285911409 -0.1338393175667463 0 0.054296968429680029 -0.13171371816535249 0 0.045553716665441668 -0.12681104972785159 0 0.040644455285911409 -0.1338393175667463 0 0.072477207369929117 -0.17473224276400179 0 0.051449240160577621 -0.1762857105508405 0 0.056257937900538298 -0.19577788601322099 0 0.066040058368007956 -0.18964665730407451 0 0.051449240160577621 -0.1762857105508405 0 0.063878974636528515 -0.16401540189567099 0 0.051449240160577621 -0.1762857105508405 0 0.052111829065281459 -0.15882829201818821 0 0.051449240160577621 -0.1762857105508405 0 0.052111829065281459 -0.15882829201818821 0 0.040502396519655252 -0.1663673850483231 0 0.063878974636528515 -0.16401540189567099 0 0.06522271263887458 -0.15305574504012881 0 0.052111829065281459 -0.15882829201818821 0 0.043031393960321331 -0.1571354857308308 0 0.037117648785898759 -0.15820874226176301 0 0.040502396519655252 -0.1663673850483231 0 0.052111829065281459 -0.15882829201818821 0 0.043031393960321331 -0.1571354857308308 0 0.040502396519655252 -0.1663673850483231 0 0.040219483271594643 -0.15466785876887121 0 0.043031393960321331 -0.1571354857308308 0 0.037117648785898759 -0.15820874226176301 0 0.033920350420936912 -0.1531830770535528 0 0.033509818979212957 -0.15868168045615499 0 0.027465449436243041 -0.1628752445715565 0 0.037117648785898759 -0.15820874226176301 0 0.034071859908748191 -0.1623715567021686 0 0.040502396519655252 -0.1663673850483231 0 0.033920350420936912 -0.1531830770535528 0 0.037117648785898759 -0.15820874226176301 0 0.033509818979212957 -0.15868168045615499 0 0.037117648785898759 -0.15820874226176301 0 0.033509818979212957 -0.15868168045615499 0 0.034071859908748191 -0.1623715567021686 0 0.033509818979212957 -0.15868168045615499 0 0.034071859908748191 -0.1623715567021686 0 0.027465449436243041 -0.1628752445715565 0 0.031586668938662611 -0.1691709391612749 0 0.040502396519655252 -0.1663673850483231 0 0.030421272951226121 -0.1778391783376792 0 0.034071859908748191 -0.1623715567021686 0 0.031586668938662611 -0.1691709391612749 0 0.040502396519655252 -0.1663673850483231 0 0.051449240160577621 -0.1762857105508405 0 0.040502396519655252 -0.1663673850483231 0 0.030421272951226121 -0.1778391783376792 0 0.041440672425083092 -0.19607701236864419 0 0.051449240160577621 -0.1762857105508405 0 0.030421272951226121 -0.1778391783376792 0 0.051449240160577621 -0.1762857105508405 0 0.030421272951226121 -0.1778391783376792 0 0.02540307025583758 -0.19229280057405279 0 0.015764016274472759 -0.1812646672695073 0 0.030421272951226121 -0.1778391783376792 0 0.031586668938662611 -0.1691709391612749 0 0.030421272951226121 -0.1778391783376792 0 0.021575687727073561 -0.1734893605992324 0 0.015764016274472759 -0.1812646672695073 0 0.021575687727073561 -0.1734893605992324 0 0.012676990919703311 -0.16924925594887871 0 0.015764016274472759 -0.1812646672695073 0 0.030421272951226121 -0.1778391783376792 0 0.021575687727073561 -0.1734893605992324 0 0.033920350420936912 -0.1531830770535528 0 0.009933496317892726 -0.16685029992549011 0 0.02294500892830088 -0.1542832107784407 0 0.033920350420936912 -0.1531830770535528 0 0.027465449436243041 -0.1628752445715565 0 0.009933496317892726 -0.16685029992549011 0 0.019596439448784399 -0.16744493330375371 0 0.027465449436243041 -0.1628752445715565 0 0.009933496317892726 -0.16685029992549011 0 0.033920350420936912 -0.1531830770535528 0 0.009933496317892726 -0.16685029992549011 0 0.021575687727073561 -0.1734893605992324 0 0.019596439448784399 -0.16744493330375371 0 0.012676990919703311 -0.16924925594887871 0 0.021575687727073561 -0.1734893605992324 0 0.019596439448784399 -0.16744493330375371 0 0.025540403417393751 -0.1677775419388785 0 0.031586668938662611 -0.1691709391612749 0 0.021575687727073561 -0.1734893605992324 0 0.025540403417393751 -0.1677775419388785 0 0.019596439448784399 -0.16744493330375371 0 0.025540403417393751 -0.1677775419388785 0 0.027465449436243041 -0.1628752445715565 0 0.034071859908748191 -0.1623715567021686 0 0.031586668938662611 -0.1691709391612749 0 0.027465449436243041 -0.1628752445715565 0 0.031586668938662611 -0.1691709391612749 0 0.025540403417393751 -0.1677775419388785 0 0.027465449436243041 -0.1628752445715565 0 0.009933496317892726 -0.16685029992549011 0 0.01648447247354291 -0.15404273338364399 0 0.02294500892830088 -0.1542832107784407 0 0.009933496317892726 -0.16685029992549011 0 0.01648447247354291 -0.15404273338364399 0 0.0068311679390763679 -0.1533437069849535 0 0.019596439448784399 -0.16744493330375371 0 0.009933496317892726 -0.16685029992549011 0 0.012676990919703311 -0.16924925594887871 0 0.009933496317892726 -0.16685029992549011 0 0.012676990919703311 -0.16924925594887871 0 0.0034571977838801569 -0.17702496179755631 0 0.009933496317892726 -0.16685029992549011 0 0.012676990919703311 -0.16924925594887871 0 -0.0085976242789068957 -0.177408956520272 0 0.009933496317892726 -0.16685029992549011 0 -0.0085976242789068957 -0.177408956520272 0 0.009933496317892726 -0.16685029992549011 0 0.0034571977838801569 -0.17702496179755631 0 0.015764016274472759 -0.1812646672695073 0 0.012676990919703311 -0.16924925594887871 0 0.0034571977838801569 -0.17702496179755631 0 -0.003739977245034012 -0.19168309442994089 0 0.010514116253606281 -0.1925853606064957 0 0.0034571977838801569 -0.17702496179755631 0 0.010514116253606281 -0.1925853606064957 0 0.015764016274472759 -0.1812646672695073 0 0.0034571977838801569 -0.17702496179755631 0 0.02166725362828328 -0.1398342401410575 0 0.019282665512654749 -0.1297026577714144 0 0.01241268948209219 -0.14437852502616319 0 0.034824944079593127 -0.12500853882757099 0 0.019282665512654749 -0.1297026577714144 0 0.030566093298411881 -0.13865773310914861 0 0.02166725362828328 -0.1398342401410575 0 0.019282665512654749 -0.1297026577714144 0 0.030566093298411881 -0.13865773310914861 0 0.031672068294339203 -0.14528428076340441 0 0.030566093298411881 -0.13865773310914861 0 0.024335151646156381 -0.14706399980032239 0 0.02166725362828328 -0.1398342401410575 0 0.030566093298411881 -0.13865773310914861 0 0.024335151646156381 -0.14706399980032239 0 0.031672068294339203 -0.14528428076340441 0 0.024335151646156381 -0.14706399980032239 0 0.030051573782975471 -0.15027594372919439 0 0.033920350420936912 -0.1531830770535528 0 0.030051573782975471 -0.15027594372919439 0 0.02294500892830088 -0.1542832107784407 0 0.024335151646156381 -0.14706399980032239 0 0.030051573782975471 -0.15027594372919439 0 0.02294500892830088 -0.1542832107784407 0 0.024335151646156381 -0.14706399980032239 0 0.01648447247354291 -0.15404273338364399 0 0.01241268948209219 -0.14437852502616319 0 0.024335151646156381 -0.14706399980032239 0 0.01648447247354291 -0.15404273338364399 0 0.02294500892830088 -0.1542832107784407 0 0.02166725362828328 -0.1398342401410575 0 0.024335151646156381 -0.14706399980032239 0 0.01241268948209219 -0.14437852502616319 0 -0.011505986517222349 -0.14810326960451681 0 0.01241268948209219 -0.14437852502616319 0 0.0068311679390763679 -0.1533437069849535 0 -0.011505986517222349 -0.14810326960451681 0 0.009933496317892726 -0.16685029992549011 0 0.0068311679390763679 -0.1533437069849535 0 -0.011505986517222349 -0.14810326960451681 0 0.01241268948209219 -0.14437852502616319 0 0.0027021066240326768 -0.1317064378292063 0 0.01648447247354291 -0.15404273338364399 0 0.01241268948209219 -0.14437852502616319 0 0.0068311679390763679 -0.1533437069849535 0 0.019282665512654749 -0.1297026577714144 0 0.01241268948209219 -0.14437852502616319 0 0.0027021066240326768 -0.1317064378292063 0 0.019282665512654749 -0.1297026577714144 0 0.0027021066240326768 -0.1317064378292063 0 0.005085065621477718 -0.1151057880332567 0 0.019282665512654749 -0.1297026577714144 0 0.005085065621477718 -0.1151057880332567 0 0.024129304522527751 -0.1089818526354679 0 0.034824944079593127 -0.12500853882757099 0 0.019282665512654749 -0.1297026577714144 0 0.024129304522527751 -0.1089818526354679 0 0.024129304522527751 -0.1089818526354679 0 0.01380815825635252 -0.094132232187142617 0 0.031293966725895003 -0.08518965294817829 0 -0.00044729776891663488 -0.1011528385718463 0 0.005085065621477718 -0.1151057880332567 0 0.01380815825635252 -0.094132232187142617 0 0.005085065621477718 -0.1151057880332567 0 0.024129304522527751 -0.1089818526354679 0 0.01380815825635252 -0.094132232187142617 0 0.01380815825635252 -0.094132232187142617 0 0.0042106568376920582 -0.081118225430045127 0 0.020039989671696231 -0.071989185162356889 0 -0.00044729776891663488 -0.1011528385718463 0 0.01380815825635252 -0.094132232187142617 0 0.0042106568376920582 -0.081118225430045127 0 0.0042106568376920582 -0.081118225430045127 0 0.0052181775422467033 -0.064346337314722044 0 0.020039989671696231 -0.071989185162356889 0 -0.0043762627118289626 -0.071729097412358583 0 0.0042106568376920582 -0.081118225430045127 0 0.0052181775422467033 -0.064346337314722044 0 0.0052181775422467033 -0.064346337314722044 0 0.020039989671696231 -0.071989185162356889 0 0.0052181775422467033 -0.064346337314722044 0 0.020039989671696231 -0.071989185162356889 0 0.017880224012190679 -0.058506375123621113 0 0.020039989671696231 -0.071989185162356889 0 0.017880224012190679 -0.058506375123621113 0 0.035073137211611732 -0.060365082031122411 0 0.020039989671696231 -0.071989185162356889 0 0.031293966725895003 -0.08518965294817829 0 0.035073137211611732 -0.060365082031122411 0 0.01380815825635252 -0.094132232187142617 0 0.020039989671696231 -0.071989185162356889 0 0.031293966725895003 -0.08518965294817829 0 0.031293966725895003 -0.08518965294817829 0 0.050629459546369923 -0.074776417317023003 0 0.042727201812981508 -0.099892478072297022 0 0.050629459546369923 -0.074776417317023003 0 0.042727201812981508 -0.099892478072297022 0 0.031293966725895003 -0.08518965294817829 0 0.050629459546369923 -0.074776417317023003 0 0.035073137211611732 -0.060365082031122411 0 0.050629459546369923 -0.074776417317023003 0 0.058531717279758283 -0.049660356561749108 0 0.072219385832792832 -0.066659644627356851 0 0.050629459546369923 -0.074776417317023003 0 0.042727201812981508 -0.099892478072297022 0 0.069701838591585213 -0.089386546866783212 0 0.059655618646742382 -0.10475769562984739 0 0.052448498866582129 -0.1166826243517366 0 0.042727201812981508 -0.099892478072297022 0 0.059655618646742382 -0.10475769562984739 0 0.042727201812981508 -0.099892478072297022 0 0.069701838591585213 -0.089386546866783212 0 0.054296968429680029 -0.13171371816535249 0 0.052448498866582129 -0.1166826243517366 0 0.073744935315820714 -0.1130691332285727 0 0.059655618646742382 -0.10475769562984739 0 0.052448498866582129 -0.1166826243517366 0 0.073744935315820714 -0.1130691332285727 0 0.034824944079593127 -0.12500853882757099 0 0.045553716665441668 -0.12681104972785159 0 0.052448498866582129 -0.1166826243517366 0 0.034824944079593127 -0.12500853882757099 0 0.052448498866582129 -0.1166826243517366 0 0.042727201812981508 -0.099892478072297022 0 0.034824944079593127 -0.12500853882757099 0 0.024129304522527751 -0.1089818526354679 0 0.042727201812981508 -0.099892478072297022 0 0.034824944079593127 -0.12500853882757099 0 0.042727201812981508 -0.099892478072297022 0 0.024129304522527751 -0.1089818526354679 0 0.031293966725895003 -0.08518965294817829 0 0.042727201812981508 -0.099892478072297022 0 0.034885408484197772 0.0062912350017927032 0 0.01265631079038235 -0.01012693536007268 0 0.042517259973231587 -0.011683923625132649 0 -0.00118246574067416 -0.01324232368796026 0 0.0012074066645448821 -0.00065723147797176382 0 0.01265631079038235 -0.01012693536007268 0 0.01265631079038235 -0.01012693536007268 0 0.02406773205363014 -0.026959444655171291 0 0.0015263381015913891 -0.033415212413580753 0 0.01265631079038235 -0.01012693536007268 0 0.0015263381015913891 -0.033415212413580753 0 -0.00118246574067416 -0.01324232368796026 0 0.01265631079038235 -0.01012693536007268 0 0.0015263381015913891 -0.033415212413580753 0 0.01265631079038235 -0.01012693536007268 0 0.02406773205363014 -0.026959444655171291 0 0.042517259973231587 -0.011683923625132649 0 0.02406773205363014 -0.026959444655171291 0 0.021771409900077709 -0.044354063799483319 0 0.04186734150286768 -0.035217088077587062 0 0.02406773205363014 -0.026959444655171291 0 0.021771409900077709 -0.044354063799483319 0 0.0015263381015913891 -0.033415212413580753 0 0.021771409900077709 -0.044354063799483319 0 0.0015263381015913891 -0.033415212413580753 0 0.007298405735321048 -0.051477207310420908 0 -0.0096036345872028556 -0.056703489467087059 0 0.0052181775422467033 -0.064346337314722044 0 0.007298405735321048 -0.051477207310420908 0 0.0052181775422467033 -0.064346337314722044 0 0.007298405735321048 -0.051477207310420908 0 0.017880224012190679 -0.058506375123621113 0 0.021771409900077709 -0.044354063799483319 0 0.017880224012190679 -0.058506375123621113 0 0.035073137211611732 -0.060365082031122411 0 0.021771409900077709 -0.044354063799483319 0 0.007298405735321048 -0.051477207310420908 0 0.017880224012190679 -0.058506375123621113 0 0.035073137211611732 -0.060365082031122411 0 0.058531717279758283 -0.049660356561749108 0 0.04186734150286768 -0.035217088077587062 0 0.050629459546369923 -0.074776417317023003 0 0.058531717279758283 -0.049660356561749108 0 0.050629459546369923 -0.074776417317023003 0 0.035073137211611732 -0.060365082031122411 0 0.058531717279758283 -0.049660356561749108 0 0.058531717279758283 -0.049660356561749108 0 0.066433975013146629 -0.02454429580647528 0 0.058531717279758283 -0.049660356561749108 0 0.04186734150286768 -0.035217088077587062 0 0.066433975013146629 -0.02454429580647528 0 0.021771409900077709 -0.044354063799483319 0 0.035073137211611732 -0.060365082031122411 0 0.04186734150286768 -0.035217088077587062 0 0.02406773205363014 -0.026959444655171291 0 0.04186734150286768 -0.035217088077587062 0 0.042517259973231587 -0.011683923625132649 0 0.04186734150286768 -0.035217088077587062 0 0.042517259973231587 -0.011683923625132649 0 0.066433975013146629 -0.02454429580647528 0 0.052968053050369737 0.0090809173488315582 0 0.042517259973231587 -0.011683923625132649 0 0.067492943165135169 -0.0019794682467893379 0 0.042517259973231587 -0.011683923625132649 0 0.067492943165135169 -0.0019794682467893379 0 0.066433975013146629 -0.02454429580647528 0 0.087040675587819916 -0.0096101539263870796 0 0.066433975013146629 -0.02454429580647528 0 0.098032226742104309 -0.02831505409649597 0 0.083930998993742512 0.0059737405228527038 0 0.087040675587819916 -0.0096101539263870796 0 0.067492943165135169 -0.0019794682467893379 0 0.083930998993742512 0.0059737405228527038 0 0.098495163759696414 0.0029673617968291321 0 0.087040675587819916 -0.0096101539263870796 0 0.087040675587819916 -0.0096101539263870796 0 0.067492943165135169 -0.0019794682467893379 0 0.066433975013146629 -0.02454429580647528 0 0.066433975013146629 -0.02454429580647528 0 0.080663194565618018 -0.042742664855397232 0 0.098032226742104309 -0.02831505409649597 0 0.080663194565618018 -0.042742664855397232 0 0.099119978598511321 -0.045144617550746849 0 0.098032226742104309 -0.02831505409649597 0 0.058531717279758283 -0.049660356561749108 0 0.066433975013146629 -0.02454429580647528 0 0.080663194565618018 -0.042742664855397232 0 0.058531717279758283 -0.049660356561749108 0 0.080663194565618018 -0.042742664855397232 0 0.072219385832792832 -0.066659644627356851 0 0.080663194565618018 -0.042742664855397232 0 0.091985945990252393 -0.059557823171565508 0 0.072219385832792832 -0.066659644627356851 0 0.080663194565618018 -0.042742664855397232 0 0.091985945990252393 -0.059557823171565508 0 0.099119978598511321 -0.045144617550746849 0 0.091985945990252393 -0.059557823171565508 0 0.109385226414503 -0.056941989317685793 0 0.099119978598511321 -0.045144617550746849 0 0.109385226414503 -0.056941989317685793 0 0.1174221699598199 -0.069046986946925279 0 0.12664898879935529 -0.055605769639440771 0 0.109385226414503 -0.056941989317685793 0 0.1155332992800789 -0.038165556312589707 0 0.12664898879935529 -0.055605769639440771 0 0.1155332992800789 -0.038165556312589707 0 0.12954193793015309 -0.041748568408345607 0 0.12664898879935529 -0.055605769639440771 0 0.1155332992800789 -0.038165556312589707 0 0.1294320674019063 -0.023146095115484211 0 0.12954193793015309 -0.041748568408345607 0 0.109385226414503 -0.056941989317685793 0 0.1155332992800789 -0.038165556312589707 0 0.099119978598511321 -0.045144617550746849 0 0.1155332992800789 -0.038165556312589707 0 0.099119978598511321 -0.045144617550746849 0 0.098032226742104309 -0.02831505409649597 0 0.1155332992800789 -0.038165556312589707 0 0.098032226742104309 -0.02831505409649597 0 0.1112777463759113 -0.012222875866518469 0 0.087040675587819916 -0.0096101539263870796 0 0.098032226742104309 -0.02831505409649597 0 0.1112777463759113 -0.012222875866518469 0 0.1155332992800789 -0.038165556312589707 0 0.1112777463759113 -0.012222875866518469 0 0.1294320674019063 -0.023146095115484211 0 0.1158546052028349 0.0064685721448778594 0 0.13464870039648349 0.00080453217212592717 0 0.1112777463759113 -0.012222875866518469 0 0.098495163759696414 0.0029673617968291321 0 0.087040675587819916 -0.0096101539263870796 0 0.1112777463759113 -0.012222875866518469 0 0.1158546052028349 0.0064685721448778594 0 0.098495163759696414 0.0029673617968291321 0 0.1112777463759113 -0.012222875866518469 0 0.093192902201961414 -0.094424548291792879 0 0.088899626305776192 -0.1113374325741409 0 0.073744935315820714 -0.1130691332285727 0 0.093192902201961414 -0.094424548291792879 0 0.073744935315820714 -0.1130691332285727 0 0.069701838591585213 -0.089386546866783212 0 0.093192902201961414 -0.094424548291792879 0 0.073744935315820714 -0.1130691332285727 0 0.081894058627025895 -0.12584863130967919 0 0.088899626305776192 -0.1113374325741409 0 0.09397493983509804 -0.11322330148444169 0 0.081894058627025895 -0.12584863130967919 0 0.079920122843727764 -0.11786127252462281 0 0.075141871126288284 -0.1211898929860986 0 0.081894058627025895 -0.12584863130967919 0 0.088899626305776192 -0.1113374325741409 0 0.079920122843727764 -0.11786127252462281 0 0.088899626305776192 -0.1113374325741409 0 0.079920122843727764 -0.11786127252462281 0 0.073744935315820714 -0.1130691332285727 0 0.068207364780656948 -0.12563827965844471 0 0.054296968429680029 -0.13171371816535249 0 0.073744935315820714 -0.1130691332285727 0 0.054296968429680029 -0.13171371816535249 0 0.073744935315820714 -0.1130691332285727 0 0.068207364780656948 -0.12563827965844471 0 0.073744935315820714 -0.1130691332285727 0 0.075141871126288284 -0.1211898929860986 0 0.079920122843727764 -0.11786127252462281 0 0.073744935315820714 -0.1130691332285727 0 0.075141871126288284 -0.1211898929860986 0 0.081894058627025895 -0.12584863130967919 0 0.068207364780656948 -0.12563827965844471 0 0.075141871126288284 -0.1211898929860986 0 0.059655618646742382 -0.10475769562984739 0 0.073744935315820714 -0.1130691332285727 0 0.069701838591585213 -0.089386546866783212 0 0.050629459546369923 -0.074776417317023003 0 0.069701838591585213 -0.089386546866783212 0 0.072219385832792832 -0.066659644627356851 0 0.069701838591585213 -0.089386546866783212 0 0.072219385832792832 -0.066659644627356851 0 0.089711563165187497 -0.078251462936863553 0 0.091985945990252393 -0.059557823171565508 0 0.072219385832792832 -0.066659644627356851 0 0.089711563165187497 -0.078251462936863553 0 0.093192902201961414 -0.094424548291792879 0 0.069701838591585213 -0.089386546866783212 0 0.089711563165187497 -0.078251462936863553 0 0.093192902201961414 -0.094424548291792879 0 0.089711563165187497 -0.078251462936863553 0 0.1048667032735431 -0.089595599910983495 0 0.089711563165187497 -0.078251462936863553 0 0.1048667032735431 -0.089595599910983495 0 0.1056935618466131 -0.072691272791708894 0 0.1048667032735431 -0.089595599910983495 0 0.1056935618466131 -0.072691272791708894 0 0.11564058922802831 -0.08068930143821873 0 0.091985945990252393 -0.059557823171565508 0 0.089711563165187497 -0.078251462936863553 0 0.1056935618466131 -0.072691272791708894 0 0.091985945990252393 -0.059557823171565508 0 0.109385226414503 -0.056941989317685793 0 0.1056935618466131 -0.072691272791708894 0 0.1174221699598199 -0.069046986946925279 0 0.12840026197867099 -0.078951386265116219 0 0.12664898879935529 -0.055605769639440771 0 0.109385226414503 -0.056941989317685793 0 0.1056935618466131 -0.072691272791708894 0 0.1174221699598199 -0.069046986946925279 0 0.1056935618466131 -0.072691272791708894 0 0.1174221699598199 -0.069046986946925279 0 0.11564058922802831 -0.08068930143821873 0 0.1174221699598199 -0.069046986946925279 0 0.11564058922802831 -0.08068930143821873 0 0.12840026197867099 -0.078951386265116219 0 0.1048667032735431 -0.089595599910983495 0 0.11564058922802831 -0.08068930143821873 0 0.1191358060176364 -0.092450830711447801 0 0.1191358060176364 -0.092450830711447801 0 0.12840026197867099 -0.078951386265116219 0 0.11564058922802831 -0.08068930143821873 0 0.1191358060176364 -0.092450830711447801 0 0.12840026197867099 -0.078951386265116219 0 0.1058809127300703 -0.11218140843774239 0 0.12023297736745781 -0.1110263554770618 0 0.12986776683311119 -0.098514185565799078 0 0.1058809127300703 -0.11218140843774239 0 0.12986776683311119 -0.098514185565799078 0 0.1048667032735431 -0.089595599910983495 0 0.1191358060176364 -0.092450830711447801 0 0.10987135005660249 -0.1059502751577799 0 0.10987135005660249 -0.1059502751577799 0 0.1058809127300703 -0.11218140843774239 0 0.12986776683311119 -0.098514185565799078 0 0.1191358060176364 -0.092450830711447801 0 0.10987135005660249 -0.1059502751577799 0 0.12986776683311119 -0.098514185565799078 0 0.1191358060176364 -0.092450830711447801 0 0.10987135005660249 -0.1059502751577799 0 0.093192902201961414 -0.094424548291792879 0 0.088899626305776192 -0.1113374325741409 0 0.099225161677519755 -0.1035257336162041 0 0.1048667032735431 -0.089595599910983495 0 0.10987135005660249 -0.1059502751577799 0 0.099225161677519755 -0.1035257336162041 0 0.10987135005660249 -0.1059502751577799 0 0.099225161677519755 -0.1035257336162041 0 0.1058809127300703 -0.11218140843774239 0 0.088899626305776192 -0.1113374325741409 0 0.099225161677519755 -0.1035257336162041 0 0.09397493983509804 -0.11322330148444169 0 0.093192902201961414 -0.094424548291792879 0 0.1048667032735431 -0.089595599910983495 0 0.099225161677519755 -0.1035257336162041 0 0.081894058627025895 -0.12584863130967919 0 0.1058809127300703 -0.11218140843774239 0 0.099525338641528904 -0.12611341339503321 0 0.081894058627025895 -0.12584863130967919 0 0.1058809127300703 -0.11218140843774239 0 0.081894058627025895 -0.12584863130967919 0 0.09397493983509804 -0.11322330148444169 0 0.1058809127300703 -0.11218140843774239 0 0.099225161677519755 -0.1035257336162041 0 0.09397493983509804 -0.11322330148444169 0 0.1058809127300703 -0.11218140843774239 0 0.099525338641528904 -0.12611341339503321 0 0.1058809127300703 -0.11218140843774239 0 0.1121708616464093 -0.1216807098986791 0 0.1058809127300703 -0.11218140843774239 0 0.1121708616464093 -0.1216807098986791 0 0.12023297736745781 -0.1110263554770618 0 0.11997683785091839 -0.1276371159963853 0 0.121067612134044 -0.1214532534018402 0 0.13188977167139071 -0.12546883223523481 0 0.12023297736745781 -0.1110263554770618 0 0.121067612134044 -0.1214532534018402 0 0.13188977167139071 -0.12546883223523481 0 0.11997683785091839 -0.1276371159963853 0 0.1121708616464093 -0.1216807098986791 0 0.121067612134044 -0.1214532534018402 0 0.1121708616464093 -0.1216807098986791 0 0.12023297736745781 -0.1110263554770618 0 0.121067612134044 -0.1214532534018402 0 0.12023297736745781 -0.1110263554770618 0 0.12986776683311119 -0.098514185565799078 0 0.13188977167139071 -0.12546883223523481 0 0.12986776683311119 -0.098514185565799078 0 0.13188977167139071 -0.12546883223523481 0 0.14925441928633251 -0.10969288085116551 0 0.13995942417209239 -0.1034127274713456 0 0.13188977167139071 -0.12546883223523481 0 0.14724036225017881 -0.1245170930860646 0 0.14925441928633251 -0.10969288085116551 0 0.13188977167139071 -0.12546883223523481 0 0.14925441928633251 -0.10969288085116551 0 0.15485465026004211 -0.11932571079310079 0 0.15999890680388329 -0.1096406796162286 0 0.14724036225017881 -0.1245170930860646 0 0.15485465026004211 -0.11932571079310079 0 0.15557261582888751 -0.13003178131142151 0 0.14724036225017881 -0.1245170930860646 0 0.14925441928633251 -0.10969288085116551 0 0.15485465026004211 -0.11932571079310079 0 0.14925441928633251 -0.10969288085116551 0 0.14348993397904131 -0.092765062884646393 0 0.1620153957752187 -0.097165399419701551 0 0.14348993397904131 -0.092765062884646393 0 0.1620153957752187 -0.097165399419701551 0 0.14925441928633251 -0.10969288085116551 0 0.13995942417209239 -0.1034127274713456 0 0.14348993397904131 -0.092765062884646393 0 0.13995942417209239 -0.1034127274713456 0 0.12986776683311119 -0.098514185565799078 0 0.13188977167139071 -0.12546883223523481 0 0.13995942417209239 -0.1034127274713456 0 0.12986776683311119 -0.098514185565799078 0 0.14348993397904131 -0.092765062884646393 0 0.12986776683311119 -0.098514185565799078 0 0.12840026197867099 -0.078951386265116219 0 0.1428482005174804 -0.076716741777837147 0 0.1191358060176364 -0.092450830711447801 0 0.12986776683311119 -0.098514185565799078 0 0.12840026197867099 -0.078951386265116219 0 0.12986776683311119 -0.098514185565799078 0 0.12840026197867099 -0.078951386265116219 0 0.12840026197867099 -0.078951386265116219 0 0.12664898879935529 -0.055605769639440771 0 0.12840026197867099 -0.078951386265116219 0 0.12664898879935529 -0.055605769639440771 0 0.14464694777039611 -0.055277979731059648 0 0.12840026197867099 -0.078951386265116219 0 0.1428482005174804 -0.076716741777837147 0 0.14464694777039611 -0.055277979731059648 0 0.12840026197867099 -0.078951386265116219 0 0.14464694777039611 -0.055277979731059648 0 0.1428482005174804 -0.076716741777837147 0 0.15680899227989839 -0.06637062400294011 0 0.14464694777039611 -0.055277979731059648 0 0.1428482005174804 -0.076716741777837147 0 0.15451703372532541 -0.084469533324270707 0 0.15680899227989839 -0.06637062400294011 0 0.12986776683311119 -0.098514185565799078 0 0.15451703372532541 -0.084469533324270707 0 0.12986776683311119 -0.098514185565799078 0 0.14348993397904131 -0.092765062884646393 0 0.15451703372532541 -0.084469533324270707 0 0.14348993397904131 -0.092765062884646393 0 0.15451703372532541 -0.084469533324270707 0 0.1620153957752187 -0.097165399419701551 0 0.12986776683311119 -0.098514185565799078 0 0.1428482005174804 -0.076716741777837147 0 0.15451703372532541 -0.084469533324270707 0 0.15451703372532541 -0.084469533324270707 0 0.1674193516126988 -0.088794767656503876 0 0.1620153957752187 -0.097165399419701551 0 0.15451703372532541 -0.084469533324270707 0 0.1674193516126988 -0.088794767656503876 0 0.16389165652408541 -0.076485311925560115 0 0.1674193516126988 -0.088794767656503876 0 0.16389165652408541 -0.076485311925560115 0 0.17613181446746839 -0.084287857658230353 0 0.15451703372532541 -0.084469533324270707 0 0.15680899227989839 -0.06637062400294011 0 0.16389165652408541 -0.076485311925560115 0 0.16389165652408541 -0.076485311925560115 0 0.1717227713635387 -0.067009979361705274 0 0.17613181446746839 -0.084287857658230353 0 0.15680899227989839 -0.06637062400294011 0 0.16389165652408541 -0.076485311925560115 0 0.1717227713635387 -0.067009979361705274 0 0.15680899227989839 -0.06637062400294011 0 0.1717227713635387 -0.067009979361705274 0 0.1652446184022294 -0.054500080927008407 0 0.1717227713635387 -0.067009979361705274 0 0.17613181446746839 -0.084287857658230353 0 0.1717227713635387 -0.067009979361705274 0 0.18346211879182289 -0.064955309332027283 0 0.18137547142311691 -0.085525622921553163 0 0.18346211879182289 -0.064955309332027283 0 0.18137547142311691 -0.085525622921553163 0 0.1952329782378138 -0.068464889048657496 0 0.1717227713635387 -0.067009979361705274 0 0.18137547142311691 -0.085525622921553163 0 0.1717227713635387 -0.067009979361705274 0 0.18346211879182289 -0.064955309332027283 0 0.1746283364613696 -0.057560297553190053 0 0.18137547142311691 -0.085525622921553163 0 0.17613181446746839 -0.084287857658230353 0 0.18054085757139629 -0.1015657359547559 0 0.17613181446746839 -0.084287857658230353 0 0.18054085757139629 -0.1015657359547559 0 0.1674193516126988 -0.088794767656503876 0 0.17613181446746839 -0.084287857658230353 0 0.18054085757139629 -0.1015657359547559 0 0.1717227713635387 -0.067009979361705274 0 0.18137547142311691 -0.085525622921553163 0 0.17613181446746839 -0.084287857658230353 0 0.18137547142311691 -0.085525622921553163 0 0.19100769245097829 -0.1040519139747048 0 0.18137547142311691 -0.085525622921553163 0 0.18054085757139629 -0.1015657359547559 0 0.19100769245097829 -0.1040519139747048 0 0.18054085757139629 -0.1015657359547559 0 0.1749190978293893 -0.1165979942053425 0 0.16884250162088479 -0.1080310140379921 0 0.18054085757139629 -0.1015657359547559 0 0.19100769245097829 -0.1040519139747048 0 0.18054085757139629 -0.1015657359547559 0 0.1862357176231304 -0.1238823921021804 0 0.1749190978293893 -0.1165979942053425 0 0.18054085757139629 -0.1015657359547559 0 0.1862357176231304 -0.1238823921021804 0 0.19100769245097829 -0.1040519139747048 0 0.18054085757139629 -0.1015657359547559 0 0.1862357176231304 -0.1238823921021804 0 0.1862357176231304 -0.1238823921021804 0 0.1749190978293893 -0.1165979942053425 0 0.17324983187337631 -0.13165498831909611 0 0.1749190978293893 -0.1165979942053425 0 0.16471491079178111 -0.1205264202314431 0 0.16884250162088479 -0.1080310140379921 0 0.16471491079178111 -0.1205264202314431 0 0.15999890680388329 -0.1096406796162286 0 0.16884250162088479 -0.1080310140379921 0 0.1749190978293893 -0.1165979942053425 0 0.16471491079178111 -0.1205264202314431 0 0.17324983187337631 -0.13165498831909611 0 0.15485465026004211 -0.11932571079310079 0 0.16471491079178111 -0.1205264202314431 0 0.15557261582888751 -0.13003178131142151 0 0.15485465026004211 -0.11932571079310079 0 0.16471491079178111 -0.1205264202314431 0 0.15999890680388329 -0.1096406796162286 0 0.18054085757139629 -0.1015657359547559 0 0.1620153957752187 -0.097165399419701551 0 0.1674193516126988 -0.088794767656503876 0 0.18054085757139629 -0.1015657359547559 0 0.1620153957752187 -0.097165399419701551 0 0.14925441928633251 -0.10969288085116551 0 0.15999890680388329 -0.1096406796162286 0 0.1620153957752187 -0.097165399419701551 0 0.15999890680388329 -0.1096406796162286 0 0.1620153957752187 -0.097165399419701551 0 0.16884250162088479 -0.1080310140379921 0 0.18054085757139629 -0.1015657359547559 0 0.1620153957752187 -0.097165399419701551 0 0.16884250162088479 -0.1080310140379921 0 0.13464870039648349 0.00080453217212592717 0 0.15480995508657039 -0.001084596553268768 0 0.14892696920713289 -0.018041582065753459 0 0.13464870039648349 0.00080453217212592717 0 0.1294320674019063 -0.023146095115484211 0 0.14892696920713289 -0.018041582065753459 0 0.13464870039648349 0.00080453217212592717 0 0.1112777463759113 -0.012222875866518469 0 0.1294320674019063 -0.023146095115484211 0 0.1294320674019063 -0.023146095115484211 0 0.14892696920713289 -0.018041582065753459 0 0.14270131340979469 -0.036531096068384838 0 0.14892696920713289 -0.018041582065753459 0 0.14270131340979469 -0.036531096068384838 0 0.16089363356212191 -0.031604573197003549 0 0.14270131340979469 -0.036531096068384838 0 0.14464694777039611 -0.055277979731059648 0 0.16089363356212191 -0.031604573197003549 0 0.14464694777039611 -0.055277979731059648 0 0.15561449558007559 -0.051164132387281437 0 0.16089363356212191 -0.031604573197003549 0 0.14464694777039611 -0.055277979731059648 0 0.16089363356212191 -0.031604573197003549 0 0.14270131340979469 -0.036531096068384838 0 0.12954193793015309 -0.041748568408345607 0 0.14464694777039611 -0.055277979731059648 0 0.1294320674019063 -0.023146095115484211 0 0.14270131340979469 -0.036531096068384838 0 0.12954193793015309 -0.041748568408345607 0 0.12954193793015309 -0.041748568408345607 0 0.12664898879935529 -0.055605769639440771 0 0.14464694777039611 -0.055277979731059648 0 0.15680899227989839 -0.06637062400294011 0 0.14464694777039611 -0.055277979731059648 0 0.15561449558007559 -0.051164132387281437 0 0.15680899227989839 -0.06637062400294011 0 0.15561449558007559 -0.051164132387281437 0 0.1652446184022294 -0.054500080927008407 0 0.15561449558007559 -0.051164132387281437 0 0.1652446184022294 -0.054500080927008407 0 0.1617942405007988 -0.043199732881276223 0 0.1652446184022294 -0.054500080927008407 0 0.1746283364613696 -0.057560297553190053 0 0.1617942405007988 -0.043199732881276223 0 0.1717227713635387 -0.067009979361705274 0 0.1652446184022294 -0.054500080927008407 0 0.1717227713635387 -0.067009979361705274 0 0.1652446184022294 -0.054500080927008407 0 0.1746283364613696 -0.057560297553190053 0 0.1746283364613696 -0.057560297553190053 0 0.1828119860636557 -0.050363577362968731 0 0.1617942405007988 -0.043199732881276223 0 0.18346211879182289 -0.064955309332027283 0 0.1746283364613696 -0.057560297553190053 0 0.1828119860636557 -0.050363577362968731 0 0.18346211879182289 -0.064955309332027283 0 0.1828119860636557 -0.050363577362968731 0 0.19188844298534441 -0.056659859735039647 0 0.1617942405007988 -0.043199732881276223 0 0.18853740735089011 -0.033706188378118708 0 0.1828119860636557 -0.050363577362968731 0 0.1617942405007988 -0.043199732881276223 0 0.18853740735089011 -0.033706188378118708 0 0.15561449558007559 -0.051164132387281437 0 0.16089363356212191 -0.031604573197003549 0 0.1617942405007988 -0.043199732881276223 0 0.16089363356212191 -0.031604573197003549 0 0.1617942405007988 -0.043199732881276223 0 0.18853740735089011 -0.033706188378118708 0 0.16089363356212191 -0.031604573197003549 0 0.17714031935384769 -0.0079311666629475405 0 0.14892696920713289 -0.018041582065753459 0 0.16089363356212191 -0.031604573197003549 0 0.17714031935384769 -0.0079311666629475405 0 0.16089363356212191 -0.031604573197003549 0 0.17714031935384769 -0.0079311666629475405 0 0.18853740735089011 -0.033706188378118708 0 0.1657030786406338 0.0084270166623369204 0 0.15480995508657039 -0.001084596553268768 0 0.17714031935384769 -0.0079311666629475405 0 0.15480995508657039 -0.001084596553268768 0 0.14892696920713289 -0.018041582065753459 0 0.17714031935384769 -0.0079311666629475405 0 0.21351355446813719 -0.0021103410187178909 0 0.2110126965438916 -0.012672932103663791 0 0.2228246624943325 -0.0092295053444410857 0 0.2110126965438916 -0.012672932103663791 0 0.21911622703360889 -0.015650702578479541 0 0.2228246624943325 -0.0092295053444410857 0 0.21351355446813719 -0.0021103410187178909 0 0.2110126965438916 -0.012672932103663791 0 0.19836939172364151 -0.01016904411482358 0 0.1998105265397013 0.00335350757378736 0 0.21351355446813719 -0.0021103410187178909 0 0.19836939172364151 -0.01016904411482358 0 0.1998105265397013 0.00335350757378736 0 0.17714031935384769 -0.0079311666629475405 0 0.19836939172364151 -0.01016904411482358 0 0.17714031935384769 -0.0079311666629475405 0 0.19836939172364151 -0.01016904411482358 0 0.18853740735089011 -0.033706188378118708 0 0.2110126965438916 -0.012672932103663791 0 0.19836939172364151 -0.01016904411482358 0 0.18853740735089011 -0.033706188378118708 0 0.21528057420098159 -0.024212643874961401 0 0.18853740735089011 -0.033706188378118708 0 0.2110126965438916 -0.012672932103663791 0 0.21528057420098159 -0.024212643874961401 0 0.18853740735089011 -0.033706188378118708 0 0.21528057420098159 -0.024212643874961401 0 0.20886364623554921 -0.031523512657201581 0 0.18853740735089011 -0.033706188378118708 0 0.2110126965438916 -0.012672932103663791 0 0.21528057420098159 -0.024212643874961401 0 0.21911622703360889 -0.015650702578479541 0 0.21528057420098159 -0.024212643874961401 0 0.2158000993154765 -0.027276596113623111 0 0.21360323626451261 -0.02858374534336202 0 0.21528057420098159 -0.024212643874961401 0 0.2158000993154765 -0.027276596113623111 0 0.21995729679401421 -0.029331280632926501 0 0.2158000993154765 -0.027276596113623111 0 0.21503400689837671 -0.030930810510401429 0 0.21995729679401421 -0.029331280632926501 0 0.2158000993154765 -0.027276596113623111 0 0.21503400689837671 -0.030930810510401429 0 0.21360323626451261 -0.02858374534336202 0 0.21528057420098159 -0.024212643874961401 0 0.21360323626451261 -0.02858374534336202 0 0.20886364623554921 -0.031523512657201581 0 0.21503400689837671 -0.030930810510401429 0 0.21360323626451261 -0.02858374534336202 0 0.20886364623554921 -0.031523512657201581 0 0.2128060919330283 -0.035124071741943173 0 0.2180191377477218 -0.035203133534298187 0 0.2167024847658664 -0.043974661413588162 0 0.21503400689837671 -0.030930810510401429 0 0.2128060919330283 -0.035124071741943173 0 0.20886364623554921 -0.031523512657201581 0 0.21503400689837671 -0.030930810510401429 0 0.2128060919330283 -0.035124071741943173 0 0.2180191377477218 -0.035203133534298187 0 0.21503400689837671 -0.030930810510401429 0 0.2180191377477218 -0.035203133534298187 0 0.21995729679401421 -0.029331280632926501 0 0.2167024847658664 -0.043974661413588162 0 0.20890374551960481 -0.040729144831228678 0 0.20897987019450001 -0.050060865146210963 0 0.2128060919330283 -0.035124071741943173 0 0.2167024847658664 -0.043974661413588162 0 0.20890374551960481 -0.040729144831228678 0 0.20890374551960481 -0.040729144831228678 0 0.19655169947710091 -0.043788383486002072 0 0.20897987019450001 -0.050060865146210963 0 0.2128060919330283 -0.035124071741943173 0 0.20890374551960481 -0.040729144831228678 0 0.20886364623554921 -0.031523512657201581 0 0.20890374551960481 -0.040729144831228678 0 0.20886364623554921 -0.031523512657201581 0 0.19655169947710091 -0.043788383486002072 0 0.1828119860636557 -0.050363577362968731 0 0.18853740735089011 -0.033706188378118708 0 0.19655169947710091 -0.043788383486002072 0 0.20886364623554921 -0.031523512657201581 0 0.18853740735089011 -0.033706188378118708 0 0.19655169947710091 -0.043788383486002072 0 0.19655169947710091 -0.043788383486002072 0 0.20138343235632811 -0.055727139445542639 0 0.20897987019450001 -0.050060865146210963 0 0.19655169947710091 -0.043788383486002072 0 0.19188844298534441 -0.056659859735039647 0 0.20138343235632811 -0.055727139445542639 0 0.1828119860636557 -0.050363577362968731 0 0.19655169947710091 -0.043788383486002072 0 0.19188844298534441 -0.056659859735039647 0 0.19188844298534441 -0.056659859735039647 0 0.20138343235632811 -0.055727139445542639 0 0.1952329782378138 -0.068464889048657496 0 0.20138343235632811 -0.055727139445542639 0 0.22670270369963491 -0.067064047377793826 0 0.20138343235632811 -0.055727139445542639 0 0.21577564808412511 -0.056666161138016313 0 0.22670270369963491 -0.067064047377793826 0 0.20138343235632811 -0.055727139445542639 0 0.20897987019450001 -0.050060865146210963 0 0.21577564808412511 -0.056666161138016313 0 0.2167024847658664 -0.043974661413588162 0 0.20897987019450001 -0.050060865146210963 0 0.21577564808412511 -0.056666161138016313 0 0.21577564808412511 -0.056666161138016313 0 0.23694359709532001 -0.061394592404840097 0 0.22670270369963491 -0.067064047377793826 0 0.21577564808412511 -0.056666161138016313 0 0.22648325856373289 -0.049317463857355977 0 0.23694359709532001 -0.061394592404840097 0 0.21577564808412511 -0.056666161138016313 0 0.23694359709532001 -0.061394592404840097 0 0.2167024847658664 -0.043974661413588162 0 0.21577564808412511 -0.056666161138016313 0 0.22648325856373289 -0.049317463857355977 0 0.22648325856373289 -0.049317463857355977 0 0.23694359709532001 -0.061394592404840097 0 0.23716366819637241 -0.046229271507985323 0 0.25811154610651499 -0.066123023671663908 0 0.23694359709532001 -0.061394592404840097 0 0.24870160087168189 -0.052882304334001928 0 0.23694359709532001 -0.061394592404840097 0 0.24870160087168189 -0.052882304334001928 0 0.23716366819637241 -0.046229271507985323 0 0.24870160087168189 -0.052882304334001928 0 0.23716366819637241 -0.046229271507985323 0 0.24731406762381819 -0.035960341631652723 0 0.23716366819637241 -0.046229271507985323 0 0.24731406762381819 -0.035960341631652723 0 0.23342582712955959 -0.033308149953783547 0 0.23342582712955959 -0.033308149953783547 0 0.2258308946769807 -0.038322632822349968 0 0.22548915127375299 -0.027513718828695861 0 0.22648325856373289 -0.049317463857355977 0 0.23716366819637241 -0.046229271507985323 0 0.2258308946769807 -0.038322632822349968 0 0.23716366819637241 -0.046229271507985323 0 0.23342582712955959 -0.033308149953783547 0 0.2258308946769807 -0.038322632822349968 0 0.2180191377477218 -0.035203133534298187 0 0.2167024847658664 -0.043974661413588162 0 0.2258308946769807 -0.038322632822349968 0 0.2167024847658664 -0.043974661413588162 0 0.22648325856373289 -0.049317463857355977 0 0.2258308946769807 -0.038322632822349968 0 0.2180191377477218 -0.035203133534298187 0 0.2258308946769807 -0.038322632822349968 0 0.21995729679401421 -0.029331280632926501 0 0.2258308946769807 -0.038322632822349968 0 0.22548915127375299 -0.027513718828695861 0 0.21995729679401421 -0.029331280632926501 0 0.21528057420098159 -0.024212643874961401 0 0.2313313538768734 -0.018514784978234038 0 0.22829619310998309 -0.01520182636873813 0 0.21528057420098159 -0.024212643874961401 0 0.2313313538768734 -0.018514784978234038 0 0.21528057420098159 -0.024212643874961401 0 0.22548915127375299 -0.027513718828695861 0 0.2313313538768734 -0.018514784978234038 0 0.21528057420098159 -0.024212643874961401 0 0.22548915127375299 -0.027513718828695861 0 0.21995729679401421 -0.029331280632926501 0 0.21528057420098159 -0.024212643874961401 0 0.22829619310998309 -0.01520182636873813 0 0.21528057420098159 -0.024212643874961401 0 0.21911622703360889 -0.015650702578479541 0 0.22829619310998309 -0.01520182636873813 0 0.2313313538768734 -0.018514784978234038 0 0.22829619310998309 -0.01520182636873813 0 0.23342582712955959 -0.033308149953783547 0 0.22548915127375299 -0.027513718828695861 0 0.2313313538768734 -0.018514784978234038 0 0.25508119948702751 -0.010083838205662381 0 0.2313313538768734 -0.018514784978234038 0 0.2482857443068576 -0.021714794414400052 0 0.24731406762381819 -0.035960341631652723 0 0.2313313538768734 -0.018514784978234038 0 0.2482857443068576 -0.021714794414400052 0 0.24731406762381819 -0.035960341631652723 0 0.23342582712955959 -0.033308149953783547 0 0.2313313538768734 -0.018514784978234038 0 0.24731406762381819 -0.035960341631652723 0 0.2313313538768734 -0.018514784978234038 0 0.25508119948702751 -0.010083838205662381 0 0.2313313538768734 -0.018514784978234038 0 0.24138147174972829 -0.0061427828714447699 0 0.25508119948702751 -0.010083838205662381 0 0.2313313538768734 -0.018514784978234038 0 0.24138147174972829 -0.0061427828714447699 0 0.22829619310998309 -0.01520182636873813 0 0.25446675038947358 0.0029162606258486688 0 0.2541426920980116 -0.0036136263454906951 0 0.24138147174972829 -0.0061427828714447699 0 0.25446675038947358 0.0029162606258486688 0 0.24138147174972829 -0.0061427828714447699 0 0.22999165343287109 0.0038227322559807589 0 0.24138147174972829 -0.0061427828714447699 0 0.23189167676904729 -0.0064153040848911828 0 0.22999165343287109 0.0038227322559807589 0 0.23189167676904729 -0.0064153040848911828 0 0.2228246624943325 -0.0092295053444410857 0 0.22999165343287109 0.0038227322559807589 0 0.21351355446813719 -0.0021103410187178909 0 0.2228246624943325 -0.0092295053444410857 0 0.23189167676904729 -0.0064153040848911828 0 0.22829619310998309 -0.01520182636873813 0 0.2228246624943325 -0.0092295053444410857 0 0.2313313538768734 -0.018514784978234038 0 0.24138147174972829 -0.0061427828714447699 0 0.22829619310998309 -0.01520182636873813 0 0.24138147174972829 -0.0061427828714447699 0 0.23189167676904729 -0.0064153040848911828 0 0.22829619310998309 -0.01520182636873813 0 0.21911622703360889 -0.015650702578479541 0 0.22829619310998309 -0.01520182636873813 0 0.2228246624943325 -0.0092295053444410857 0 0.22829619310998309 -0.01520182636873813 0 0.2228246624943325 -0.0092295053444410857 0 0.2084634723971549 -0.097930235578601213 0 0.21737999015654699 -0.1103161024944793 0 0.2275791846540145 -0.10054182369239011 0 0.21737999015654699 -0.1103161024944793 0 0.19100769245097829 -0.1040519139747048 0 0.2084634723971549 -0.097930235578601213 0 0.21140608144591419 -0.084503356370523836 0 0.2275791846540145 -0.10054182369239011 0 0.2084634723971549 -0.097930235578601213 0 0.21737999015654699 -0.1103161024944793 0 0.19100769245097829 -0.1040519139747048 0 0.21737999015654699 -0.1103161024944793 0 0.21277072480774051 -0.1248863227998855 0 0.20025029595199689 -0.1218288277367077 0 0.21737999015654699 -0.1103161024944793 0 0.21277072480774051 -0.1248863227998855 0 0.2239597136694004 -0.1277946194696456 0 0.1862357176231304 -0.1238823921021804 0 0.20025029595199689 -0.1218288277367077 0 0.19100769245097829 -0.1040519139747048 0 0.21737999015654699 -0.1103161024944793 0 0.20025029595199689 -0.1218288277367077 0 0.19100769245097829 -0.1040519139747048 0 0.20025029595199689 -0.1218288277367077 0 0.19100769245097829 -0.1040519139747048 0 0.2084634723971549 -0.097930235578601213 0 0.19100769245097829 -0.1040519139747048 0 0.19624682445825681 -0.08914472739044943 0 0.18137547142311691 -0.085525622921553163 0 0.19100769245097829 -0.1040519139747048 0 0.19624682445825681 -0.08914472739044943 0 0.19624682445825681 -0.08914472739044943 0 0.1952329782378138 -0.068464889048657496 0 0.21140608144591419 -0.084503356370523836 0 0.18137547142311691 -0.085525622921553163 0 0.19624682445825681 -0.08914472739044943 0 0.1952329782378138 -0.068464889048657496 0 0.20138343235632811 -0.055727139445542639 0 0.1952329782378138 -0.068464889048657496 0 0.21149591893834541 -0.070957707586151192 0 0.18346211879182289 -0.064955309332027283 0 0.19188844298534441 -0.056659859735039647 0 0.1952329782378138 -0.068464889048657496 0 0.1952329782378138 -0.068464889048657496 0 0.21140608144591419 -0.084503356370523836 0 0.20138343235632811 -0.055727139445542639 0 0.21149591893834541 -0.070957707586151192 0 0.22670270369963491 -0.067064047377793826 0 0.1952329782378138 -0.068464889048657496 0 0.21149591893834541 -0.070957707586151192 0 0.21140608144591419 -0.084503356370523836 0 0.2084634723971549 -0.097930235578601213 0 0.19624682445825681 -0.08914472739044943 0 0.21140608144591419 -0.084503356370523836 0 0.21149591893834541 -0.070957707586151192 0 0.21140608144591419 -0.084503356370523836 0 0.2227543989520358 -0.079029105688238177 0 0.21140608144591419 -0.084503356370523836 0 0.2275791846540145 -0.10054182369239011 0 0.2227543989520358 -0.079029105688238177 0 0.23449163343577681 -0.083610487294907485 0 0.2275791846540145 -0.10054182369239011 0 0.21140608144591419 -0.084503356370523836 0 0.2227543989520358 -0.079029105688238177 0 0.2275791846540145 -0.10054182369239011 0 0.2227543989520358 -0.079029105688238177 0 0.22670270369963491 -0.067064047377793826 0 0.23449163343577681 -0.083610487294907485 0 0.21149591893834541 -0.070957707586151192 0 0.2227543989520358 -0.079029105688238177 0 0.22670270369963491 -0.067064047377793826 0 0.25202197504294188 -0.078400955310045109 0 0.25811154610651499 -0.066123023671663908 0 0.23694359709532001 -0.061394592404840097 0 0.25202197504294188 -0.078400955310045109 0 0.22670270369963491 -0.067064047377793826 0 0.25202197504294188 -0.078400955310045109 0 0.22670270369963491 -0.067064047377793826 0 0.23449163343577681 -0.083610487294907485 0 0.25202197504294188 -0.078400955310045109 0 0.23694359709532001 -0.061394592404840097 0 0.22670270369963491 -0.067064047377793826 0 0.25811154610651499 -0.066123023671663908 0 0.23694359709532001 -0.061394592404840097 0 0.25202197504294188 -0.078400955310045109 0 0.23449163343577681 -0.083610487294907485 0 0.24624903761231479 -0.086847438891893419 0 0.23449163343577681 -0.083610487294907485 0 0.24292322406264641 -0.096552741650977186 0 0.2275791846540145 -0.10054182369239011 0 0.23449163343577681 -0.083610487294907485 0 0.24624903761231479 -0.086847438891893419 0 0.24292322406264641 -0.096552741650977186 0 0.25304747237378489 -0.090741332181114118 0 0.24624903761231479 -0.086847438891893419 0 0.24292322406264641 -0.096552741650977186 0 0.2275791846540145 -0.10054182369239011 0 0.24375228786211539 -0.116580291014256 0 0.24292322406264641 -0.096552741650977186 0 0.2275791846540145 -0.10054182369239011 0 0.24375228786211539 -0.116580291014256 0 0.25771864553297669 -0.099620140202181948 0 0.24292322406264641 -0.096552741650977186 0 0.24375228786211539 -0.116580291014256 0 0.21737999015654699 -0.1103161024944793 0 0.2275791846540145 -0.10054182369239011 0 0.24375228786211539 -0.116580291014256 0 0.21737999015654699 -0.1103161024944793 0 0.24375228786211539 -0.116580291014256 0 0.2239597136694004 -0.1277946194696456 0 0.21737999015654699 -0.1103161024944793 0 0.24375228786211539 -0.116580291014256 0 0.24375228786211539 -0.116580291014256 0 0.235054631712311 -0.13955626642273861 0 0.24955680073527009 -0.143898101237383 0 0.235054631712311 -0.13955626642273861 0 0.24955680073527009 -0.143898101237383 0 0.23627457688356679 -0.15840319400941011 0 0.25449645062408999 -0.16331052089379791 0 0.24955680073527009 -0.143898101237383 0 0.23627457688356679 -0.15840319400941011 0 0.235054631712311 -0.13955626642273861 0 0.22199130801810529 -0.1478171468904442 0 0.23627457688356679 -0.15840319400941011 0 0.24375228786211539 -0.116580291014256 0 0.235054631712311 -0.13955626642273861 0 0.2239597136694004 -0.1277946194696456 0 0.235054631712311 -0.13955626642273861 0 0.22199130801810529 -0.1478171468904442 0 0.2239597136694004 -0.1277946194696456 0 0.20025029595199689 -0.1218288277367077 0 0.20949289945301761 -0.1396057414987095 0 0.22199130801810529 -0.1478171468904442 0 0.2239597136694004 -0.1277946194696456 0 0.20949289945301761 -0.1396057414987095 0 0.21277072480774051 -0.1248863227998855 0 0.20025029595199689 -0.1218288277367077 0 0.20949289945301761 -0.1396057414987095 0 0.21277072480774051 -0.1248863227998855 0 0.2239597136694004 -0.1277946194696456 0 0.20949289945301761 -0.1396057414987095 0 0.22199130801810529 -0.1478171468904442 0 0.20949289945301761 -0.1396057414987095 0 0.2069794531536403 -0.1537888919124783 0 0.20949289945301761 -0.1396057414987095 0 0.2069794531536403 -0.1537888919124783 0 0.1919305776748628 -0.1461990482496055 0 0.2069794531536403 -0.1537888919124783 0 0.1919305776748628 -0.1461990482496055 0 0.19225769977326759 -0.16432491474026781 0 0.1862357176231304 -0.1238823921021804 0 0.1919305776748628 -0.1461990482496055 0 0.19714487019074359 -0.1333469628700395 0 0.20025029595199689 -0.1218288277367077 0 0.20949289945301761 -0.1396057414987095 0 0.19714487019074359 -0.1333469628700395 0 0.20949289945301761 -0.1396057414987095 0 0.1919305776748628 -0.1461990482496055 0 0.19714487019074359 -0.1333469628700395 0 0.1862357176231304 -0.1238823921021804 0 0.1919305776748628 -0.1461990482496055 0 0.1862357176231304 -0.1238823921021804 0 0.20025029595199689 -0.1218288277367077 0 0.19714487019074359 -0.1333469628700395 0 0.19629081049063871 -0.1815365299480412 0 0.19225769977326759 -0.16432491474026781 0 0.17982600751226671 -0.1762593337595659 0 0.19629081049063871 -0.1815365299480412 0 0.19225769977326759 -0.16432491474026781 0 0.22018657323669569 -0.16775416802968299 0 0.2069794531536403 -0.1537888919124783 0 0.19225769977326759 -0.16432491474026781 0 0.22018657323669569 -0.16775416802968299 0 0.22199130801810529 -0.1478171468904442 0 0.2069794531536403 -0.1537888919124783 0 0.22018657323669569 -0.16775416802968299 0 0.19629081049063871 -0.1815365299480412 0 0.22018657323669569 -0.16775416802968299 0 0.21237941264848451 -0.18810475376770611 0 0.22018657323669569 -0.16775416802968299 0 0.23934418379307471 -0.18436482883247621 0 0.22018657323669569 -0.16775416802968299 0 0.23934418379307471 -0.18436482883247621 0 0.21237941264848451 -0.18810475376770611 0 0.22018657323669569 -0.16775416802968299 0 0.23627457688356679 -0.15840319400941011 0 0.23934418379307471 -0.18436482883247621 0 0.22199130801810529 -0.1478171468904442 0 0.22018657323669569 -0.16775416802968299 0 0.23627457688356679 -0.15840319400941011 0 0.25449645062408999 -0.16331052089379791 0 0.23627457688356679 -0.15840319400941011 0 0.23934418379307471 -0.18436482883247621 0 0.25850179434945381 -0.20097548963526929 0 0.23934418379307471 -0.18436482883247621 0 0.25850179434945381 -0.20097548963526929 0 0.23934418379307471 -0.18436482883247621 0 0.23907695871134879 -0.21289681242661959 0 0.23907695871134879 -0.21289681242661959 0 0.22308479462261119 -0.20217133576560289 0 0.21722062693650279 -0.2226466586169516 0 0.23934418379307471 -0.18436482883247621 0 0.22308479462261119 -0.20217133576560289 0 0.21237941264848451 -0.18810475376770611 0 0.23934418379307471 -0.18436482883247621 0 0.23907695871134879 -0.21289681242661959 0 0.22308479462261119 -0.20217133576560289 0 0.25037283077400019 -0.2416092145933311 0 0.23239962387573149 -0.2337287944253621 0 0.2339549802858914 -0.24933471903745599 0 0.25658827463044448 -0.2222138965281123 0 0.23907695871134879 -0.21289681242661959 0 0.2446094219978813 -0.2276121794933563 0 0.25037283077400019 -0.2416092145933311 0 0.2446094219978813 -0.2276121794933563 0 0.23239962387573149 -0.2337287944253621 0 0.23907695871134879 -0.21289681242661959 0 0.2446094219978813 -0.2276121794933563 0 0.23239962387573149 -0.2337287944253621 0 0.23907695871134879 -0.21289681242661959 0 0.23239962387573149 -0.2337287944253621 0 0.21722062693650279 -0.2226466586169516 0 0.23239962387573149 -0.2337287944253621 0 0.2194561222393229 -0.23682627783696539 0 0.21722062693650279 -0.2226466586169516 0 0.23239962387573149 -0.2337287944253621 0 0.22502312889380549 -0.2426362774769398 0 0.2339549802858914 -0.24933471903745599 0 0.2194561222393229 -0.23682627783696539 0 0.22502312889380549 -0.2426362774769398 0 0.21456577207223029 -0.24270171036535029 0 0.23239962387573149 -0.2337287944253621 0 0.2194561222393229 -0.23682627783696539 0 0.22502312889380549 -0.2426362774769398 0 0.22331750647786899 -0.25281133177650322 0 0.22502312889380549 -0.2426362774769398 0 0.21456577207223029 -0.24270171036535029 0 0.22331750647786899 -0.25281133177650322 0 0.22502312889380549 -0.2426362774769398 0 0.2339549802858914 -0.24933471903745599 0 0.2084475354763706 -0.25511513831035743 0 0.2080714594183444 -0.2424179483002232 0 0.21336353465090491 -0.24693864317134839 0 0.2080714594183444 -0.2424179483002232 0 0.21336353465090491 -0.24693864317134839 0 0.2080714594183444 -0.2424179483002232 0 0.21336353465090491 -0.24693864317134839 0 0.21456577207223029 -0.24270171036535029 0 0.2194561222393229 -0.23682627783696539 0 0.2080714594183444 -0.2424179483002232 0 0.21456577207223029 -0.24270171036535029 0 0.21722062693650279 -0.2226466586169516 0 0.20244123733496699 -0.2260211367091485 0 0.19848523837712481 -0.2136299623964425 0 0.2080714594183444 -0.2424179483002232 0 0.21722062693650279 -0.2226466586169516 0 0.2194561222393229 -0.23682627783696539 0 0.2080714594183444 -0.2424179483002232 0 0.21722062693650279 -0.2226466586169516 0 0.2080714594183444 -0.2424179483002232 0 0.21722062693650279 -0.2226466586169516 0 0.20244123733496699 -0.2260211367091485 0 0.2080714594183444 -0.2424179483002232 0 0.18716213711817259 -0.22455639835484539 0 0.2080714594183444 -0.2424179483002232 0 0.20244123733496699 -0.2260211367091485 0 0.18716213711817259 -0.22455639835484539 0 0.20244123733496699 -0.2260211367091485 0 0.19848523837712481 -0.2136299623964425 0 0.18716213711817259 -0.22455639835484539 0 0.2080714594183444 -0.2424179483002232 0 0.19254414318066221 -0.24961624770678509 0 0.1866817818972302 -0.23981118877977231 0 0.2080714594183444 -0.2424179483002232 0 0.1866817818972302 -0.23981118877977231 0 0.18716213711817259 -0.22455639835484539 0 0.19254414318066221 -0.24961624770678509 0 0.18399505531774341 -0.24981832115951039 0 0.1866817818972302 -0.23981118877977231 0 0.21237941264848451 -0.18810475376770611 0 0.20793523744788639 -0.20366419955677639 0 0.19447652973028121 -0.19759128756789451 0 0.22308479462261119 -0.20217133576560289 0 0.21237941264848451 -0.18810475376770611 0 0.20793523744788639 -0.20366419955677639 0 0.22308479462261119 -0.20217133576560289 0 0.21722062693650279 -0.2226466586169516 0 0.20793523744788639 -0.20366419955677639 0 0.21722062693650279 -0.2226466586169516 0 0.20793523744788639 -0.20366419955677639 0 0.19848523837712481 -0.2136299623964425 0 0.19848523837712481 -0.2136299623964425 0 0.19447652973028121 -0.19759128756789451 0 0.1831457957419608 -0.2071674304332729 0 0.20793523744788639 -0.20366419955677639 0 0.19848523837712481 -0.2136299623964425 0 0.19447652973028121 -0.19759128756789451 0 0.19848523837712481 -0.2136299623964425 0 0.1831457957419608 -0.2071674304332729 0 0.18716213711817259 -0.22455639835484539 0 0.19629081049063871 -0.1815365299480412 0 0.19447652973028121 -0.19759128756789451 0 0.1840061663436266 -0.1900566622106199 0 0.19629081049063871 -0.1815365299480412 0 0.21237941264848451 -0.18810475376770611 0 0.19447652973028121 -0.19759128756789451 0 0.19447652973028121 -0.19759128756789451 0 0.1840061663436266 -0.1900566622106199 0 0.1831457957419608 -0.2071674304332729 0 0.1840061663436266 -0.1900566622106199 0 0.1831457957419608 -0.2071674304332729 0 0.16486725365112659 -0.18785963188663279 0 0.1831457957419608 -0.2071674304332729 0 0.16486725365112659 -0.18785963188663279 0 0.1831457957419608 -0.2071674304332729 0 0.16625281481800089 -0.2066948484094672 0 0.18716213711817259 -0.22455639835484539 0 0.16625281481800089 -0.2066948484094672 0 0.18716213711817259 -0.22455639835484539 0 0.16625281481800089 -0.2066948484094672 0 0.18716213711817259 -0.22455639835484539 0 0.16937657335138201 -0.22198425569814831 0 0.16625281481800089 -0.2066948484094672 0 0.15661990237239229 -0.21733625041789439 0 0.14909823278687431 -0.20687378182447139 0 0.16625281481800089 -0.2066948484094672 0 0.15661990237239229 -0.21733625041789439 0 0.16937657335138201 -0.22198425569814831 0 0.1831457957419608 -0.2071674304332729 0 0.16625281481800089 -0.2066948484094672 0 0.16486725365112659 -0.18785963188663279 0 0.16625281481800089 -0.2066948484094672 0 0.16486725365112659 -0.18785963188663279 0 0.14534349251782941 -0.188833298464089 0 0.17619278994504239 -0.24587918172992959 0 0.18399505531774341 -0.24981832115951039 0 0.1866817818972302 -0.23981118877977231 0 0.17619278994504239 -0.24587918172992959 0 0.17450151464944069 -0.23276490516368609 0 0.16609645978724119 -0.24143951784646769 0 0.17619278994504239 -0.24587918172992959 0 0.1866817818972302 -0.23981118877977231 0 0.17450151464944069 -0.23276490516368609 0 0.17450151464944069 -0.23276490516368609 0 0.18716213711817259 -0.22455639835484539 0 0.16937657335138201 -0.22198425569814831 0 0.1866817818972302 -0.23981118877977231 0 0.17450151464944069 -0.23276490516368609 0 0.18716213711817259 -0.22455639835484539 0 0.15661990237239229 -0.21733625041789439 0 0.1623464977989032 -0.22856887614484861 0 0.15090654410468329 -0.22688320449844629 0 0.15661990237239229 -0.21733625041789439 0 0.16937657335138201 -0.22198425569814831 0 0.1623464977989032 -0.22856887614484861 0 0.17450151464944069 -0.23276490516368609 0 0.1623464977989032 -0.22856887614484861 0 0.16609645978724119 -0.24143951784646769 0 0.17450151464944069 -0.23276490516368609 0 0.16937657335138201 -0.22198425569814831 0 0.1623464977989032 -0.22856887614484861 0 0.1623464977989032 -0.22856887614484861 0 0.16609645978724119 -0.24143951784646769 0 0.1528270009437688 -0.23836283418195289 0 0.16001236861667459 -0.2513654190734112 0 0.16609645978724119 -0.24143951784646769 0 0.1528270009437688 -0.23836283418195289 0 0.16978669848249819 -0.25098739912941831 0 0.17619278994504239 -0.24587918172992959 0 0.16609645978724119 -0.24143951784646769 0 0.16001236861667459 -0.2513654190734112 0 0.16978669848249819 -0.25098739912941831 0 0.16609645978724119 -0.24143951784646769 0 0.1429630926125974 -0.2502577086919005 0 0.16001236861667459 -0.2513654190734112 0 0.1528270009437688 -0.23836283418195289 0 0.1429630926125974 -0.2502577086919005 0 0.1528270009437688 -0.23836283418195289 0 0.13988621804673579 -0.23152362256679451 0 0.1528270009437688 -0.23836283418195289 0 0.15090654410468329 -0.22688320449844629 0 0.13988621804673579 -0.23152362256679451 0 0.1623464977989032 -0.22856887614484861 0 0.1528270009437688 -0.23836283418195289 0 0.15090654410468329 -0.22688320449844629 0 0.15661990237239229 -0.21733625041789439 0 0.15090654410468329 -0.22688320449844629 0 0.1428531013616163 -0.21862443918074129 0 0.15090654410468329 -0.22688320449844629 0 0.13988621804673579 -0.23152362256679451 0 0.1428531013616163 -0.21862443918074129 0 0.12018370186474731 -0.23305432747703519 0 0.12895394136930069 -0.22163642029703709 0 0.13988621804673579 -0.23152362256679451 0 0.12895394136930069 -0.22163642029703709 0 0.13988621804673579 -0.23152362256679451 0 0.1428531013616163 -0.21862443918074129 0 0.1429630926125974 -0.2502577086919005 0 0.12018370186474731 -0.23305432747703519 0 0.1429630926125974 -0.2502577086919005 0 0.12018370186474731 -0.23305432747703519 0 0.13988621804673579 -0.23152362256679451 0 0.13217397618885759 -0.25462043987800831 0 0.1429630926125974 -0.2502577086919005 0 0.12018370186474731 -0.23305432747703519 0 0.16625281481800089 -0.2066948484094672 0 0.14534349251782941 -0.188833298464089 0 0.16625281481800089 -0.2066948484094672 0 0.14534349251782941 -0.188833298464089 0 0.14909823278687431 -0.20687378182447139 0 0.14534349251782941 -0.188833298464089 0 0.14909823278687431 -0.20687378182447139 0 0.1346280568372662 -0.20359450925845249 0 0.15661990237239229 -0.21733625041789439 0 0.14909823278687431 -0.20687378182447139 0 0.1428531013616163 -0.21862443918074129 0 0.14909823278687431 -0.20687378182447139 0 0.1428531013616163 -0.21862443918074129 0 0.1346280568372662 -0.20359450925845249 0 0.1178461100078927 -0.20838697738218431 0 0.12895394136930069 -0.22163642029703709 0 0.1346280568372662 -0.20359450925845249 0 0.12895394136930069 -0.22163642029703709 0 0.1428531013616163 -0.21862443918074129 0 0.1346280568372662 -0.20359450925845249 0 0.14534349251782941 -0.188833298464089 0 0.1346280568372662 -0.20359450925845249 0 0.13128332926409281 -0.18787359724935929 0 0.1237689835273371 -0.19605207676116951 0 0.1178461100078927 -0.20838697738218431 0 0.1346280568372662 -0.20359450925845249 0 0.1237689835273371 -0.19605207676116951 0 0.1346280568372662 -0.20359450925845249 0 0.13128332926409281 -0.18787359724935929 0 0.1237689835273371 -0.19605207676116951 0 0.1232013989280239 -0.1819146573535104 0 0.13128332926409281 -0.18787359724935929 0 0.12443417021765769 -0.1709717485187108 0 0.14534349251782941 -0.188833298464089 0 0.12443417021765769 -0.1709717485187108 0 0.1232013989280239 -0.1819146573535104 0 0.13128332926409281 -0.18787359724935929 0 0.12443417021765769 -0.1709717485187108 0 0.14534349251782941 -0.188833298464089 0 0.13128332926409281 -0.18787359724935929 0 0.12443417021765769 -0.1709717485187108 0 0.14534349251782941 -0.188833298464089 0 0.13540865390058859 -0.1688207667960602 0 0.14534349251782941 -0.188833298464089 0 0.14658871156029241 -0.16855183333999291 0 0.13540865390058859 -0.1688207667960602 0 0.16486725365112659 -0.18785963188663279 0 0.14658871156029241 -0.16855183333999291 0 0.16486725365112659 -0.18785963188663279 0 0.14534349251782941 -0.188833298464089 0 0.14658871156029241 -0.16855183333999291 0 0.14658871156029241 -0.16855183333999291 0 0.13391177650968769 -0.15242347890466901 0 0.14971917460686079 -0.1530450482394467 0 0.14658871156029241 -0.16855183333999291 0 0.14971917460686079 -0.1530450482394467 0 0.16192904395431579 -0.15800089119817939 0 0.14658871156029241 -0.16855183333999291 0 0.13391177650968769 -0.15242347890466901 0 0.12831016946945831 -0.1492440347933528 0 0.14658871156029241 -0.16855183333999291 0 0.12831016946945831 -0.1492440347933528 0 0.14658871156029241 -0.16855183333999291 0 0.13540865390058859 -0.1688207667960602 0 0.1290045142054978 -0.1612372837293575 0 0.14658871156029241 -0.16855183333999291 0 0.1290045142054978 -0.1612372837293575 0 0.12831016946945831 -0.1492440347933528 0 0.13540865390058859 -0.1688207667960602 0 0.12715697753007521 -0.16591248018761531 0 0.1290045142054978 -0.1612372837293575 0 0.12443417021765769 -0.1709717485187108 0 0.13540865390058859 -0.1688207667960602 0 0.12715697753007521 -0.16591248018761531 0 0.12098675462827781 -0.16200852072179159 0 0.12715697753007521 -0.16591248018761531 0 0.1290045142054978 -0.1612372837293575 0 0.12324902196630889 -0.15465793599018671 0 0.1227471198665283 -0.15880086614903269 0 0.1290045142054978 -0.1612372837293575 0 0.13391177650968769 -0.15242347890466901 0 0.12831016946945831 -0.1492440347933528 0 0.12532898621889721 -0.13663811256420449 0 0.12324902196630889 -0.15465793599018671 0 0.1290045142054978 -0.1612372837293575 0 0.12831016946945831 -0.1492440347933528 0 0.1217036921304827 -0.1482443959076799 0 0.12831016946945831 -0.1492440347933528 0 0.12532898621889721 -0.13663811256420449 0 0.13391177650968769 -0.15242347890466901 0 0.13188977167139071 -0.12546883223523481 0 0.13391177650968769 -0.15242347890466901 0 0.13188977167139071 -0.12546883223523481 0 0.1446303542042412 -0.1380662602394005 0 0.13391177650968769 -0.15242347890466901 0 0.13188977167139071 -0.12546883223523481 0 0.12532898621889721 -0.13663811256420449 0 0.11997683785091839 -0.1276371159963853 0 0.13188977167139071 -0.12546883223523481 0 0.12532898621889721 -0.13663811256420449 0 0.1446303542042412 -0.1380662602394005 0 0.15557261582888751 -0.13003178131142151 0 0.1621281360659286 -0.14191921566573409 0 0.14724036225017881 -0.1245170930860646 0 0.13188977167139071 -0.12546883223523481 0 0.1446303542042412 -0.1380662602394005 0 0.14724036225017881 -0.1245170930860646 0 0.1446303542042412 -0.1380662602394005 0 0.15557261582888751 -0.13003178131142151 0 0.13391177650968769 -0.15242347890466901 0 0.1446303542042412 -0.1380662602394005 0 0.14971917460686079 -0.1530450482394467 0 0.1446303542042412 -0.1380662602394005 0 0.14971917460686079 -0.1530450482394467 0 0.1621281360659286 -0.14191921566573409 0 0.1621281360659286 -0.14191921566573409 0 0.17324983187337631 -0.13165498831909611 0 0.17651024624945799 -0.1485415537171802 0 0.14971917460686079 -0.1530450482394467 0 0.1621281360659286 -0.14191921566573409 0 0.16192904395431579 -0.15800089119817939 0 0.1621281360659286 -0.14191921566573409 0 0.17651024624945799 -0.1485415537171802 0 0.16192904395431579 -0.15800089119817939 0 0.16471491079178111 -0.1205264202314431 0 0.15557261582888751 -0.13003178131142151 0 0.1639163736399934 -0.1310331013819237 0 0.15557261582888751 -0.13003178131142151 0 0.1621281360659286 -0.14191921566573409 0 0.1639163736399934 -0.1310331013819237 0 0.1621281360659286 -0.14191921566573409 0 0.1639163736399934 -0.1310331013819237 0 0.17324983187337631 -0.13165498831909611 0 0.16471491079178111 -0.1205264202314431 0 0.1639163736399934 -0.1310331013819237 0 0.17324983187337631 -0.13165498831909611 0 0.1862357176231304 -0.1238823921021804 0 0.1919305776748628 -0.1461990482496055 0 0.17324983187337631 -0.13165498831909611 0 0.1919305776748628 -0.1461990482496055 0 0.17324983187337631 -0.13165498831909611 0 0.17651024624945799 -0.1485415537171802 0 0.1919305776748628 -0.1461990482496055 0 0.19225769977326759 -0.16432491474026781 0 0.17651024624945799 -0.1485415537171802 0 0.19225769977326759 -0.16432491474026781 0 0.17526083145963689 -0.16308053239281189 0 0.17982600751226671 -0.1762593337595659 0 0.19225769977326759 -0.16432491474026781 0 0.17651024624945799 -0.1485415537171802 0 0.17526083145963689 -0.16308053239281189 0 0.17526083145963689 -0.16308053239281189 0 0.17982600751226671 -0.1762593337595659 0 0.16627328335530381 -0.17069773137902189 0 0.1840061663436266 -0.1900566622106199 0 0.16486725365112659 -0.18785963188663279 0 0.17982600751226671 -0.1762593337595659 0 0.19629081049063871 -0.1815365299480412 0 0.1840061663436266 -0.1900566622106199 0 0.17982600751226671 -0.1762593337595659 0 0.16486725365112659 -0.18785963188663279 0 0.14658871156029241 -0.16855183333999291 0 0.16627328335530381 -0.17069773137902189 0 0.16486725365112659 -0.18785963188663279 0 0.17982600751226671 -0.1762593337595659 0 0.16627328335530381 -0.17069773137902189 0 0.14658871156029241 -0.16855183333999291 0 0.16192904395431579 -0.15800089119817939 0 0.16627328335530381 -0.17069773137902189 0 0.17526083145963689 -0.16308053239281189 0 0.16192904395431579 -0.15800089119817939 0 0.16627328335530381 -0.17069773137902189 0 0.17651024624945799 -0.1485415537171802 0 0.17526083145963689 -0.16308053239281189 0 0.16192904395431579 -0.15800089119817939 0 
</DataArray>
</Points>
<Cells>
<DataArray type="UInt32" Name="connectivity" format="ascii">
0 1 2 3 4 5 6 7 8 9 10 11 12 13 14 15 16 17 18 19 20 21 22 23 24 25 26 27 28 29 30 31 32 33 34 35 36 37 38 39 40 41 42 43 44 45 46 47 48 49 50 51 52 53 54 55 56 57 58 59 60 61 62 63 64 65 66 67 68 69 70 71 72 73 74 75 76 77 78 79 80 81 82 83 84 85 86 87 88 89 90 91 92 93 94 95 96 97 98 99 100 101 102 103 104 105 106 107 108 109 110 111 112 113 114 115 116 117 118 119 120 121 122 123 124 125 126 127 128 129 130 131 132 133 134 135 136 137 138 139 140 141 142 143 144 145 146 147 148 149 150 151 152 153 154 155 156 157 158 159 160 161 162 163 164 165 166 167 168 169 170 171 172 173 174 175 176 177 178 179 180 181 182 183 184 185 186 187 188 189 190 191 192 193 194 195 196 197 198 199 200 201 202 203 204 205 206 207 208 209 210 211 212 213 214 215 216 217 218 219 220 221 222 223 224 225 226 227 228 229 230 231 232 233 234 235 236 237 238 239 240 241 242 243 244 245 246 247 248 249 250 251 252 253 254 255 256 257 258 259 260 261 262 263 264 265 266 267 268 269 270 271 272 273 274 275 276 277 278 279 280 281 282 283 284 285 286 287 288 289 290 291 292 293 294 295 296 297 298 299 300 301 302 303 304 305 306 307 308 309 310 311 312 313 314 315 316 317 318 319 320 321 322 323 324 325 326 327 328 329 330 331 332 333 334 335 336 337 338 339 340 341 342 343 344 345 346 347 348 349 350 351 352 353 354 355 356 357 358 359 360 361 362 363 364 365 366 367 368 369 370 371 372 373 374 375 376 377 378 379 380 381 382 383 384 385 386 387 388 389 390 391 392 393 394 395 396 397 398 399 400 401 402 403 404 405 406 407 408 409 410 411 412 413 414 415 416 417 418 419 420 421 422 423 424 425 426 427 428 429 430 431 432 433 434 435 436 437 438 439 440 441 442 443 444 445 446 447 448 449 450 451 452 453 454 455 456 457 458 459 460 461 462 463 464 465 466 467 468 469 470 471 472 473 474 475 476 477 478 479 480 481 482 483 484 485 486 487 488 489 490 491 492 493 494 495 496 497 498 499 500 501 502 503 504 505 506 507 508 509 510 511 512 513 514 515 516 517 518 519 520 521 522 523 524 525 526 527 528 529 530 531 532 533 534 535 536 537 538 539 540 541 542 543 544 545 546 547 548 549 550 551 552 553 554 555 556 557 558 559 560 561 562 563 564 565 566 567 568 569 570 571 572 573 574 575 576 577 578 579 580 581 582 583 584 585 586 587 588 589 590 591 592 593 594 595 596 597 598 599 600 601 602 603 604 605 606 607 608 609 610 611 612 613 614 615 616 617 618 619 620 621 622 623 624 625 626 627 628 629 630 631 632 633 634 635 636 637 638 639 640 641 642 643 644 645 646 647 648 649 650 651 652 653 654 655 656 657 658 659 660 661 662 663 664 665 666 667 668 669 670 671 672 673 674 675 676 677 678 679 680 681 682 683 684 685 686 687 688 689 690 691 692 693 694 695 696 697 698 699 700 701 702 703 704 705 706 707 708 709 710 711 712 713 714 715 716 717 718 719 720 721 722 723 724 725 726 727 728 729 730 731 732 733 734 735 736 737 738 739 740 741 742 743 744 745 746 747 748 749 750 751 752 753 754 755 756 757 758 759 760 761 762 763 764 765 766 767 768 769 770 771 772 773 774 775 776 777 778 779 780 781 782 783 784 785 786 787 788 789 790 791 792 793 794 795 796 797 798 799 800 801 802 803 804 805 806 807 808 809 810 811 812 813 814 815 816 817 818 819 820 821 822 823 824 825 826 827 828 829 830 831 832 833 834 835 836 837 838 839 840 841 842 843 844 845 846 847 848 849 850 851 852 853 854 855 856 857 858 859 860 861 862 863 864 865 866 867 868 869 870 871 872 873 874 875 876 877 878 879 880 881 882 883 884 885 886 887 888 889 890 891 892 893 894 895 896 897 898 899 900 901 902 903 904 905 906 907 908 909 910 911 912 913 914 915 916 917 918 919 920 921 922 923 924 925 926 927 928 929 930 931 932 933 934 935 936 937 938 939 940 941 942 943 944 945 946 947 948 949 950 951 952 953 954 955 956 957 958 959 960 961 962 963 964 965 966 967 968 969 970 971 972 973 974 975 976 977 978 979 980 981 982 983 984 985 986 987 988 989 990 991 992 993 994 995 996 997 998 999 1000 1001 1002 1003 1004 1005 1006 1007 1008 1009 1010 1011 1012 1013 1014 1015 1016 1017 1018 1019 1020 1021 1022 1023 1024 1025 1026 1027 1028 1029 1030 1031 1032 1033 1034 1035 1036 1037 1038 1039 1040 1041 1042 1043 1044 1045 1046 1047 1048 1049 1050 1051 1052 1053 1054 1055 1056 1057 1058 1059 1060 1061 1062 1063 1064 1065 1066 1067 1068 1069 1070 1071 1072 1073 1074 1075 1076 1077 1078 1079 1080 1081 1082 1083 1084 1085 1086 1087 1088 1089 1090 1091 1092 1093 1094 1095 1096 1097 1098 1099 1100 1101 1102 1103 1104 1105 1106 1107 1108 1109 1110 1111 1112 1113 1114 1115 1116 1117 1118 1119 1120 1121 1122 1123 1124 1125 1126 1127 1128 1129 1130 1131 1132 1133 1134 1135 1136 1137 1138 1139 1140 1141 1142 1143 1144 1145 1146 1147 1148 1149 1150 1151 1152 1153 1154 1155 1156 1157 1158 1159 1160 1161 1162 1163 1164 1165 1166 1167 1168 1169 1170 1171 1172 1173 1174 1175 1176 1177 1178 1179 1180 1181 1182 1183 1184 1185 1186 1187 1188 1189 1190 1191 1192 1193 1194 1195 1196 1197 1198 1199 1200 1201 1202 1203 1204 1205 1206 1207 1208 1209 1210 1211 1212 1213 1214 1215 1216 1217 1218 1219 1220 1221 1222 1223 1224 1225 1226 1227 1228 1229 1230 1231 1232 1233 1234 1235 1236 1237 1238 1239 1240 1241 1242 1243 1244 1245 1246 1247 1248 1249 1250 1251 1252 1253 1254 1255 1256 1257 1258 1259 1260 1261 1262 1263 1264 1265 1266 1267 1268 1269 1270 1271 1272 1273 1274 1275 1276 1277 1278 1279 1280 1281 1282 1283 1284 1285 1286 1287 1288 1289 1290 1291 1292 1293 1294 1295 1296 1297 1298 1299 1300 1301 1302 1303 1304 1305 1306 1307 1308 1309 1310 1311 1312 1313 1314 1315 1316 1317 1318 1319 1320 1321 1322 1323 1324 1325 1326 1327 1328 1329 1330 1331 1332 1333 1334 1335 1336 1337 1338 1339 1340 1341 1342 1343 1344 1345 1346 1347 1348 1349 1350 1351 1352 1353 1354 1355 1356 1357 1358 1359 1360 1361 1362 1363 1364 1365 1366 1367 1368 1369 1370 1371 1372 1373 1374 1375 1376 1377 1378 1379 1380 1381 1382 1383 1384 1385 1386 1387 1388 1389 1390 1391 1392 1393 1394 1395 1396 1397 1398 1399 1400 1401 1402 1403 1404 1405 1406 1407 1408 1409 1410 1411 1412 1413 1414 1415 1416 1417 1418 1419 1420 1421 1422 1423 1424 1425 1426 1427 1428 1429 1430 1431 1432 1433 1434 1435 1436 1437 1438 1439 1440 1441 1442 1443 1444 1445 1446 1447 1448 1449 1450 1451 1452 1453 1454 1455 1456 1457 1458 1459 1460 1461 1462 1463 1464 1465 1466 1467 1468 1469 1470 1471 1472 1473 1474 1475 1476 1477 1478 1479 1480 1481 1482 1483 1484 1485 1486 1487 1488 1489 1490 1491 1492 1493 1494 1495 1496 1497 1498 1499 1500 1501 1502 1503 1504 1505 1506 1507 1508 1509 1510 1511 1512 1513 1514 1515 1516 1517 1518 1519 1520 1521 1522 1523 1524 1525 1526 1527 1528 1529 1530 1531 1532 1533 1534 1535 1536 1537 1538 1539 1540 1541 1542 1543 1544 1545 1546 1547 1548 1549 1550 1551 1552 1553 1554 1555 1556 1557 1558 1559 1560 1561 1562 1563 1564 1565 1566 1567 1568 1569 1570 1571 1572 1573 1574 1575 1576 1577 1578 1579 1580 1581 1582 1583 1584 1585 1586 1587 1588 1589 1590 1591 1592 1593 1594 1595 1596 1597 1598 1599 1600 1601 1602 1603 1604 1605 1606 1607 1608 1609 1610 1611 1612 1613 1614 1615 1616 1617 1618 1619 1620 1621 1622 1623 1624 1625 1626 1627 1628 1629 1630 1631 1632 1633 1634 1635 1636 1637 1638 1639 1640 1641 1642 1643 1644 1645 1646 1647 1648 1649 1650 1651 1652 1653 1654 1655 1656 1657 1658 1659 1660 1661 1662 1663 1664 1665 1666 1667 1668 1669 1670 1671 1672 1673 1674 1675 1676 1677 1678 1679 1680 1681 1682 1683 1684 1685 1686 1687 1688 1689 1690 1691 1692 1693 1694 1695 1696 1697 1698 1699 1700 1701 1702 1703 1704 1705 1706 1707 1708 1709 1710 1711 1712 1713 1714 1715 1716 1717 1718 1719 1720 1721 1722 1723 1724 1725 1726 1727 1728 1729 1730 1731 1732 1733 1734 1735 1736 1737 1738 1739 1740 1741 1742 1743 1744 1745 1746 1747 1748 1749 1750 1751 1752 1753 1754 1755 1756 1757 1758 1759 1760 1761 1762 1763 1764 1765 1766 1767 1768 1769 1770 1771 1772 1773 1774 1775 1776 1777 1778 1779 1780 1781 1782 1783 1784 1785 1786 1787 1788 1789 1790 1791 1792 1793 1794 1795 1796 1797 1798 1799 1800 1801 1802 1803 1804 1805 1806 1807 1808 1809 1810 1811 1812 1813 1814 1815 1816 1817 1818 1819 1820 1821 1822 1823 1824 1825 1826 1827 1828 1829 1830 1831 1832 1833 1834 1835 1836 1837 1838 1839 1840 1841 1842 1843 1844 1845 1846 1847 1848 1849 1850 1851 1852 1853 1854 1855 1856 1857 1858 1859 1860 1861 1862 1863 1864 1865 1866 1867 1868 1869 1870 1871 1872 1873 1874 1875 1876 1877 1878 1879 1880 1881 1882 1883 1884 1885 1886 1887 1888 1889 1890 1891 1892 1893 1894 1895 1896 1897 1898 1899 1900 1901 1902 1903 1904 1905 1906 1907 1908 1909 1910 1911 1912 1913 1914 1915 1916 1917 1918 1919 1920 1921 1922 1923 1924 1925 1926 1927 1928 1929 1930 1931 1932 1933 1934 1935 1936 1937 1938 1939 1940 1941 1942 1943 1944 1945 1946 1947 1948 1949 1950 1951 1952 1953 1954 1955 1956 1957 1958 1959 1960 1961 1962 1963 1964 1965 1966 1967 1968 1969 1970 1971 1972 1973 1974 1975 1976 1977 1978 1979 1980 1981 1982 1983 1984 1985 1986 1987 1988 1989 1990 1991 1992 1993 1994 1995 1996 1997 1998 1999 2000 2001 2002 2003 2004 2005 2006 2007 2008 2009 2010 2011 2012 2013 2014 2015 2016 2017 2018 2019 2020 2021 2022 2023 2024 2025 2026 2027 2028 2029 2030 2031 2032 2033 2034 2035 2036 2037 2038 2039 2040 2041 2042 2043 2044 2045 2046 2047 2048 2049 2050 2051 2052 2053 2054 2055 2056 2057 2058 2059 2060 2061 2062 2063 2064 2065 2066 2067 2068 2069 2070 2071 2072 2073 2074 2075 2076 2077 2078 2079 2080 2081 2082 2083 2084 2085 2086 2087 2088 2089 2090 2091 2092 2093 2094 2095 2096 2097 2098 2099 2100 2101 2102 2103 2104 2105 2106 2107 2108 2109 2110 2111 2112 2113 2114 2115 2116 2117 2118 2119 2120 2121 2122 2123 2124 2125 2126 2127 2128 2129 2130 2131 2132 2133 2134 2135 2136 2137 2138 2139 2140 2141 2142 2143 2144 2145 2146 2147 2148 2149 2150 2151 2152 2153 2154 2155 2156 2157 2158 2159 2160 2161 2162 2163 2164 2165 2166 2167 2168 2169 2170 2171 2172 2173 2174 2175 2176 2177 2178 2179 2180 2181 2182 2183 2184 2185 2186 2187 2188 2189 2190 2191 2192 2193 2194 2195 2196 2197 2198 2199 2200 2201 2202 2203 2204 2205 2206 2207 2208 2209 2210 2211 2212 2213 2214 2215 2216 2217 2218 2219 2220 2221 2222 2223 2224 2225 2226 2227 2228 2229 2230 2231 2232 2233 2234 2235 2236 2237 2238 2239 2240 2241 2242 2243 2244 2245 2246 2247 2248 2249 2250 2251 2252 2253 2254 2255 2256 2257 2258 2259 2260 2261 2262 2263 2264 2265 2266 2267 2268 2269 2270 2271 2272 2273 2274 2275 2276 2277 2278 2279 2280 2281 2282 2283 2284 2285 2286 2287 2288 2289 2290 2291 2292 2293 2294 2295 2296 2297 2298 2299 2300 2301 2302 2303 2304 2305 2306 2307 2308 2309 2310 2311 2312 2313 2314 2315 2316 2317 2318 2319 2320 2321 2322 2323 2324 2325 2326 2327 2328 2329 2330 2331 2332 2333 2334 2335 2336 2337 2338 2339 2340 2341 2342 2343 2344 2345 2346 2347 2348 2349 2350 2351 2352 2353 2354 2355 2356 2357 2358 2359 2360 2361 2362 2363 2364 2365 2366 2367 2368 2369 2370 2371 2372 2373 2374 2375 2376 2377 2378 2379 2380 2381 2382 2383 2384 2385 2386 2387 2388 2389 2390 2391 2392 2393 2394 2395 2396 2397 2398 2399 2400 2401 2402 2403 2404 2405 2406 2407 2408 2409 2410 2411 2412 2413 2414 2415 2416 2417 2418 2419 2420 2421 2422 2423 2424 2425 2426 2427 2428 2429 2430 2431 2432 2433 2434 2435 2436 2437 2438 2439 2440 2441 2442 2443 2444 2445 2446 2447 2448 2449 2450 2451 2452 2453 2454 2455 2456 2457 2458 2459 2460 2461 2462 2463 2464 2465 2466 2467 2468 2469 2470 2471 2472 2473 2474 2475 2476 2477 2478 2479 2480 2481 2482 2483 2484 2485 2486 2487 2488 2489 2490 2491 2492 2493 2494 2495 2496 2497 2498 2499 2500 2501 2502 2503 2504 2505 2506 2507 2508 2509 2510 2511 2512 2513 2514 2515 2516 2517 2518 2519 2520 2521 2522 2523 2524 2525 2526 2527 2528 2529 2530 2531 2532 2533 2534 2535 2536 2537 2538 2539 2540 2541 2542 2543 2544 2545 2546 2547 2548 2549 2550 2551 2552 2553 2554 2555 2556 2557 2558 2559 2560 2561 2562 2563 2564 2565 2566 2567 2568 2569 2570 2571 2572 2573 2574 2575 2576 2577 2578 2579 2580 2581 2582 2583 2584 2585 2586 2587 2588 2589 2590 2591 2592 2593 2594 2595 2596 2597 2598 2599 2600 2601 2602 2603 2604 2605 2606 2607 2608 2609 2610 2611 2612 2613 2614 2615 2616 2617 2618 2619 2620 2621 2622 2623 2624 2625 2626 2627 2628 2629 2630 2631 2632 2633 2634 2635 2636 2637 2638 2639 2640 2641 2642 2643 2644 2645 2646 2647 2648 2649 2650 2651 2652 2653 2654 2655 2656 2657 2658 2659 2660 2661 2662 2663 2664 2665 2666 2667 2668 2669 2670 2671 2672 2673 2674 2675 2676 2677 2678 2679 2680 2681 2682 2683 2684 2685 2686 2687 2688 2689 2690 2691 2692 2693 2694 2695 2696 2697 2698 2699 2700 2701 2702 2703 2704 2705 2706 2707 2708 2709 2710 2711 2712 2713 2714 2715 2716 2717 2718 2719 2720 2721 2722 2723 2724 2725 2726 2727 2728 2729 2730 2731 2732 2733 2734 2735 2736 2737 2738 2739 2740 2741 2742 2743 2744 2745 2746 2747 2748 2749 2750 2751 2752 2753 2754 2755 2756 2757 2758 2759 2760 2761 2762 2763 2764 2765 2766 2767 2768 2769 2770 2771 2772 2773 2774 2775 2776 2777 2778 2779 2780 2781 2782 2783 2784 2785 2786 2787 2788 2789 2790 2791 2792 2793 2794 2795 2796 2797 2798 2799 2800 2801 2802 2803 2804 2805 2806 2807 2808 2809 2810 2811 2812 2813 2814 2815 2816 2817 2818 2819 2820 2821 2822 2823 2824 2825 2826 2827 2828 2829 2830 2831 2832 2833 2834 2835 2836 2837 2838 2839 2840 2841 2842 2843 2844 2845 2846 2847 2848 2849 2850 2851 2852 2853 2854 2855 2856 2857 2858 2859 2860 2861 2862 2863 2864 2865 2866 2867 2868 2869 2870 2871 2872 2873 2874 2875 2876 2877 2878 2879 2880 2881 2882 2883 2884 2885 2886 2887 2888 2889 2890 2891 2892 2893 2894 2895 2896 2897 2898 2899 2900 2901 2902 2903 2904 2905 2906 2907 2908 2909 2910 2911 2912 2913 2914 2915 2916 2917 2918 2919 2920 2921 2922 2923 2924 2925 2926 2927 2928 2929 2930 2931 2932 2933 2934 2935 2936 2937 2938 2939 2940 2941 2942 2943 2944 2945 2946 2947 2948 2949 2950 2951 2952 2953 2954 2955 2956 2957 2958 2959 2960 2961 2962 2963 2964 2965 2966 2967 2968 2969 2970 2971 2972 2973 2974 2975 2976 2977 2978 2979 2980 2981 2982 2983 2984 2985 2986 2987 2988 2989 2990 2991 2992 2993 2994 2995 2996 2997 2998 2999 3000 3001 3002 3003 3004 3005 3006 3007 3008 3009 3010 3011 3012 3013 3014 3015 3016 3017 3018 3019 3020 3021 3022 3023 3024 3025 3026 3027 3028 3029 3030 3031 3032 3033 3034 3035 3036 3037 3038 3039 3040 3041 3042 3043 3044 3045 3046 3047 3048 3049 3050 3051 3052 3053 3054 3055 3056 3057 3058 3059 3060 3061 3062 3063 3064 3065 3066 3067 3068 3069 3070 3071 3072 3073 3074 3075 3076 3077 3078 3079 3080 3081 3082 3083 3084 3085 3086 3087 3088 3089 3090 3091 3092 3093 3094 3095 3096 3097 3098 3099 3100 3101 3102 3103 3104 3105 3106 3107 3108 3109 3110 3111 3112 3113 3114 3115 3116 3117 3118 3119 3120 3121 3122 3123 3124 3125 3126 3127 3128 3129 3130 3131 3132 3133 3134 3135 3136 3137 3138 3139 3140 3141 3142 3143 3144 3145 3146 3147 3148 3149 3150 3151 3152 3153 3154 3155 3156 3157 3158 3159 3160 3161 3162 3163 3164 3165 3166 3167 3168 3169 3170 3171 3172 3173 3174 3175 3176 3177 3178 3179 3180 3181 3182 3183 3184 3185 3186 3187 3188 3189 3190 3191 3192 3193 3194 3195 3196 3197 3198 3199 3200 3201 3202 3203 3204 3205 3206 3207 3208 3209 3210 3211 3212 3213 3214 3215 3216 3217 3218 3219 3220 3221 3222 3223 3224 3225 3226 3227 3228 3229 3230 3231 3232 3233 3234 3235 3236 3237 3238 3239 3240 3241 3242 3243 3244 3245 3246 3247 3248 3249 3250 3251 3252 3253 3254 3255 3256 3257 3258 3259 3260 3261 3262 3263 3264 3265 3266 3267 3268 3269 3270 3271 3272 3273 3274 3275 3276 3277 3278 3279 3280 3281 3282 3283 3284 3285 3286 3287 3288 3289 3290 3291 3292 3293 3294 3295 3296 3297 3298 3299 3300 3301 3302 3303 3304 3305 3306 3307 3308 3309 3310 3311 3312 3313 3314 3315 3316 3317 3318 3319 3320 3321 3322 3323 3324 3325 3326 3327 3328 3329 3330 3331 3332 3333 3334 3335 3336 3337 3338 3339 3340 3341 3342 3343 3344 3345 3346 3347 3348 3349 3350 3351 3352 3353 3354 3355 3356 3357 3358 3359 3360 3361 3362 3363 3364 3365 3366 3367 3368 3369 3370 3371 3372 3373 3374 3375 3376 3377 3378 3379 3380 3381 3382 3383 3384 3385 3386 3387 3388 3389 3390 3391 3392 3393 3394 3395 3396 3397 3398 3399 3400 3401 3402 3403 3404 3405 3406 3407 3408 3409 3410 3411 3412 3413 3414 3415 3416 3417 3418 3419 3420 3421 3422 3423 3424 3425 3426 3427 3428 3429 3430 3431 3432 3433 3434 3435 3436 3437 3438 3439 3440 3441 3442 3443 3444 3445 3446 3447 3448 3449 3450 3451 3452 3453 3454 3455 3456 3457 3458 3459 3460 3461 3462 3463 3464 3465 3466 3467 3468 3469 3470 3471 3472 3473 3474 3475 3476 3477 3478 3479 3480 3481 3482 3483 3484 3485 3486 3487 3488 3489 3490 3491 3492 3493 3494 3495 3496 3497 3498 3499 3500 3501 3502 3503 3504 3505 3506 3507 3508 3509 3510 3511 3512 3513 3514 3515 3516 3517 3518 3519 3520 3521 3522 3523 3524 3525 3526 3527 3528 3529 3530 3531 3532 3533 3534 3535 3536 3537 3538 3539 3540 3541 3542 3543 3544 3545 3546 3547 3548 3549 3550 3551 3552 3553 3554 3555 3556 3557 3558 3559 3560 3561 3562 3563 3564 3565 3566 3567 3568 3569 3570 3571 3572 3573 3574 3575 3576 3577 3578 3579 3580 3581 3582 3583 3584 3585 3586 3587 3588 3589 3590 3591 3592 3593 3594 3595 3596 3597 3598 3599 3600 3601 3602 3603 3604 3605 3606 3607 3608 3609 3610 3611 3612 3613 3614 3615 3616 3617 3618 3619 3620 3621 3622 3623 3624 3625 3626 3627 3628 3629 3630 3631 3632 3633 3634 3635 3636 3637 3638 3639 3640 3641 3642 3643 3644 3645 3646 3647 3648 3649 3650 3651 3652 3653 3654 3655 3656 3657 3658 3659 3660 3661 3662 3663 3664 3665 3666 3667 3668 3669 3670 3671 3672 3673 3674 3675 3676 3677 3678 3679 3680 3681 3682 3683 3684 3685 3686 3687 3688 3689 3690 3691 3692 3693 3694 3695 3696 3697 3698 3699 3700 3701 3702 3703 3704 3705 3706 3707 3708 3709 3710 3711 3712 3713 3714 3715 3716 3717 3718 3719 3720 3721 3722 3723 3724 3725 3726 3727 3728 3729 3730 3731 3732 3733 3734 3735 3736 3737 3738 3739 3740 3741 3742 3743 3744 3745 3746 3747 3748 3749 3750 3751 3752 3753 3754 3755 3756 3757 3758 3759 3760 3761 3762 3763 3764 3765 3766 3767 3768 3769 3770 3771 3772 3773 3774 3775 3776 3777 3778 3779 3780 3781 3782 3783 3784 3785 3786 3787 3788 3789 3790 3791 3792 3793 3794 3795 3796 3797 3798 3799 3800 3801 3802 3803 3804 3805 3806 3807 3808 3809 3810 3811 3812 3813 3814 3815 3816 3817 3818 3819 3820 3821 3822 3823 3824 3825 3826 3827 3828 3829 3830 3831 3832 3833 3834 3835 3836 3837 3838 3839 3840 3841 3842 3843 3844 3845 3846 3847 3848 3849 3850 3851 3852 3853 3854 3855 3856 3857 3858 3859 3860 3861 3862 3863 3864 3865 3866 3867 3868 3869 3870 3871 3872 3873 3874 3875 3876 3877 3878 3879 3880 3881 3882 3883 3884 3885 3886 3887 3888 3889 3890 3891 3892 3893 3894 3895 3896 3897 3898 3899 3900 3901 3902 3903 3904 3905 3906 3907 3908 3909 3910 3911 3912 3913 3914 3915 3916 3917 3918 3919 3920 3921 3922 3923 3924 3925 3926 3927 3928 3929 3930 3931 3932 3933 3934 3935 3936 3937 3938 3939 3940 3941 3942 3943 3944 3945 3946 3947 3948 3949 3950 3951 3952 3953 3954 3955 3956 3957 3958 3959 3960 3961 3962 3963 3964 3965 3966 3967 3968 3969 3970 3971 3972 3973 3974 3975 3976 3977 3978 3979 3980 3981 3982 3983 3984 3985 3986 3987 3988 3989 3990 3991 3992 3993 3994 3995 3996 3997 3998 3999 4000 4001 4002 4003 4004 4005 4006 4007 4008 4009 4010 4011 4012 4013 4014 4015 4016 4017 4018 4019 4020 4021 4022 4023 4024 4025 4026 4027 4028 4029 4030 4031 4032 4033 4034 4035 4036 4037 4038 4039 4040 4041 4042 4043 4044 4045 4046 4047 4048 4049 4050 4051 4052 4053 4054 4055 4056 4057 4058 4059 4060 4061 4062 4063 4064 4065 4066 4067 4068 4069 4070 4071 4072 4073 4074 4075 4076 4077 4078 4079 4080 4081 4082 4083 4084 4085 4086 4087 4088 4089 4090 4091 4092 4093 4094 4095 4096 4097 4098 4099 4100 4101 4102 4103 4104 4105 4106 4107 4108 4109 4110 4111 4112 4113 4114 4115 4116 4117 4118 4119 4120 4121 4122 4123 4124 4125 4126 4127 4128 4129 4130 4131 4132 4133 4134 4135 4136 4137 4138 4139 4140 4141 4142 4143 4144 4145 4146 4147 4148 4149 4150 4151 4152 4153 4154 4155 4156 4157 4158 4159 4160 4161 4162 4163 4164 4165 4166 4167 4168 4169 4170 4171 4172 4173 4174 4175 4176 4177 4178 4179 4180 4181 4182 4183 4184 4185 4186 4187 4188 4189 4190 4191 4192 4193 4194 4195 4196 4197 4198 4199 4200 4201 4202 4203 4204 4205 4206 4207 4208 4209 4210 4211 4212 4213 4214 4215 4216 4217 4218 4219 4220 4221 4222 4223 4224 4225 4226 4227 4228 4229 4230 4231 4232 4233 4234 4235 4236 4237 4238 4239 4240 4241 4242 4243 4244 4245 4246 4247 4248 4249 4250 4251 4252 4253 4254 4255 4256 4257 4258 4259 4260 4261 4262 4263 4264 4265 4266 4267 4268 4269 4270 4271 4272 4273 4274 4275 4276 4277 4278 4279 4280 4281 4282 4283 4284 4285 4286 4287 4288 4289 4290 4291 4292 4293 4294 4295 4296 4297 4298 4299 4300 4301 4302 4303 4304 4305 4306 4307 4308 4309 4310 4311 4312 4313 4314 4315 4316 4317 4318 4319 4320 4321 4322 4323 4324 4325 4326 4327 4328 4329 4330 4331 4332 4333 4334 4335 4336 4337 4338 4339 4340 4341 4342 4343 4344 4345 4346 4347 4348 4349 4350 4351 4352 4353 4354 4355 4356 4357 4358 4359 4360 4361 4362 4363 4364 4365 4366 4367 4368 4369 4370 4371 4372 4373 4374 4375 4376 4377 4378 4379 4380 4381 4382 4383 4384 4385 4386 4387 4388 4389 4390 4391 4392 4393 4394 4395 4396 4397 4398 4399 4400 4401 4402 4403 4404 4405 4406 4407 4408 4409 4410 4411 4412 4413 4414 4415 4416 4417 4418 4419 4420 4421 4422 4423 4424 4425 4426 4427 4428 4429 4430 4431 4432 4433 4434 4435 4436 4437 4438 4439 4440 4441 4442 4443 4444 4445 4446 4447 4448 4449 4450 4451 4452 4453 4454 4455 4456 4457 4458 4459 4460 4461 4462 4463 4464 4465 4466 4467 4468 4469 4470 4471 4472 4473 4474 4475 4476 4477 4478 4479 4480 4481 4482 4483 4484 4485 4486 4487 4488 4489 4490 4491 4492 4493 4494 4495 4496 4497 4498 4499 4500 4501 4502 4503 4504 4505 4506 4507 4508 4509 4510 4511 4512 4513 4514 4515 4516 4517 4518 4519 4520 4521 4522 4523 4524 4525 4526 4527 4528 4529 4530 4531 4532 4533 4534 4535 4536 4537 4538 4539 4540 4541 4542 4543 4544 4545 4546 4547 4548 4549 4550 4551 4552 4553 4554 4555 4556 4557 4558 4559 4560 4561 4562 4563 4564 4565 4566 4567 4568 4569 4570 4571 4572 4573 4574 4575 4576 4577 4578 4579 4580 4581 4582 4583 4584 4585 4586 4587 4588 4589 4590 4591 4592 4593 4594 4595 4596 4597 4598 4599 4600 4601 4602 4603 4604 4605 4606 4607 4608 4609 4610 4611 4612 4613 4614 4615 4616 4617 4618 4619 4620 4621 4622 4623 4624 4625 4626 4627 4628 4629 4630 4631 4632 4633 4634 4635 4636 4637 4638 4639 4640 4641 4642 4643 4644 4645 4646 4647 4648 4649 4650 4651 4652 4653 4654 4655 4656 4657 4658 4659 4660 4661 4662 4663 4664 4665 4666 4667 4668 4669 4670 4671 4672 4673 4674 4675 4676 4677 4678 4679 4680 4681 4682 4683 4684 4685 4686 4687 4688 4689 4690 4691 4692 4693 4694 4695 4696 4697 4698 4699 4700 4701 4702 4703 4704 4705 4706 4707 4708 4709 4710 4711 4712 4713 4714 4715 4716 4717 4718 4719 4720 4721 4722 4723 4724 4725 4726 4727 4728 4729 4730 4731 4732 4733 4734 4735 4736 4737 4738 4739 4740 4741 4742 4743 4744 4745 4746 4747 4748 4749 4750 4751 4752 4753 4754 4755 4756 4757 4758 4759 4760 4761 4762 4763 4764 4765 4766 4767 4768 4769 4770 4771 4772 4773 4774 4775 4776 4777 4778 4779 4780 4781 4782 4783 4784 4785 4786 4787 4788 4789 4790 4791 4792 4793 4794 4795 4796 4797 4798 4799 4800 4801 4802 4803 4804 4805 4806 4807 4808 4809 4810 4811 4812 4813 4814 4815 4816 4817 4818 4819 4820 4821 4822 4823 4824 4825 4826 4827 4828 4829 4830 4831 4832 4833 4834 4835 4836 4837 4838 4839 4840 4841 4842 4843 4844 4845 4846 4847 4848 4849 4850 4851 4852 4853 4854 4855 4856 4857 4858 4859 4860 4861 4862 4863 4864 4865 4866 4867 4868 4869 4870 4871 4872 4873 4874 4875 4876 4877 4878 4879 4880 4881 4882 4883 4884 4885 4886 4887 4888 4889 4890 4891 4892 4893 4894 4895 4896 4897 4898 4899 4900 4901 4902 4903 4904 4905 4906 4907 4908 4909 4910 4911 4912 4913 4914 4915 4916 4917 4918 4919 4920 4921 4922 4923 4924 4925 4926 4927 4928 4929 4930 4931 4932 4933 4934 4935 4936 4937 4938 4939 4940 4941 4942 4943 4944 4945 4946 4947 4948 4949 4950 4951 4952 4953 4954 4955 4956 4957 4958 4959 4960 4961 4962 4963 4964 4965 4966 4967 4968 4969 4970 4971 4972 4973 4974 4975 4976 4977 4978 4979 4980 4981 4982 4983 4984 4985 4986 4987 4988 4989 4990 4991 4992 4993 4994 4995 4996 4997 4998 4999 5000 5001 5002 5003 5004 5005 5006 5007 5008 5009 5010 5011 5012 5013 5014 5015 5016 5017 5018 5019 5020 5021 5022 5023 5024 5025 5026 5027 5028 5029 5030 5031 5032 5033 5034 5035 5036 5037 5038 5039 5040 5041 5042 5043 5044 5045 5046 5047 5048 5049 5050 5051 5052 5053 5054 5055 5056 5057 5058 5059 5060 5061 5062 5063 5064 5065 5066 5067 5068 5069 5070 5071 5072 5073 5074 5075 5076 5077 5078 5079 5080 5081 5082 5083 5084 5085 5086 5087 5088 5089 5090 5091 5092 5093 5094 5095 5096 5097 5098 5099 5100 5101 5102 5103 5104 5105 5106 5107 5108 5109 5110 5111 5112 5113 5114 5115 5116 5117 5118 5119 5120 5121 5122 5123 5124 5125 5126 5127 5128 5129 5130 5131 5132 5133 5134 5135 5136 5137 5138 5139 5140 5141 5142 5143 5144 5145 5146 5147 5148 5149 5150 5151 5152 5153 5154 5155 5156 5157 5158 5159 5160 5161 5162 5163 5164 5165 5166 5167 5168 5169 5170 5171 5172 5173 5174 5175 5176 5177 5178 5179 5180 5181 5182 5183 5184 5185 5186 5187 5188 5189 5190 5191 5192 5193 5194 5195 5196 5197 5198 5199 5200 5201 5202 5203 5204 5205 5206 5207 5208 5209 5210 5211 5212 5213 5214 5215 5216 5217 5218 5219 5220 5221 5222 5223 5224 5225 5226 5227 5228 5229 5230 5231 5232 5233 5234 5235 5236 5237 5238 5239 5240 5241 5242 5243 5244 5245 5246 5247 5248 5249 5250 5251 5252 5253 5254 5255 5256 5257 5258 5259 5260 5261 5262 5263 5264 5265 5266 5267 5268 5269 5270 5271 5272 5273 5274 5275 5276 5277 5278 5279 5280 5281 5282 5283 5284 5285 5286 5287 5288 5289 5290 5291 5292 5293 5294 5295 5296 5297 5298 5299 5300 5301 5302 5303 5304 5305 5306 5307 5308 5309 5310 5311 5312 5313 5314 5315 5316 5317 5318 5319 5320 5321 5322 5323 5324 5325 5326 5327 5328 5329 5330 5331 5332 5333 5334 5335 5336 5337 5338 5339 5340 5341 5342 5343 5344 5345 5346 5347 5348 5349 5350 5351 5352 5353 5354 5355 5356 5357 5358 5359 5360 5361 5362 5363 5364 5365 5366 5367 5368 5369 5370 5371 5372 5373 5374 5375 5376 5377 5378 5379 5380 5381 5382 5383 5384 5385 5386 5387 5388 5389 5390 5391 5392 5393 5394 5395 5396 5397 5398 5399 5400 5401 5402 5403 5404 5405 5406 5407 5408 5409 5410 5411 5412 5413 5414 5415 5416 5417 5418 5419 5420 5421 5422 5423 5424 5425 5426 5427 5428 5429 5430 5431 5432 5433 5434 5435 5436 5437 5438 5439 5440 5441 5442 5443 5444 5445 5446 5447 5448 5449 5450 5451 5452 5453 5454 5455 5456 5457 5458 5459 5460 5461 5462 5463 5464 5465 5466 5467 5468 5469 5470 5471 5472 5473 5474 5475 5476 5477 5478 5479 5480 5481 5482 5483 5484 5485 5486 5487 5488 5489 5490 5491 5492 5493 5494 5495 5496 5497 5498 5499 5500 5501 5502 5503 5504 5505 5506 5507 5508 5509 5510 5511 5512 5513 5514 5515 5516 5517 5518 5519 5520 5521 5522 5523 5524 5525 5526 5527 5528 5529 5530 5531 5532 5533 5534 5535 5536 5537 5538 5539 5540 5541 5542 5543 5544 5545 5546 5547 5548 5549 5550 5551 5552 5553 5554 5555 5556 5557 5558 5559 5560 5561 5562 5563 5564 5565 5566 5567 5568 5569 5570 5571 5572 5573 5574 5575 5576 5577 5578 5579 5580 5581 5582 5583 5584 5585 5586 5587 5588 5589 5590 5591 5592 5593 5594 5595 5596 5597 5598 5599 5600 5601 5602 5603 5604 5605 5606 5607 5608 5609 5610 5611 5612 5613 5614 5615 5616 5617 5618 5619 5620 5621 5622 5623 5624 5625 5626 5627 5628 5629 5630 5631 5632 5633 5634 5635 5636 5637 5638 5639 5640 5641 5642 5643 5644 5645 5646 5647 5648 5649 5650 5651 5652 5653 5654 5655 5656 5657 5658 5659 5660 5661 5662 5663 5664 5665 5666 5667 5668 5669 5670 5671 5672 5673 5674 5675 5676 5677 5678 5679 5680 5681 5682 5683 5684 5685 5686 5687 5688 5689 5690 5691 5692 5693 5694 5695 5696 5697 5698 5699 5700 5701 5702 5703 5704 5705 5706 5707 5708 5709 5710 5711 5712 5713 5714 5715 5716 5717 5718 5719 5720 5721 5722 5723 5724 5725 5726 5727 5728 5729 5730 5731 5732 5733 5734 5735 5736 5737 5738 5739 5740 5741 5742 5743 5744 5745 5746 5747 5748 5749 5750 5751 5752 5753 5754 5755 5756 5757 5758 5759 5760 5761 5762 5763 5764 5765 5766 5767 5768 5769 5770 5771 5772 5773 5774 5775 5776 5777 5778 5779 5780 5781 5782 5783 5784 5785 5786 5787 5788 5789 5790 5791 5792 5793 5794 5795 5796 5797 5798 5799 5800 5801 5802 5803 5804 5805 5806 5807 5808 5809 5810 5811 5812 5813 5814 5815 5816 5817 5818 5819 5820 5821 5822 5823 5824 5825 5826 5827 5828 5829 5830 5831 5832 5833 5834 5835 5836 5837 5838 5839 5840 5841 5842 5843 5844 5845 5846 5847 5848 5849 5850 5851 5852 5853 5854 5855 5856 5857 5858 5859 5860 5861 5862 5863 5864 5865 5866 5867 5868 5869 5870 5871 5872 5873 5874 5875 5876 5877 5878 5879 5880 5881 5882 5883 5884 5885 5886 5887 5888 5889 5890 5891 5892 5893 5894 5895 5896 5897 5898 5899 5900 5901 5902 5903 5904 5905 5906 5907 5908 5909 5910 5911 5912 5913 5914 5915 5916 5917 5918 5919 5920 5921 5922 5923 5924 5925 5926 5927 5928 5929 5930 5931 5932 5933 5934 5935 5936 5937 5938 5939 5940 5941 5942 5943 5944 5945 5946 5947 5948 5949 5950 5951 5952 5953 5954 5955 5956 5957 5958 5959 5960 5961 5962 5963 5964 5965 5966 5967 5968 5969 5970 5971 5972 5973 5974 5975 5976 5977 5978 5979 5980 5981 5982 5983 5984 5985 5986 5987 5988 5989 5990 5991 5992 5993 5994 5995 5996 5997 5998 5999 6000 6001 6002 6003 6004 6005 6006 6007 6008 6009 6010 6011 6012 6013 6014 6015 6016 6017 6018 6019 6020 6021 6022 6023 6024 6025 6026 6027 6028 6029 6030 6031 6032 6033 6034 6035 6036 6037 6038 6039 6040 6041 6042 6043 6044 6045 6046 6047 6048 6049 6050 6051 6052 6053 6054 6055 6056 6057 6058 6059 6060 6061 6062 6063 6064 6065 6066 6067 6068 6069 6070 6071 6072 6073 6074 6075 6076 6077 6078 6079 6080 6081 6082 6083 6084 6085 6086 6087 6088 6089 6090 6091 6092 6093 6094 6095 6096 6097 6098 6099 6100 6101 6102 6103 6104 6105 6106 6107 6108 6109 6110 6111 6112 6113 6114 6115 6116 6117 6118 6119 6120 6121 6122 6123 6124 6125 6126 6127 6128 6129 6130 6131 6132 6133 6134 6135 6136 6137 6138 6139 6140 6141 6142 6143 6144 6145 6146 6147 6148 6149 6150 6151 6152 6153 6154 6155 6156 6157 6158 6159 6160 6161 6162 6163 6164 6165 6166 6167 6168 6169 6170 6171 6172 6173 6174 6175 6176 6177 6178 6179 6180 6181 6182 6183 6184 6185 6186 6187 6188 6189 6190 6191 6192 6193 6194 6195 6196 6197 6198 6199 6200 6201 6202 6203 6204 6205 6206 6207 6208 6209 6210 6211 6212 6213 6214 6215 6216 6217 6218 6219 6220 6221 6222 6223 6224 6225 6226 6227 6228 6229 6230 6231 6232 6233 6234 6235 6236 6237 6238 6239 6240 6241 6242 6243 6244 6245 6246 6247 6248 6249 6250 6251 6252 6253 6254 6255 6256 6257 6258 6259 6260 6261 6262 6263 6264 6265 6266 6267 6268 6269 6270 6271 6272 6273 6274 6275 6276 6277 6278 6279 6280 6281 6282 6283 6284 6285 6286 6287 6288 6289 6290 6291 6292 6293 6294 6295 6296 6297 6298 6299 6300 6301 6302 6303 6304 6305 6306 6307 6308 6309 6310 6311 6312 6313 6314 6315 6316 6317 6318 6319 6320 6321 6322 6323 6324 6325 6326 6327 6328 6329 6330 6331 6332 6333 6334 6335 6336 6337 6338 6339 6340 6341 6342 6343 6344 6345 6346 6347 6348 6349 6350 6351 6352 6353 6354 6355 6356 6357 6358 6359 6360 6361 6362 6363 6364 6365 6366 6367 6368 6369 6370 6371 6372 6373 6374 6375 6376 6377 6378 6379 6380 6381 6382 6383 6384 6385 6386 6387 6388 6389 6390 6391 6392 6393 6394 6395 6396 6397 6398 6399 6400 6401 6402 6403 6404 6405 6406 6407 6408 6409 6410 6411 6412 6413 6414 6415 6416 6417 6418 6419 6420 6421 6422 6423 6424 6425 6426 6427 6428 6429 6430 6431 6432 6433 6434 6435 6436 6437 6438 6439 6440 6441 6442 6443 6444 6445 6446 6447 6448 6449 6450 6451 6452 6453 6454 6455 6456 6457 6458 6459 6460 6461 6462 6463 6464 6465 6466 6467 6468 6469 6470 6471 6472 6473 6474 6475 6476 6477 6478 6479 6480 6481 6482 6483 6484 6485 6486 6487 6488 6489 6490 6491 6492 6493 6494 6495 6496 6497 6498 6499 6500 6501 6502 6503 6504 6505 6506 6507 6508 6509 6510 6511 6512 6513 6514 6515 6516 6517 6518 6519 6520 6521 6522 6523 6524 6525 6526 6527 6528 6529 6530 6531 6532 6533 6534 6535 6536 6537 6538 6539 6540 6541 6542 6543 6544 6545 6546 6547 6548 6549 6550 6551 6552 6553 6554 6555 6556 6557 6558 6559 6560 6561 6562 6563 6564 6565 6566 6567 6568 6569 6570 6571 6572 6573 6574 6575 6576 6577 6578 6579 6580 6581 6582 6583 6584 6585 6586 6587 6588 6589 6590 6591 6592 6593 6594 6595 6596 6597 6598 6599 6600 6601 6602 6603 6604 6605 6606 6607 6608 6609 6610 6611 6612 6613 6614 6615 6616 6617 6618 6619 6620 6621 6622 6623 6624 6625 6626 6627 6628 6629 6630 6631 6632 6633 6634 6635 6636 6637 6638 6639 6640 6641 6642 6643 6644 6645 6646 6647 6648 6649 6650 6651 6652 6653 6654 6655 6656 6657 6658 6659 6660 6661 6662 6663 6664 6665 6666 6667 6668 6669 6670 6671 6672 6673 6674 6675 6676 6677 6678 6679 6680 6681 6682 6683 6684 6685 6686 6687 6688 6689 6690 6691 6692 6693 6694 6695 6696 6697 6698 6699 6700 6701 6702 6703 6704 6705 6706 6707 6708 6709 6710 6711 6712 6713 6714 6715 6716 6717 6718 6719 6720 6721 6722 6723 6724 6725 6726 6727 6728 6729 6730 6731 6732 6733 6734 6735 6736 6737 6738 6739 6740 6741 6742 6743 6744 6745 6746 6747 6748 6749 6750 6751 6752 6753 6754 6755 6756 6757 6758 6759 6760 6761 6762 6763 6764 6765 6766 6767 6768 6769 6770 6771 6772 6773 6774 6775 6776 6777 6778 6779 6780 6781 6782 6783 6784 6785 6786 6787 6788 6789 6790 6791 6792 6793 6794 6795 6796 6797 6798 6799 6800 6801 6802 6803 6804 6805 6806 6807 6808 6809 6810 6811 6812 6813 6814 6815 6816 6817 6818 6819 6820 6821 6822 6823 6824 6825 6826 6827 6828 6829 6830 6831 6832 6833 6834 6835 6836 6837 6838 6839 6840 6841 6842 6843 6844 6845 6846 6847 6848 6849 6850 6851 6852 6853 6854 6855 6856 6857 6858 6859 6860 6861 6862 6863 6864 6865 6866 6867 6868 6869 6870 6871 6872 6873 6874 6875 6876 6877 6878 6879 6880 6881 6882 6883 6884 6885 6886 6887 6888 6889 6890 6891 6892 6893 6894 6895 6896 6897 6898 6899 6900 6901 6902 6903 6904 6905 6906 6907 6908 6909 6910 6911 6912 6913 6914 6915 6916 6917 6918 6919 6920 6921 6922 6923 6924 6925 6926 6927 6928 6929 6930 6931 6932 6933 6934 6935 6936 6937 6938 6939 6940 6941 6942 6943 6944 6945 6946 6947 6948 6949 6950 6951 6952 6953 6954 6955 6956 6957 6958 6959 6960 6961 6962 6963 6964 6965 6966 6967 6968 6969 6970 6971 6972 6973 6974 6975 6976 6977 6978 6979 6980 6981 6982 6983 6984 6985 6986 6987 6988 6989 6990 6991 6992 6993 6994 6995 6996 6997 6998 6999 7000 7001 7002 7003 7004 7005 7006 7007 7008 7009 7010 7011 7012 7013 7014 7015 7016 7017 7018 7019 7020 7021 7022 7023 7024 7025 7026 7027 7028 7029 7030 7031 7032 7033 7034 7035 7036 7037 7038 7039 7040 7041 7042 7043 7044 7045 7046 7047 7048 7049 7050 7051 7052 7053 7054 7055 7056 7057 7058 7059 7060 7061 7062 7063 7064 7065 7066 7067 7068 7069 7070 7071 7072 7073 7074 7075 7076 7077 7078 7079 7080 7081 7082 7083 7084 7085 7086 7087 7088 7089 7090 7091 7092 7093 7094 7095 7096 7097 7098 7099 7100 7101 7102 7103 7104 7105 7106 7107 7108 7109 7110 7111 7112 7113 7114 7115 7116 7117 7118 7119 7120 7121 7122 7123 7124 7125 7126 7127 7128 7129 7130 7131 7132 7133 7134 7135 7136 7137 7138 7139 7140 7141 7142 7143 7144 7145 7146 7147 7148 7149 7150 7151 7152 7153 7154 7155 7156 7157 7158 7159 7160 7161 7162 7163 7164 7165 7166 7167 7168 7169 7170 7171 7172 7173 7174 7175 7176 7177 7178 7179 7180 7181 7182 7183 7184 7185 7186 7187 7188 7189 7190 7191 7192 7193 7194 7195 7196 7197 7198 7199 7200 7201 7202 7203 7204 7205 7206 7207 7208 7209 7210 7211 7212 7213 7214 7215 7216 7217 7218 7219 7220 7221 7222 7223 7224 7225 7226 7227 7228 7229 7230 7231 7232 7233 7234 7235 7236 7237 7238 7239 7240 7241 7242 7243 7244 7245 7246 7247 7248 7249 7250 7251 7252 7253 7254 7255 7256 7257 7258 7259 7260 7261 7262 7263 7264 7265 7266 7267 7268 7269 7270 7271 7272 7273 7274 7275 7276 7277 7278 7279 7280 7281 7282 7283 7284 7285 7286 7287 7288 7289 7290 7291 7292 7293 7294 7295 7296 7297 7298 7299 7300 7301 7302 7303 7304 7305 7306 7307 7308 7309 7310 7311 7312 7313 7314 7315 7316 7317 7318 7319 7320 7321 7322 7323 7324 7325 7326 7327 7328 7329 7330 7331 7332 7333 7334 7335 7336 7337 7338 7339 7340 7341 7342 7343 7344 7345 7346 7347 7348 7349 7350 7351 7352 7353 7354 7355 7356 7357 7358 7359 7360 7361 7362 7363 7364 7365 7366 7367 7368 7369 7370 7371 7372 7373 7374 7375 7376 7377 7378 7379 7380 7381 7382 7383 7384 7385 7386 7387 7388 7389 7390 7391 7392 7393 7394 7395 7396 7397 7398 7399 7400 7401 7402 7403 7404 7405 7406 7407 7408 7409 7410 7411 7412 7413 7414 7415 7416 7417 7418 7419 7420 7421 7422 7423 7424 7425 7426 7427 7428 7429 7430 7431 7432 7433 7434 7435 7436 7437 7438 7439 7440 7441 7442 7443 7444 7445 7446 7447 7448 7449 7450 7451 7452 7453 7454 7455 7456 7457 7458 7459 7460 7461 7462 7463 7464 7465 7466 7467 7468 7469 7470 7471 7472 7473 7474 7475 7476 7477 7478 7479 7480 7481 7482 7483 7484 7485 7486 7487 7488 7489 7490 7491 7492 7493 7494 7495 7496 7497 7498 7499 7500 7501 7502 7503 7504 7505 7506 7507 7508 7509 7510 7511 7512 7513 7514 7515 7516 7517 7518 7519 7520 7521 7522 7523 7524 7525 7526 7527 7528 7529 7530 7531 7532 7533 7534 7535 7536 7537 7538 7539 7540 7541 7542 7543 7544 7545 7546 7547 7548 7549 7550 7551 7552 7553 7554 7555 7556 7557 7558 7559 7560 7561 7562 7563 7564 7565 7566 7567 7568 7569 7570 7571 7572 7573 7574 7575 7576 7577 7578 7579 7580 7581 7582 7583 7584 7585 7586 7587 7588 7589 7590 7591 7592 7593 7594 7595 7596 7597 7598 7599 7600 7601 7602 7603 7604 7605 7606 7607 7608 7609 7610 7611 7612 7613 7614 7615 7616 7617 7618 7619 7620 7621 7622 7623 7624 7625 7626 7627 7628 7629 7630 7631 7632 7633 7634 7635 7636 7637 7638 7639 7640 7641 7642 7643 7644 7645 7646 7647 7648 7649 7650 7651 7652 7653 7654 7655 7656 7657 7658 7659 7660 7661 7662 7663 7664 7665 7666 7667 7668 7669 7670 7671 7672 7673 7674 7675 7676 7677 7678 7679 7680 7681 7682 7683 7684 7685 7686 7687 7688 7689 7690 7691 7692 7693 7694 7695 7696 7697 7698 7699 7700 7701 7702 7703 7704 7705 7706 7707 7708 7709 7710 7711 7712 7713 7714 7715 7716 7717 7718 7719 7720 7721 7722 7723 7724 7725 7726 7727 7728 7729 7730 7731 7732 7733 7734 7735 7736 7737 7738 7739 7740 7741 7742 7743 7744 7745 7746 7747 7748 7749 7750 7751 7752 7753 7754 7755 7756 7757 7758 7759 7760 7761 7762 7763 7764 7765 7766 7767 7768 7769 7770 7771 7772 7773 7774 7775 7776 7777 7778 7779 7780 7781 7782 7783 7784 7785 7786 7787 7788 7789 7790 7791 7792 7793 7794 7795 7796 7797 7798 7799 7800 7801 7802 7803 7804 7805 7806 7807 7808 7809 7810 7811 7812 7813 7814 7815 7816 7817 7818 7819 7820 7821 7822 7823 7824 7825 7826 7827 7828 7829 7830 7831 7832 7833 7834 7835 7836 7837 7838 7839 7840 7841 7842 7843 7844 7845 7846 7847 7848 7849 7850 7851 7852 7853 7854 7855 7856 7857 7858 7859 7860 7861 7862 7863 7864 7865 7866 7867 7868 7869 7870 7871 7872 7873 7874 7875 7876 7877 7878 7879 7880 7881 7882 7883 7884 7885 7886 7887 7888 7889 7890 7891 7892 7893 7894 7895 7896 7897 7898 7899 7900 7901 7902 7903 7904 7905 7906 7907 7908 7909 7910 7911 7912 7913 7914 7915 7916 7917 7918 7919 7920 7921 7922 7923 7924 7925 7926 7927 7928 7929 7930 7931 7932 7933 7934 7935 7936 7937 7938 7939 7940 7941 7942 7943 7944 7945 7946 7947 7948 7949 7950 7951 7952 7953 7954 7955 7956 7957 7958 7959 7960 7961 7962 7963 7964 7965 7966 7967 7968 7969 7970 7971 7972 7973 7974 7975 7976 7977 7978 7979 7980 7981 7982 7983 7984 7985 7986 7987 7988 7989 7990 7991 7992 7993 7994 7995 7996 7997 7998 7999 8000 8001 8002 8003 8004 8005 8006 8007 8008 8009 8010 8011 8012 8013 8014 8015 8016 8017 8018 8019 8020 8021 8022 8023 8024 8025 8026 8027 8028 8029 8030 8031 8032 8033 8034 8035 8036 8037 8038 8039 8040 8041 8042 8043 8044 8045 8046 8047 8048 8049 8050 8051 8052 8053 8054 8055 8056 8057 8058 8059 8060 8061 8062 8063 8064 8065 8066 8067 8068 8069 8070 8071 8072 8073 8074 8075 8076 8077 8078 8079 8080 8081 8082 8083 8084 8085 8086 8087 8088 8089 8090 8091 8092 8093 8094 8095 8096 8097 8098 8099 8100 8101 8102 8103 8104 8105 8106 8107 8108 8109 8110 8111 8112 8113 8114 8115 8116 8117 8118 8119 8120 8121 8122 8123 8124 8125 8126 8127 8128 8129 8130 8131 8132 8133 8134 8135 8136 8137 8138 8139 8140 8141 8142 8143 8144 8145 8146 8147 8148 8149 8150 8151 8152 8153 8154 8155 8156 8157 8158 8159 8160 8161 8162 8163 8164 8165 8166 8167 8168 8169 8170 8171 8172 8173 8174 8175 8176 8177 8178 8179 8180 8181 8182 8183 8184 8185 8186 8187 8188 8189 8190 8191 8192 8193 8194 8195 8196 8197 8198 8199 8200 8201 8202 8203 8204 8205 8206 8207 8208 8209 8210 8211 8212 8213 8214 8215 8216 8217 8218 8219 8220 8221 8222 8223 8224 8225 8226 8227 8228 8229 8230 8231 8232 8233 8234 8235 8236 8237 8238 8239 8240 8241 8242 8243 8244 8245 8246 8247 8248 8249 8250 8251 8252 8253 8254 8255 8256 8257 8258 8259 8260 8261 8262 8263 8264 8265 8266 8267 8268 8269 8270 8271 8272 8273 8274 8275 8276 8277 8278 8279 8280 8281 8282 8283 8284 8285 8286 8287 8288 8289 8290 8291 8292 8293 8294 8295 8296 8297 8298 8299 8300 8301 8302 8303 8304 8305 8306 8307 8308 8309 8310 8311 8312 8313 8314 8315 8316 8317 8318 8319 8320 8321 8322 8323 8324 8325 8326 8327 8328 8329 8330 8331 8332 8333 8334 8335 8336 8337 8338 8339 8340 8341 8342 8343 8344 8345 8346 8347 8348 8349 8350 8351 8352 8353 8354 8355 8356 8357 8358 8359 8360 8361 8362 8363 8364 8365 8366 8367 8368 8369 8370 8371 8372 8373 8374 8375 8376 8377 8378 8379 8380 8381 8382 8383 8384 8385 8386 8387 8388 8389 8390 8391 8392 8393 8394 8395 8396 8397 8398 8399 8400 8401 8402 8403 8404 8405 8406 8407 8408 8409 8410 8411 8412 8413 8414 8415 8416 8417 8418 8419 8420 8421 8422 8423 8424 8425 8426 8427 8428 8429 8430 8431 8432 8433 8434 8435 8436 8437 8438 8439 8440 8441 8442 8443 8444 8445 8446 8447 8448 8449 8450 8451 8452 8453 8454 8455 8456 8457 8458 8459 8460 8461 8462 8463 8464 8465 8466 8467 8468 8469 8470 8471 8472 8473 8474 8475 8476 8477 8478 8479 8480 8481 8482 8483 8484 8485 8486 8487 8488 8489 8490 8491 8492 8493 8494 8495 8496 8497 8498 8499 8500 8501 8502 8503 8504 8505 8506 8507 8508 8509 8510 8511 8512 8513 8514 8515 8516 8517 8518 8519 8520 8521 8522 8523 8524 8525 8526 8527 8528 8529 8530 8531 8532 8533 8534 8535 8536 8537 8538 8539 8540 8541 8542 8543 8544 8545 8546 8547 8548 8549 8550 8551 8552 8553 8554 8555 8556 8557 8558 8559 8560 8561 8562 8563 8564 8565 8566 8567 8568 8569 8570 8571 8572 8573 8574 8575 8576 8577 8578 8579 8580 8581 8582 8583 8584 8585 8586 8587 8588 8589 8590 8591 8592 8593 8594 8595 8596 8597 8598 8599 8600 8601 8602 8603 8604 8605 8606 8607 8608 8609 8610 8611 8612 8613 8614 8615 8616 8617 8618 8619 8620 8621 8622 8623 8624 8625 8626 8627 8628 8629 8630 8631 8632 8633 8634 8635 8636 8637 8638 8639 8640 8641 8642 8643 8644 8645 8646 8647 8648 8649 8650 8651 8652 8653 8654 8655 8656 8657 8658 8659 8660 8661 8662 8663 8664 8665 8666 8667 8668 8669 8670 8671 8672 8673 8674 8675 8676 8677 8678 8679 8680 8681 8682 8683 8684 8685 8686 8687 8688 8689 8690 8691 8692 8693 8694 8695 8696 8697 8698 8699 8700 8701 8702 8703 8704 8705 8706 8707 8708 8709 8710 8711 8712 8713 8714 8715 8716 8717 8718 8719 8720 8721 8722 8723 8724 8725 8726 8727 8728 8729 8730 8731 8732 8733 8734 8735 8736 8737 8738 8739 8740 8741 8742 8743 8744 8745 8746 8747 8748 8749 8750 8751 8752 8753 8754 8755 8756 8757 8758 8759 8760 8761 8762 8763 8764 8765 8766 8767 8768 8769 8770 8771 8772 8773 8774 8775 8776 8777 8778 8779 8780 8781 8782 8783 8784 8785 8786 8787 8788 8789 8790 8791 8792 8793 8794 8795 8796 8797 8798 8799 8800 8801 8802 8803 8804 8805 8806 8807 8808 8809 8810 8811 8812 8813 8814 8815 8816 8817 8818 8819 8820 8821 8822 8823 8824 8825 8826 8827 8828 8829 8830 8831 8832 8833 8834 8835 8836 8837 8838 8839 8840 8841 8842 8843 8844 8845 8846 8847 8848 8849 8850 8851 8852 8853 8854 8855 8856 8857 8858 8859 8860 8861 8862 8863 8864 8865 8866 8867 8868 8869 8870 8871 8872 8873 8874 8875 8876 8877 8878 8879 8880 8881 8882 8883 8884 8885 8886 8887 8888 8889 8890 8891 8892 8893 8894 8895 8896 8897 8898 8899 8900 8901 8902 8903 8904 8905 8906 8907 8908 8909 8910 8911 8912 8913 8914 8915 8916 8917 8918 8919 8920 8921 8922 8923 8924 8925 8926 8927 8928 8929 8930 8931 8932 8933 8934 8935 8936 8937 8938 8939 8940 8941 8942 8943 8944 8945 8946 8947 8948 8949 8950 8951 8952 8953 8954 8955 8956 8957 8958 8959 8960 8961 8962 8963 8964 8965 8966 8967 8968 8969 8970 8971 8972 8973 8974 8975 8976 8977 8978 8979 8980 8981 8982 8983 8984 8985 8986 8987 8988 8989 8990 8991 8992 8993 8994 8995 8996 8997 8998 8999 9000 9001 9002 9003 9004 9005 9006 9007 9008 9009 9010 9011 9012 9013 9014 9015 9016 9017 9018 9019 9020 9021 9022 9023 9024 9025 9026 9027 9028 9029 9030 9031 9032 9033 9034 9035 9036 9037 9038 9039 9040 9041 9042 9043 9044 9045 9046 9047 9048 9049 9050 9051 9052 9053 9054 9055 9056 9057 9058 9059 9060 9061 9062 9063 9064 9065 9066 9067 9068 9069 9070 9071 9072 9073 9074 9075 9076 9077 9078 9079 9080 9081 9082 9083 9084 9085 9086 9087 9088 9089 9090 9091 9092 9093 9094 9095 9096 9097 9098 9099 9100 9101 9102 9103 9104 9105 9106 9107 9108 9109 9110 9111 9112 9113 9114 9115 9116 9117 9118 9119 9120 9121 9122 9123 9124 9125 9126 9127 9128 9129 9130 9131 9132 9133 9134 9135 9136 9137 9138 9139 9140 9141 9142 9143 9144 9145 9146 9147 9148 9149 9150 9151 9152 9153 9154 9155 9156 9157 9158 9159 9160 9161 9162 9163 9164 9165 9166 9167 9168 9169 9170 9171 9172 9173 9174 9175 9176 9177 9178 9179 9180 9181 9182 9183 9184 9185 9186 9187 9188 9189 9190 9191 9192 9193 9194 9195 9196 9197 9198 9199 9200 9201 9202 9203 9204 9205 9206 9207 9208 9209 9210 9211 9212 9213 9214 9215 9216 9217 9218 9219 9220 9221 9222 9223 9224 9225 9226 9227 9228 9229 9230 9231 9232 9233 9234 9235 9236 9237 9238 9239 9240 9241 9242 9243 9244 9245 9246 9247 9248 9249 9250 9251 9252 9253 9254 9255 9256 9257 9258 9259 9260 9261 9262 9263 9264 9265 9266 9267 9268 9269 9270 9271 9272 9273 9274 9275 9276 9277 9278 9279 9280 9281 9282 9283 9284 9285 9286 9287 9288 9289 9290 9291 9292 9293 9294 9295 9296 9297 9298 9299 9300 9301 9302 9303 9304 9305 9306 9307 9308 9309 9310 9311 9312 9313 9314 9315 9316 9317 9318 9319 9320 9321 9322 9323 9324 9325 9326 9327 9328 9329 9330 9331 9332 9333 9334 9335 9336 9337 9338 9339 9340 9341 9342 9343 9344 9345 9346 9347 9348 9349 9350 9351 9352 9353 9354 9355 9356 9357 9358 9359 9360 9361 9362 9363 9364 9365 9366 9367 9368 9369 9370 9371 9372 9373 9374 9375 9376 9377 9378 9379 9380 9381 9382 9383 9384 9385 9386 9387 9388 9389 9390 9391 9392 9393 9394 9395 9396 9397 9398 9399 9400 9401 9402 9403 9404 9405 9406 9407 9408 9409 9410 9411 9412 9413 9414 9415 9416 9417 9418 9419 9420 9421 9422 9423 9424 9425 9426 9427 9428 9429 9430 9431 9432 9433 9434 9435 9436 9437 9438 9439 9440 9441 9442 9443 9444 9445 9446 9447 9448 9449 9450 9451 9452 9453 9454 9455 9456 9457 9458 9459 9460 9461 9462 9463 9464 9465 9466 9467 9468 9469 9470 9471 9472 9473 9474 9475 9476 9477 9478 9479 9480 9481 9482 9483 9484 9485 9486 9487 9488 9489 9490 9491 9492 9493 9494 9495 9496 9497 9498 9499 9500 9501 9502 9503 9504 9505 9506 9507 9508 9509 9510 9511 9512 9513 9514 9515 9516 9517 9518 9519 9520 9521 9522 9523 9524 9525 9526 9527 9528 9529 9530 9531 9532 9533 9534 9535 9536 9537 9538 9539 9540 9541 9542 9543 9544 9545 9546 9547 9548 9549 9550 9551 9552 9553 9554 9555 9556 9557 9558 9559 9560 9561 9562 9563 9564 9565 9566 9567 9568 9569 9570 9571 9572 9573 9574 9575 9576 9577 9578 9579 9580 9581 9582 9583 9584 9585 9586 9587 9588 9589 9590 9591 9592 9593 9594 9595 9596 9597 9598 9599 9600 9601 9602 9603 9604 9605 9606 9607 9608 9609 9610 9611 9612 9613 9614 9615 9616 9617 9618 9619 9620 9621 9622 9623 9624 9625 9626 9627 9628 9629 9630 9631 9632 9633 9634 9635 9636 9637 9638 9639 9640 9641 9642 9643 9644 9645 9646 9647 9648 9649 9650 9651 9652 9653 9654 9655 9656 9657 9658 9659 9660 9661 9662 9663 9664 9665 9666 9667 9668 9669 9670 9671 9672 9673 9674 9675 9676 9677 9678 9679 9680 9681 9682 9683 9684 9685 9686 9687 9688 9689 9690 9691 9692 9693 9694 9695 9696 9697 9698 9699 9700 9701 9702 9703 9704 9705 9706 9707 9708 9709 9710 9711 9712 9713 9714 9715 9716 9717 9718 9719 9720 9721 9722 9723 9724 9725 9726 9727 9728 9729 9730 9731 9732 9733 9734 9735 9736 9737 9738 9739 9740 9741 9742 9743 9744 9745 9746 9747 9748 9749 9750 9751 9752 9753 9754 9755 9756 9757 9758 9759 9760 9761 9762 9763 9764 9765 9766 9767 9768 9769 9770 9771 9772 9773 9774 9775 9776 9777 9778 9779 9780 9781 9782 9783 9784 9785 9786 9787 9788 9789 9790 9791 9792 9793 9794 9795 9796 9797 9798 9799 9800 9801 9802 9803 9804 9805 9806 9807 9808 9809 9810 9811 9812 9813 9814 9815 9816 9817 9818 9819 9820 9821 9822 9823 9824 9825 9826 9827 9828 9829 9830 9831 9832 9833 9834 9835 9836 9837 9838 9839 9840 9841 9842 9843 9844 9845 9846 9847 9848 9849 9850 9851 9852 9853 9854 9855 9856 9857 9858 9859 9860 9861 9862 9863 9864 9865 9866 9867 9868 9869 9870 9871 9872 9873 9874 9875 9876 9877 9878 9879 9880 9881 9882 9883 9884 9885 9886 9887 9888 9889 9890 9891 9892 9893 9894 9895 9896 9897 9898 9899 9900 9901 9902 9903 9904 9905 9906 9907 9908 9909 9910 9911 9912 9913 9914 9915 9916 9917 9918 9919 9920 9921 9922 9923 9924 9925 9926 9927 9928 9929 9930 9931 9932 9933 9934 9935 9936 9937 9938 9939 9940 9941 9942 9943 9944 9945 9946 9947 9948 9949 9950 9951 9952 9953 9954 9955 9956 9957 9958 9959 9960 9961 9962 9963 9964 9965 9966 9967 9968 9969 9970 9971 9972 9973 9974 9975 9976 9977 9978 9979 9980 9981 9982 9983 9984 9985 9986 9987 9988 9989 9990 9991 9992 9993 9994 9995 9996 9997 9998 9999 10000 10001 10002 10003 10004 10005 10006 10007 10008 10009 10010 10011 10012 10013 10014 10015 10016 10017 10018 10019 10020 10021 10022 10023 10024 10025 10026 10027 10028 10029 10030 10031 10032 10033 10034 10035 10036 10037 10038 10039 10040 10041 10042 10043 10044 10045 10046 10047 10048 10049 10050 10051 10052 10053 10054 10055 10056 10057 10058 10059 10060 10061 10062 10063 10064 10065 10066 10067 10068 10069 10070 10071 10072 10073 10074 10075 10076 10077 10078 10079 10080 10081 10082 10083 10084 10085 10086 10087 10088 10089 10090 10091 10092 10093 10094 10095 10096 10097 10098 10099 10100 10101 10102 10103 10104 10105 10106 10107 10108 10109 10110 10111 10112 10113 10114 10115 10116 10117 10118 10119 10120 10121 10122 10123 10124 10125 10126 10127 10128 10129 10130 10131 10132 10133 10134 10135 10136 10137 10138 10139 10140 10141 10142 10143 10144 10145 10146 10147 10148 10149 10150 10151 10152 10153 10154 10155 10156 10157 10158 10159 10160 10161 10162 10163 10164 10165 10166 10167 10168 10169 10170 10171 10172 10173 10174 10175 10176 10177 10178 10179 10180 10181 10182 10183 10184 10185 10186 10187 10188 10189 10190 10191 10192 10193 10194 10195 10196 10197 10198 10199 10200 10201 10202 10203 10204 10205 10206 10207 10208 10209 10210 10211 10212 10213 10214 10215 10216 10217 10218 10219 10220 10221 10222 10223 10224 10225 10226 10227 10228 10229 10230 10231 10232 10233 10234 10235 10236 10237 10238 10239 10240 10241 10242 10243 10244 10245 10246 10247 10248 10249 10250 10251 10252 10253 10254 10255 10256 10257 10258 10259 10260 10261 10262 10263 10264 10265 10266 10267 10268 10269 10270 10271 10272 10273 10274 10275 10276 10277 10278 10279 10280 10281 10282 10283 10284 10285 10286 10287 10288 10289 10290 10291 10292 10293 10294 10295 10296 10297 10298 10299 10300 10301 10302 10303 10304 10305 10306 10307 10308 10309 10310 10311 10312 10313 10314 10315 10316 10317 10318 10319 10320 10321 10322 10323 10324 10325 10326 10327 10328 10329 10330 10331 10332 10333 10334 10335 10336 10337 10338 10339 10340 10341 10342 10343 10344 10345 10346 10347 10348 10349 10350 10351 10352 10353 10354 10355 10356 10357 10358 10359 10360 10361 10362 10363 10364 10365 10366 10367 10368 10369 10370 10371 10372 10373 10374 10375 10376 10377 10378 10379 10380 10381 10382 10383 10384 10385 10386 10387 10388 10389 10390 10391 10392 10393 10394 10395 10396 10397 10398 10399 10400 10401 10402 10403 10404 10405 10406 10407 10408 10409 10410 10411 10412 10413 10414 10415 10416 10417 10418 10419 10420 10421 10422 10423 10424 10425 10426 10427 10428 10429 10430 10431 10432 10433 10434 10435 10436 10437 10438 10439 10440 10441 10442 10443 10444 10445 10446 10447 10448 10449 10450 10451 10452 10453 10454 10455 10456 10457 10458 10459 10460 10461 10462 10463 10464 10465 10466 10467 10468 10469 10470 10471 10472 10473 10474 10475 10476 10477 10478 10479 10480 10481 10482 10483 10484 10485 10486 10487 10488 10489 10490 10491 10492 10493 10494 10495 10496 10497 10498 10499 10500 10501 10502 10503 10504 10505 10506 10507 10508 10509 10510 10511 10512 10513 10514 10515 10516 10517 10518 10519 10520 10521 10522 10523 10524 10525 10526 10527 10528 10529 10530 10531 10532 10533 10534 10535 10536 10537 10538 10539 10540 10541 10542 10543 10544 10545 10546 10547 10548 10549 10550 10551 10552 10553 10554 10555 10556 10557 10558 10559 10560 10561 10562 10563 10564 10565 10566 10567 10568 10569 10570 10571 10572 10573 10574 10575 10576 10577 10578 10579 10580 10581 10582 10583 10584 10585 10586 10587 10588 10589 10590 10591 10592 10593 10594 10595 10596 10597 10598 10599 10600 10601 10602 10603 10604 10605 10606 10607 10608 10609 10610 10611 10612 10613 10614 10615 10616 10617 10618 10619 10620 10621 10622 10623 10624 10625 10626 10627 10628 10629 10630 10631 10632 10633 10634 10635 10636 10637 10638 10639 10640 10641 10642 10643 10644 10645 10646 10647 10648 10649 10650 10651 10652 10653 10654 10655 10656 10657 10658 10659 10660 10661 10662 10663 10664 10665 10666 10667 10668 10669 10670 10671 10672 10673 10674 10675 10676 10677 10678 10679 10680 10681 10682 10683 10684 10685 10686 10687 10688 10689 10690 10691 10692 10693 10694 10695 10696 10697 10698 10699 10700 10701 10702 10703 10704 10705 10706 10707 10708 10709 10710 10711 10712 10713 10714 10715 10716 10717 10718 10719 10720 10721 10722 10723 10724 10725 10726 10727 10728 10729 10730 10731 10732 10733 10734 10735 10736 10737 10738 10739 10740 10741 10742 10743 10744 10745 10746 10747 10748 10749 10750 10751 10752 10753 10754 10755 10756 10757 10758 10759 10760 10761 10762 10763 10764 10765 10766 10767 10768 10769 10770 10771 10772 10773 10774 10775 10776 10777 10778 10779 10780 10781 10782 10783 10784 10785 10786 10787 10788 10789 10790 10791 10792 10793 10794 10795 10796 10797 10798 10799 10800 10801 10802 10803 10804 10805 10806 10807 10808 10809 10810 10811 10812 10813 10814 10815 10816 10817 10818 10819 10820 10821 10822 10823 10824 10825 10826 10827 10828 10829 10830 10831 10832 10833 10834 10835 10836 10837 10838 10839 10840 10841 10842 10843 10844 10845 10846 10847 10848 10849 10850 10851 10852 10853 10854 10855 10856 10857 10858 10859 10860 10861 10862 10863 10864 10865 10866 10867 10868 10869 10870 10871 10872 10873 10874 10875 10876 10877 10878 10879 10880 10881 10882 10883 10884 10885 10886 10887 10888 10889 10890 10891 10892 10893 10894 10895 10896 10897 10898 10899 10900 10901 10902 10903 10904 10905 10906 10907 10908 10909 10910 10911 10912 10913 10914 10915 10916 10917 10918 10919 10920 10921 10922 10923 10924 10925 10926 10927 10928 10929 10930 10931 10932 10933 10934 10935 10936 10937 10938 10939 10940 10941 10942 10943 10944 10945 10946 10947 10948 10949 10950 10951 10952 10953 10954 10955 10956 10957 10958 10959 10960 10961 10962 10963 10964 10965 10966 10967 10968 10969 10970 10971 10972 10973 10974 10975 10976 10977 10978 10979 10980 10981 10982 10983 10984 10985 10986 10987 10988 10989 10990 10991 10992 10993 10994 10995 10996 10997 10998 10999 11000 11001 11002 11003 11004 11005 11006 11007 11008 11009 11010 11011 11012 11013 11014 11015 11016 11017 11018 11019 11020 11021 11022 11023 11024 11025 11026 11027 11028 11029 11030 11031 11032 11033 11034 11035 11036 11037 11038 11039 11040 11041 11042 11043 11044 11045 11046 11047 11048 11049 11050 11051 11052 11053 11054 11055 11056 11057 11058 11059 11060 11061 11062 11063 11064 11065 11066 11067 11068 11069 11070 11071 11072 11073 11074 11075 11076 11077 11078 11079 11080 11081 11082 11083 11084 11085 11086 11087 11088 11089 11090 11091 11092 11093 11094 11095 11096 11097 11098 11099 11100 11101 11102 11103 11104 11105 11106 11107 11108 11109 11110 11111 11112 11113 11114 11115 11116 11117 11118 11119 11120 11121 11122 11123 11124 11125 11126 11127 11128 11129 11130 11131 11132 11133 11134 11135 11136 11137 11138 11139 11140 11141 11142 11143 11144 11145 11146 11147 11148 11149 11150 11151 11152 11153 11154 11155 11156 11157 11158 11159 11160 11161 11162 11163 11164 11165 11166 11167 11168 11169 11170 11171 11172 11173 11174 11175 11176 11177 11178 11179 11180 11181 11182 11183 11184 11185 11186 11187 11188 11189 11190 11191 11192 11193 11194 11195 11196 11197 11198 11199 11200 11201 11202 11203 11204 11205 11206 11207 11208 11209 11210 11211 11212 11213 11214 11215 11216 11217 11218 11219 11220 11221 11222 11223 11224 11225 11226 11227 11228 11229 11230 11231 11232 11233 11234 11235 11236 11237 11238 11239 11240 11241 11242 11243 11244 11245 11246 11247 11248 11249 11250 11251 11252 11253 11254 11255 11256 11257 11258 11259 11260 11261 11262 11263 11264 11265 11266 11267 11268 11269 11270 11271 11272 11273 11274 11275 11276 11277 11278 11279 11280 11281 11282 11283 11284 11285 11286 11287 11288 11289 11290 11291 11292 11293 11294 11295 11296 11297 11298 11299 11300 11301 11302 11303 11304 11305 11306 11307 11308 11309 11310 11311 11312 11313 11314 11315 11316 11317 11318 11319 11320 11321 11322 11323 11324 11325 11326 11327 11328 11329 11330 11331 11332 11333 11334 11335 11336 11337 11338 11339 11340 11341 11342 11343 11344 11345 11346 11347 11348 11349 11350 11351 11352 11353 11354 11355 11356 11357 11358 11359 11360 11361 11362 11363 11364 11365 11366 11367 11368 11369 11370 11371 11372 11373 11374 11375 11376 11377 11378 11379 11380 11381 11382 11383 11384 11385 11386 11387 11388 11389 11390 11391 11392 11393 11394 11395 11396 11397 11398 11399 11400 11401 11402 11403 11404 11405 11406 11407 11408 11409 11410 11411 11412 11413 11414 11415 11416 11417 11418 11419 11420 11421 11422 11423 11424 11425 11426 11427 11428 11429 11430 11431 11432 11433 11434 11435 11436 11437 11438 11439 11440 11441 11442 11443 11444 11445 11446 11447 11448 11449 11450 11451 11452 11453 11454 11455 11456 11457 11458 11459 11460 11461 11462 11463 11464 11465 11466 11467 11468 11469 11470 11471 11472 11473 11474 11475 11476 11477 11478 11479 11480 11481 11482 11483 11484 11485 11486 11487 11488 11489 11490 11491 11492 11493 11494 11495 11496 11497 11498 11499 11500 11501 11502 11503 11504 11505 11506 11507 11508 11509 11510 11511 11512 11513 11514 11515 11516 11517 11518 11519 11520 11521 11522 11523 11524 11525 11526 11527 11528 11529 11530 11531 11532 11533 11534 11535 11536 11537 11538 11539 11540 11541 11542 11543 11544 11545 11546 11547 11548 11549 11550 11551 11552 11553 11554 11555 11556 11557 11558 11559 11560 11561 11562 11563 11564 11565 11566 11567 11568 11569 11570 11571 11572 11573 11574 11575 11576 11577 11578 11579 11580 11581 11582 11583 11584 11585 11586 11587 11588 11589 11590 11591 11592 11593 11594 11595 11596 11597 11598 11599 11600 11601 11602 11603 11604 11605 11606 11607 11608 11609 11610 11611 11612 11613 11614 11615 11616 11617 11618 11619 11620 11621 11622 11623 11624 11625 11626 11627 11628 11629 11630 11631 11632 11633 11634 11635 11636 11637 11638 11639 11640 11641 11642 11643 11644 11645 11646 11647 11648 11649 11650 11651 11652 11653 11654 11655 11656 11657 11658 11659 11660 11661 11662 11663 11664 11665 11666 11667 11668 11669 11670 11671 11672 11673 11674 11675 11676 11677 11678 11679 11680 11681 11682 11683 11684 11685 11686 11687 11688 11689 11690 11691 11692 11693 11694 11695 11696 11697 11698 11699 11700 11701 11702 11703 11704 11705 11706 11707 11708 11709 11710 11711 11712 11713 11714 11715 11716 11717 11718 11719 11720 11721 11722 11723 11724 11725 11726 11727 11728 11729 11730 11731 11732 11733 11734 11735 11736 11737 11738 11739 11740 11741 11742 11743 11744 11745 11746 11747 11748 11749 11750 11751 11752 11753 11754 11755 11756 11757 11758 11759 11760 11761 11762 11763 11764 11765 11766 11767 11768 11769 11770 11771 11772 11773 11774 11775 11776 11777 11778 11779 11780 11781 11782 11783 11784 11785 11786 11787 11788 11789 11790 11791 11792 11793 11794 11795 11796 11797 11798 11799 11800 11801 11802 11803 11804 11805 11806 11807 11808 11809 11810 11811 11812 11813 11814 11815 11816 11817 11818 11819 11820 11821 11822 11823 11824 11825 11826 11827 11828 11829 11830 11831 11832 11833 11834 11835 11836 11837 11838 11839 11840 11841 11842 11843 11844 11845 11846 11847 11848 11849 11850 11851 11852 11853 11854 11855 11856 11857 11858 11859 11860 11861 11862 11863 11864 11865 11866 11867 11868 11869 11870 11871 11872 11873 11874 11875 11876 11877 11878 11879 11880 11881 11882 11883 11884 11885 11886 11887 11888 11889 11890 11891 11892 11893 11894 11895 11896 11897 11898 11899 11900 11901 11902 11903 11904 11905 11906 11907 11908 11909 11910 11911 11912 11913 11914 11915 11916 11917 11918 11919 11920 11921 11922 11923 11924 11925 11926 11927 11928 11929 11930 11931 11932 11933 11934 11935 11936 11937 11938 11939 11940 11941 11942 11943 11944 11945 11946 11947 11948 11949 11950 11951 11952 11953 11954 11955 11956 11957 11958 11959 11960 11961 11962 11963 11964 11965 11966 11967 11968 11969 11970 11971 11972 11973 11974 11975 11976 11977 11978 11979 11980 11981 11982 11983 11984 11985 11986 11987 11988 11989 11990 11991 11992 11993 11994 11995 11996 11997 11998 11999 12000 12001 12002 12003 12004 12005 12006 12007 12008 12009 12010 12011 12012 12013 12014 12015 12016 12017 12018 12019 12020 12021 12022 12023 12024 12025 12026 12027 12028 12029 12030 12031 12032 12033 12034 12035 12036 12037 12038 12039 12040 12041 12042 12043 12044 12045 12046 12047 12048 12049 12050 12051 12052 12053 12054 12055 12056 12057 12058 12059 12060 12061 12062 12063 12064 12065 12066 12067 12068 12069 12070 12071 12072 12073 12074 12075 12076 12077 12078 12079 12080 12081 12082 12083 12084 12085 12086 12087 12088 12089 12090 12091 12092 12093 12094 12095 12096 12097 12098 12099 12100 12101 12102 12103 12104 12105 12106 12107 12108 12109 12110 12111 12112 12113 12114 12115 12116 12117 12118 12119 12120 12121 12122 12123 12124 12125 12126 12127 12128 12129 12130 12131 12132 12133 12134 12135 12136 12137 12138 12139 12140 12141 12142 12143 12144 12145 12146 12147 12148 12149 12150 12151 12152 12153 12154 12155 12156 12157 12158 12159 12160 12161 12162 12163 12164 12165 12166 12167 12168 12169 12170 12171 12172 12173 12174 12175 12176 12177 12178 12179 12180 12181 12182 12183 12184 12185 12186 12187 12188 12189 12190 12191 12192 12193 12194 12195 12196 12197 12198 12199 12200 12201 12202 12203 12204 12205 12206 12207 12208 12209 12210 12211 12212 12213 12214 12215 12216 12217 12218 12219 12220 12221 12222 12223 12224 12225 12226 12227 12228 12229 12230 12231 12232 12233 12234 12235 12236 12237 12238 12239 12240 12241 12242 12243 12244 12245 12246 12247 12248 12249 12250 12251 12252 12253 12254 12255 12256 12257 12258 12259 12260 12261 12262 12263 12264 12265 12266 12267 12268 12269 12270 12271 12272 12273 12274 12275 12276 12277 12278 12279 12280 12281 12282 12283 12284 12285 12286 12287 12288 12289 12290 12291 12292 12293 12294 12295 12296 12297 12298 12299 12300 12301 12302 12303 12304 12305 12306 12307 12308 12309 12310 12311 12312 12313 12314 12315 12316 12317 12318 12319 12320 12321 12322 12323 12324 12325 12326 12327 12328 12329 12330 12331 12332 12333 12334 12335 12336 12337 12338 12339 12340 12341 12342 12343 12344 12345 12346 12347 12348 12349 12350 12351 12352 12353 12354 12355 12356 12357 12358 12359 12360 12361 12362 12363 12364 12365 12366 12367 12368 12369 12370 12371 12372 12373 12374 12375 12376 12377 12378 12379 12380 12381 12382 12383 12384 12385 12386 12387 12388 12389 12390 12391 12392 12393 12394 12395 12396 12397 12398 12399 12400 12401 12402 12403 12404 12405 12406 12407 12408 12409 12410 12411 12412 12413 12414 12415 12416 12417 12418 12419 12420 12421 12422 12423 12424 12425 12426 12427 12428 12429 12430 12431 12432 12433 12434 12435 12436 12437 12438 12439 12440 12441 12442 12443 12444 12445 12446 12447 12448 12449 12450 12451 12452 12453 12454 12455 12456 12457 12458 12459 12460 12461 12462 12463 12464 12465 12466 12467 12468 12469 12470 12471 12472 12473 12474 12475 12476 12477 12478 12479 12480 12481 12482 12483 12484 12485 12486 12487 12488 12489 12490 12491 12492 12493 12494 12495 12496 12497 12498 12499 12500 12501 12502 12503 12504 12505 12506 12507 12508 12509 12510 12511 12512 12513 12514 12515 12516 12517 12518 12519 12520 12521 12522 12523 12524 12525 12526 12527 12528 12529 12530 12531 12532 12533 12534 12535 12536 12537 12538 12539 12540 12541 12542 12543 12544 12545 12546 12547 12548 12549 12550 12551 12552 12553 12554 12555 12556 12557 12558 12559 12560 12561 12562 12563 12564 12565 12566 12567 12568 12569 12570 12571 12572 12573 12574 12575 12576 12577 12578 12579 12580 12581 12582 12583 12584 12585 12586 12587 12588 12589 12590 12591 12592 12593 12594 12595 12596 12597 12598 12599 12600 12601 12602 12603 12604 12605 12606 12607 12608 12609 12610 12611 12612 12613 12614 12615 12616 12617 12618 12619 12620 12621 12622 12623 12624 12625 12626 12627 12628 12629 12630 12631 12632 12633 12634 12635 12636 12637 12638 12639 12640 12641 12642 12643 12644 12645 12646 12647 12648 12649 12650 12651 12652 12653 12654 12655 12656 12657 12658 12659 12660 12661 12662 12663 12664 12665 12666 12667 12668 12669 12670 12671 12672 12673 12674 12675 12676 12677 12678 12679 12680 12681 12682 12683 12684 12685 12686 12687 12688 12689 12690 12691 12692 12693 12694 12695 12696 12697 12698 12699 12700 12701 12702 12703 12704 12705 12706 12707 12708 12709 12710 12711 12712 12713 12714 12715 12716 12717 12718 12719 12720 12721 12722 12723 12724 12725 12726 12727 12728 12729 12730 12731 12732 12733 12734 12735 12736 12737 12738 12739 12740 12741 12742 12743 12744 12745 12746 12747 12748 12749 12750 12751 12752 12753 12754 12755 12756 12757 12758 12759 12760 12761 12762 12763 12764 12765 12766 12767 12768 12769 12770 12771 12772 12773 12774 12775 12776 12777 12778 12779 12780 12781 12782 12783 12784 12785 12786 12787 12788 12789 12790 12791 12792 12793 12794 12795 12796 12797 12798 12799 12800 12801 12802 12803 12804 12805 12806 12807 12808 12809 12810 12811 12812 12813 12814 12815 12816 12817 12818 12819 12820 12821 12822 12823 12824 12825 12826 12827 12828 12829 12830 12831 12832 12833 12834 12835 12836 12837 12838 12839 12840 12841 12842 12843 12844 12845 12846 12847 12848 12849 12850 12851 12852 12853 12854 12855 12856 12857 12858 12859 12860 12861 12862 12863 12864 12865 12866 12867 12868 12869 12870 12871 12872 12873 12874 12875 12876 12877 12878 12879 12880 12881 12882 12883 12884 12885 12886 12887 12888 12889 12890 12891 12892 12893 12894 12895 12896 12897 12898 12899 12900 12901 12902 12903 12904 12905 12906 12907 12908 12909 12910 12911 12912 12913 12914 12915 12916 12917 12918 12919 12920 12921 12922 12923 12924 12925 12926 12927 12928 12929 12930 12931 12932 12933 12934 12935 12936 12937 12938 12939 12940 12941 12942 12943 12944 12945 12946 12947 12948 12949 12950 12951 12952 12953 12954 12955 12956 12957 12958 12959 12960 12961 12962 12963 12964 12965 12966 12967 12968 12969 12970 12971 12972 12973 12974 12975 12976 12977 12978 12979 12980 12981 12982 12983 12984 12985 12986 12987 12988 12989 12990 12991 12992 12993 12994 12995 12996 12997 12998 12999 13000 13001 13002 13003 13004 13005 13006 13007 13008 13009 13010 13011 13012 13013 13014 13015 13016 13017 13018 13019 13020 13021 13022 13023 13024 13025 13026 13027 13028 13029 13030 13031 13032 13033 13034 13035 13036 13037 13038 13039 13040 13041 13042 13043 13044 13045 13046 13047 13048 13049 13050 13051 13052 13053 13054 13055 13056 13057 13058 13059 13060 13061 13062 13063 13064 13065 13066 13067 13068 13069 13070 13071 13072 13073 13074 13075 13076 13077 13078 13079 13080 13081 13082 13083 13084 13085 13086 13087 13088 13089 13090 13091 13092 13093 13094 13095 13096 13097 13098 13099 13100 13101 13102 13103 13104 13105 13106 13107 13108 13109 13110 13111 13112 13113 13114 13115 13116 13117 13118 13119 13120 13121 13122 13123 13124 13125 13126 13127 13128 13129 13130 13131 13132 13133 13134 13135 13136 13137 13138 13139 13140 13141 13142 13143 13144 13145 13146 13147 13148 13149 13150 13151 13152 13153 13154 13155 13156 13157 13158 13159 13160 13161 13162 13163 13164 13165 13166 13167 13168 13169 13170 13171 13172 13173 13174 13175 13176 13177 13178 13179 13180 13181 13182 13183 13184 13185 13186 13187 13188 13189 13190 13191 13192 13193 13194 13195 13196 13197 13198 13199 13200 13201 13202 13203 13204 13205 13206 13207 13208 13209 13210 13211 13212 13213 13214 13215 13216 13217 13218 13219 13220 13221 13222 13223 13224 13225 13226 13227 13228 13229 13230 13231 13232 13233 13234 13235 13236 13237 13238 13239 13240 13241 13242 13243 13244 13245 13246 13247 13248 13249 13250 13251 13252 13253 13254 13255 13256 13257 13258 13259 13260 13261 13262 13263 13264 13265 13266 13267 13268 13269 13270 13271 13272 13273 13274 13275 13276 13277 13278 13279 13280 13281 13282 13283 13284 13285 13286 13287 13288 13289 13290 13291 13292 13293 13294 13295 13296 13297 13298 13299 13300 13301 13302 13303 13304 13305 13306 13307 13308 13309 13310 13311 13312 13313 13314 13315 13316 13317 13318 13319 13320 13321 13322 13323 13324 13325 13326 13327 13328 13329 13330 13331 13332 13333 13334 13335 13336 13337 13338 13339 13340 13341 13342 13343 13344 13345 13346 13347 13348 13349 13350 13351 13352 13353 13354 13355 13356 13357 13358 13359 13360 13361 13362 13363 13364 13365 13366 13367 13368 13369 13370 13371 13372 13373 13374 13375 13376 13377 13378 13379 13380 13381 13382 13383 13384 13385 13386 13387 13388 13389 13390 13391 13392 13393 13394 13395 13396 13397 13398 13399 13400 13401 13402 13403 13404 13405 13406 13407 13408 13409 13410 13411 13412 13413 13414 13415 13416 13417 13418 13419 13420 13421 13422 13423 13424 13425 13426 13427 13428 13429 13430 13431 13432 13433 13434 13435 13436 13437 13438 13439 13440 13441 13442 13443 13444 13445 13446 13447 13448 13449 13450 13451 13452 13453 13454 13455 13456 13457 13458 13459 13460 13461 13462 13463 13464 13465 13466 13467 13468 13469 13470 13471 13472 13473 13474 13475 13476 13477 13478 13479 13480 13481 13482 13483 13484 13485 13486 13487 13488 13489 13490 13491 13492 13493 13494 13495 13496 13497 13498 13499 13500 13501 13502 13503 13504 13505 13506 13507 13508 13509 13510 13511 13512 13513 13514 13515 13516 13517 13518 13519 13520 13521 13522 13523 13524 13525 13526 13527 13528 13529 13530 13531 13532 13533 13534 13535 13536 13537 13538 13539 13540 13541 13542 13543 13544 13545 13546 13547 13548 13549 13550 13551 13552 13553 13554 13555 13556 13557 13558 13559 13560 13561 13562 13563 13564 13565 13566 13567 13568 13569 13570 13571 13572 13573 13574 13575 13576 13577 13578 13579 13580 13581 13582 13583 13584 13585 13586 13587 13588 13589 13590 13591 13592 13593 13594 13595 13596 13597 13598 13599 13600 13601 13602 13603 13604 13605 13606 13607 13608 13609 13610 13611 13612 13613 13614 13615 13616 13617 13618 13619 13620 13621 13622 13623 13624 13625 13626 13627 13628 13629 13630 13631 13632 13633 13634 13635 13636 13637 13638 13639 13640 13641 13642 13643 13644 13645 13646 13647 13648 13649 13650 13651 13652 13653 13654 13655 13656 13657 13658 13659 13660 13661 13662 13663 13664 13665 13666 13667 13668 13669 13670 13671 13672 13673 13674 13675 13676 13677 13678 13679 13680 13681 13682 13683 13684 13685 13686 13687 13688 13689 13690 13691 13692 13693 13694 13695 13696 13697 13698 13699 13700 13701 13702 13703 13704 13705 13706 13707 13708 13709 13710 13711 13712 13713 13714 13715 13716 13717 13718 13719 13720 13721 13722 13723 13724 13725 13726 13727 13728 13729 13730 13731 13732 13733 13734 13735 13736 13737 13738 13739 13740 13741 13742 13743 13744 13745 13746 13747 13748 13749 13750 13751 13752 13753 13754 13755 13756 13757 13758 13759 13760 13761 13762 13763 13764 13765 13766 13767 13768 13769 13770 13771 13772 13773 13774 13775 13776 13777 13778 13779 13780 13781 13782 13783 13784 13785 13786 13787 13788 13789 13790 13791 13792 13793 13794 13795 13796 13797 13798 13799 13800 13801 13802 13803 13804 13805 13806 13807 13808 13809 13810 13811 13812 13813 13814 13815 13816 13817 13818 13819 13820 13821 13822 13823 13824 13825 13826 13827 13828 13829 13830 13831 13832 13833 13834 13835 13836 13837 13838 13839 13840 13841 13842 13843 13844 13845 13846 13847 13848 13849 13850 13851 13852 13853 13854 13855 13856 13857 13858 13859 13860 13861 13862 13863 13864 13865 13866 13867 13868 13869 13870 13871 13872 13873 13874 13875 13876 13877 13878 13879 13880 13881 13882 13883 13884 13885 13886 13887 13888 13889 13890 13891 13892 13893 13894 13895 13896 13897 13898 13899 13900 13901 13902 13903 13904 13905 13906 13907 13908 13909 13910 13911 13912 13913 13914 13915 13916 13917 13918 13919 13920 13921 13922 13923 13924 13925 13926 13927 13928 13929 13930 13931 13932 13933 13934 13935 13936 13937 13938 13939 13940 13941 13942 13943 13944 13945 13946 13947 13948 13949 13950 13951 13952 13953 13954 13955 13956 13957 13958 13959 13960 13961 13962 13963 13964 13965 13966 13967 13968 13969 13970 13971 13972 13973 13974 13975 13976 13977 13978 13979 13980 13981 13982 13983 13984 13985 13986 13987 13988 13989 13990 13991 13992 13993 13994 13995 13996 13997 13998 13999 14000 14001 14002 14003 14004 14005 14006 14007 14008 14009 14010 14011 14012 14013 14014 14015 14016 14017 14018 14019 14020 14021 14022 14023 14024 14025 14026 14027 14028 14029 14030 14031 14032 14033 14034 14035 14036 14037 14038 14039 14040 14041 14042 14043 14044 14045 14046 14047 14048 14049 14050 14051 14052 14053 14054 14055 14056 14057 14058 14059 14060 14061 14062 14063 14064 14065 14066 14067 14068 14069 14070 14071 14072 14073 14074 14075 14076 14077 14078 14079 14080 14081 14082 14083 14084 14085 14086 14087 14088 14089 14090 14091 14092 14093 14094 14095 14096 14097 14098 14099 14100 14101 14102 14103 14104 14105 14106 14107 14108 14109 14110 14111 14112 14113 14114 14115 14116 14117 14118 14119 14120 14121 14122 14123 14124 14125 14126 14127 14128 14129 14130 14131 14132 14133 14134 14135 14136 14137 14138 14139 14140 14141 14142 14143 14144 14145 14146 14147 14148 14149 14150 14151 14152 14153 14154 14155 14156 14157 14158 14159 14160 14161 14162 14163 14164 14165 14166 14167 14168 14169 14170 14171 14172 14173 14174 14175 14176 14177 14178 14179 14180 14181 14182 14183 14184 14185 14186 14187 14188 14189 14190 14191 14192 14193 14194 14195 14196 14197 14198 14199 14200 14201 14202 14203 14204 14205 14206 14207 14208 14209 14210 14211 14212 14213 14214 14215 14216 14217 14218 14219 14220 14221 14222 14223 14224 14225 14226 14227 14228 14229 14230 14231 14232 14233 14234 14235 14236 14237 14238 14239 14240 14241 14242 14243 14244 14245 14246 14247 14248 14249 14250 14251 14252 14253 14254 14255 14256 14257 14258 14259 14260 14261 14262 14263 14264 14265 14266 14267 14268 14269 14270 14271 14272 14273 14274 14275 14276 14277 14278 14279 14280 14281 14282 14283 14284 14285 14286 14287 14288 14289 14290 14291 14292 14293 14294 14295 14296 14297 14298 14299 14300 14301 14302 14303 14304 14305 14306 14307 14308 14309 14310 14311 14312 14313 14314 14315 14316 14317 14318 14319 14320 14321 14322 14323 14324 14325 14326 14327 14328 14329 14330 14331 14332 14333 14334 14335 14336 14337 14338 14339 14340 14341 14342 14343 14344 14345 14346 14347 14348 14349 14350 14351 14352 14353 14354 14355 14356 14357 14358 14359 14360 14361 14362 14363 14364 14365 14366 14367 14368 14369 14370 14371 14372 14373 14374 14375 14376 14377 14378 14379 14380 14381 14382 14383 14384 14385 14386 14387 14388 14389 14390 14391 14392 14393 14394 14395 14396 14397 14398 14399 14400 14401 14402 14403 14404 14405 14406 14407 14408 14409 14410 14411 14412 14413 14414 14415 14416 14417 14418 14419 14420 14421 14422 14423 14424 14425 14426 14427 14428 14429 14430 14431 14432 14433 14434 14435 14436 14437 14438 14439 14440 14441 14442 14443 14444 14445 14446 14447 14448 14449 14450 14451 14452 14453 14454 14455 14456 14457 14458 14459 14460 14461 14462 14463 14464 14465 14466 14467 14468 14469 14470 14471 14472 14473 14474 14475 14476 14477 14478 14479 14480 14481 14482 14483 14484 14485 14486 14487 14488 14489 14490 14491 14492 14493 14494 14495 14496 14497 14498 14499 14500 14501 14502 14503 14504 14505 14506 14507 14508 14509 14510 14511 14512 14513 14514 14515 14516 14517 14518 14519 14520 14521 14522 14523 14524 14525 14526 14527 14528 14529 14530 14531 14532 14533 14534 14535 14536 14537 14538 14539 14540 14541 14542 14543 14544 14545 14546 14547 14548 14549 14550 14551 14552 14553 14554 14555 14556 14557 14558 14559 14560 14561 14562 14563 14564 14565 14566 14567 14568 14569 14570 14571 14572 14573 14574 14575 14576 14577 14578 14579 14580 14581 14582 14583 14584 14585 14586 14587 14588 14589 14590 14591 14592 14593 14594 14595 14596 14597 14598 14599 14600 14601 14602 14603 14604 14605 14606 14607 14608 14609 14610 14611 14612 14613 14614 14615 14616 14617 14618 14619 14620 14621 14622 14623 14624 14625 14626 14627 14628 14629 14630 14631 14632 14633 14634 14635 14636 14637 14638 14639 14640 14641 14642 14643 14644 14645 14646 14647 14648 14649 14650 14651 14652 14653 14654 14655 14656 14657 14658 14659 14660 14661 14662 14663 14664 14665 14666 14667 14668 14669 14670 14671 14672 14673 14674 14675 14676 14677 14678 14679 14680 14681 14682 14683 14684 14685 14686 14687 14688 14689 14690 14691 14692 14693 14694 14695 14696 14697 14698 14699 14700 14701 14702 14703 14704 14705 14706 14707 14708 14709 14710 14711 14712 14713 14714 14715 14716 14717 14718 14719 14720 14721 14722 14723 14724 14725 14726 14727 14728 14729 14730 14731 14732 14733 14734 14735 14736 14737 14738 14739 14740 14741 14742 14743 14744 14745 14746 14747 14748 14749 14750 14751 14752 14753 14754 14755 14756 14757 14758 14759 14760 14761 14762 14763 14764 14765 14766 14767 14768 14769 14770 14771 14772 14773 14774 14775 14776 14777 14778 14779 14780 14781 14782 14783 14784 14785 14786 14787 14788 14789 14790 14791 14792 14793 14794 14795 14796 14797 14798 14799 14800 14801 14802 14803 14804 14805 14806 14807 14808 14809 14810 14811 14812 14813 14814 14815 14816 14817 14818 14819 14820 14821 14822 14823 14824 14825 14826 14827 14828 14829 14830 14831 14832 14833 14834 14835 14836 14837 14838 14839 14840 14841 14842 14843 14844 14845 14846 14847 14848 14849 14850 14851 14852 14853 14854 14855 14856 14857 14858 14859 14860 14861 14862 14863 14864 14865 14866 14867 14868 14869 14870 14871 14872 14873 14874 14875 14876 14877 14878 14879 14880 14881 14882 14883 14884 14885 14886 14887 14888 14889 14890 14891 14892 14893 14894 14895 14896 14897 14898 14899 14900 14901 14902 14903 14904 14905 14906 14907 14908 14909 14910 14911 14912 14913 14914 14915 14916 14917 14918 14919 14920 14921 14922 14923 14924 14925 14926 14927 14928 14929 14930 14931 14932 14933 14934 14935 14936 14937 14938 14939 14940 14941 14942 14943 14944 14945 14946 14947 14948 14949 14950 14951 14952 14953 14954 14955 14956 14957 14958 14959 14960 14961 14962 14963 14964 14965 14966 14967 14968 14969 14970 14971 14972 14973 14974 14975 14976 14977 14978 14979 14980 14981 14982 14983 14984 14985 14986 14987 14988 14989 14990 14991 14992 14993 14994 14995 14996 14997 14998 14999 15000 15001 15002 15003 15004 15005 15006 15007 15008 15009 15010 15011 15012 15013 15014 15015 15016 15017 15018 15019 15020 15021 15022 15023 15024 15025 15026 15027 15028 15029 15030 15031 15032 15033 15034 15035 15036 15037 15038 15039 15040 15041 15042 15043 15044 15045 15046 15047 15048 15049 15050 15051 15052 15053 15054 15055 15056 15057 15058 15059 15060 15061 15062 15063 15064 15065 15066 15067 15068 15069 15070 15071 15072 15073 15074 15075 15076 15077 15078 15079 15080 15081 15082 15083 15084 15085 15086 15087 15088 15089 15090 15091 15092 15093 15094 15095 15096 15097 15098 15099 15100 15101 15102 15103 15104 15105 15106 15107 15108 15109 15110 15111 15112 15113 15114 15115 15116 15117 15118 15119 15120 15121 15122 15123 15124 15125 15126 15127 15128 15129 15130 15131 15132 15133 15134 15135 15136 15137 15138 15139 15140 15141 15142 15143 15144 15145 15146 15147 15148 15149 15150 15151 15152 15153 15154 15155 15156 15157 15158 15159 15160 15161 15162 15163 15164 15165 15166 15167 15168 15169 15170 15171 15172 15173 15174 15175 15176 15177 15178 15179 15180 15181 15182 15183 15184 15185 15186 15187 15188 15189 15190 15191 15192 15193 15194 15195 15196 15197 15198 15199 15200 15201 15202 15203 15204 15205 15206 15207 15208 15209 15210 15211 15212 15213 15214 15215 15216 15217 15218 15219 15220 15221 15222 15223 15224 15225 15226 15227 15228 15229 15230 15231 15232 15233 15234 15235 15236 15237 15238 15239 15240 15241 15242 15243 15244 15245 15246 15247 15248 15249 15250 15251 15252 15253 15254 15255 15256 15257 15258 15259 15260 15261 15262 15263 15264 15265 15266 15267 15268 15269 15270 15271 15272 15273 15274 15275 15276 15277 15278 15279 15280 15281 15282 15283 15284 15285 15286 15287 15288 15289 15290 15291 15292 15293 15294 15295 15296 15297 15298 15299 15300 15301 15302 15303 15304 15305 15306 15307 15308 15309 15310 15311 15312 15313 15314 15315 15316 15317 15318 15319 15320 15321 15322 15323 15324 15325 15326 15327 15328 15329 15330 15331 15332 15333 15334 15335 15336 15337 15338 15339 15340 15341 15342 15343 15344 15345 15346 15347 15348 15349 15350 15351 15352 15353 15354 15355 15356 15357 15358 15359 15360 15361 15362 15363 15364 15365 15366 15367 15368 15369 15370 15371 15372 15373 15374 15375 15376 15377 15378 15379 15380 15381 15382 15383 15384 15385 15386 15387 15388 15389 15390 15391 15392 15393 15394 15395 15396 15397 15398 15399 15400 15401 15402 15403 15404 15405 15406 15407 15408 15409 15410 15411 15412 15413 15414 15415 15416 15417 15418 15419 15420 15421 15422 15423 15424 15425 15426 15427 15428 15429 15430 15431 15432 15433 15434 15435 15436 15437 15438 15439 15440 15441 15442 15443 15444 15445 15446 15447 15448 15449 15450 15451 15452 15453 15454 15455 15456 15457 15458 15459 15460 15461 15462 15463 15464 15465 15466 15467 15468 15469 15470 15471 15472 15473 15474 15475 15476 15477 15478 15479 15480 15481 15482 15483 15484 15485 15486 15487 15488 15489 15490 15491 15492 15493 15494 15495 15496 15497 15498 15499 15500 15501 15502 15503 15504 15505 15506 15507 15508 15509 15510 15511 15512 15513 15514 15515 15516 15517 15518 15519 15520 15521 15522 15523 15524 15525 15526 15527 15528 15529 15530 15531 15532 15533 15534 15535 15536 15537 15538 15539 15540 15541 15542 15543 15544 15545 15546 15547 15548 15549 15550 15551 15552 15553 15554 15555 15556 15557 15558 15559 15560 15561 15562 15563 15564 15565 15566 15567 15568 15569 15570 15571 15572 15573 15574 15575 15576 15577 15578 15579 15580 15581 15582 15583 15584 15585 15586 15587 15588 15589 15590 15591 15592 15593 15594 15595 15596 15597 15598 15599 15600 15601 15602 15603 15604 15605 15606 15607 15608 15609 15610 15611 15612 15613 15614 15615 15616 15617 15618 15619 15620 15621 15622 15623 15624 15625 15626 15627 15628 15629 15630 15631 15632 15633 15634 15635 15636 15637 15638 15639 15640 15641 15642 15643 15644 15645 15646 15647 15648 15649 15650 15651 15652 15653 15654 15655 15656 15657 15658 15659 15660 15661 15662 15663 15664 15665 15666 15667 15668 15669 15670 15671 15672 15673 15674 15675 15676 15677 15678 15679 15680 15681 15682 15683 15684 15685 15686 15687 15688 15689 15690 15691 15692 15693 15694 15695 15696 15697 15698 15699 15700 15701 15702 15703 15704 15705 15706 15707 15708 15709 15710 15711 15712 15713 15714 15715 15716 15717 15718 15719 15720 15721 15722 15723 15724 15725 15726 15727 15728 15729 15730 15731 15732 15733 15734 15735 15736 15737 15738 15739 15740 15741 15742 15743 15744 15745 15746 15747 15748 15749 15750 15751 15752 15753 15754 15755 15756 15757 15758 15759 15760 15761 15762 15763 15764 15765 15766 15767 15768 15769 15770 15771 15772 15773 15774 15775 15776 15777 15778 15779 15780 15781 15782 15783 15784 15785 15786 15787 15788 15789 15790 15791 15792 15793 15794 15795 15796 15797 15798 15799 15800 15801 15802 15803 15804 15805 15806 15807 15808 15809 15810 15811 15812 15813 15814 15815 15816 15817 15818 15819 15820 15821 15822 15823 15824 15825 15826 15827 15828 15829 15830 15831 15832 15833 15834 15835 15836 15837 15838 15839 15840 15841 15842 15843 15844 15845 15846 15847 15848 15849 15850 15851 15852 15853 15854 15855 15856 15857 15858 15859 15860 15861 15862 15863 15864 15865 15866 15867 15868 15869 15870 15871 15872 15873 15874 15875 15876 15877 15878 15879 15880 15881 15882 15883 15884 15885 15886 15887 15888 15889 15890 15891 15892 15893 15894 15895 15896 15897 15898 15899 15900 15901 15902 15903 15904 15905 15906 15907 15908 15909 15910 15911 15912 15913 15914 15915 15916 15917 15918 15919 15920 15921 15922 15923 15924 15925 15926 15927 15928 15929 15930 15931 15932 15933 15934 15935 15936 15937 15938 15939 15940 15941 15942 15943 15944 15945 15946 15947 15948 15949 15950 15951 15952 15953 15954 15955 15956 15957 15958 15959 15960 15961 15962 15963 15964 15965 15966 15967 15968 15969 15970 15971 15972 15973 15974 15975 15976 15977 15978 15979 15980 15981 15982 15983 15984 15985 15986 15987 15988 15989 15990 15991 15992 15993 15994 15995 15996 15997 15998 15999 16000 16001 16002 16003 16004 16005 16006 16007 16008 16009 16010 16011 16012 16013 16014 16015 16016 16017 16018 16019 16020 16021 16022 16023 16024 16025 16026 16027 16028 16029 16030 16031 16032 16033 16034 16035 16036 16037 16038 16039 16040 16041 16042 16043 16044 16045 16046 16047 16048 16049 16050 16051 16052 16053 16054 16055 16056 16057 16058 16059 16060 16061 16062 16063 16064 16065 16066 16067 16068 16069 16070 16071 16072 16073 16074 16075 16076 16077 16078 16079 16080 16081 16082 16083 16084 16085 16086 16087 16088 16089 16090 16091 16092 16093 16094 16095 16096 16097 16098 16099 16100 16101 16102 16103 16104 16105 16106 16107 16108 16109 16110 16111 16112 16113 16114 16115 16116 16117 16118 16119 16120 16121 16122 16123 16124 16125 16126 16127 16128 16129 16130 16131 16132 16133 16134 16135 16136 16137 16138 16139 16140 16141 16142 16143 16144 16145 16146 16147 16148 16149 16150 16151 16152 16153 16154 16155 16156 16157 16158 16159 16160 16161 16162 16163 16164 16165 16166 16167 16168 16169 16170 16171 16172 16173 16174 16175 16176 16177 16178 16179 16180 16181 16182 16183 16184 16185 16186 16187 16188 16189 16190 16191 16192 16193 16194 16195 16196 16197 16198 16199 16200 16201 16202 16203 16204 16205 16206 16207 16208 16209 16210 16211 16212 16213 16214 16215 16216 16217 16218 16219 16220 16221 16222 16223 16224 16225 16226 16227 16228 16229 16230 16231 16232 16233 16234 16235 16236 16237 16238 16239 16240 16241 16242 16243 16244 16245 16246 16247 16248 16249 16250 16251 16252 16253 16254 16255 16256 16257 16258 16259 16260 16261 16262 16263 16264 16265 16266 16267 16268 16269 16270 16271 16272 16273 16274 16275 16276 16277 16278 16279 16280 16281 16282 16283 16284 16285 16286 16287 16288 16289 16290 16291 16292 16293 16294 16295 16296 16297 16298 16299 16300 16301 16302 16303 16304 16305 16306 16307 16308 16309 16310 16311 16312 16313 16314 16315 16316 16317 16318 16319 16320 16321 16322 16323 16324 16325 16326 16327 16328 16329 16330 16331 16332 16333 16334 16335 16336 16337 16338 16339 16340 16341 16342 16343 16344 16345 16346 16347 16348 16349 16350 16351 16352 16353 16354 16355 16356 16357 16358 16359 16360 16361 16362 16363 16364 16365 16366 16367 16368 16369 16370 16371 16372 16373 16374 16375 16376 16377 16378 16379 16380 16381 16382 16383 16384 16385 16386 16387 16388 16389 16390 16391 16392 16393 16394 16395 16396 16397 16398 16399 16400 16401 16402 16403 16404 16405 16406 16407 16408 16409 16410 16411 16412 16413 16414 16415 16416 16417 16418 16419 16420 16421 16422 16423 16424 16425 16426 16427 16428 16429 16430 16431 16432 16433 16434 16435 16436 16437 16438 16439 16440 16441 16442 16443 16444 16445 16446 16447 16448 16449 16450 16451 16452 16453 16454 16455 16456 16457 16458 16459 16460 16461 16462 16463 16464 16465 16466 16467 16468 16469 16470 16471 16472 16473 16474 16475 16476 16477 16478 16479 16480 16481 16482 16483 16484 16485 16486 16487 16488 16489 16490 16491 16492 16493 16494 16495 16496 16497 16498 16499 16500 16501 16502 16503 16504 16505 16506 16507 16508 16509 16510 16511 16512 16513 16514 16515 16516 16517 16518 16519 16520 16521 16522 16523 16524 16525 16526 16527 16528 16529 16530 16531 16532 16533 16534 16535 16536 16537 16538 16539 16540 16541 16542 16543 16544 16545 16546 16547 16548 16549 16550 16551 16552 16553 16554 16555 16556 16557 16558 16559 16560 16561 16562 16563 16564 16565 16566 16567 16568 16569 16570 16571 16572 16573 16574 16575 16576 16577 16578 16579 16580 16581 16582 16583 16584 16585 16586 16587 16588 16589 16590 16591 16592 16593 16594 16595 16596 16597 16598 16599 16600 16601 16602 16603 16604 16605 16606 16607 16608 16609 16610 16611 16612 16613 16614 16615 16616 16617 16618 16619 16620 16621 16622 16623 16624 16625 16626 16627 16628 16629 16630 16631 16632 16633 16634 16635 16636 16637 16638 16639 16640 16641 16642 16643 16644 16645 16646 16647 16648 16649 16650 16651 16652 16653 16654 16655 16656 16657 16658 16659 16660 16661 16662 16663 16664 16665 16666 16667 16668 16669 16670 16671 16672 16673 16674 16675 16676 16677 16678 16679 16680 16681 16682 16683 16684 16685 16686 16687 16688 16689 16690 16691 16692 16693 16694 16695 16696 16697 16698 16699 16700 16701 16702 16703 16704 16705 16706 16707 16708 16709 16710 16711 16712 16713 16714 16715 16716 16717 16718 16719 16720 16721 16722 16723 16724 16725 16726 16727 16728 16729 16730 16731 16732 16733 16734 16735 16736 16737 16738 16739 16740 16741 16742 16743 16744 16745 16746 16747 16748 16749 16750 16751 16752 16753 16754 16755 16756 16757 16758 16759 16760 16761 16762 16763 16764 16765 16766 16767 16768 16769 16770 16771 16772 16773 16774 16775 16776 16777 16778 16779 16780 16781 16782 16783 16784 16785 16786 16787 16788 16789 16790 16791 16792 16793 16794 16795 16796 16797 16798 16799 16800 16801 16802 16803 16804 16805 16806 16807 16808 16809 16810 16811 16812 16813 16814 16815 16816 16817 16818 16819 16820 16821 16822 16823 16824 16825 16826 16827 16828 16829 16830 16831 16832 16833 16834 16835 16836 16837 16838 16839 16840 16841 16842 16843 16844 16845 16846 16847 16848 16849 16850 16851 16852 16853 16854 16855 16856 16857 16858 16859 16860 16861 16862 16863 16864 16865 16866 16867 16868 16869 16870 16871 16872 16873 16874 16875 16876 16877 16878 16879 16880 16881 16882 16883 16884 16885 16886 16887 16888 16889 16890 16891 16892 16893 16894 16895 16896 16897 16898 16899 16900 16901 16902 16903 16904 16905 16906 16907 16908 16909 16910 16911 16912 16913 16914 16915 16916 16917 16918 16919 16920 16921 16922 16923 16924 16925 16926 16927 16928 16929 16930 16931 16932 16933 16934 16935 16936 16937 16938 16939 16940 16941 16942 16943 16944 16945 16946 16947 16948 16949 16950 16951 16952 16953 16954 16955 16956 16957 16958 16959 16960 16961 16962 16963 16964 16965 16966 16967 16968 16969 16970 16971 16972 16973 16974 16975 16976 16977 16978 16979 16980 16981 16982 16983 16984 16985 16986 16987 16988 16989 16990 16991 16992 16993 16994 16995 16996 16997 16998 16999 17000 17001 17002 17003 17004 17005 17006 17007 17008 17009 17010 17011 17012 17013 17014 17015 17016 17017 17018 17019 17020 17021 17022 17023 17024 17025 17026 17027 17028 17029 17030 17031 17032 17033 17034 17035 17036 17037 17038 17039 17040 17041 17042 17043 17044 17045 17046 17047 17048 17049 17050 17051 17052 17053 17054 17055 17056 17057 17058 17059 17060 17061 17062 17063 17064 17065 17066 17067 17068 17069 17070 17071 17072 17073 17074 17075 17076 17077 17078 17079 17080 17081 17082 17083 17084 17085 17086 17087 17088 17089 17090 17091 17092 17093 17094 17095 17096 17097 17098 17099 17100 17101 17102 17103 17104 17105 17106 17107 17108 17109 17110 17111 17112 17113 17114 17115 17116 17117 17118 17119 17120 17121 17122 17123 17124 17125 17126 17127 17128 17129 17130 17131 17132 17133 17134 17135 17136 17137 17138 17139 17140 17141 17142 17143 17144 17145 17146 17147 17148 17149 17150 17151 17152 17153 17154 17155 17156 17157 17158 17159 17160 17161 17162 17163 17164 17165 17166 17167 17168 17169 17170 17171 17172 17173 17174 17175 17176 17177 17178 17179 17180 17181 17182 17183 17184 17185 17186 17187 17188 17189 17190 17191 17192 17193 17194 17195 17196 17197 17198 17199 17200 17201 17202 17203 17204 17205 17206 17207 17208 17209 17210 17211 17212 17213 17214 17215 17216 17217 17218 17219 17220 17221 17222 17223 17224 17225 17226 17227 17228 17229 17230 17231 17232 17233 17234 17235 17236 17237 17238 17239 17240 17241 17242 17243 17244 17245 17246 17247 17248 17249 17250 17251 17252 17253 17254 17255 17256 17257 17258 17259 17260 17261 17262 17263 17264 17265 17266 17267 17268 17269 17270 17271 17272 17273 17274 17275 17276 17277 17278 17279 17280 17281 17282 17283 17284 17285 17286 17287 17288 17289 17290 17291 17292 17293 17294 17295 17296 17297 17298 17299 17300 17301 17302 17303 17304 17305 17306 17307 17308 17309 17310 17311 17312 17313 17314 17315 17316 17317 17318 17319 17320 17321 17322 17323 17324 17325 17326 17327 17328 17329 17330 17331 17332 17333 17334 17335 17336 17337 17338 17339 17340 17341 17342 17343 17344 17345 17346 17347 17348 17349 17350 17351 17352 17353 17354 17355 17356 17357 17358 17359 17360 17361 17362 17363 17364 17365 17366 17367 17368 17369 17370 17371 17372 17373 17374 17375 17376 17377 17378 17379 17380 17381 17382 17383 17384 17385 17386 17387 17388 17389 17390 17391 17392 17393 17394 17395 17396 17397 17398 17399 17400 17401 17402 17403 17404 17405 17406 17407 17408 17409 17410 17411 17412 17413 17414 17415 17416 17417 17418 17419 17420 17421 17422 17423 17424 17425 17426 17427 17428 17429 17430 17431 17432 17433 17434 17435 17436 17437 17438 17439 17440 17441 17442 17443 17444 17445 17446 17447 17448 17449 17450 17451 17452 17453 17454 17455 17456 17457 17458 17459 17460 17461 17462 17463 17464 17465 17466 17467 17468 17469 17470 17471 17472 17473 17474 17475 17476 17477 17478 17479 17480 17481 17482 17483 17484 17485 17486 17487 17488 17489 17490 17491 17492 17493 17494 17495 17496 17497 17498 17499 17500 17501 17502 17503 17504 17505 17506 17507 17508 17509 17510 17511 17512 17513 17514 17515 17516 17517 17518 17519 17520 17521 17522 17523 17524 17525 17526 17527 17528 17529 17530 17531 17532 17533 17534 17535 17536 17537 17538 17539 17540 17541 17542 17543 17544 17545 17546 17547 17548 17549 17550 17551 17552 17553 17554 17555 17556 17557 17558 17559 17560 17561 17562 17563 17564 17565 17566 17567 17568 17569 17570 17571 17572 17573 17574 17575 17576 17577 17578 17579 17580 17581 17582 17583 17584 17585 17586 17587 17588 17589 17590 17591 17592 17593 17594 17595 17596 17597 17598 17599 17600 17601 17602 17603 17604 17605 17606 17607 17608 17609 17610 17611 17612 17613 17614 17615 17616 17617 17618 17619 17620 17621 17622 17623 17624 17625 17626 17627 17628 17629 17630 17631 17632 17633 17634 17635 17636 17637 17638 17639 17640 17641 17642 17643 17644 17645 17646 17647 17648 17649 17650 17651 17652 17653 17654 17655 17656 17657 17658 17659 17660 17661 17662 17663 17664 17665 17666 17667 17668 17669 17670 17671 17672 17673 17674 17675 17676 17677 17678 17679 17680 17681 17682 17683 17684 17685 17686 17687 17688 17689 17690 17691 17692 17693 17694 17695 17696 17697 17698 17699 17700 17701 17702 17703 17704 17705 17706 17707 17708 17709 17710 17711 17712 17713 17714 17715 17716 17717 17718 17719 17720 17721 17722 17723 17724 17725 17726 17727 17728 17729 17730 17731 17732 17733 17734 17735 17736 17737 17738 17739 17740 17741 17742 17743 17744 17745 17746 17747 17748 17749 17750 17751 17752 17753 17754 17755 17756 17757 17758 17759 17760 17761 17762 17763 17764 17765 17766 17767 17768 17769 17770 17771 17772 17773 17774 17775 17776 17777 17778 17779 17780 17781 17782 17783 17784 17785 17786 17787 17788 17789 17790 17791 17792 17793 17794 17795 17796 17797 17798 17799 17800 17801 17802 17803 17804 17805 17806 17807 17808 17809 17810 17811 17812 17813 17814 17815 17816 17817 17818 17819 17820 17821 17822 17823 17824 17825 17826 17827 17828 17829 17830 17831 17832 17833 17834 17835 17836 17837 17838 17839 17840 17841 17842 17843 17844 17845 17846 17847 17848 17849 17850 17851 17852 17853 17854 17855 17856 17857 17858 17859 17860 17861 17862 17863 17864 17865 17866 17867 17868 17869 17870 17871 17872 17873 17874 17875 17876 17877 17878 17879 17880 17881 17882 17883 17884 17885 17886 17887 17888 17889 17890 17891 17892 17893 17894 17895 17896 17897 17898 17899 17900 17901 17902 17903 17904 17905 17906 17907 17908 17909 17910 17911 17912 17913 17914 17915 17916 17917 17918 17919 17920 17921 17922 17923 17924 17925 17926 17927 17928 17929 17930 17931 17932 17933 17934 17935 17936 17937 17938 17939 17940 17941 17942 17943 17944 17945 17946 17947 17948 17949 17950 17951 17952 17953 17954 17955 17956 17957 17958 17959 17960 17961 17962 17963 17964 17965 17966 17967 17968 17969 17970 17971 17972 17973 17974 17975 17976 17977 17978 17979 17980 17981 17982 17983 17984 17985 17986 17987 17988 17989 17990 17991 17992 17993 17994 17995 17996 17997 17998 17999 18000 18001 18002 18003 18004 18005 18006 18007 18008 18009 18010 18011 18012 18013 18014 18015 18016 18017 18018 18019 18020 18021 18022 18023 18024 18025 18026 18027 18028 18029 18030 18031 18032 18033 18034 18035 18036 18037 18038 18039 18040 18041 18042 18043 18044 18045 18046 18047 18048 18049 18050 18051 18052 18053 18054 18055 18056 18057 18058 18059 18060 18061 18062 18063 18064 18065 18066 18067 18068 18069 18070 18071 18072 18073 18074 18075 18076 18077 18078 18079 18080 18081 18082 18083 18084 18085 18086 18087 18088 18089 18090 18091 18092 18093 18094 18095 18096 18097 18098 18099 18100 18101 18102 18103 18104 18105 18106 18107 18108 18109 18110 18111 18112 18113 18114 18115 18116 18117 18118 18119 18120 18121 18122 18123 18124 18125 18126 18127 18128 18129 18130 18131 18132 18133 18134 18135 18136 18137 18138 18139 18140 18141 18142 18143 18144 18145 18146 18147 18148 18149 18150 18151 18152 18153 18154 18155 18156 18157 18158 18159 18160 18161 18162 18163 18164 18165 18166 18167 18168 18169 18170 18171 18172 18173 18174 18175 18176 18177 18178 18179 18180 18181 18182 18183 18184 18185 18186 18187 18188 18189 18190 18191 18192 18193 18194 18195 18196 18197 18198 18199 18200 18201 18202 18203 18204 18205 18206 18207 18208 18209 18210 18211 18212 18213 18214 18215 18216 18217 18218 18219 18220 18221 18222 18223 18224 18225 18226 18227 18228 18229 18230 18231 18232 18233 18234 18235 18236 18237 18238 18239 18240 18241 18242 18243 18244 18245 18246 18247 18248 18249 18250 18251 18252 18253 18254 18255 18256 18257 18258 18259 18260 18261 18262 18263 18264 18265 18266 18267 18268 18269 18270 18271 18272 18273 18274 18275 18276 18277 18278 18279 18280 18281 18282 18283 18284 18285 18286 18287 18288 18289 18290 18291 18292 18293 18294 18295 18296 18297 18298 18299 18300 18301 18302 18303 18304 18305 18306 18307 18308 18309 18310 18311 18312 18313 18314 18315 18316 18317 18318 18319 18320 18321 18322 18323 18324 18325 18326 18327 18328 18329 18330 18331 18332 18333 18334 18335 18336 18337 18338 18339 18340 18341 18342 18343 18344 18345 18346 18347 18348 18349 18350 18351 18352 18353 18354 18355 18356 18357 18358 18359 18360 18361 18362 18363 18364 18365 18366 18367 18368 18369 18370 18371 18372 18373 18374 18375 18376 18377 18378 18379 18380 18381 18382 18383 18384 18385 18386 18387 18388 18389 18390 18391 18392 18393 18394 18395 18396 18397 18398 18399 18400 18401 18402 18403 18404 18405 18406 18407 18408 18409 18410 18411 18412 18413 18414 18415 18416 18417 18418 18419 18420 18421 18422 18423 18424 18425 18426 18427 18428 18429 18430 18431 18432 18433 18434 18435 18436 18437 18438 18439 18440 18441 18442 18443 18444 18445 18446 18447 18448 18449 18450 18451 18452 18453 18454 18455 18456 18457 18458 18459 18460 18461 18462 18463 18464 18465 18466 18467 18468 18469 18470 18471 18472 18473 18474 18475 18476 18477 18478 18479 18480 18481 18482 18483 18484 18485 18486 18487 18488 18489 18490 18491 18492 18493 18494 18495 18496 18497 18498 18499 18500 18501 18502 18503 18504 18505 18506 18507 18508 18509 18510 18511 18512 18513 18514 18515 18516 18517 18518 18519 18520 18521 18522 18523 18524 18525 18526 18527 18528 18529 18530 18531 18532 18533 18534 18535 18536 18537 18538 18539 18540 18541 18542 18543 18544 18545 18546 18547 18548 18549 18550 18551 18552 18553 18554 18555 18556 18557 18558 18559 18560 18561 18562 18563 18564 18565 18566 18567 18568 18569 18570 18571 18572 18573 18574 18575 18576 18577 18578 18579 18580 18581 18582 18583 18584 18585 18586 18587 18588 18589 18590 18591 18592 18593 18594 18595 18596 18597 18598 18599 18600 18601 18602 18603 18604 18605 18606 18607 18608 18609 18610 18611 18612 18613 18614 18615 18616 18617 18618 18619 18620 18621 18622 18623 18624 18625 18626 18627 18628 18629 18630 18631 18632 18633 18634 18635 18636 18637 18638 18639 18640 18641 18642 18643 18644 18645 18646 18647 18648 18649 18650 18651 18652 18653 18654 18655 18656 18657 18658 18659 18660 18661 18662 18663 18664 18665 18666 18667 18668 18669 18670 18671 18672 18673 18674 18675 18676 18677 18678 18679 18680 18681 18682 18683 18684 18685 18686 18687 18688 18689 18690 18691 18692 18693 18694 18695 18696 18697 18698 18699 18700 18701 18702 18703 18704 18705 18706 18707 18708 18709 18710 18711 18712 18713 18714 18715 18716 18717 18718 18719 18720 18721 18722 18723 18724 18725 18726 18727 18728 18729 18730 18731 18732 18733 18734 18735 18736 18737 18738 18739 18740 18741 18742 18743 18744 18745 18746 18747 18748 18749 18750 18751 18752 18753 18754 18755 18756 18757 18758 18759 18760 18761 18762 18763 18764 18765 18766 18767 18768 18769 18770 18771 18772 18773 18774 18775 18776 18777 18778 18779 18780 18781 18782 18783 18784 18785 18786 18787 18788 18789 18790 18791 18792 18793 18794 18795 18796 18797 18798 18799 18800 18801 18802 18803 18804 18805 18806 18807 18808 18809 18810 18811 18812 18813 18814 18815 18816 18817 18818 18819 18820 18821 18822 18823 18824 18825 18826 18827 18828 18829 18830 18831 18832 18833 18834 18835 18836 18837 18838 18839 18840 18841 18842 18843 18844 18845 18846 18847 18848 18849 18850 18851 18852 18853 18854 18855 18856 18857 18858 18859 18860 18861 18862 18863 18864 18865 18866 18867 18868 18869 18870 18871 18872 18873 18874 18875 18876 18877 18878 18879 18880 18881 18882 18883 18884 18885 18886 18887 18888 18889 18890 18891 18892 18893 18894 18895 18896 18897 18898 18899 18900 18901 18902 18903 18904 18905 18906 18907 18908 18909 18910 18911 18912 18913 18914 18915 18916 18917 18918 18919 18920 18921 18922 18923 18924 18925 18926 18927 18928 18929 18930 18931 18932 18933 18934 18935 18936 18937 18938 18939 18940 18941 18942 18943 18944 18945 18946 18947 18948 18949 18950 18951 18952 18953 18954 18955 18956 18957 18958 18959 18960 18961 18962 18963 18964 18965 18966 18967 18968 18969 18970 18971 18972 18973 18974 18975 18976 18977 18978 18979 18980 18981 18982 18983 18984 18985 18986 18987 18988 18989 18990 18991 18992 18993 18994 18995 18996 18997 18998 18999 19000 19001 19002 19003 19004 19005 19006 19007 19008 19009 19010 19011 19012 19013 19014 19015 19016 19017 19018 19019 19020 19021 19022 19023 19024 19025 19026 19027 19028 19029 19030 19031 19032 19033 19034 19035 19036 19037 19038 19039 19040 19041 19042 19043 19044 19045 19046 19047 19048 19049 19050 19051 19052 19053 19054 19055 19056 19057 19058 19059 19060 19061 19062 19063 19064 19065 19066 19067 19068 19069 19070 19071 19072 19073 19074 19075 19076 19077 19078 19079 19080 19081 19082 19083 19084 19085 19086 19087 19088 19089 19090 19091 19092 19093 19094 19095 19096 19097 19098 19099 19100 19101 19102 19103 19104 19105 19106 19107 19108 19109 19110 19111 19112 19113 19114 19115 19116 19117 19118 19119 19120 19121 19122 19123 19124 19125 19126 19127 19128 19129 19130 19131 19132 19133 19134 19135 19136 19137 19138 19139 19140 19141 19142 19143 19144 19145 19146 19147 19148 19149 19150 19151 19152 19153 19154 19155 19156 19157 19158 19159 19160 19161 19162 19163 19164 19165 19166 19167 19168 19169 19170 19171 19172 19173 19174 19175 19176 19177 19178 19179 19180 19181 19182 19183 19184 19185 19186 19187 19188 19189 19190 19191 19192 19193 19194 19195 19196 19197 19198 19199 19200 19201 19202 19203 19204 19205 19206 19207 19208 19209 19210 19211 19212 19213 19214 19215 19216 19217 19218 19219 19220 19221 19222 19223 19224 19225 19226 19227 19228 19229 19230 19231 19232 19233 19234 19235 19236 19237 19238 19239 19240 19241 19242 19243 19244 19245 19246 19247 19248 19249 19250 19251 19252 19253 19254 19255 19256 19257 19258 19259 19260 19261 19262 19263 19264 19265 19266 19267 19268 19269 19270 19271 19272 19273 19274 19275 19276 19277 19278 19279 19280 19281 19282 19283 19284 19285 19286 19287 19288 19289 19290 19291 19292 19293 19294 19295 19296 19297 19298 19299 19300 19301 19302 19303 19304 19305 19306 19307 19308 19309 19310 19311 19312 19313 19314 19315 19316 19317 19318 19319 19320 19321 19322 19323 19324 19325 19326 19327 19328 19329 19330 19331 19332 19333 19334 19335 19336 19337 19338 19339 19340 19341 19342 19343 19344 19345 19346 19347 19348 19349 19350 19351 19352 19353 19354 19355 19356 19357 19358 19359 19360 19361 19362 19363 19364 19365 19366 19367 19368 19369 19370 19371 19372 19373 19374 19375 19376 19377 19378 19379 19380 19381 19382 19383 19384 19385 19386 19387 19388 19389 19390 19391 19392 19393 19394 19395 19396 19397 19398 19399 19400 19401 19402 19403 19404 19405 19406 19407 19408 19409 19410 19411 19412 19413 19414 19415 19416 19417 19418 19419 19420 19421 19422 19423 19424 19425 19426 19427 19428 19429 19430 19431 19432 19433 19434 19435 19436 19437 19438 19439 19440 19441 19442 19443 19444 19445 19446 19447 19448 19449 19450 19451 19452 19453 19454 19455 19456 19457 19458 19459 19460 19461 19462 19463 19464 19465 19466 19467 19468 19469 19470 19471 19472 19473 19474 19475 19476 19477 19478 19479 19480 19481 19482 19483 19484 19485 19486 19487 19488 19489 19490 19491 19492 19493 19494 19495 19496 19497 19498 19499 19500 19501 19502 19503 19504 19505 19506 19507 19508 19509 19510 19511 19512 19513 19514 19515 19516 19517 19518 19519 19520 19521 19522 19523 19524 19525 19526 19527 19528 19529 19530 19531 19532 19533 19534 19535 19536 19537 19538 19539 19540 19541 19542 19543 19544 19545 19546 19547 19548 19549 19550 19551 19552 19553 19554 19555 19556 19557 19558 19559 19560 19561 19562 19563 19564 19565 19566 19567 19568 19569 19570 19571 19572 19573 19574 19575 19576 19577 19578 19579 19580 19581 19582 19583 19584 19585 19586 19587 19588 19589 19590 19591 19592 19593 19594 19595 19596 19597 19598 19599 19600 19601 19602 19603 19604 19605 19606 19607 19608 19609 19610 19611 19612 19613 19614 19615 19616 19617 19618 19619 19620 19621 19622 19623 19624 19625 19626 19627 19628 19629 19630 19631 19632 19633 19634 19635 19636 19637 19638 19639 19640 19641 19642 19643 19644 19645 19646 19647 19648 19649 19650 19651 19652 19653 19654 19655 19656 19657 19658 19659 19660 19661 19662 19663 19664 19665 19666 19667 19668 19669 19670 19671 19672 19673 19674 19675 19676 19677 19678 19679 19680 19681 19682 19683 19684 19685 19686 19687 19688 19689 19690 19691 19692 19693 19694 19695 19696 19697 19698 19699 19700 19701 19702 19703 19704 19705 19706 19707 19708 19709 19710 19711 19712 19713 19714 19715 19716 19717 19718 19719 19720 19721 19722 19723 19724 19725 19726 19727 19728 19729 19730 19731 19732 19733 19734 19735 19736 19737 19738 19739 19740 19741 19742 19743 19744 19745 19746 19747 19748 19749 19750 19751 19752 19753 19754 19755 19756 19757 19758 19759 19760 19761 19762 19763 19764 19765 19766 19767 19768 19769 19770 19771 19772 19773 19774 19775 19776 19777 19778 19779 19780 19781 19782 19783 19784 19785 19786 19787 19788 19789 19790 19791 19792 19793 19794 19795 19796 19797 19798 19799 19800 19801 19802 19803 19804 19805 19806 19807 19808 19809 19810 19811 19812 19813 19814 19815 19816 19817 19818 19819 19820 19821 19822 19823 19824 19825 19826 19827 19828 19829 19830 19831 19832 19833 19834 19835 19836 19837 19838 19839 19840 19841 19842 19843 19844 19845 19846 19847 19848 19849 19850 19851 19852 19853 19854 19855 19856 19857 19858 19859 19860 19861 19862 19863 19864 19865 19866 19867 19868 19869 19870 19871 19872 19873 19874 19875 19876 19877 19878 19879 19880 19881 19882 19883 19884 19885 19886 19887 19888 19889 19890 19891 19892 19893 19894 19895 19896 19897 19898 19899 19900 19901 19902 19903 19904 19905 19906 19907 19908 19909 19910 19911 19912 19913 19914 19915 19916 19917 19918 19919 19920 19921 19922 19923 19924 19925 19926 19927 19928 19929 19930 19931 19932 19933 19934 19935 19936 19937 19938 19939 19940 19941 19942 19943 19944 19945 19946 19947 19948 19949 19950 19951 19952 19953 19954 19955 19956 19957 19958 19959 19960 19961 19962 19963 19964 19965 19966 19967 19968 19969 19970 19971 19972 19973 19974 19975 19976 19977 19978 19979 19980 19981 19982 19983 19984 19985 19986 19987 19988 19989 19990 19991 19992 19993 19994 19995 19996 19997 19998 19999 20000 20001 20002 20003 20004 20005 20006 20007 20008 20009 20010 20011 20012 20013 20014 20015 20016 20017 20018 20019 20020 20021 20022 20023 20024 20025 20026 20027 20028 20029 20030 20031 20032 20033 20034 20035 20036 20037 20038 20039 20040 20041 20042 20043 20044 20045 20046 20047 20048 20049 20050 20051 20052 20053 20054 20055 20056 20057 20058 20059 20060 20061 20062 20063 20064 20065 20066 20067 20068 20069 20070 20071 20072 20073 20074 20075 20076 20077 20078 20079 20080 20081 20082 20083 20084 20085 20086 20087 20088 20089 20090 20091 20092 20093 20094 20095 20096 20097 20098 20099 20100 20101 20102 20103 20104 20105 20106 20107 20108 20109 20110 20111 20112 20113 20114 20115 20116 20117 20118 20119 20120 20121 20122 20123 20124 20125 20126 20127 20128 20129 20130 20131 20132 20133 20134 20135 20136 20137 20138 20139 20140 20141 20142 20143 20144 20145 20146 20147 20148 20149 20150 20151 20152 20153 20154 20155 20156 20157 20158 20159 20160 20161 20162 20163 20164 20165 20166 20167 20168 20169 20170 20171 20172 20173 20174 20175 20176 20177 20178 20179 20180 20181 20182 20183 20184 20185 20186 20187 20188 20189 20190 20191 20192 20193 20194 20195 20196 20197 20198 20199 20200 20201 20202 20203 20204 20205 20206 20207 20208 20209 20210 20211 20212 20213 20214 20215 20216 20217 20218 20219 20220 20221 20222 20223 20224 20225 20226 20227 20228 20229 20230 20231 20232 20233 20234 20235 20236 20237 20238 20239 20240 20241 20242 20243 20244 20245 20246 20247 20248 20249 20250 20251 20252 20253 20254 20255 20256 20257 20258 20259 20260 20261 20262 20263 20264 20265 20266 20267 20268 20269 20270 20271 20272 20273 20274 20275 20276 20277 20278 20279 20280 20281 20282 20283 20284 20285 20286 20287 20288 20289 20290 20291 20292 20293 20294 20295 20296 20297 20298 20299 20300 20301 20302 20303 20304 20305 20306 20307 20308 20309 20310 20311 20312 20313 20314 20315 20316 20317 20318 20319 20320 20321 20322 20323 20324 20325 20326 20327 20328 20329 20330 20331 20332 20333 20334 20335 20336 20337 20338 20339 20340 20341 20342 20343 20344 20345 20346 20347 20348 20349 20350 20351 20352 20353 20354 20355 20356 20357 20358 20359 20360 20361 20362 20363 20364 20365 20366 20367 20368 20369 20370 20371 20372 20373 20374 20375 20376 20377 20378 20379 20380 20381 20382 20383 20384 20385 20386 20387 20388 20389 20390 20391 20392 20393 20394 20395 20396 20397 20398 20399 20400 20401 20402 20403 20404 20405 20406 20407 20408 20409 20410 20411 20412 20413 20414 20415 20416 20417 20418 20419 20420 20421 20422 20423 20424 20425 20426 20427 20428 20429 20430 20431 20432 20433 20434 20435 20436 20437 20438 20439 20440 20441 20442 20443 20444 20445 20446 20447 20448 20449 20450 20451 20452 20453 20454 20455 20456 20457 20458 20459 20460 20461 20462 20463 20464 20465 20466 20467 20468 20469 20470 20471 20472 20473 20474 20475 20476 20477 20478 20479 20480 20481 20482 20483 20484 20485 20486 20487 20488 20489 20490 20491 20492 20493 20494 20495 20496 20497 20498 20499 20500 20501 20502 20503 20504 20505 20506 20507 20508 20509 20510 20511 20512 20513 20514 20515 20516 20517 20518 20519 20520 20521 20522 20523 20524 20525 20526 20527 20528 20529 20530 20531 20532 20533 20534 20535 20536 20537 20538 20539 20540 20541 20542 20543 20544 20545 20546 20547 20548 20549 20550 20551 20552 20553 20554 20555 20556 20557 20558 20559 20560 20561 20562 20563 20564 20565 20566 20567 20568 20569 20570 20571 20572 20573 20574 20575 20576 20577 20578 20579 20580 20581 20582 20583 20584 20585 20586 20587 20588 20589 20590 20591 20592 20593 20594 20595 20596 20597 20598 20599 20600 20601 20602 20603 20604 20605 20606 20607 20608 20609 20610 20611 20612 20613 20614 20615 20616 20617 20618 20619 20620 20621 20622 20623 20624 20625 20626 20627 20628 20629 20630 20631 20632 20633 20634 20635 20636 20637 20638 20639 20640 20641 20642 20643 20644 20645 20646 20647 20648 20649 20650 20651 20652 20653 20654 20655 20656 20657 20658 20659 20660 20661 20662 20663 20664 20665 20666 20667 20668 20669 20670 20671 20672 20673 20674 20675 20676 20677 20678 20679 20680 20681 20682 20683 20684 20685 20686 20687 20688 20689 20690 20691 20692 20693 20694 20695 20696 20697 20698 20699 20700 20701 20702 20703 20704 20705 20706 20707 20708 20709 20710 20711 20712 20713 20714 20715 20716 20717 20718 20719 20720 20721 20722 20723 20724 20725 20726 20727 20728 20729 20730 20731 20732 20733 20734 20735 20736 20737 20738 20739 20740 20741 20742 20743 20744 20745 20746 20747 20748 20749 20750 20751 20752 20753 20754 20755 20756 20757 20758 20759 20760 20761 20762 20763 20764 20765 20766 20767 20768 20769 20770 20771 20772 20773 20774 20775 20776 20777 20778 20779 20780 20781 20782 20783 20784 20785 20786 20787 20788 20789 20790 20791 20792 20793 20794 20795 20796 20797 20798 20799 20800 20801 20802 20803 20804 20805 20806 20807 20808 20809 20810 20811 20812 20813 20814 20815 20816 20817 20818 20819 20820 20821 20822 20823 20824 20825 20826 20827 20828 20829 20830 20831 20832 20833 20834 20835 20836 20837 20838 20839 20840 20841 20842 20843 20844 20845 20846 20847 20848 20849 20850 20851 20852 20853 20854 20855 20856 20857 20858 20859 20860 20861 20862 20863 20864 20865 20866 20867 20868 20869 20870 20871 20872 20873 20874 20875 20876 20877 20878 20879 20880 20881 20882 20883 20884 20885 20886 20887 20888 20889 20890 20891 20892 20893 20894 20895 20896 20897 20898 20899 20900 20901 20902 20903 20904 20905 20906 20907 20908 20909 20910 20911 20912 20913 20914 20915 20916 20917 20918 20919 20920 20921 20922 20923 20924 20925 20926 20927 20928 20929 20930 20931 20932 20933 20934 20935 20936 20937 20938 20939 20940 20941 20942 20943 20944 20945 20946 20947 20948 20949 20950 20951 20952 20953 20954 20955 20956 20957 20958 20959 20960 20961 20962 20963 20964 20965 20966 20967 20968 20969 20970 20971 20972 20973 20974 20975 20976 20977 20978 20979 20980 20981 20982 20983 20984 20985 20986 20987 20988 20989 20990 20991 20992 20993 20994 20995 20996 20997 20998 20999 21000 21001 21002 21003 21004 21005 21006 21007 21008 21009 21010 21011 21012 21013 21014 21015 21016 21017 21018 21019 21020 21021 21022 21023 21024 21025 21026 21027 21028 21029 21030 21031 21032 21033 21034 21035 21036 21037 21038 21039 21040 21041 21042 21043 21044 21045 21046 21047 21048 21049 21050 21051 21052 21053 21054 21055 21056 21057 21058 21059 21060 21061 21062 21063 21064 21065 21066 21067 21068 21069 21070 21071 21072 21073 21074 21075 21076 21077 21078 21079 21080 21081 21082 21083 21084 21085 21086 21087 21088 21089 21090 21091 21092 21093 21094 21095 21096 21097 21098 21099 21100 21101 21102 21103 21104 21105 21106 21107 21108 21109 21110 21111 21112 21113 21114 21115 21116 21117 21118 21119 21120 21121 21122 21123 21124 21125 21126 21127 21128 21129 21130 21131 21132 21133 21134 21135 21136 21137 21138 21139 21140 21141 21142 21143 21144 21145 21146 21147 21148 21149 21150 21151 21152 21153 21154 21155 21156 21157 21158 21159 21160 21161 21162 21163 21164 21165 21166 21167 21168 21169 21170 21171 21172 21173 21174 21175 21176 21177 21178 21179 21180 21181 21182 21183 21184 21185 21186 21187 21188 21189 21190 21191 21192 21193 21194 21195 21196 21197 21198 21199 21200 21201 21202 21203 21204 21205 21206 21207 21208 21209 21210 21211 21212 21213 21214 21215 21216 21217 21218 21219 21220 21221 21222 21223 21224 21225 21226 21227 21228 21229 21230 21231 21232 21233 21234 21235 21236 21237 21238 21239 21240 21241 21242 21243 21244 21245 21246 21247 21248 21249 21250 21251 21252 21253 21254 21255 21256 21257 21258 21259 21260 21261 21262 21263 21264 21265 21266 21267 21268 21269 21270 21271 21272 21273 21274 21275 21276 21277 21278 21279 21280 21281 21282 21283 21284 21285 21286 21287 21288 21289 21290 21291 21292 21293 21294 21295 21296 21297 21298 21299 21300 21301 21302 21303 21304 21305 21306 21307 21308 21309 21310 21311 21312 21313 21314 21315 21316 21317 21318 21319 21320 21321 21322 21323 21324 21325 21326 21327 21328 21329 21330 21331 21332 21333 21334 21335 21336 21337 21338 21339 21340 21341 21342 21343 21344 21345 21346 21347 21348 21349 21350 21351 21352 21353 21354 21355 21356 21357 21358 21359 21360 21361 21362 21363 21364 21365 21366 21367 21368 21369 21370 21371 21372 21373 21374 21375 21376 21377 21378 21379 21380 21381 21382 21383 21384 21385 21386 21387 21388 21389 21390 21391 21392 21393 21394 21395 21396 21397 21398 21399 21400 21401 21402 21403 21404 21405 21406 21407 21408 21409 21410 21411 21412 21413 21414 21415 21416 21417 21418 21419 21420 21421 21422 21423 21424 21425 21426 21427 21428 21429 21430 21431 21432 21433 21434 21435 21436 21437 21438 21439 21440 21441 21442 21443 21444 21445 21446 21447 21448 21449 21450 21451 21452 21453 21454 21455 21456 21457 21458 21459 21460 21461 21462 21463 21464 21465 21466 21467 21468 21469 21470 21471 21472 21473 21474 21475 21476 21477 21478 21479 21480 21481 21482 21483 21484 21485 21486 21487 21488 21489 21490 21491 21492 21493 21494 21495 21496 21497 21498 21499 21500 21501 21502 21503 21504 21505 21506 21507 21508 21509 21510 21511 21512 21513 21514 21515 21516 21517 21518 21519 21520 21521 21522 21523 21524 21525 21526 21527 21528 21529 21530 21531 21532 21533 21534 21535 21536 21537 21538 21539 21540 21541 21542 21543 21544 21545 21546 21547 21548 21549 21550 21551 21552 21553 21554 21555 21556 21557 21558 21559 21560 21561 21562 21563 21564 21565 21566 21567 21568 21569 21570 21571 21572 21573 21574 21575 21576 21577 21578 21579 21580 21581 21582 21583 21584 21585 21586 21587 21588 21589 21590 21591 21592 21593 21594 21595 21596 21597 21598 21599 21600 21601 21602 21603 21604 21605 21606 21607 21608 21609 21610 21611 21612 21613 21614 21615 21616 21617 21618 21619 21620 21621 21622 21623 21624 21625 21626 21627 21628 21629 21630 21631 21632 21633 21634 21635 21636 21637 21638 21639 21640 21641 21642 21643 21644 21645 21646 21647 21648 21649 21650 21651 21652 21653 21654 21655 21656 21657 21658 21659 21660 21661 21662 21663 21664 21665 21666 21667 21668 21669 21670 21671 21672 21673 21674 21675 21676 21677 21678 21679 21680 21681 21682 21683 21684 21685 21686 21687 21688 21689 21690 21691 21692 21693 21694 21695 21696 21697 21698 21699 21700 21701 21702 21703 21704 21705 21706 21707 21708 21709 21710 21711 21712 21713 21714 21715 21716 21717 21718 21719 21720 21721 21722 21723 21724 21725 21726 21727 21728 21729 21730 21731 21732 21733 21734 21735 21736 21737 21738 21739 21740 21741 21742 21743 21744 21745 21746 21747 21748 21749 21750 21751 21752 21753 21754 21755 21756 21757 21758 21759 21760 21761 21762 21763 21764 21765 21766 21767 21768 21769 21770 21771 21772 21773 21774 21775 21776 21777 21778 21779 21780 21781 21782 21783 21784 21785 21786 21787 21788 21789 21790 21791 21792 21793 21794 21795 21796 21797 21798 21799 21800 21801 21802 21803 21804 21805 21806 21807 21808 21809 21810 21811 21812 21813 21814 21815 21816 21817 21818 21819 21820 21821 21822 21823 21824 21825 21826 21827 21828 21829 21830 21831 21832 21833 21834 21835 21836 21837 21838 21839 21840 21841 21842 21843 21844 21845 21846 21847 21848 21849 21850 21851 21852 21853 21854 21855 21856 21857 21858 21859 21860 21861 21862 21863 21864 21865 21866 21867 21868 21869 21870 21871 21872 21873 21874 21875 21876 21877 21878 21879 21880 21881 21882 21883 21884 21885 21886 21887 21888 21889 21890 21891 21892 21893 21894 21895 21896 21897 21898 21899 21900 21901 21902 21903 21904 21905 21906 21907 21908 21909 21910 21911 21912 21913 21914 21915 21916 21917 21918 21919 21920 21921 21922 21923 21924 21925 21926 21927 21928 21929 21930 21931 21932 21933 21934 21935 21936 21937 21938 21939 21940 21941 21942 21943 21944 21945 21946 21947 21948 21949 21950 21951 21952 21953 21954 21955 21956 21957 21958 21959 21960 21961 21962 21963 21964 21965 21966 21967 21968 21969 21970 21971 21972 21973 21974 21975 21976 21977 21978 21979 21980 21981 21982 21983 21984 21985 21986 21987 21988 21989 21990 21991 21992 21993 21994 21995 21996 21997 21998 21999 22000 22001 22002 22003 22004 22005 22006 22007 22008 22009 22010 22011 22012 22013 22014 22015 22016 22017 22018 22019 22020 22021 22022 22023 22024 22025 22026 22027 22028 22029 22030 22031 22032 22033 22034 22035 22036 22037 22038 22039 22040 22041 22042 22043 22044 22045 22046 22047 22048 22049 22050 22051 22052 22053 22054 22055 22056 22057 22058 22059 22060 22061 22062 22063 22064 22065 22066 22067 22068 22069 22070 22071 22072 22073 22074 22075 22076 22077 22078 22079 22080 22081 22082 22083 22084 22085 22086 22087 22088 22089 22090 22091 22092 22093 22094 22095 22096 22097 22098 22099 22100 22101 22102 22103 22104 22105 22106 22107 22108 22109 22110 22111 22112 22113 22114 22115 22116 22117 22118 22119 22120 22121 22122 22123 22124 22125 22126 22127 22128 22129 22130 22131 22132 22133 22134 22135 22136 22137 22138 22139 22140 22141 22142 22143 22144 22145 22146 22147 22148 22149 22150 22151 22152 22153 22154 22155 22156 22157 22158 22159 22160 22161 22162 22163 22164 22165 22166 22167 22168 22169 22170 22171 22172 22173 22174 22175 22176 22177 22178 22179 22180 22181 22182 22183 22184 22185 22186 22187 22188 22189 22190 22191 22192 22193 22194 22195 22196 22197 22198 22199 22200 22201 22202 22203 22204 22205 22206 22207 22208 22209 22210 22211 22212 22213 22214 22215 22216 22217 22218 22219 22220 22221 22222 22223 22224 22225 22226 22227 22228 22229 22230 22231 22232 22233 22234 22235 22236 22237 22238 22239 22240 22241 22242 22243 22244 22245 22246 22247 22248 22249 22250 22251 22252 22253 22254 22255 22256 22257 22258 22259 22260 22261 22262 22263 22264 22265 22266 22267 22268 22269 22270 22271 22272 22273 22274 22275 22276 22277 22278 22279 22280 22281 22282 22283 22284 22285 22286 22287 22288 22289 22290 22291 22292 22293 22294 22295 22296 22297 22298 22299 22300 22301 22302 22303 22304 22305 22306 22307 22308 22309 22310 22311 22312 22313 22314 22315 22316 22317 22318 22319 22320 22321 22322 22323 22324 22325 22326 22327 22328 22329 22330 22331 22332 22333 22334 22335 22336 22337 22338 22339 22340 22341 22342 22343 22344 22345 22346 22347 22348 22349 22350 22351 22352 22353 22354 22355 22356 22357 22358 22359 22360 22361 22362 22363 22364 22365 22366 22367 22368 22369 22370 22371 22372 22373 22374 22375 22376 22377 22378 22379 22380 22381 22382 22383 22384 22385 22386 22387 22388 22389 22390 22391 22392 22393 22394 22395 22396 22397 22398 22399 22400 22401 22402 22403 22404 22405 22406 22407 22408 22409 22410 22411 22412 22413 22414 22415 22416 22417 22418 22419 22420 22421 22422 22423 22424 22425 22426 22427 22428 22429 22430 22431 22432 22433 22434 22435 22436 22437 22438 22439 22440 22441 22442 22443 22444 22445 22446 22447 22448 22449 22450 22451 22452 22453 22454 22455 22456 22457 22458 22459 22460 22461 22462 22463 22464 22465 22466 22467 22468 22469 22470 22471 22472 22473 22474 22475 22476 22477 22478 22479 22480 22481 22482 22483 22484 22485 22486 22487 22488 22489 22490 22491 22492 22493 22494 22495 22496 22497 22498 22499 22500 22501 22502 22503 22504 22505 22506 22507 22508 22509 22510 22511 22512 22513 22514 22515 22516 22517 22518 22519 22520 22521 22522 22523 22524 22525 22526 22527 22528 22529 22530 22531 22532 22533 22534 22535 22536 22537 22538 22539 22540 22541 22542 22543 22544 22545 22546 22547 22548 22549 22550 22551 22552 22553 22554 22555 22556 22557 22558 22559 22560 22561 22562 22563 22564 22565 22566 22567 22568 22569 22570 22571 22572 22573 22574 22575 22576 22577 22578 22579 22580 22581 22582 22583 22584 22585 22586 22587 22588 22589 22590 22591 22592 22593 22594 22595 22596 22597 22598 22599 22600 22601 22602 22603 22604 22605 22606 22607 22608 22609 22610 22611 22612 22613 22614 22615 22616 22617 22618 22619 22620 22621 22622 22623 22624 22625 22626 22627 22628 22629 22630 22631 22632 22633 22634 22635 22636 22637 22638 22639 22640 22641 22642 22643 22644 22645 22646 22647 22648 22649 22650 22651 22652 22653 22654 22655 22656 22657 22658 22659 22660 22661 22662 22663 22664 22665 22666 22667 22668 22669 22670 22671 22672 22673 22674 22675 22676 22677 22678 22679 22680 22681 22682 22683 22684 22685 22686 22687 22688 22689 22690 22691 22692 22693 22694 22695 22696 22697 22698 22699 22700 22701 22702 22703 22704 22705 22706 22707 22708 22709 22710 22711 22712 22713 22714 22715 22716 22717 22718 22719 22720 22721 22722 22723 22724 22725 22726 22727 22728 22729 22730 22731 22732 22733 22734 22735 22736 22737 22738 22739 22740 22741 22742 22743 22744 22745 22746 22747 22748 22749 22750 22751 22752 22753 22754 22755 22756 22757 22758 22759 22760 22761 22762 22763 22764 22765 22766 22767 22768 22769 22770 22771 22772 22773 22774 22775 22776 22777 22778 22779 22780 22781 22782 22783 22784 22785 22786 22787 22788 22789 22790 22791 22792 22793 22794 22795 22796 22797 22798 22799 22800 22801 22802 22803 22804 22805 22806 22807 22808 22809 22810 22811 22812 22813 22814 22815 22816 22817 22818 22819 22820 22821 22822 22823 22824 22825 22826 22827 22828 22829 22830 22831 22832 22833 22834 22835 22836 22837 22838 22839 22840 22841 22842 22843 22844 22845 22846 22847 22848 22849 22850 22851 22852 22853 22854 22855 22856 22857 22858 22859 22860 22861 22862 22863 22864 22865 22866 22867 22868 22869 22870 22871 22872 22873 22874 22875 22876 22877 22878 22879 22880 22881 22882 22883 22884 22885 22886 22887 22888 22889 22890 22891 22892 22893 22894 22895 22896 22897 22898 22899 22900 22901 22902 22903 22904 22905 22906 22907 22908 22909 22910 22911 22912 22913 22914 22915 22916 22917 22918 22919 22920 22921 22922 22923 22924 22925 22926 22927 22928 22929 22930 22931 22932 22933 22934 22935 22936 22937 22938 22939 22940 22941 22942 22943 22944 22945 22946 22947 22948 22949 22950 22951 22952 22953 22954 22955 22956 22957 22958 22959 22960 22961 22962 22963 22964 22965 22966 22967 22968 22969 22970 22971 22972 22973 22974 22975 22976 22977 22978 22979 22980 22981 22982 22983 22984 22985 22986 22987 22988 22989 22990 22991 22992 22993 22994 22995 22996 22997 22998 22999 23000 23001 23002 23003 23004 23005 23006 23007 23008 23009 23010 23011 23012 23013 23014 23015 23016 23017 23018 23019 23020 23021 23022 23023 23024 23025 23026 23027 23028 23029 23030 23031 23032 23033 23034 23035 23036 23037 23038 23039 23040 23041 23042 23043 23044 23045 23046 23047 23048 23049 23050 23051 23052 23053 23054 23055 23056 23057 23058 23059 23060 23061 23062 23063 23064 23065 23066 23067 23068 23069 23070 23071 23072 23073 23074 23075 23076 23077 23078 23079 23080 23081 23082 23083 23084 23085 23086 23087 23088 23089 23090 23091 23092 23093 23094 23095 23096 23097 23098 23099 23100 23101 23102 23103 23104 23105 23106 23107 23108 23109 23110 23111 23112 23113 23114 23115 23116 23117 23118 23119 23120 23121 23122 23123 23124 23125 23126 23127 23128 23129 23130 23131 23132 23133 23134 23135 23136 23137 23138 23139 23140 23141 23142 23143 23144 23145 23146 23147 23148 23149 23150 23151 23152 23153 23154 23155 23156 23157 23158 23159 23160 23161 23162 23163 23164 23165 23166 23167 23168 23169 23170 23171 23172 23173 23174 23175 23176 23177 23178 23179 23180 23181 23182 23183 23184 23185 23186 23187 23188 23189 23190 23191 23192 23193 23194 23195 23196 23197 23198 23199 23200 23201 23202 23203 23204 23205 23206 23207 23208 23209 23210 23211 23212 23213 23214 23215 23216 23217 23218 23219 23220 23221 23222 23223 23224 23225 23226 23227 23228 23229 23230 23231 23232 23233 23234 23235 23236 23237 23238 23239 23240 23241 23242 23243 23244 23245 23246 23247 23248 23249 23250 23251 23252 23253 23254 23255 23256 23257 23258 23259 23260 23261 23262 23263 23264 23265 23266 23267 23268 23269 23270 23271 23272 23273 23274 23275 23276 23277 23278 23279 23280 23281 23282 23283 23284 23285 23286 23287 23288 23289 23290 23291 23292 23293 23294 23295 23296 23297 23298 23299 23300 23301 23302 23303 23304 23305 23306 23307 23308 23309 23310 23311 23312 23313 23314 23315 23316 23317 23318 23319 23320 23321 23322 23323 23324 23325 23326 23327 23328 23329 23330 23331 23332 23333 23334 23335 23336 23337 23338 23339 23340 23341 23342 23343 23344 23345 23346 23347 23348 23349 23350 23351 23352 23353 23354 23355 23356 23357 23358 23359 23360 23361 23362 23363 23364 23365 23366 23367 23368 23369 23370 23371 23372 23373 23374 23375 23376 23377 23378 23379 23380 23381 23382 23383 23384 23385 23386 23387 23388 23389 23390 23391 23392 23393 23394 23395 23396 23397 23398 23399 23400 23401 23402 23403 23404 23405 23406 23407 23408 23409 23410 23411 23412 23413 23414 23415 23416 23417 23418 23419 23420 23421 23422 23423 23424 23425 23426 23427 23428 23429 23430 23431 23432 23433 23434 23435 23436 23437 23438 23439 23440 23441 23442 23443 23444 23445 23446 23447 23448 23449 23450 23451 23452 23453 23454 23455 23456 23457 23458 23459 23460 23461 23462 23463 23464 23465 23466 23467 23468 23469 23470 23471 23472 23473 23474 23475 23476 23477 23478 23479 23480 23481 23482 23483 23484 23485 23486 23487 23488 23489 23490 23491 23492 23493 23494 23495 23496 23497 23498 23499 23500 23501 23502 23503 23504 23505 23506 23507 23508 23509 23510 23511 23512 23513 23514 23515 23516 23517 23518 23519 23520 23521 23522 23523 23524 23525 23526 23527 23528 23529 23530 23531 23532 23533 23534 23535 23536 23537 23538 23539 23540 23541 23542 23543 23544 23545 23546 23547 23548 23549 23550 23551 23552 23553 23554 23555 23556 23557 23558 23559 23560 23561 23562 23563 23564 23565 23566 23567 23568 23569 23570 23571 23572 23573 23574 23575 23576 23577 23578 23579 23580 23581 23582 23583 23584 23585 23586 23587 23588 23589 23590 23591 23592 23593 23594 23595 23596 23597 23598 23599 23600 23601 23602 23603 23604 23605 23606 23607 23608 23609 23610 23611 23612 23613 23614 23615 23616 23617 23618 23619 23620 23621 23622 23623 23624 23625 23626 23627 23628 23629 23630 23631 23632 23633 23634 23635 23636 23637 23638 23639 23640 23641 23642 23643 23644 23645 23646 23647 23648 23649 23650 23651 23652 23653 23654 23655 23656 23657 23658 23659 23660 23661 23662 23663 23664 23665 23666 23667 23668 23669 23670 23671 23672 23673 23674 23675 23676 23677 23678 23679 23680 23681 23682 23683 23684 23685 23686 23687 23688 23689 23690 23691 23692 23693 23694 23695 23696 23697 23698 23699 23700 23701 23702 23703 23704 23705 23706 23707 23708 23709 23710 23711 23712 23713 23714 23715 23716 23717 23718 23719 23720 23721 23722 23723 23724 23725 23726 23727 23728 23729 23730 23731 23732 23733 23734 23735 23736 23737 23738 23739 23740 23741 23742 23743 23744 23745 23746 23747 23748 23749 23750 23751 23752 23753 23754 23755 23756 23757 23758 23759 23760 23761 23762 23763 23764 23765 23766 23767 23768 23769 23770 23771 23772 23773 23774 23775 23776 23777 23778 23779 23780 23781 23782 23783 23784 23785 23786 23787 23788 23789 23790 23791 23792 23793 23794 23795 23796 23797 23798 23799 23800 23801 23802 23803 23804 23805 23806 23807 23808 23809 23810 23811 23812 23813 23814 23815 23816 23817 23818 23819 23820 23821 23822 23823 23824 23825 23826 23827 23828 23829 23830 23831 23832 23833 23834 23835 23836 23837 23838 23839 23840 23841 23842 23843 23844 23845 23846 23847 23848 23849 23850 23851 23852 23853 23854 23855 23856 23857 23858 23859 23860 23861 23862 23863 23864 23865 23866 23867 23868 23869 23870 23871 23872 23873 23874 23875 23876 23877 23878 23879 23880 23881 23882 23883 23884 23885 23886 23887 23888 23889 23890 23891 23892 23893 23894 23895 23896 23897 23898 23899 23900 23901 23902 23903 23904 23905 23906 23907 23908 23909 23910 23911 23912 23913 23914 23915 23916 23917 23918 23919 23920 23921 23922 23923 23924 23925 23926 23927 23928 23929 23930 23931 23932 23933 23934 23935 23936 23937 23938 23939 23940 23941 23942 23943 23944 23945 23946 23947 23948 23949 23950 23951 23952 23953 23954 23955 23956 23957 23958 23959 23960 23961 23962 23963 23964 23965 23966 23967 23968 23969 23970 23971 23972 23973 23974 23975 23976 23977 23978 23979 23980 23981 23982 23983 23984 23985 23986 23987 23988 23989 23990 23991 23992 23993 23994 23995 23996 23997 23998 23999 24000 24001 24002 24003 24004 24005 24006 24007 24008 24009 24010 24011 24012 24013 24014 24015 24016 24017 24018 24019 24020 24021 24022 24023 24024 24025 24026 24027 24028 24029 24030 24031 24032 24033 24034 24035 24036 24037 24038 24039 24040 24041 24042 24043 24044 24045 24046 24047 24048 24049 24050 24051 24052 24053 24054 24055 24056 24057 24058 24059 24060 24061 24062 24063 24064 24065 24066 24067 24068 24069 24070 24071 24072 24073 24074 24075 24076 24077 24078 24079 24080 24081 24082 24083 24084 24085 24086 24087 24088 24089 24090 24091 24092 24093 24094 24095 24096 24097 24098 24099 24100 24101 24102 24103 24104 24105 24106 24107 24108 24109 24110 24111 24112 24113 24114 24115 24116 24117 24118 24119 24120 24121 24122 24123 24124 24125 24126 24127 24128 24129 24130 24131 24132 24133 24134 24135 24136 24137 24138 24139 24140 24141 24142 24143 24144 24145 24146 24147 24148 24149 24150 24151 24152 24153 24154 24155 24156 24157 24158 24159 24160 24161 24162 24163 24164 24165 24166 24167 24168 24169 24170 24171 24172 24173 24174 24175 24176 24177 24178 24179 24180 24181 24182 24183 24184 24185 24186 24187 24188 24189 24190 24191 24192 24193 24194 24195 24196 24197 24198 24199 24200 24201 24202 24203 24204 24205 24206 24207 24208 24209 24210 24211 24212 24213 24214 24215 24216 24217 24218 24219 24220 24221 24222 24223 24224 24225 24226 24227 24228 24229 24230 24231 24232 24233 24234 24235 24236 24237 24238 24239 24240 24241 24242 24243 24244 24245 24246 24247 24248 24249 24250 24251 24252 24253 24254 24255 24256 24257 24258 24259 24260 24261 24262 24263 24264 24265 24266 24267 24268 24269 24270 24271 24272 24273 24274 24275 24276 24277 24278 24279 24280 24281 24282 24283 24284 24285 24286 24287 24288 24289 24290 24291 24292 24293 24294 24295 24296 24297 24298 24299 24300 24301 24302 24303 24304 24305 24306 24307 24308 24309 24310 24311 24312 24313 24314 24315 24316 24317 24318 24319 24320 24321 24322 24323 24324 24325 24326 24327 24328 24329 24330 24331 24332 24333 24334 24335 24336 24337 24338 24339 24340 24341 24342 24343 24344 24345 24346 24347 24348 24349 24350 24351 24352 24353 24354 24355 24356 24357 24358 24359 24360 24361 24362 24363 24364 24365 24366 24367 24368 24369 24370 24371 24372 24373 24374 24375 24376 24377 24378 24379 24380 24381 24382 24383 24384 24385 24386 24387 24388 24389 24390 24391 24392 24393 24394 24395 24396 24397 24398 24399 24400 24401 24402 24403 24404 24405 24406 24407 24408 24409 24410 24411 24412 24413 24414 24415 24416 24417 24418 24419 24420 24421 24422 24423 24424 24425 24426 24427 24428 24429 24430 24431 24432 24433 24434 24435 24436 24437 24438 24439 24440 24441 24442 24443 24444 24445 24446 24447 24448 24449 24450 24451 24452 24453 24454 24455 24456 24457 24458 24459 24460 24461 24462 24463 24464 24465 24466 24467 24468 24469 24470 24471 24472 24473 24474 24475 24476 24477 24478 24479 24480 24481 24482 24483 24484 24485 24486 24487 24488 24489 24490 24491 24492 24493 24494 24495 24496 24497 24498 24499 24500 24501 24502 24503 24504 24505 24506 24507 24508 24509 24510 24511 24512 24513 24514 24515 24516 24517 24518 24519 24520 24521 24522 24523 24524 24525 24526 24527 24528 24529 24530 24531 24532 24533 24534 24535 24536 24537 24538 24539 24540 24541 24542 24543 24544 24545 24546 24547 24548 24549 24550 24551 24552 24553 24554 24555 24556 24557 24558 24559 24560 24561 24562 24563 24564 24565 24566 24567 24568 24569 24570 24571 24572 24573 24574 24575 24576 24577 24578 24579 24580 24581 24582 24583 24584 24585 24586 24587 24588 24589 24590 24591 24592 24593 24594 24595 24596 24597 24598 24599 24600 24601 24602 24603 24604 24605 24606 24607 24608 24609 24610 24611 24612 24613 24614 24615 24616 24617 24618 24619 24620 24621 24622 24623 24624 24625 24626 24627 24628 24629 24630 24631 24632 24633 24634 24635 24636 24637 24638 24639 24640 24641 24642 24643 24644 24645 24646 24647 24648 24649 24650 24651 24652 24653 24654 24655 24656 24657 24658 24659 24660 24661 24662 24663 24664 24665 24666 24667 24668 24669 24670 24671 24672 24673 24674 24675 24676 24677 24678 24679 24680 24681 24682 24683 24684 24685 24686 24687 24688 24689 24690 24691 24692 24693 24694 24695 24696 24697 24698 24699 24700 24701 24702 24703 24704 24705 24706 24707 24708 24709 24710 24711 24712 24713 24714 24715 24716 24717 24718 24719 24720 24721 24722 24723 24724 24725 24726 24727 24728 24729 24730 24731 24732 24733 24734 24735 24736 24737 24738 24739 24740 24741 24742 24743 24744 24745 24746 24747 24748 24749 24750 24751 24752 24753 24754 24755 24756 24757 24758 24759 24760 24761 24762 24763 24764 24765 24766 24767 24768 24769 24770 24771 24772 24773 24774 24775 24776 24777 24778 24779 24780 24781 24782 24783 24784 24785 24786 24787 24788 24789 24790 24791 24792 24793 24794 24795 24796 24797 24798 24799 24800 24801 24802 24803 24804 24805 24806 24807 24808 24809 24810 24811 24812 24813 24814 24815 24816 24817 24818 24819 24820 24821 24822 24823 24824 24825 24826 24827 24828 24829 24830 24831 24832 24833 24834 24835 24836 24837 24838 24839 24840 24841 24842 24843 24844 24845 24846 24847 24848 24849 24850 24851 24852 24853 24854 24855 24856 24857 24858 24859 24860 24861 24862 24863 24864 24865 24866 24867 24868 24869 24870 24871 24872 24873 24874 24875 24876 24877 24878 24879 24880 24881 24882 24883 24884 24885 24886 24887 24888 24889 24890 24891 24892 24893 24894 24895 24896 24897 24898 24899 24900 24901 24902 24903 24904 24905 24906 24907 24908 24909 24910 24911 24912 24913 24914 24915 24916 24917 24918 24919 24920 24921 24922 24923 24924 24925 24926 24927 24928 24929 24930 24931 24932 24933 24934 24935 24936 24937 24938 24939 24940 24941 24942 24943 24944 24945 24946 24947 24948 24949 24950 24951 24952 24953 24954 24955 24956 24957 24958 24959 24960 24961 24962 24963 24964 24965 24966 24967 24968 24969 24970 24971 24972 24973 24974 24975 24976 24977 24978 24979 24980 24981 24982 24983 24984 24985 24986 24987 24988 24989 24990 24991 24992 24993 24994 24995 24996 24997 24998 24999 25000 25001 25002 25003 25004 25005 25006 25007 25008 25009 25010 25011 25012 25013 25014 25015 25016 25017 25018 25019 25020 25021 25022 25023 25024 25025 25026 25027 25028 25029 25030 25031 25032 25033 25034 25035 25036 25037 25038 25039 25040 25041 25042 25043 25044 25045 25046 25047 25048 25049 25050 25051 25052 25053 25054 25055 25056 25057 25058 25059 25060 25061 25062 25063 25064 25065 25066 25067 25068 25069 25070 25071 25072 25073 25074 25075 25076 25077 25078 25079 25080 25081 25082 25083 25084 25085 25086 25087 25088 25089 25090 25091 25092 25093 25094 25095 25096 25097 25098 25099 25100 25101 25102 25103 25104 25105 25106 25107 25108 25109 25110 25111 25112 25113 25114 25115 25116 25117 25118 25119 25120 25121 25122 25123 25124 25125 25126 25127 25128 25129 25130 25131 25132 25133 25134 25135 25136 25137 25138 25139 25140 25141 25142 25143 25144 25145 25146 25147 25148 25149 25150 25151 25152 25153 25154 25155 25156 25157 25158 25159 25160 25161 25162 25163 25164 25165 25166 25167 25168 25169 25170 25171 25172 25173 25174 25175 25176 25177 25178 25179 25180 25181 25182 25183 25184 25185 25186 25187 25188 25189 25190 25191 25192 25193 25194 25195 25196 25197 25198 25199 25200 25201 25202 25203 25204 25205 25206 25207 25208 25209 25210 25211 25212 25213 25214 25215 25216 25217 25218 25219 25220 25221 25222 25223 25224 25225 25226 25227 25228 25229 25230 25231 25232 25233 25234 25235 25236 25237 25238 25239 25240 25241 25242 25243 25244 25245 25246 25247 25248 25249 25250 25251 25252 25253 25254 25255 25256 25257 25258 25259 25260 25261 25262 25263 25264 25265 25266 25267 25268 25269 25270 25271 25272 25273 25274 25275 25276 25277 25278 25279 25280 25281 25282 25283 25284 25285 25286 25287 25288 25289 25290 25291 25292 25293 25294 25295 25296 25297 25298 25299 25300 25301 25302 25303 25304 25305 25306 25307 25308 25309 25310 25311 25312 25313 25314 25315 25316 25317 25318 25319 25320 25321 25322 25323 25324 25325 25326 25327 25328 25329 25330 25331 25332 25333 25334 25335 25336 25337 25338 25339 25340 25341 25342 25343 25344 25345 25346 25347 25348 25349 25350 25351 25352 25353 25354 25355 25356 25357 25358 25359 25360 25361 25362 25363 25364 25365 25366 25367 25368 25369 25370 25371 25372 25373 25374 25375 25376 25377 25378 25379 25380 25381 25382 25383 25384 25385 25386 25387 25388 25389 25390 25391 25392 25393 25394 25395 25396 25397 25398 25399 25400 25401 25402 25403 25404 25405 25406 25407 25408 25409 25410 25411 25412 25413 25414 25415 25416 25417 25418 25419 25420 25421 25422 25423 25424 25425 25426 25427 25428 25429 25430 25431 25432 25433 25434 25435 25436 25437 25438 25439 25440 25441 25442 25443 25444 25445 25446 25447 25448 25449 25450 25451 25452 25453 25454 25455 25456 25457 25458 25459 25460 25461 25462 25463 25464 25465 25466 25467 25468 25469 25470 25471 25472 25473 25474 25475 25476 25477 25478 25479 25480 25481 25482 25483 25484 25485 25486 25487 25488 25489 25490 25491 25492 25493 25494 25495 25496 25497 25498 25499 25500 25501 25502 25503 25504 25505 25506 25507 25508 25509 25510 25511 25512 25513 25514 25515 25516 25517 25518 25519 25520 25521 25522 25523 25524 25525 25526 25527 25528 25529 25530 25531 25532 25533 25534 25535 25536 25537 25538 25539 25540 25541 25542 25543 25544 25545 25546 25547 25548 25549 25550 25551 25552 25553 25554 25555 25556 25557 25558 25559 25560 25561 25562 25563 25564 25565 25566 25567 25568 25569 25570 25571 25572 25573 25574 25575 25576 25577 25578 25579 25580 25581 25582 25583 25584 25585 25586 25587 25588 25589 25590 25591 25592 25593 25594 25595 25596 25597 25598 25599 25600 25601 25602 25603 25604 25605 25606 25607 25608 25609 25610 25611 25612 25613 25614 25615 25616 25617 25618 25619 25620 25621 25622 25623 25624 25625 25626 25627 25628 25629 25630 25631 25632 25633 25634 25635 25636 25637 25638 25639 25640 25641 25642 25643 25644 25645 25646 25647 25648 25649 25650 25651 25652 25653 25654 25655 25656 25657 25658 25659 25660 25661 25662 25663 25664 25665 25666 25667 25668 25669 25670 25671 25672 25673 25674 25675 25676 25677 25678 25679 25680 25681 25682 25683 25684 25685 25686 25687 25688 25689 25690 25691 25692 25693 25694 25695 25696 25697 25698 25699 25700 25701 25702 25703 25704 25705 25706 25707 25708 25709 25710 25711 25712 25713 25714 25715 25716 25717 25718 25719 25720 25721 25722 25723 25724 25725 25726 25727 25728 25729 25730 25731 25732 25733 25734 25735 25736 25737 25738 25739 25740 25741 25742 25743 25744 25745 25746 25747 25748 25749 25750 25751 25752 25753 25754 25755 25756 25757 25758 25759 25760 25761 25762 25763 25764 25765 25766 25767 25768 25769 25770 25771 25772 25773 25774 25775 25776 25777 25778 25779 25780 25781 25782 25783 25784 25785 25786 25787 25788 25789 25790 25791 25792 25793 25794 25795 25796 25797 25798 25799 25800 25801 25802 25803 25804 25805 25806 25807 25808 25809 25810 25811 25812 25813 25814 25815 25816 25817 25818 25819 25820 25821 25822 25823 25824 25825 25826 25827 25828 25829 25830 25831 25832 25833 25834 25835 25836 25837 25838 25839 25840 25841 25842 25843 25844 25845 25846 25847 25848 25849 25850 25851 25852 25853 25854 25855 25856 25857 25858 25859 25860 25861 25862 25863 25864 25865 25866 25867 25868 25869 25870 25871 25872 25873 25874 25875 25876 25877 25878 25879 25880 25881 25882 25883 25884 25885 25886 25887 25888 25889 25890 25891 25892 25893 25894 25895 25896 25897 25898 25899 25900 25901 25902 25903 25904 25905 25906 25907 25908 25909 25910 25911 25912 25913 25914 25915 25916 25917 25918 25919 25920 25921 25922 25923 25924 25925 25926 25927 25928 25929 25930 25931 25932 25933 25934 25935 25936 25937 25938 25939 25940 25941 25942 25943 25944 25945 25946 25947 25948 25949 25950 25951 25952 25953 25954 25955 25956 25957 25958 25959 25960 25961 25962 25963 25964 25965 25966 25967 25968 25969 25970 25971 25972 25973 25974 25975 25976 25977 25978 25979 25980 25981 25982 25983 25984 25985 25986 25987 25988 25989 25990 25991 25992 25993 25994 25995 25996 25997 25998 25999 26000 26001 26002 26003 26004 26005 26006 26007 26008 26009 26010 26011 26012 26013 26014 26015 26016 26017 26018 26019 26020 26021 26022 26023 26024 26025 26026 26027 26028 26029 26030 26031 26032 26033 26034 26035 26036 26037 26038 26039 26040 26041 26042 26043 26044 26045 26046 26047 26048 26049 26050 26051 26052 26053 26054 26055 26056 26057 26058 26059 26060 26061 26062 26063 26064 26065 26066 26067 26068 26069 26070 26071 26072 26073 26074 26075 26076 26077 26078 26079 26080 26081 26082 26083 26084 26085 26086 26087 26088 26089 26090 26091 26092 26093 26094 26095 26096 26097 26098 26099 26100 26101 26102 26103 26104 26105 26106 26107 26108 26109 26110 26111 26112 26113 26114 26115 26116 26117 26118 26119 26120 26121 26122 26123 26124 26125 26126 26127 26128 26129 26130 26131 26132 26133 26134 26135 26136 26137 26138 26139 26140 26141 26142 26143 26144 26145 26146 26147 26148 26149 26150 26151 26152 26153 26154 26155 26156 26157 26158 26159 26160 26161 26162 26163 26164 26165 26166 26167 26168 26169 26170 26171 26172 26173 26174 26175 26176 26177 26178 26179 26180 26181 26182 26183 26184 26185 26186 26187 26188 26189 26190 26191 26192 26193 26194 26195 26196 26197 26198 26199 26200 26201 26202 26203 26204 26205 26206 26207 26208 26209 26210 26211 26212 26213 26214 26215 26216 26217 26218 26219 26220 26221 26222 26223 26224 26225 26226 26227 26228 26229 26230 26231 26232 26233 26234 26235 26236 26237 26238 26239 26240 26241 26242 26243 26244 26245 26246 26247 26248 26249 26250 26251 26252 26253 26254 26255 26256 26257 26258 26259 26260 26261 26262 26263 26264 26265 26266 26267 26268 26269 26270 26271 26272 26273 26274 26275 26276 26277 26278 26279 26280 26281 26282 26283 26284 26285 26286 26287 26288 26289 26290 26291 26292 26293 26294 26295 26296 26297 26298 26299 26300 26301 26302 26303 26304 26305 26306 26307 26308 26309 26310 26311 26312 26313 26314 26315 26316 26317 26318 26319 26320 26321 26322 26323 26324 26325 26326 26327 26328 26329 26330 26331 26332 26333 26334 26335 26336 26337 26338 26339 26340 26341 26342 26343 26344 26345 26346 26347 26348 26349 26350 26351 26352 26353 26354 26355 26356 26357 26358 26359 26360 26361 26362 26363 26364 26365 26366 26367 26368 26369 26370 26371 26372 26373 26374 26375 26376 26377 26378 26379 26380 26381 26382 26383 26384 26385 26386 26387 26388 26389 26390 26391 26392 26393 26394 26395 26396 26397 26398 26399 26400 26401 26402 26403 26404 26405 26406 26407 26408 26409 26410 26411 26412 26413 26414 26415 26416 26417 26418 26419 26420 26421 26422 26423 26424 26425 26426 26427 26428 26429 26430 26431 26432 26433 26434 26435 26436 26437 26438 26439 26440 26441 26442 26443 26444 26445 26446 26447 26448 26449 26450 26451 26452 26453 26454 26455 26456 26457 26458 26459 26460 26461 26462 26463 26464 26465 26466 26467 26468 26469 26470 26471 26472 26473 26474 26475 26476 26477 26478 26479 26480 26481 26482 26483 26484 26485 26486 26487 26488 26489 26490 26491 26492 26493 26494 26495 26496 26497 26498 26499 26500 26501 26502 26503 26504 26505 26506 26507 26508 26509 26510 26511 26512 26513 26514 26515 26516 26517 26518 26519 26520 26521 26522 26523 26524 26525 26526 26527 26528 26529 26530 26531 26532 26533 26534 26535 26536 26537 26538 26539 26540 26541 26542 26543 26544 26545 26546 26547 26548 26549 26550 26551 26552 26553 26554 26555 26556 26557 26558 26559 26560 26561 26562 26563 26564 26565 26566 26567 26568 26569 26570 26571 26572 26573 26574 26575 26576 26577 26578 26579 26580 26581 26582 26583 26584 26585 26586 26587 26588 26589 26590 26591 26592 26593 26594 26595 26596 26597 26598 26599 26600 26601 26602 26603 26604 26605 26606 26607 26608 26609 26610 26611 26612 26613 26614 26615 26616 26617 26618 26619 26620 26621 26622 26623 26624 26625 26626 26627 26628 26629 26630 26631 26632 26633 26634 26635 26636 26637 26638 26639 26640 26641 26642 26643 26644 26645 26646 26647 26648 26649 26650 26651 26652 26653 26654 26655 26656 26657 26658 26659 26660 26661 26662 26663 26664 26665 26666 26667 26668 26669 26670 26671 26672 26673 26674 26675 26676 26677 26678 26679 26680 26681 26682 26683 26684 26685 26686 26687 26688 26689 26690 26691 26692 26693 26694 26695 26696 26697 26698 26699 26700 26701 26702 26703 26704 26705 26706 26707 26708 26709 26710 26711 26712 26713 26714 26715 26716 26717 26718 26719 26720 26721 26722 26723 26724 26725 26726 26727 26728 26729 26730 26731 26732 26733 26734 26735 26736 26737 26738 26739 26740 26741 26742 26743 26744 26745 26746 26747 26748 26749 26750 26751 26752 26753 26754 26755 26756 26757 26758 26759 26760 26761 26762 26763 26764 26765 26766 26767 26768 26769 26770 26771 26772 26773 26774 26775 26776 26777 26778 26779 26780 26781 26782 26783 26784 26785 26786 26787 26788 26789 26790 26791 26792 26793 26794 26795 26796 26797 26798 26799 26800 26801 26802 26803 26804 26805 26806 26807 26808 26809 26810 26811 26812 26813 26814 26815 26816 26817 26818 26819 26820 26821 26822 26823 26824 26825 26826 26827 26828 26829 26830 26831 26832 26833 26834 26835 26836 26837 26838 26839 26840 26841 26842 26843 26844 26845 26846 26847 26848 26849 26850 26851 26852 26853 26854 26855 26856 26857 26858 26859 26860 26861 26862 26863 26864 26865 26866 26867 26868 26869 26870 26871 26872 26873 26874 26875 26876 26877 26878 26879 26880 26881 26882 26883 26884 26885 26886 26887 26888 26889 26890 26891 26892 26893 26894 26895 26896 26897 26898 26899 26900 26901 26902 26903 26904 26905 26906 26907 26908 26909 26910 26911 26912 26913 26914 26915 26916 26917 26918 26919 26920 26921 26922 26923 26924 26925 26926 26927 26928 26929 26930 26931 26932 26933 26934 26935 26936 26937 26938 26939 26940 26941 26942 26943 26944 26945 26946 26947 26948 26949 26950 26951 26952 26953 26954 26955 26956 26957 26958 26959 26960 26961 26962 26963 26964 26965 26966 26967 26968 26969 26970 26971 26972 26973 26974 26975 26976 26977 26978 26979 26980 26981 26982 26983 26984 26985 26986 26987 26988 26989 26990 26991 26992 26993 26994 26995 26996 26997 26998 26999 27000 27001 27002 27003 27004 27005 27006 27007 27008 27009 27010 27011 27012 27013 27014 27015 27016 27017 27018 27019 27020 27021 27022 27023 27024 27025 27026 27027 27028 27029 27030 27031 27032 27033 27034 27035 27036 27037 27038 27039 27040 27041 27042 27043 27044 27045 27046 27047 27048 27049 27050 27051 27052 27053 27054 27055 27056 27057 27058 27059 27060 27061 27062 27063 27064 27065 27066 27067 27068 27069 27070 27071 27072 27073 27074 27075 27076 27077 27078 27079 27080 27081 27082 27083 27084 27085 27086 27087 27088 27089 27090 27091 27092 27093 27094 27095 27096 27097 27098 27099 27100 27101 27102 27103 27104 27105 27106 27107 27108 27109 27110 27111 27112 27113 27114 27115 27116 27117 27118 27119 27120 27121 27122 27123 27124 27125 27126 27127 27128 27129 27130 27131 27132 27133 27134 27135 27136 27137 27138 27139 27140 27141 27142 27143 27144 27145 27146 27147 27148 27149 27150 27151 27152 27153 27154 27155 27156 27157 27158 27159 27160 27161 27162 27163 27164 27165 27166 27167 27168 27169 27170 27171 27172 27173 27174 27175 27176 27177 27178 27179 27180 27181 27182 27183 27184 27185 27186 27187 27188 27189 27190 27191 27192 27193 27194 27195 27196 27197 27198 27199 27200 27201 27202 27203 27204 27205 27206 27207 27208 27209 27210 27211 27212 27213 27214 27215 27216 27217 27218 27219 27220 27221 27222 27223 27224 27225 27226 27227 27228 27229 27230 27231 27232 27233 27234 27235 27236 27237 27238 27239 27240 27241 27242 27243 27244 27245 27246 27247 27248 27249 27250 27251 27252 27253 27254 27255 27256 27257 27258 27259 27260 27261 27262 27263 27264 27265 27266 27267 27268 27269 27270 27271 27272 27273 27274 27275 27276 27277 27278 27279 27280 27281 27282 27283 27284 27285 27286 27287 27288 27289 27290 27291 27292 27293 27294 27295 27296 27297 27298 27299 27300 27301 27302 27303 27304 27305 27306 27307 27308 27309 27310 27311 27312 27313 27314 27315 27316 27317 27318 27319 27320 27321 27322 27323 27324 27325 27326 27327 27328 27329 27330 27331 27332 27333 27334 27335 27336 27337 27338 27339 27340 27341 27342 27343 27344 27345 27346 27347 27348 27349 27350 27351 27352 27353 27354 27355 27356 27357 27358 27359 27360 27361 27362 27363 27364 27365 27366 27367 27368 27369 27370 27371 27372 27373 27374 27375 27376 27377 27378 27379 27380 27381 27382 27383 27384 27385 27386 27387 27388 27389 27390 27391 27392 27393 27394 27395 27396 27397 27398 27399 27400 27401 27402 27403 27404 27405 27406 27407 27408 27409 27410 27411 27412 27413 27414 27415 27416 27417 27418 27419 27420 27421 27422 27423 27424 27425 27426 27427 27428 27429 27430 27431 27432 27433 27434 27435 27436 27437 27438 27439 27440 27441 27442 27443 27444 27445 27446 27447 27448 27449 27450 27451 27452 27453 27454 27455 27456 27457 27458 27459 27460 27461 27462 27463 27464 27465 27466 27467 27468 27469 27470 27471 27472 27473 27474 27475 27476 27477 27478 27479 27480 27481 27482 27483 27484 27485 27486 27487 27488 27489 27490 27491 27492 27493 27494 27495 27496 27497 27498 27499 27500 27501 27502 27503 27504 27505 27506 27507 27508 27509 27510 27511 27512 27513 27514 27515 27516 27517 27518 27519 27520 27521 27522 27523 27524 27525 27526 27527 27528 27529 27530 27531 27532 27533 27534 27535 27536 27537 27538 27539 27540 27541 27542 27543 27544 27545 27546 27547 27548 27549 27550 27551 27552 27553 27554 27555 27556 27557 27558 27559 27560 27561 27562 27563 27564 27565 27566 27567 27568 27569 27570 27571 27572 27573 27574 27575 27576 27577 27578 27579 27580 27581 27582 27583 27584 27585 27586 27587 27588 27589 27590 27591 27592 27593 27594 27595 27596 27597 27598 27599 27600 27601 27602 27603 27604 27605 27606 27607 27608 27609 27610 27611 27612 27613 27614 27615 27616 27617 27618 27619 27620 27621 27622 27623 27624 27625 27626 27627 27628 27629 27630 27631 27632 27633 27634 27635 27636 27637 27638 27639 27640 27641 27642 27643 27644 27645 27646 27647 27648 27649 27650 27651 27652 27653 27654 27655 27656 27657 27658 27659 27660 27661 27662 27663 27664 27665 27666 27667 27668 27669 27670 27671 27672 27673 27674 27675 27676 27677 27678 27679 27680 27681 27682 27683 27684 27685 27686 27687 27688 27689 27690 27691 27692 27693 27694 27695 27696 27697 27698 27699 27700 27701 27702 27703 27704 27705 27706 27707 27708 27709 27710 27711 27712 27713 27714 27715 27716 27717 27718 27719 27720 27721 27722 27723 27724 27725 27726 27727 27728 27729 27730 27731 27732 27733 27734 27735 27736 27737 27738 27739 27740 27741 27742 27743 27744 27745 27746 27747 27748 27749 27750 27751 27752 27753 27754 27755 27756 27757 27758 27759 27760 27761 27762 27763 27764 27765 27766 27767 27768 27769 27770 27771 27772 27773 27774 27775 27776 27777 27778 27779 27780 27781 27782 27783 27784 27785 27786 27787 27788 27789 27790 27791 27792 27793 27794 27795 27796 27797 27798 27799 27800 27801 27802 27803 27804 27805 27806 27807 27808 27809 27810 27811 27812 27813 27814 27815 27816 27817 27818 27819 27820 27821 27822 27823 27824 27825 27826 27827 27828 27829 27830 27831 27832 27833 27834 27835 27836 27837 27838 27839 27840 27841 27842 27843 27844 27845 27846 27847 27848 27849 27850 27851 27852 27853 27854 27855 27856 27857 27858 27859 27860 27861 27862 27863 27864 27865 27866 27867 27868 27869 27870 27871 27872 27873 27874 27875 27876 27877 27878 27879 27880 27881 27882 27883 27884 27885 27886 27887 27888 27889 27890 27891 27892 27893 27894 27895 27896 27897 27898 27899 27900 27901 27902 27903 27904 27905 27906 27907 27908 27909 27910 27911 27912 27913 27914 27915 27916 27917 27918 27919 27920 27921 27922 27923 27924 27925 27926 27927 27928 27929 27930 27931 27932 27933 27934 27935 27936 27937 27938 27939 27940 27941 27942 27943 27944 27945 27946 27947 27948 27949 27950 27951 27952 27953 27954 27955 27956 27957 27958 27959 27960 27961 27962 27963 27964 27965 27966 27967 27968 27969 27970 27971 27972 27973 27974 27975 27976 27977 27978 27979 27980 27981 27982 27983 27984 27985 27986 27987 27988 27989 27990 27991 27992 27993 27994 27995 27996 27997 27998 27999 28000 28001 28002 28003 28004 28005 28006 28007 28008 28009 28010 28011 28012 28013 28014 28015 28016 28017 28018 28019 28020 28021 28022 28023 28024 28025 28026 28027 28028 28029 28030 28031 28032 28033 28034 28035 28036 28037 28038 28039 28040 28041 28042 28043 28044 28045 28046 28047 28048 28049 28050 28051 28052 28053 28054 28055 28056 28057 28058 28059 28060 28061 28062 28063 28064 28065 28066 28067 28068 28069 28070 28071 28072 28073 28074 28075 28076 28077 28078 28079 28080 28081 28082 28083 28084 28085 28086 28087 28088 28089 28090 28091 28092 28093 28094 28095 28096 28097 28098 28099 28100 28101 28102 28103 28104 28105 28106 28107 28108 28109 28110 28111 28112 28113 28114 28115 28116 28117 28118 28119 28120 28121 28122 28123 28124 28125 28126 28127 28128 28129 28130 28131 28132 28133 28134 28135 28136 28137 28138 28139 28140 28141 28142 28143 28144 28145 28146 28147 28148 28149 28150 28151 28152 28153 28154 28155 28156 28157 28158 28159 28160 28161 28162 28163 28164 28165 28166 28167 28168 28169 28170 28171 28172 28173 28174 28175 28176 28177 28178 28179 28180 28181 28182 28183 28184 28185 28186 28187 28188 28189 28190 28191 28192 28193 28194 28195 28196 28197 28198 28199 28200 28201 28202 28203 28204 28205 28206 28207 28208 28209 28210 28211 28212 28213 28214 28215 28216 28217 28218 28219 28220 28221 28222 28223 28224 28225 28226 28227 28228 28229 28230 28231 28232 28233 28234 28235 28236 28237 28238 28239 28240 28241 28242 28243 28244 28245 28246 28247 28248 28249 28250 28251 28252 28253 28254 28255 28256 28257 28258 28259 28260 28261 28262 28263 28264 28265 28266 28267 28268 28269 28270 28271 28272 28273 28274 28275 28276 28277 28278 28279 28280 28281 28282 28283 28284 28285 28286 28287 28288 28289 28290 28291 28292 28293 28294 28295 28296 28297 28298 28299 28300 28301 28302 28303 28304 28305 28306 28307 28308 28309 28310 28311 28312 28313 28314 28315 28316 28317 28318 28319 28320 28321 28322 28323 28324 28325 28326 28327 28328 28329 28330 28331 28332 28333 28334 28335 28336 28337 28338 28339 28340 28341 28342 28343 28344 28345 28346 28347 28348 28349 28350 28351 28352 28353 28354 28355 28356 28357 28358 28359 28360 28361 28362 28363 28364 28365 28366 28367 28368 28369 28370 28371 28372 28373 28374 28375 28376 28377 28378 28379 28380 28381 28382 28383 28384 28385 28386 28387 28388 28389 28390 28391 28392 28393 28394 28395 28396 28397 28398 28399 28400 28401 28402 28403 28404 28405 28406 28407 28408 28409 28410 28411 28412 28413 28414 28415 28416 28417 28418 28419 28420 28421 28422 28423 28424 28425 28426 28427 28428 28429 28430 28431 28432 28433 28434 28435 28436 28437 28438 28439 28440 28441 28442 28443 28444 28445 28446 28447 28448 28449 28450 28451 28452 28453 28454 28455 28456 28457 28458 28459 28460 28461 28462 28463 28464 28465 28466 28467 28468 28469 28470 28471 28472 28473 28474 28475 28476 28477 28478 28479 28480 28481 28482 28483 28484 28485 28486 28487 28488 28489 28490 28491 28492 28493 28494 28495 28496 28497 28498 28499 28500 28501 28502 28503 28504 28505 28506 28507 28508 28509 28510 28511 28512 28513 28514 28515 28516 28517 28518 28519 28520 28521 28522 28523 28524 28525 28526 28527 28528 28529 28530 28531 28532 28533 28534 28535 28536 28537 28538 28539 28540 28541 28542 28543 28544 28545 28546 28547 28548 28549 28550 28551 28552 28553 28554 28555 28556 28557 28558 28559 28560 28561 28562 28563 28564 28565 28566 28567 28568 28569 28570 28571 28572 28573 28574 28575 28576 28577 28578 28579 28580 28581 28582 28583 28584 28585 28586 28587 28588 28589 28590 28591 28592 28593 28594 28595 28596 28597 28598 28599 28600 28601 28602 28603 28604 28605 28606 28607 28608 28609 28610 28611 28612 28613 28614 28615 28616 28617 28618 28619 28620 28621 28622 28623 28624 28625 28626 28627 28628 28629 28630 28631 28632 28633 28634 28635 28636 28637 28638 28639 28640 28641 28642 28643 28644 28645 28646 28647 28648 28649 28650 28651 28652 28653 28654 28655 28656 28657 28658 28659 28660 28661 28662 28663 28664 28665 28666 28667 28668 28669 28670 28671 28672 28673 28674 28675 28676 28677 28678 28679 28680 28681 28682 28683 28684 28685 28686 28687 28688 28689 28690 28691 28692 28693 28694 28695 28696 28697 28698 28699 28700 28701 28702 28703 28704 28705 28706 28707 28708 28709 28710 28711 28712 28713 28714 28715 28716 28717 28718 28719 28720 28721 28722 28723 28724 28725 28726 28727 28728 28729 28730 28731 28732 28733 28734 28735 28736 28737 28738 28739 28740 28741 28742 28743 28744 28745 28746 28747 28748 28749 28750 28751 28752 28753 28754 28755 28756 28757 28758 28759 28760 28761 28762 28763 28764 28765 28766 28767 28768 28769 28770 28771 28772 28773 28774 28775 28776 28777 28778 28779 28780 28781 28782 28783 28784 28785 28786 28787 28788 28789 28790 28791 28792 28793 28794 28795 28796 28797 28798 28799 28800 28801 28802 28803 28804 28805 28806 28807 28808 28809 28810 28811 28812 28813 28814 28815 28816 28817 28818 28819 28820 28821 28822 28823 28824 28825 28826 28827 28828 28829 28830 28831 28832 28833 28834 28835 28836 28837 28838 28839 28840 28841 28842 28843 28844 28845 28846 28847 28848 28849 28850 28851 28852 28853 28854 28855 28856 28857 28858 28859 28860 28861 28862 28863 28864 28865 28866 28867 28868 28869 28870 28871 28872 28873 28874 28875 28876 28877 28878 28879 28880 28881 28882 28883 28884 28885 28886 28887 28888 28889 28890 28891 28892 28893 28894 28895 28896 28897 28898 28899 28900 28901 28902 28903 28904 28905 28906 28907 28908 28909 28910 28911 28912 28913 28914 28915 28916 28917 28918 28919 28920 28921 28922 28923 28924 28925 28926 28927 28928 28929 28930 28931 28932 28933 28934 28935 28936 28937 28938 28939 28940 28941 28942 28943 28944 28945 28946 28947 28948 28949 28950 28951 28952 28953 28954 28955 28956 28957 28958 28959 28960 28961 28962 28963 28964 28965 28966 28967 28968 28969 28970 28971 28972 28973 28974 28975 28976 28977 28978 28979 28980 28981 28982 28983 28984 28985 28986 28987 28988 28989 28990 28991 28992 28993 28994 28995 28996 28997 28998 28999 29000 29001 29002 29003 29004 29005 29006 29007 29008 29009 29010 29011 29012 29013 29014 29015 29016 29017 29018 29019 29020 29021 29022 29023 29024 29025 29026 29027 29028 29029 29030 29031 29032 29033 29034 29035 29036 29037 29038 29039 29040 29041 29042 29043 29044 29045 29046 29047 29048 29049 29050 29051 29052 29053 29054 29055 29056 29057 29058 29059 29060 29061 29062 29063 29064 29065 29066 29067 29068 29069 29070 29071 29072 29073 29074 29075 29076 29077 29078 29079 29080 29081 29082 29083 29084 29085 29086 29087 29088 29089 29090 29091 29092 29093 29094 29095 29096 29097 29098 29099 29100 29101 29102 29103 29104 29105 29106 29107 29108 29109 29110 29111 29112 29113 29114 29115 29116 29117 29118 29119 29120 29121 29122 29123 29124 29125 29126 29127 29128 29129 29130 29131 29132 29133 29134 29135 29136 29137 29138 29139 29140 29141 29142 29143 29144 29145 29146 29147 29148 29149 29150 29151 29152 29153 29154 29155 29156 29157 29158 29159 29160 29161 29162 29163 29164 29165 29166 29167 29168 29169 29170 29171 29172 29173 29174 29175 29176 29177 29178 29179 29180 29181 29182 29183 29184 29185 29186 29187 29188 29189 29190 29191 29192 29193 29194 29195 29196 29197 29198 29199 29200 29201 29202 29203 29204 29205 29206 29207 29208 29209 29210 29211 29212 29213 29214 29215 29216 29217 29218 29219 29220 29221 29222 29223 29224 29225 29226 29227 29228 29229 29230 29231 29232 29233 29234 29235 29236 29237 29238 29239 29240 29241 29242 29243 29244 29245 29246 29247 29248 29249 29250 29251 29252 29253 29254 29255 29256 29257 29258 29259 29260 29261 29262 29263 29264 29265 29266 29267 29268 29269 29270 29271 29272 29273 29274 29275 29276 29277 29278 29279 29280 29281 29282 29283 29284 29285 29286 29287 29288 29289 29290 29291 29292 29293 29294 29295 29296 29297 29298 29299 29300 29301 29302 29303 29304 29305 29306 29307 29308 29309 29310 29311 29312 29313 29314 29315 29316 29317 29318 29319 29320 29321 29322 29323 29324 29325 29326 29327 29328 29329 29330 29331 29332 29333 29334 29335 29336 29337 29338 29339 29340 29341 29342 29343 29344 29345 29346 29347 29348 29349 29350 29351 29352 29353 29354 29355 29356 29357 29358 29359 29360 29361 29362 29363 29364 29365 29366 29367 29368 29369 29370 29371 29372 29373 29374 29375 29376 29377 29378 29379 29380 29381 29382 29383 29384 29385 29386 29387 29388 29389 29390 29391 29392 29393 29394 29395 29396 29397 29398 29399 29400 29401 29402 29403 29404 29405 29406 29407 29408 29409 29410 29411 29412 29413 29414 29415 29416 29417 29418 29419 29420 29421 29422 29423 29424 29425 29426 29427 29428 29429 29430 29431 29432 29433 29434 29435 29436 29437 29438 29439 29440 29441 29442 29443 29444 29445 29446 29447 29448 29449 29450 29451 29452 29453 29454 29455 29456 29457 29458 29459 29460 29461 29462 29463 29464 29465 29466 29467 29468 29469 29470 29471 29472 29473 29474 29475 29476 29477 29478 29479 29480 29481 29482 29483 29484 29485 29486 29487 29488 29489 29490 29491 29492 29493 29494 29495 29496 29497 29498 29499 29500 29501 29502 29503 29504 29505 29506 29507 29508 29509 29510 29511 29512 29513 29514 29515 29516 29517 29518 29519 29520 29521 29522 29523 29524 29525 29526 29527 29528 29529 29530 29531 29532 29533 29534 29535 29536 29537 29538 29539 29540 29541 29542 29543 29544 29545 29546 29547 29548 29549 29550 29551 29552 29553 29554 29555 29556 29557 29558 29559 29560 29561 29562 29563 29564 29565 29566 29567 29568 29569 29570 29571 29572 29573 29574 29575 29576 29577 29578 29579 29580 29581 29582 29583 29584 29585 29586 29587 29588 29589 29590 29591 29592 29593 29594 29595 29596 29597 29598 29599 29600 29601 29602 29603 29604 29605 29606 29607 29608 29609 29610 29611 29612 29613 29614 29615 29616 29617 29618 29619 29620 29621 29622 29623 29624 29625 29626 29627 29628 29629 29630 29631 29632 29633 29634 29635 29636 29637 29638 29639 29640 29641 29642 29643 29644 29645 29646 29647 29648 29649 29650 29651 29652 29653 29654 29655 29656 29657 29658 29659 29660 29661 29662 29663 29664 29665 29666 29667 29668 29669 29670 29671 29672 29673 29674 29675 29676 29677 29678 29679 29680 29681 29682 29683 29684 29685 29686 29687 29688 29689 29690 29691 29692 29693 29694 29695 29696 29697 29698 29699 29700 29701 29702 29703 29704 29705 29706 29707 29708 29709 29710 29711 29712 29713 29714 29715 29716 29717 29718 29719 29720 29721 29722 29723 29724 29725 29726 29727 29728 29729 29730 29731 29732 29733 29734 29735 29736 29737 29738 29739 29740 29741 29742 29743 29744 29745 29746 29747 29748 29749 29750 29751 29752 29753 29754 29755 29756 29757 29758 29759 29760 29761 29762 29763 29764 29765 29766 29767 29768 29769 29770 29771 29772 29773 29774 29775 29776 29777 29778 29779 29780 29781 29782 29783 29784 29785 29786 29787 29788 29789 29790 29791 29792 29793 29794 29795 29796 29797 29798 29799 29800 29801 29802 29803 29804 29805 29806 29807 29808 29809 29810 29811 29812 29813 29814 29815 29816 29817 29818 29819 29820 29821 29822 29823 29824 29825 29826 29827 29828 29829 29830 29831 29832 29833 29834 29835 29836 29837 29838 29839 29840 29841 29842 29843 29844 29845 29846 29847 29848 29849 29850 29851 29852 29853 29854 29855 29856 29857 29858 29859 29860 29861 29862 29863 29864 29865 29866 29867 29868 29869 29870 29871 29872 29873 29874 29875 29876 29877 29878 29879 29880 29881 29882 29883 29884 29885 29886 29887 29888 29889 29890 29891 29892 29893 29894 29895 29896 29897 29898 29899 29900 29901 29902 29903 29904 29905 29906 29907 29908 29909 29910 29911 29912 29913 29914 29915 29916 29917 29918 29919 29920 29921 29922 29923 29924 29925 29926 29927 29928 29929 29930 29931 29932 29933 29934 29935 29936 29937 29938 29939 29940 29941 29942 29943 29944 29945 29946 29947 29948 29949 29950 29951 29952 29953 29954 29955 29956 29957 29958 29959 29960 29961 29962 29963 29964 29965 29966 29967 29968 29969 29970 29971 29972 29973 29974 29975 29976 29977 29978 29979 29980 29981 29982 29983 29984 29985 29986 29987 29988 29989 29990 29991 29992 29993 29994 29995 29996 29997 29998 29999 30000 30001 30002 30003 30004 30005 30006 30007 30008 30009 30010 30011 30012 30013 30014 30015 30016 30017 30018 30019 30020 30021 30022 30023 30024 30025 30026 30027 30028 30029 30030 30031 30032 30033 30034 30035 30036 30037 30038 30039 30040 30041 30042 30043 30044 30045 30046 30047 30048 30049 30050 30051 30052 30053 30054 30055 30056 30057 30058 30059 30060 30061 30062 30063 30064 30065 30066 30067 30068 30069 30070 30071 30072 30073 30074 30075 30076 30077 30078 30079 30080 30081 30082 30083 30084 30085 30086 30087 30088 30089 30090 30091 30092 30093 30094 30095 30096 30097 30098 30099 30100 30101 30102 30103 30104 30105 30106 30107 30108 30109 30110 30111 30112 30113 30114 30115 30116 30117 30118 30119 30120 30121 30122 30123 30124 30125 30126 30127 30128 30129 30130 30131 30132 30133 30134 30135 30136 30137 30138 30139 30140 30141 30142 30143 30144 30145 30146 30147 30148 30149 30150 30151 30152 30153 30154 30155 30156 30157 30158 30159 30160 30161 30162 30163 30164 30165 30166 30167 30168 30169 30170 30171 30172 30173 30174 30175 30176 30177 30178 30179 30180 30181 30182 30183 30184 30185 30186 30187 30188 30189 30190 30191 30192 30193 30194 30195 30196 30197 30198 30199 30200 30201 30202 30203 30204 30205 30206 30207 30208 30209 30210 30211 30212 30213 30214 30215 30216 30217 30218 30219 30220 30221 30222 30223 30224 30225 30226 30227 30228 30229 30230 30231 30232 30233 30234 30235 30236 30237 30238 30239 30240 30241 30242 30243 30244 30245 30246 30247 30248 30249 30250 30251 30252 30253 30254 30255 30256 30257 30258 30259 30260 30261 30262 30263 30264 30265 30266 30267 30268 30269 30270 30271 30272 30273 30274 30275 30276 30277 30278 30279 30280 30281 30282 30283 30284 30285 30286 30287 30288 30289 30290 30291 30292 30293 30294 30295 30296 30297 30298 30299 30300 30301 30302 30303 30304 30305 30306 30307 30308 30309 30310 30311 30312 30313 30314 30315 30316 30317 30318 30319 30320 30321 30322 30323 30324 30325 30326 30327 30328 30329 30330 30331 30332 30333 30334 30335 30336 30337 30338 30339 30340 30341 30342 30343 30344 30345 30346 30347 30348 30349 30350 30351 30352 30353 30354 30355 30356 30357 30358 30359 30360 30361 30362 30363 30364 30365 30366 30367 30368 30369 30370 30371 30372 30373 30374 30375 30376 30377 30378 30379 30380 30381 30382 30383 30384 30385 30386 30387 30388 30389 30390 30391 30392 30393 30394 30395 30396 30397 30398 30399 30400 30401 30402 30403 30404 30405 30406 30407 30408 30409 30410 30411 30412 30413 30414 30415 30416 30417 30418 30419 30420 30421 30422 30423 30424 30425 30426 30427 30428 30429 30430 30431 30432 30433 30434 30435 30436 30437 30438 30439 30440 30441 30442 30443 30444 30445 30446 30447 30448 30449 30450 30451 30452 30453 30454 30455 30456 30457 30458 30459 30460 30461 30462 30463 30464 30465 30466 30467 30468 30469 30470 30471 30472 30473 30474 30475 30476 30477 30478 30479 30480 30481 30482 30483 30484 30485 30486 30487 30488 30489 30490 30491 30492 30493 30494 30495 30496 30497 30498 30499 30500 30501 30502 30503 30504 30505 30506 30507 30508 30509 30510 30511 30512 30513 30514 30515 30516 30517 30518 30519 30520 30521 30522 30523 30524 30525 30526 30527 30528 30529 30530 30531 30532 30533 30534 30535 30536 30537 30538 30539 30540 30541 30542 30543 30544 30545 30546 30547 30548 30549 30550 30551 30552 30553 30554 30555 30556 30557 30558 30559 30560 30561 30562 30563 30564 30565 30566 30567 30568 30569 30570 30571 30572 30573 30574 30575 30576 30577 30578 30579 30580 30581 30582 30583 30584 30585 30586 30587 30588 30589 30590 30591 30592 30593 30594 30595 30596 30597 30598 30599 30600 30601 30602 30603 30604 30605 30606 30607 30608 30609 30610 30611 30612 30613 30614 30615 30616 30617 30618 30619 30620 30621 30622 30623 30624 30625 30626 30627 30628 30629 30630 30631 30632 30633 30634 30635 30636 30637 30638 30639 30640 30641 30642 30643 30644 30645 30646 30647 30648 30649 30650 30651 30652 30653 30654 30655 30656 30657 30658 30659 30660 30661 30662 30663 30664 30665 30666 30667 30668 30669 30670 30671 30672 30673 30674 30675 30676 30677 30678 30679 30680 30681 30682 30683 30684 30685 30686 30687 30688 30689 30690 30691 30692 30693 30694 30695 30696 30697 30698 30699 30700 30701 30702 30703 30704 30705 30706 30707 30708 30709 30710 30711 30712 30713 30714 30715 30716 30717 30718 30719 30720 30721 30722 30723 30724 30725 30726 30727 30728 30729 30730 30731 30732 30733 30734 30735 30736 30737 30738 30739 30740 30741 30742 30743 30744 30745 30746 30747 30748 30749 30750 30751 30752 30753 30754 30755 30756 30757 30758 30759 30760 30761 30762 30763 30764 30765 30766 30767 30768 30769 30770 30771 30772 30773 30774 30775 30776 30777 30778 30779 30780 30781 30782 30783 30784 30785 30786 30787 30788 30789 30790 30791 30792 30793 30794 30795 30796 30797 30798 30799 30800 30801 30802 30803 30804 30805 30806 30807 30808 30809 30810 30811 30812 30813 30814 30815 30816 30817 30818 30819 30820 30821 30822 30823 30824 30825 30826 30827 30828 30829 30830 30831 30832 30833 30834 30835 30836 30837 30838 30839 30840 30841 30842 30843 30844 30845 30846 30847 30848 30849 30850 30851 30852 30853 30854 30855 30856 30857 30858 30859 30860 30861 30862 30863 30864 30865 30866 30867 30868 30869 30870 30871 30872 30873 30874 30875 30876 30877 30878 30879 30880 30881 30882 30883 30884 30885 30886 30887 30888 30889 30890 30891 30892 30893 30894 30895 30896 30897 30898 30899 30900 30901 30902 30903 30904 30905 30906 30907 30908 30909 30910 30911 30912 30913 30914 30915 30916 30917 30918 30919 30920 30921 30922 30923 30924 30925 30926 30927 30928 30929 30930 30931 30932 30933 30934 30935 30936 30937 30938 30939 30940 30941 30942 30943 30944 30945 30946 30947 30948 30949 30950 30951 30952 30953 30954 30955 30956 30957 30958 30959 30960 30961 30962 30963 30964 30965 30966 30967 30968 30969 30970 30971 30972 30973 30974 30975 30976 30977 30978 30979 30980 30981 30982 30983 30984 30985 30986 30987 30988 30989 30990 30991 30992 30993 30994 30995 30996 30997 30998 30999 31000 31001 31002 31003 31004 31005 31006 31007 31008 31009 31010 31011 31012 31013 31014 31015 31016 31017 31018 31019 31020 31021 31022 31023 31024 31025 31026 31027 31028 31029 31030 31031 31032 31033 31034 31035 31036 31037 31038 31039 31040 31041 31042 31043 31044 31045 31046 31047 31048 31049 31050 31051 31052 31053 31054 31055 31056 31057 31058 31059 31060 31061 31062 31063 31064 31065 31066 31067 31068 31069 31070 31071 31072 31073 31074 31075 31076 31077 31078 31079 31080 31081 31082 31083 31084 31085 31086 31087 31088 31089 31090 31091 31092 31093 31094 31095 31096 31097 31098 31099 31100 31101 31102 31103 31104 31105 31106 31107 31108 31109 31110 31111 31112 31113 31114 31115 31116 31117 31118 31119 31120 31121 31122 31123 31124 31125 31126 31127 31128 31129 31130 31131 31132 31133 31134 31135 31136 31137 31138 31139 31140 31141 31142 31143 31144 31145 31146 31147 31148 31149 31150 31151 31152 31153 31154 31155 31156 31157 31158 31159 31160 31161 31162 31163 31164 31165 31166 31167 31168 31169 31170 31171 31172 31173 31174 31175 31176 31177 31178 31179 31180 31181 31182 31183 31184 31185 31186 31187 31188 31189 31190 31191 31192 31193 31194 31195 31196 31197 31198 31199 31200 31201 31202 31203 31204 31205 31206 31207 31208 31209 31210 31211 31212 31213 31214 31215 31216 31217 31218 31219 31220 31221 31222 31223 31224 31225 31226 31227 31228 31229 31230 31231 31232 31233 31234 31235 31236 31237 31238 31239 31240 31241 31242 31243 31244 31245 31246 31247 31248 31249 31250 31251 31252 31253 31254 31255 31256 31257 31258 31259 31260 31261 31262 31263 31264 31265 31266 31267 31268 31269 31270 31271 31272 31273 31274 31275 31276 31277 31278 31279 31280 31281 31282 31283 31284 31285 31286 31287 31288 31289 31290 31291 31292 31293 31294 31295 31296 31297 31298 31299 31300 31301 31302 31303 31304 31305 31306 31307 31308 31309 31310 31311 31312 31313 31314 31315 31316 31317 31318 31319 31320 31321 31322 31323 31324 31325 31326 31327 31328 31329 31330 31331 31332 31333 31334 31335 31336 31337 31338 31339 31340 31341 31342 31343 31344 31345 31346 31347 31348 31349 31350 31351 31352 31353 31354 31355 31356 31357 31358 31359 31360 31361 31362 31363 31364 31365 31366 31367 31368 31369 31370 31371 31372 31373 31374 31375 31376 31377 31378 31379 31380 31381 31382 31383 31384 31385 31386 31387 31388 31389 31390 31391 31392 31393 31394 31395 31396 31397 31398 31399 31400 31401 31402 31403 31404 31405 31406 31407 31408 31409 31410 31411 31412 31413 31414 31415 31416 31417 31418 31419 31420 31421 31422 31423 31424 31425 31426 31427 31428 31429 31430 31431 31432 31433 31434 31435 31436 31437 31438 31439 31440 31441 31442 31443 31444 31445 31446 31447 31448 31449 31450 31451 31452 31453 31454 31455 31456 31457 31458 31459 31460 31461 31462 31463 31464 31465 31466 31467 31468 31469 31470 31471 31472 31473 31474 31475 31476 31477 31478 31479 31480 31481 31482 31483 31484 31485 31486 31487 31488 31489 31490 31491 31492 31493 31494 31495 31496 31497 31498 31499 31500 31501 31502 31503 31504 31505 31506 31507 31508 31509 31510 31511 31512 31513 31514 31515 31516 31517 31518 31519 31520 31521 31522 31523 31524 31525 31526 31527 31528 31529 31530 31531 31532 31533 31534 31535 31536 31537 31538 31539 31540 31541 31542 31543 31544 31545 31546 31547 31548 31549 31550 31551 31552 31553 31554 31555 31556 31557 31558 31559 31560 31561 31562 31563 31564 31565 31566 31567 31568 31569 31570 31571 31572 31573 31574 31575 31576 31577 31578 31579 31580 31581 31582 31583 31584 31585 31586 31587 31588 31589 31590 31591 31592 31593 31594 31595 31596 31597 31598 31599 31600 31601 31602 31603 31604 31605 31606 31607 31608 31609 31610 31611 31612 31613 31614 31615 31616 31617 31618 31619 31620 31621 31622 31623 31624 31625 31626 31627 31628 31629 31630 31631 31632 31633 31634 31635 31636 31637 31638 31639 31640 31641 31642 31643 31644 31645 31646 31647 31648 31649 31650 31651 31652 31653 31654 31655 31656 31657 31658 31659 31660 31661 31662 31663 31664 31665 31666 31667 31668 31669 31670 31671 31672 31673 31674 31675 31676 31677 31678 31679 31680 31681 31682 31683 31684 31685 31686 31687 31688 31689 31690 31691 31692 31693 31694 31695 31696 31697 31698 31699 31700 31701 31702 31703 31704 31705 31706 31707 31708 31709 31710 31711 31712 31713 31714 31715 31716 31717 31718 31719 31720 31721 31722 31723 31724 31725 31726 31727 31728 31729 31730 31731 31732 31733 31734 31735 31736 31737 31738 31739 31740 31741 31742 31743 31744 31745 31746 31747 31748 31749 31750 31751 31752 31753 31754 31755 31756 31757 31758 31759 31760 31761 31762 31763 31764 31765 31766 31767 31768 31769 31770 31771 31772 31773 31774 31775 31776 31777 31778 31779 31780 31781 31782 31783 31784 31785 31786 31787 31788 31789 31790 31791 31792 31793 31794 31795 31796 31797 31798 31799 31800 31801 31802 31803 31804 31805 31806 31807 31808 31809 31810 31811 31812 31813 31814 31815 31816 31817 31818 31819 31820 31821 31822 31823 31824 31825 31826 31827 31828 31829 31830 31831 31832 31833 31834 31835 31836 31837 31838 31839 31840 31841 31842 31843 31844 31845 31846 31847 31848 31849 31850 31851 31852 31853 31854 31855 31856 31857 31858 31859 31860 31861 31862 31863 31864 31865 31866 31867 31868 31869 31870 31871 31872 31873 31874 31875 31876 31877 31878 31879 31880 31881 31882 31883 31884 31885 31886 31887 31888 31889 31890 31891 31892 31893 31894 31895 31896 31897 
</DataArray>
<DataArray type="UInt32" Name="offsets" format="ascii">
3 6 9 12 15 17 20 23 26 29 32 35 38 40 43 46 49 52 54 57 60 62 65 68 71 74 76 79 82 85 88 90 93 96 99 102 105 108 111 114 117 120 123 126 129 131 134 137 139 142 145 148 151 154 156 159 162 165 168 171 174 177 179 182 185 188 191 193 196 199 202 205 208 211 214 217 220 222 225 228 230 233 236 238 241 244 247 250 252 255 258 261 264 267 270 273 275 277 279 282 285 287 290 293 296 299 302 304 307 310 313 316 319 322 325 328 331 334 337 340 343 345 348 351 354 356 359 362 365 368 371 374 376 379 382 385 388 391 394 397 400 403 406 409 412 415 418 421 424 427 430 433 436 439 442 445 448 451 453 456 459 462 464 467 470 472 475 478 481 484 487 490 493 496 499 502 505 507 510 513 516 519 522 525 528 531 533 536 539 542 545 548 551 554 557 559 562 565 568 571 574 577 580 583 586 588 591 594 597 600 603 606 609 612 615 618 621 624 627 630 633 636 639 642 645 648 651 654 657 659 662 665 668 670 673 675 678 680 683 686 688 691 694 697 699 702 704 707 709 712 714 716 719 721 724 727 729 732 734 737 740 743 745 748 750 752 755 758 760 763 766 769 771 774 776 778 780 783 785 788 791 794 796 799 801 803 805 808 811 813 815 818 821 824 827 829 832 834 837 840 842 845 848 851 853 856 858 860 862 865 868 871 873 876 878 880 882 884 887 890 893 895 897 900 903 905 907 909 912 914 917 920 923 926 928 931 934 937 940 943 946 949 951 954 957 960 963 966 969 971 973 976 979 982 984 987 990 993 995 998 1000 1003 1005 1007 1010 1013 1016 1019 1021 1024 1027 1029 1032 1035 1038 1041 1043 1046 1048 1051 1054 1057 1060 1063 1065 1067 1070 1073 1076 1079 1082 1085 1088 1091 1093 1096 1099 1102 1104 1107 1110 1112 1115 1117 1120 1123 1126 1129 1132 1135 1138 1141 1144 1147 1150 1152 1155 1157 1160 1162 1165 1168 1171 1173 1176 1178 1181 1183 1186 1189 1192 1195 1198 1201 1203 1206 1208 1211 1214 1217 1219 1222 1225 1228 1230 1233 1235 1237 1240 1243 1246 1249 1251 1254 1257 1260 1263 1265 1267 1270 1273 1275 1278 1280 1283 1285 1287 1290 1293 1296 1298 1301 1304 1307 1310 1312 1315 1318 1321 1324 1327 1330 1333 1336 1339 1342 1345 1347 1350 1353 1356 1359 1361 1364 1367 1370 1372 1375 1377 1379 1381 1384 1387 1390 1392 1394 1397 1399 1402 1405 1407 1410 1413 1416 1419 1421 1424 1427 1430 1433 1436 1439 1442 1445 1448 1451 1454 1456 1458 1461 1464 1466 1469 1472 1475 1477 1480 1483 1486 1489 1492 1495 1497 1500 1503 1506 1508 1511 1514 1517 1519 1522 1525 1528 1531 1534 1537 1540 1543 1546 1549 1552 1554 1557 1560 1563 1565 1568 1571 1574 1577 1580 1583 1586 1588 1591 1594 1597 1600 1603 1605 1608 1611 1614 1617 1620 1623 1626 1629 1632 1635 1638 1641 1644 1647 1650 1653 1656 1659 1662 1664 1667 1670 1673 1676 1678 1681 1684 1686 1689 1692 1695 1698 1701 1704 1707 1709 1712 1715 1718 1721 1724 1727 1730 1733 1735 1738 1740 1743 1746 1748 1751 1754 1757 1759 1762 1765 1767 1770 1773 1776 1778 1781 1783 1786 1789 1791 1794 1796 1799 1802 1805 1808 1811 1814 1817 1820 1823 1826 1829 1832 1835 1838 1841 1844 1847 1850 1853 1856 1859 1862 1864 1867 1869 1872 1874 1877 1880 1883 1886 1889 1892 1895 1898 1901 1904 1907 1910 1913 1916 1919 1921 1924 1927 1930 1933 1936 1939 1942 1945 1948 1950 1953 1956 1959 1962 1965 1968 1971 1974 1977 1980 1983 1986 1989 1992 1995 1998 2001 2004 2007 2010 2013 2016 2019 2022 2025 2028 2031 2034 2037 2039 2042 2045 2047 2050 2053 2056 2058 2060 2063 2065 2068 2071 2074 2077 2080 2082 2085 2088 2091 2094 2097 2099 2102 2105 2108 2111 2114 2117 2120 2123 2126 2129 2132 2135 2138 2141 2144 2147 2150 2153 2156 2159 2162 2165 2168 2171 2174 2177 2180 2183 2186 2189 2192 2195 2198 2201 2204 2207 2210 2213 2216 2219 2222 2225 2228 2231 2234 2237 2240 2243 2246 2248 2251 2254 2257 2260 2263 2266 2269 2272 2275 2278 2281 2284 2287 2290 2293 2295 2298 2301 2304 2307 2309 2312 2315 2318 2321 2324 2327 2330 2333 2336 2339 2342 2345 2348 2351 2354 2357 2360 2363 2366 2369 2372 2375 2378 2381 2384 2387 2390 2392 2395 2398 2400 2403 2405 2407 2409 2411 2414 2417 2419 2422 2425 2428 2431 2434 2437 2440 2443 2446 2449 2452 2455 2458 2461 2464 2467 2470 2472 2475 2478 2480 2483 2485 2488 2491 2494 2497 2499 2502 2504 2507 2510 2513 2516 2518 2521 2524 2527 2529 2532 2535 2538 2541 2544 2546 2549 2551 2554 2557 2559 2561 2564 2566 2569 2572 2575 2578 2581 2584 2587 2590 2593 2596 2599 2601 2604 2607 2610 2612 2615 2618 2621 2623 2626 2629 2631 2633 2635 2638 2641 2644 2647 2650 2653 2656 2659 2662 2665 2668 2670 2673 2676 2679 2682 2685 2688 2691 2694 2696 2698 2700 2703 2706 2709 2712 2715 2718 2721 2724 2726 2728 2731 2734 2737 2739 2742 2745 2747 2750 2753 2756 2759 2762 2765 2768 2771 2774 2777 2780 2782 2785 2788 2791 2794 2797 2800 2803 2806 2808 2811 2814 2817 2820 2823 2826 2829 2832 2835 2838 2840 2843 2845 2847 2849 2852 2855 2858 2861 2864 2867 2870 2872 2874 2877 2879 2882 2885 2888 2891 2894 2896 2899 2901 2903 2906 2909 2912 2914 2917 2919 2922 2925 2928 2931 2933 2936 2939 2942 2945 2948 2951 2954 2957 2960 2963 2966 2969 2972 2975 2978 2981 2984 2986 2989 2992 2995 2997 3000 3003 3006 3009 3012 3014 3017 3020 3023 3026 3029 3032 3034 3037 3039 3042 3045 3048 3051 3054 3057 3060 3063 3065 3068 3071 3074 3076 3079 3082 3085 3088 3091 3094 3097 3100 3103 3106 3109 3112 3115 3118 3121 3124 3127 3130 3133 3136 3139 3142 3145 3148 3151 3153 3155 3157 3160 3163 3166 3169 3171 3174 3177 3180 3183 3185 3188 3191 3194 3197 3200 3203 3206 3208 3211 3214 3217 3220 3223 3226 3229 3232 3234 3237 3240 3243 3246 3249 3252 3255 3258 3261 3264 3267 3270 3272 3275 3278 3281 3284 3287 3290 3292 3295 3298 3301 3304 3307 3310 3313 3316 3318 3321 3324 3327 3329 3332 3335 3338 3341 3344 3347 3350 3353 3356 3359 3362 3365 3367 3370 3373 3376 3379 3382 3385 3388 3391 3394 3397 3400 3403 3406 3409 3412 3415 3418 3421 3424 3427 3430 3433 3436 3439 3442 3445 3448 3451 3454 3457 3460 3463 3466 3469 3472 3475 3478 3481 3484 3487 3490 3493 3496 3499 3502 3505 3508 3510 3513 3516 3519 3522 3525 3528 3531 3534 3537 3540 3543 3546 3549 3552 3555 3558 3561 3564 3567 3570 3573 3576 3579 3582 3584 3587 3590 3593 3596 3599 3602 3605 3608 3611 3614 3616 3619 3622 3624 3627 3630 3633 3636 3639 3642 3645 3648 3651 3653 3656 3658 3661 3664 3667 3670 3672 3675 3678 3680 3683 3685 3688 3691 3694 3697 3700 3702 3705 3708 3711 3714 3717 3720 3723 3726 3728 3731 3734 3737 3740 3743 3746 3749 3752 3755 3758 3761 3764 3767 3770 3772 3775 3777 3779 3782 3785 3788 3791 3794 3796 3799 3802 3805 3808 3811 3814 3817 3820 3823 3826 3829 3832 3835 3838 3841 3843 3846 3849 3852 3855 3858 3861 3864 3867 3870 3873 3876 3879 3882 3885 3888 3891 3893 3896 3899 3902 3905 3908 3910 3912 3915 3918 3920 3923 3926 3929 3932 3935 3938 3941 3944 3947 3950 3952 3955 3958 3961 3964 3967 3970 3973 3976 3979 3981 3984 3986 3989 3992 3995 3998 4001 4003 4006 4009 4012 4015 4017 4020 4023 4026 4028 4031 4034 4037 4039 4042 4045 4047 4050 4053 4056 4059 4062 4065 4068 4071 4074 4077 4080 4083 4086 4089 4092 4095 4097 4100 4103 4106 4109 4112 4115 4118 4120 4123 4126 4129 4132 4135 4138 4141 4144 4147 4150 4153 4156 4159 4162 4165 4168 4171 4174 4177 4180 4183 4186 4189 4192 4195 4198 4201 4203 4206 4209 4212 4215 4217 4220 4223 4226 4228 4231 4234 4237 4240 4243 4246 4249 4252 4255 4257 4260 4262 4265 4268 4271 4274 4277 4280 4283 4286 4289 4292 4295 4298 4301 4304 4307 4310 4313 4316 4318 4320 4323 4326 4329 4331 4334 4337 4339 4342 4345 4347 4350 4353 4356 4358 4361 4364 4366 4369 4372 4375 4378 4381 4384 4387 4390 4393 4396 4399 4402 4405 4408 4411 4414 4417 4420 4423 4426 4428 4431 4433 4436 4439 4442 4445 4448 4451 4454 4457 4460 4463 4466 4468 4471 4473 4476 4479 4482 4484 4487 4490 4493 4496 4499 4501 4504 4507 4510 4513 4516 4519 4521 4524 4527 4530 4533 4536 4539 4542 4545 4548 4551 4554 4556 4559 4562 4565 4568 4571 4574 4577 4580 4582 4585 4588 4591 4593 4596 4599 4601 4604 4607 4610 4613 4616 4618 4621 4624 4627 4630 4633 4636 4639 4642 4645 4647 4650 4653 4655 4658 4660 4663 4665 4667 4669 4672 4674 4677 4680 4683 4686 4689 4692 4694 4697 4700 4703 4706 4709 4712 4714 4717 4720 4723 4726 4729 4732 4735 4737 4740 4743 4746 4749 4751 4754 4757 4760 4763 4766 4768 4771 4773 4776 4779 4782 4785 4788 4791 4794 4797 4800 4803 4805 4808 4811 4814 4817 4820 4823 4826 4828 4831 4834 4837 4840 4843 4846 4849 4851 4854 4856 4859 4862 4865 4868 4871 4874 4877 4880 4882 4885 4888 4891 4893 4895 4898 4901 4904 4907 4910 4912 4914 4917 4919 4922 4925 4927 4930 4933 4935 4938 4941 4944 4947 4950 4953 4956 4959 4961 4964 4967 4970 4973 4976 4978 4981 4984 4987 4990 4992 4995 4998 5000 5003 5006 5009 5012 5015 5018 5021 5024 5027 5030 5033 5036 5039 5042 5045 5048 5051 5054 5057 5060 5063 5066 5069 5072 5075 5078 5081 5084 5087 5090 5093 5096 5099 5102 5105 5108 5111 5114 5117 5120 5123 5125 5128 5131 5133 5136 5139 5142 5145 5148 5150 5153 5156 5159 5162 5164 5167 5170 5173 5176 5179 5182 5185 5188 5191 5194 5197 5200 5203 5206 5209 5212 5215 5218 5221 5224 5227 5230 5233 5236 5238 5241 5244 5247 5249 5252 5255 5258 5261 5264 5267 5269 5272 5275 5278 5281 5284 5287 5290 5293 5296 5299 5302 5304 5307 5309 5311 5314 5317 5319 5322 5325 5328 5331 5334 5337 5340 5343 5346 5349 5352 5354 5357 5360 5362 5365 5368 5371 5374 5377 5380 5383 5386 5389 5392 5395 5398 5401 5404 5407 5409 5412 5415 5418 5421 5424 5427 5430 5432 5435 5437 5440 5443 5446 5449 5451 5454 5456 5459 5462 5465 5468 5471 5474 5477 5480 5483 5485 5488 5491 5494 5497 5500 5503 5506 5509 5512 5515 5518 5521 5524 5527 5530 5533 5536 5538 5541 5544 5547 5550 5553 5556 5559 5562 5565 5568 5571 5574 5577 5580 5583 5586 5589 5592 5595 5598 5601 5604 5607 5610 5613 5615 5617 5620 5623 5626 5629 5632 5635 5638 5641 5644 5647 5650 5652 5655 5658 5661 5664 5666 5669 5672 5675 5678 5680 5683 5686 5689 5692 5695 5698 5701 5704 5706 5709 5712 5715 5718 5721 5724 5727 5730 5733 5735 5738 5741 5744 5747 5750 5753 5756 5759 5762 5765 5768 5771 5774 5777 5780 5783 5786 5789 5792 5795 5797 5800 5803 5806 5809 5812 5815 5818 5821 5824 5827 5830 5833 5836 5839 5841 5844 5846 5849 5852 5855 5858 5861 5864 5867 5870 5872 5875 5878 5880 5883 5886 5889 5892 5895 5898 5901 5904 5907 5910 5913 5916 5919 5922 5925 5928 5931 5934 5937 5940 5943 5946 5949 5952 5955 5958 5961 5964 5967 5970 5973 5976 5979 5982 5985 5988 5990 5993 5996 5998 6001 6004 6007 6010 6012 6015 6017 6020 6023 6025 6028 6030 6033 6036 6039 6042 6045 6047 6050 6053 6056 6059 6062 6065 6068 6071 6074 6077 6080 6083 6085 6088 6091 6094 6096 6099 6102 6105 6108 6111 6114 6117 6120 6123 6125 6128 6131 6134 6137 6139 6141 6144 6147 6150 6153 6156 6159 6162 6165 6167 6170 6173 6176 6179 6182 6184 6187 6190 6193 6195 6198 6201 6204 6206 6209 6212 6215 6218 6220 6223 6226 6229 6232 6235 6238 6241 6244 6247 6250 6253 6256 6259 6262 6264 6267 6270 6273 6276 6279 6282 6284 6287 6289 6291 6294 6296 6299 6301 6304 6307 6310 6313 6315 6318 6321 6324 6327 6329 6332 6335 6338 6341 6344 6347 6350 6353 6356 6358 6361 6364 6367 6370 6373 6376 6379 6382 6385 6388 6391 6394 6397 6400 6402 6405 6408 6411 6413 6416 6419 6422 6424 6427 6429 6432 6435 6438 6441 6444 6447 6450 6453 6456 6459 6462 6465 6468 6471 6474 6477 6479 6482 6485 6488 6491 6494 6497 6499 6502 6505 6508 6511 6514 6517 6520 6523 6526 6529 6532 6535 6538 6541 6544 6547 6550 6553 6555 6558 6561 6564 6567 6570 6573 6576 6579 6582 6585 6588 6591 6594 6597 6600 6603 6606 6609 6612 6615 6618 6621 6624 6627 6630 6633 6636 6639 6642 6645 6648 6651 6654 6657 6659 6662 6665 6668 6671 6673 6676 6679 6682 6685 6688 6691 6694 6696 6699 6702 6705 6708 6711 6714 6717 6720 6723 6725 6728 6731 6733 6736 6739 6742 6745 6748 6750 6753 6756 6759 6761 6764 6767 6769 6772 6775 6778 6781 6784 6787 6790 6793 6796 6799 6802 6805 6808 6811 6814 6817 6820 6823 6826 6829 6831 6834 6837 6840 6843 6846 6849 6852 6855 6858 6861 6863 6865 6868 6870 6873 6876 6879 6882 6885 6887 6890 6893 6896 6899 6901 6904 6907 6910 6913 6916 6918 6921 6923 6926 6929 6931 6934 6937 6940 6943 6946 6949 6952 6955 6957 6960 6963 6966 6969 6972 6975 6977 6980 6983 6986 6989 6992 6995 6997 7000 7003 7006 7009 7011 7014 7017 7019 7022 7024 7027 7030 7032 7035 7038 7041 7044 7047 7050 7052 7055 7058 7061 7064 7066 7069 7072 7075 7078 7081 7084 7087 7090 7092 7094 7097 7100 7103 7106 7109 7112 7115 7118 7120 7123 7126 7129 7132 7135 7138 7140 7143 7146 7149 7152 7155 7158 7161 7163 7166 7169 7172 7174 7177 7180 7183 7186 7189 7192 7195 7198 7201 7204 7207 7210 7212 7215 7218 7221 7224 7226 7229 7232 7234 7237 7240 7243 7246 7248 7251 7254 7257 7259 7261 7264 7267 7270 7272 7275 7278 7281 7283 7286 7289 7292 7295 7298 7301 7304 7307 7310 7312 7315 7318 7321 7323 7326 7329 7332 7335 7338 7341 7344 7347 7350 7353 7356 7359 7361 7364 7366 7369 7372 7374 7377 7380 7382 7385 7388 7391 7394 7397 7400 7403 7405 7408 7411 7414 7417 7420 7422 7425 7427 7430 7433 7436 7438 7440 7443 7445 7447 7450 7452 7455 7458 7461 7464 7467 7470 7472 7475 7477 7480 7483 7486 7489 7492 7495 7498 7501 7504 7507 7510 7513 7516 7518 7521 7524 7526 7529 7531 7534 7537 7539 7542 7545 7548 7550 7552 7555 7558 7560 7563 7566 7569 7572 7575 7578 7581 7584 7587 7590 7593 7596 7599 7602 7605 7608 7611 7614 7617 7620 7623 7626 7629 7631 7633 7636 7638 7641 7643 7646 7649 7651 7653 7656 7659 7661 7664 7667 7669 7672 7675 7677 7680 7682 7685 7688 7691 7694 7696 7699 7702 7705 7708 7710 7713 7715 7717 7720 7722 7725 7728 7730 7732 7735 7738 7741 7743 7746 7749 7752 7755 7757 7759 7762 7765 7768 7771 7774 7776 7779 7782 7785 7788 7791 7794 7797 7800 7803 7806 7809 7811 7814 7816 7819 7821 7824 7827 7829 7832 7834 7837 7840 7843 7846 7849 7852 7855 7858 7860 7863 7866 7868 7871 7874 7877 7880 7882 7885 7888 7891 7894 7897 7900 7903 7906 7909 7912 7915 7918 7920 7923 7926 7929 7932 7935 7938 7941 7944 7947 7950 7953 7955 7958 7961 7964 7967 7970 7973 7975 7978 7980 7983 7986 7988 7991 7994 7997 8000 8003 8006 8009 8012 8015 8018 8021 8024 8027 8030 8033 8036 8039 8041 8043 8046 8049 8052 8054 8057 8060 8062 8065 8068 8071 8074 8077 8080 8083 8086 8089 8092 8095 8098 8101 8104 8107 8110 8113 8116 8119 8122 8125 8128 8131 8134 8137 8139 8141 8144 8147 8150 8153 8156 8159 8162 8165 8168 8171 8174 8176 8179 8182 8185 8188 8191 8194 8197 8200 8203 8206 8209 8212 8215 8218 8221 8224 8227 8230 8233 8236 8239 8242 8245 8248 8251 8254 8257 8260 8263 8266 8269 8272 8275 8277 8280 8283 8286 8289 8292 8294 8297 8300 8302 8305 8308 8310 8312 8315 8318 8321 8324 8327 8330 8333 8336 8339 8342 8345 8348 8351 8353 8356 8359 8361 8364 8367 8370 8373 8376 8379 8381 8384 8387 8389 8392 8395 8398 8401 8404 8407 8410 8413 8416 8419 8422 8425 8428 8430 8433 8436 8439 8442 8445 8448 8451 8453 8456 8459 8462 8465 8468 8471 8474 8477 8480 8483 8486 8489 8491 8494 8497 8499 8502 8505 8508 8511 8514 8517 8520 8523 8526 8529 8532 8535 8538 8541 8544 8547 8550 8553 8556 8559 8561 8564 8567 8569 8572 8574 8577 8580 8583 8585 8588 8591 8593 8596 8598 8601 8604 8607 8609 8612 8615 8618 8621 8623 8626 8629 8632 8635 8638 8641 8644 8646 8649 8652 8655 8657 8660 8663 8666 8669 8672 8675 8678 8681 8684 8687 8690 8693 8695 8698 8701 8704 8707 8710 8713 8716 8719 8721 8724 8727 8730 8733 8736 8739 8742 8745 8748 8751 8754 8756 8759 8762 8765 8768 8771 8774 8777 8780 8783 8786 8789 8792 8795 8798 8801 8804 8807 8810 8813 8815 8817 8820 8823 8826 8828 8831 8834 8837 8840 8843 8846 8849 8852 8855 8858 8861 8864 8866 8869 8872 8875 8878 8881 8884 8887 8890 8893 8895 8898 8901 8904 8907 8910 8913 8916 8919 8922 8925 8928 8931 8934 8937 8940 8943 8945 8948 8950 8953 8956 8959 8962 8965 8967 8970 8973 8976 8979 8981 8984 8987 8990 8992 8995 8998 9001 9003 9006 9009 9012 9015 9018 9021 9024 9027 9030 9032 9035 9038 9041 9043 9046 9049 9051 9054 9057 9060 9063 9066 9069 9071 9074 9077 9080 9083 9086 9089 9092 9095 9097 9100 9103 9106 9108 9111 9114 9117 9120 9123 9126 9129 9132 9135 9138 9141 9144 9147 9150 9153 9156 9159 9162 9165 9168 9171 9174 9177 9180 9183 9186 9189 9191 9194 9197 9200 9203 9206 9209 9212 9214 9217 9220 9223 9226 9229 9232 9235 9238 9241 9244 9247 9250 9253 9256 9259 9262 9265 9268 9271 9274 9277 9280 9283 9286 9289 9291 9294 9296 9299 9302 9305 9308 9311 9314 9316 9319 9322 9325 9327 9330 9333 9335 9338 9341 9344 9347 9350 9353 9356 9359 9362 9365 9368 9371 9373 9376 9379 9382 9385 9388 9390 9393 9396 9399 9402 9405 9408 9411 9414 9417 9420 9423 9426 9429 9431 9434 9437 9440 9442 9445 9448 9451 9454 9457 9460 9463 9466 9469 9472 9475 9478 9480 9482 9485 9488 9491 9494 9496 9499 9502 9505 9508 9511 9514 9517 9520 9523 9525 9527 9530 9533 9536 9539 9542 9544 9547 9550 9553 9556 9559 9561 9564 9567 9570 9573 9576 9578 9581 9583 9586 9589 9592 9595 9597 9600 9602 9605 9607 9609 9612 9615 9618 9621 9624 9627 9630 9632 9634 9637 9640 9643 9646 9649 9652 9654 9656 9658 9661 9663 9665 9668 9671 9674 9676 9679 9682 9685 9688 9691 9693 9695 9697 9700 9702 9705 9708 9711 9713 9716 9718 9720 9723 9726 9729 9732 9735 9738 9741 9743 9745 9748 9751 9753 9755 9757 9760 9763 9766 9769 9772 9775 9778 9781 9784 9787 9790 9793 9796 9799 9802 9805 9808 9811 9814 9817 9820 9823 9826 9829 9832 9835 9838 9841 9844 9847 9850 9853 9856 9859 9862 9865 9868 9871 9874 9877 9879 9882 9885 9888 9891 9894 9897 9900 9903 9906 9909 9911 9914 9917 9920 9923 9926 9929 9931 9934 9937 9939 9942 9945 9948 9951 9954 9957 9960 9963 9966 9969 9972 9975 9978 9980 9983 9985 9988 9991 9994 9997 9999 10002 10005 10008 10010 10013 10016 10018 10021 10024 10027 10029 10032 10035 10037 10040 10043 10046 10049 10052 10054 10057 10060 10063 10066 10069 10072 10075 10077 10080 10083 10086 10089 10092 10095 10098 10100 10103 10106 10108 10111 10114 10117 10120 10122 10125 10127 10130 10133 10136 10139 10142 10144 10147 10150 10153 10156 10158 10161 10164 10167 10170 10173 10176 10178 10180 10183 10186 10189 10192 10195 10197 10200 10203 10205 10208 10211 10214 10217 10220 10223 10226 10229 10232 10235 10237 10240 10243 10246 10249 10252 10255 10258 10261 10264 10267 10270 10273 10276 10279 10282 10285 10288 10291 10293 10296 10299 10302 10305 10308 10311 10313 10316 10319 10322 10325 10328 10331 10334 10336 10338 10341 10344 10347 10350 10352 10355 10358 10361 10364 10367 10370 10373 10375 10378 10381 10383 10386 10388 10390 10392 10395 10398 10401 10404 10407 10410 10412 10415 10418 10421 10424 10427 10429 10432 10435 10438 10441 10443 10446 10449 10452 10454 10457 10460 10463 10465 10468 10471 10474 10477 10480 10483 10486 10489 10492 10495 10498 10501 10504 10507 10510 10513 10516 10519 10522 10525 10528 10531 10534 10537 10540 10542 10545 10548 10551 10554 10557 10560 10563 10565 10568 10570 10573 10576 10579 10582 10585 10588 10590 10593 10596 10598 10601 10604 10607 10609 10612 10615 10617 10620 10623 10626 10629 10632 10634 10637 10640 10643 10645 10647 10650 10653 10656 10659 10662 10665 10668 10671 10674 10677 10680 10683 10685 10688 10691 10694 10697 10700 10703 10706 10709 10712 10714 10717 10720 10723 10726 10729 10731 10733 10736 10739 10742 10745 10748 10751 10754 10757 10760 10762 10765 10768 10771 10774 10777 10780 10783 10786 10788 10791 10794 10797 10800 10803 10806 10809 10812 10815 10818 10821 10824 10827 10830 10833 10836 10839 10842 10844 10847 10850 10853 10856 10858 10861 10863 10866 10868 10871 10874 10877 10880 10883 10886 10889 10892 10895 10898 10901 10904 10907 10910 10913 10916 10919 10921 10924 10927 10930 10933 10936 10938 10941 10944 10947 10949 10951 10954 10957 10960 10963 10966 10968 10971 10974 10977 10980 10982 10985 10988 10991 10994 10997 11000 11003 11006 11008 11011 11014 11017 11020 11023 11026 11029 11031 11034 11037 11040 11043 11046 11049 11052 11055 11058 11060 11063 11066 11069 11072 11075 11078 11081 11084 11087 11090 11093 11096 11099 11102 11105 11108 11111 11114 11116 11119 11122 11125 11128 11131 11134 11137 11140 11143 11146 11149 11152 11155 11157 11160 11163 11166 11169 11172 11175 11177 11180 11183 11185 11188 11191 11193 11196 11199 11202 11205 11208 11211 11214 11217 11220 11223 11226 11229 11232 11235 11238 11241 11244 11247 11250 11253 11256 11259 11262 11265 11268 11271 11273 11276 11278 11281 11283 11285 11288 11291 11294 11296 11299 11302 11305 11308 11311 11314 11317 11320 11323 11325 11327 11330 11332 11335 11338 11341 11344 11347 11350 11353 11356 11359 11362 11365 11368 11371 11374 11376 11379 11381 11383 11386 11388 11391 11394 11397 11400 11403 11406 11409 11412 11415 11417 11419 11422 11425 11428 11431 11434 11437 11440 11443 11446 11449 11452 11455 11458 11461 11464 11467 11470 11473 11476 11479 11482 11485 11487 11490 11493 11496 11499 11502 11504 11507 11510 11513 11516 11519 11521 11524 11527 11530 11532 11535 11538 11541 11544 11547 11550 11553 11556 11559 11561 11564 11567 11570 11573 11575 11578 11581 11584 11587 11590 11593 11595 11598 11601 11604 11607 11610 11613 11616 11618 11621 11624 11627 11630 11632 11635 11638 11641 11644 11647 11650 11653 11656 11659 11662 11664 11667 11670 11673 11676 11678 11681 11684 11687 11689 11692 11695 11698 11701 11704 11706 11709 11712 11715 11718 11721 11724 11727 11730 11733 11736 11739 11742 11745 11748 11750 11752 11755 11758 11760 11763 11766 11769 11772 11775 11778 11781 11783 11786 11789 11792 11795 11798 11801 11803 11806 11809 11812 11815 11818 11821 11824 11827 11830 11833 11836 11839 11842 11845 11848 11851 11854 11857 11860 11863 11866 11869 11872 11874 11877 11880 11883 11886 11889 11892 11895 11898 11900 11903 11906 11909 11912 11914 11917 11920 11923 11926 11929 11931 11934 11936 11939 11941 11944 11947 11950 11953 11956 11959 11962 11964 11967 11970 11973 11975 11978 11981 11984 11987 11990 11992 11995 11998 12001 12004 12007 12009 12012 12014 12017 12020 12022 12025 12027 12030 12033 12036 12039 12042 12044 12047 12050 12053 12055 12058 12061 12064 12067 12070 12073 12076 12079 12082 12085 12087 12090 12093 12096 12099 12102 12105 12108 12111 12114 12117 12120 12123 12126 12129 12132 12135 12138 12141 12144 12147 12150 12153 12155 12158 12161 12164 12167 12170 12173 12176 12179 12182 12185 12188 12191 12194 12197 12200 12203 12206 12209 12211 12214 12217 12220 12222 12225 12228 12231 12234 12237 12240 12242 12245 12248 12251 12253 12255 12258 12260 12263 12265 12267 12270 12272 12275 12278 12280 12283 12286 12288 12290 12293 12296 12299 12302 12305 12308 12311 12314 12316 12319 12321 12324 12327 12330 12333 12336 12339 12342 12345 12348 12351 12354 12357 12360 12363 12366 12369 12372 12375 12378 12381 12384 12387 12389 12392 12395 12398 12401 12404 12407 12410 12413 12415 12418 12421 12423 12426 12429 12431 12433 12436 12439 12441 12444 12447 12450 12453 12456 12459 12462 12465 12468 12471 12474 12477 12480 12483 12486 12489 12492 12495 12498 12501 12504 12507 12510 12513 12516 12519 12522 12525 12528 12531 12534 12537 12540 12543 12546 12549 12552 12555 12558 12560 12563 12565 12568 12571 12574 12577 12580 12583 12586 12589 12592 12595 12598 12601 12604 12607 12610 12613 12616 12619 12622 12625 12628 12631 12634 12637 12640 12643 12646 12649 12652 12655 12658 12661 12664 12667 12670 12673 12676 12679 12682 12685 12687 12690 12693 12695 12698 12701 12704 12707 12710 12712 12715 12717 12720 12723 12725 12728 12731 12734 12737 12740 12743 12745 12748 12751 12754 12757 12760 12763 12766 12769 12772 12775 12778 12780 12783 12786 12788 12790 12793 12795 12798 12801 12803 12806 12809 12812 12815 12817 12820 12823 12826 12829 12832 12835 12838 12841 12844 12846 12849 12851 12854 12857 12860 12863 12866 12869 12872 12874 12877 12879 12882 12885 12888 12891 12894 12897 12900 12903 12906 12908 12911 12913 12916 12919 12922 12925 12928 12931 12934 12937 12940 12943 12945 12948 12951 12954 12956 12959 12962 12964 12967 12970 12972 12975 12978 12981 12984 12986 12989 12992 12995 12997 13000 13003 13006 13009 13012 13015 13018 13021 13024 13027 13030 13033 13036 13039 13041 13044 13047 13050 13053 13056 13059 13061 13064 13066 13069 13071 13074 13077 13080 13082 13085 13088 13091 13094 13097 13100 13103 13106 13108 13111 13114 13117 13120 13123 13125 13128 13131 13133 13136 13139 13142 13145 13148 13151 13154 13157 13160 13162 13165 13168 13171 13173 13176 13179 13182 13185 13188 13191 13193 13196 13199 13202 13205 13208 13211 13214 13217 13220 13223 13226 13229 13232 13235 13238 13241 13244 13247 13250 13253 13256 13259 13262 13265 13268 13271 13274 13277 13280 13283 13286 13288 13291 13294 13297 13300 13303 13305 13308 13311 13313 13315 13318 13321 13324 13327 13329 13332 13335 13338 13341 13344 13346 13349 13352 13355 13358 13361 13364 13367 13370 13373 13376 13379 13382 13385 13388 13391 13394 13396 13399 13402 13405 13408 13411 13414 13417 13420 13422 13424 13427 13430 13433 13436 13439 13442 13444 13447 13450 13453 13456 13458 13461 13464 13467 13470 13473 13476 13479 13482 13485 13488 13491 13494 13497 13500 13503 13506 13509 13512 13515 13518 13521 13524 13527 13530 13532 13535 13538 13540 13543 13546 13549 13552 13555 13558 13561 13564 13567 13570 13573 13576 13579 13582 13585 13588 13591 13594 13597 13600 13603 13606 13609 13612 13615 13618 13621 13623 13626 13628 13631 13634 13637 13640 13643 13645 13648 13651 13654 13657 13660 13663 13666 13669 13672 13675 13678 13681 13684 13687 13690 13693 13696 13699 13702 13705 13707 13709 13712 13714 13717 13720 13723 13726 13729 13732 13735 13738 13741 13744 13747 13750 13753 13756 13759 13762 13764 13767 13770 13773 13775 13778 13781 13784 13787 13790 13793 13796 13799 13802 13805 13808 13811 13814 13816 13819 13822 13825 13828 13831 13834 13837 13840 13843 13846 13849 13852 13855 13858 13861 13864 13867 13870 13873 13876 13879 13882 13884 13887 13890 13893 13896 13899 13902 13905 13908 13911 13914 13917 13920 13923 13925 13928 13930 13933 13936 13938 13940 13943 13946 13949 13952 13955 13958 13961 13964 13967 13970 13973 13976 13979 13982 13985 13988 13991 13994 13997 14000 14002 14005 14008 14010 14013 14016 14019 14021 14024 14027 14030 14033 14036 14039 14041 14044 14047 14050 14052 14055 14058 14061 14064 14067 14070 14073 14076 14078 14081 14084 14086 14089 14092 14094 14097 14099 14102 14105 14108 14111 14113 14115 14118 14121 14123 14125 14128 14131 14133 14136 14139 14142 14145 14147 14150 14153 14155 14157 14160 14162 14165 14168 14171 14174 14177 14180 14183 14186 14189 14192 14195 14198 14201 14204 14207 14210 14213 14216 14219 14222 14224 14227 14230 14233 14236 14238 14241 14244 14247 14250 14252 14254 14257 14260 14263 14266 14269 14272 14275 14278 14281 14284 14287 14290 14292 14295 14298 14301 14303 14306 14309 14312 14315 14318 14321 14324 14326 14329 14332 14335 14337 14340 14343 14345 14347 14350 14353 14356 14358 14361 14364 14367 14369 14372 14375 14378 14381 14384 14387 14390 14393 14396 14399 14402 14405 14408 14411 14414 14417 14420 14423 14425 14428 14431 14434 14437 14440 14443 14446 14449 14452 14455 14458 14461 14464 14467 14470 14473 14476 14479 14481 14483 14486 14489 14492 14495 14498 14500 14502 14505 14507 14510 14513 14516 14519 14522 14525 14528 14531 14534 14536 14539 14542 14545 14547 14550 14553 14556 14559 14562 14565 14568 14571 14574 14577 14580 14583 14586 14589 14591 14594 14597 14600 14603 14606 14609 14612 14614 14617 14620 14622 14625 14628 14631 14634 14637 14640 14642 14645 14648 14651 14654 14656 14659 14662 14665 14668 14671 14674 14676 14679 14682 14685 14688 14691 14694 14697 14700 14702 14704 14707 14710 14713 14715 14717 14720 14723 14726 14729 14732 14734 14737 14740 14743 14746 14749 14752 14754 14757 14760 14763 14766 14768 14771 14774 14777 14780 14783 14785 14788 14791 14794 14797 14799 14802 14805 14808 14811 14814 14817 14820 14823 14826 14829 14832 14835 14838 14841 14844 14847 14850 14853 14856 14859 14862 14865 14868 14871 14874 14876 14879 14882 14885 14888 14890 14893 14895 14898 14900 14903 14906 14908 14911 14914 14916 14919 14922 14924 14927 14930 14933 14936 14939 14942 14944 14947 14950 14952 14955 14957 14959 14961 14964 14967 14969 14972 14974 14976 14979 14982 14985 14987 14990 14992 14995 14998 15001 15004 15007 15010 15012 15015 15018 15021 15023 15026 15029 15032 15035 15038 15041 15044 15046 15049 15052 15055 15057 15060 15062 15064 15067 15070 15073 15076 15079 15082 15085 15087 15090 15093 15096 15099 15102 15105 15108 15111 15113 15115 15118 15121 15124 15127 15129 15132 15135 15137 15140 15143 15146 15148 15151 15154 15157 15159 15161 15164 15167 15170 15173 15175 15178 15181 15184 15187 15190 15192 15194 15197 15200 15203 15206 15209 15212 15215 15218 15221 15224 15227 15230 15233 15236 15239 15242 15245 15248 15251 15254 15257 15260 15263 15266 15269 15272 15275 15278 15281 15284 15287 15289 15292 15295 15298 15300 15303 15306 15309 15312 15315 15318 15321 15324 15327 15330 15333 15336 15339 15342 15345 15347 15350 15352 15354 15357 15360 15362 15365 15368 15371 15374 15377 15380 15383 15386 15389 15392 15395 15398 15401 15404 15407 15410 15413 15416 15419 15422 15425 15428 15431 15433 15436 15439 15441 15443 15446 15449 15452 15455 15458 15461 15464 15466 15469 15472 15475 15477 15480 15483 15486 15489 15491 15493 15496 15499 15502 15505 15508 15511 15514 15516 15519 15522 15525 15528 15530 15533 15536 15539 15542 15544 15547 15550 15553 15556 15559 15562 15565 15568 15571 15574 15577 15580 15583 15586 15589 15592 15595 15598 15601 15603 15606 15609 15612 15615 15618 15621 15624 15627 15630 15633 15636 15639 15642 15645 15648 15651 15653 15656 15659 15662 15664 15667 15670 15673 15676 15679 15682 15685 15688 15691 15693 15696 15699 15702 15705 15708 15711 15714 15717 15720 15723 15726 15729 15732 15735 15738 15741 15744 15747 15750 15753 15756 15758 15761 15764 15767 15770 15773 15776 15779 15782 15785 15788 15791 15794 15797 15800 15803 15806 15809 15811 15814 15817 15820 15823 15826 15828 15831 15834 15837 15840 15843 15846 15849 15852 15855 15858 15861 15864 15867 15870 15873 15876 15879 15882 15885 15888 15891 15894 15897 15900 15903 15906 15909 15911 15914 15917 15919 15922 15925 15928 15930 15933 15936 15939 15942 15945 15948 15951 15954 15957 15960 15963 15966 15969 15972 15975 15977 15980 15982 15985 15988 15991 15994 15997 16000 16003 16006 16009 16011 16014 16017 16020 16023 16026 16029 16032 16035 16038 16040 16042 16045 16048 16051 16054 16057 16060 16063 16066 16069 16072 16075 16078 16081 16084 16087 16090 16093 16096 16099 16102 16105 16108 16111 16114 16117 16120 16123 16126 16129 16132 16135 16138 16141 16144 16147 16150 16153 16156 16159 16162 16165 16168 16171 16174 16177 16180 16183 16186 16189 16192 16195 16198 16201 16204 16207 16210 16213 16216 16219 16222 16225 16228 16231 16234 16237 16240 16243 16246 16249 16252 16255 16257 16260 16263 16266 16269 16272 16275 16277 16280 16283 16286 16289 16292 16295 16298 16301 16304 16306 16309 16311 16314 16317 16320 16323 16326 16329 16332 16335 16338 16341 16344 16347 16350 16353 16356 16359 16362 16365 16368 16371 16374 16377 16380 16383 16386 16389 16392 16395 16398 16401 16404 16407 16410 16413 16415 16418 16421 16424 16426 16428 16431 16434 16437 16440 16443 16446 16449 16452 16455 16458 16461 16464 16467 16470 16473 16476 16479 16482 16485 16488 16491 16494 16496 16498 16501 16504 16507 16510 16513 16516 16519 16522 16524 16527 16530 16533 16536 16539 16542 16544 16547 16550 16553 16556 16559 16561 16564 16567 16570 16573 16575 16578 16581 16584 16586 16589 16592 16595 16597 16600 16603 16605 16608 16611 16614 16617 16620 16623 16626 16629 16632 16635 16638 16641 16644 16646 16649 16652 16655 16658 16661 16664 16667 16670 16672 16675 16678 16681 16684 16687 16690 16693 16696 16699 16702 16705 16707 16710 16713 16716 16718 16721 16724 16727 16730 16732 16735 16738 16741 16744 16747 16750 16753 16756 16758 16761 16763 16766 16769 16771 16774 16777 16780 16783 16786 16788 16791 16794 16797 16800 16803 16806 16809 16812 16815 16818 16821 16824 16826 16829 16832 16835 16838 16841 16844 16847 16850 16853 16855 16858 16861 16864 16867 16870 16873 16875 16878 16881 16884 16887 16890 16893 16896 16898 16901 16904 16907 16910 16913 16915 16918 16921 16924 16927 16930 16933 16936 16939 16942 16945 16948 16951 16954 16957 16960 16963 16966 16969 16972 16975 16978 16981 16984 16987 16990 16993 16996 16999 17002 17005 17008 17011 17014 17017 17020 17023 17026 17029 17032 17035 17038 17041 17044 17047 17050 17053 17056 17058 17061 17063 17066 17069 17072 17075 17078 17081 17084 17087 17090 17093 17096 17099 17102 17105 17107 17110 17113 17116 17119 17122 17125 17128 17131 17134 17137 17140 17143 17146 17149 17152 17154 17157 17160 17162 17165 17167 17170 17173 17176 17179 17182 17184 17187 17190 17193 17196 17199 17202 17205 17208 17211 17214 17217 17220 17223 17226 17229 17232 17235 17238 17241 17244 17246 17249 17252 17255 17258 17261 17264 17267 17270 17273 17276 17279 17281 17284 17286 17289 17292 17294 17297 17299 17302 17305 17308 17311 17314 17317 17320 17322 17325 17327 17330 17333 17336 17339 17341 17344 17347 17350 17353 17355 17357 17360 17363 17365 17368 17371 17374 17377 17380 17383 17386 17389 17392 17395 17398 17401 17404 17407 17410 17413 17415 17418 17421 17424 17427 17430 17433 17436 17439 17442 17445 17448 17451 17454 17457 17459 17462 17464 17467 17470 17473 17476 17479 17482 17485 17487 17490 17492 17495 17498 17501 17504 17507 17510 17513 17516 17519 17521 17523 17526 17529 17532 17534 17537 17540 17543 17546 17548 17551 17553 17556 17559 17561 17564 17566 17568 17570 17573 17576 17578 17581 17584 17587 17589 17591 17593 17596 17599 17602 17605 17608 17611 17614 17617 17620 17623 17626 17628 17631 17634 17637 17640 17643 17646 17648 17651 17654 17657 17659 17662 17665 17668 17671 17674 17677 17680 17683 17685 17688 17691 17694 17696 17699 17702 17705 17708 17711 17714 17717 17720 17723 17726 17729 17732 17735 17738 17741 17744 17747 17750 17753 17756 17759 17762 17765 17768 17771 17774 17777 17780 17783 17786 17789 17792 17795 17798 17801 17804 17807 17810 17813 17816 17819 17822 17825 17828 17831 17834 17837 17840 17843 17846 17849 17852 17855 17858 17861 17864 17867 17870 17873 17876 17878 17881 17884 17887 17890 17893 17895 17898 17901 17904 17907 17909 17912 17915 17918 17920 17923 17926 17929 17932 17935 17938 17941 17944 17947 17950 17953 17956 17959 17962 17965 17968 17971 17974 17977 17980 17983 17986 17989 17992 17995 17998 18001 18004 18007 18010 18013 18016 18019 18022 18025 18028 18031 18034 18037 18040 18042 18045 18048 18050 18053 18056 18059 18062 18065 18068 18071 18073 18076 18079 18082 18085 18088 18091 18094 18097 18100 18103 18106 18108 18111 18114 18116 18119 18121 18124 18127 18130 18132 18135 18138 18141 18144 18147 18150 18153 18156 18158 18161 18164 18167 18170 18172 18175 18178 18181 18184 18186 18189 18191 18194 18197 18200 18203 18206 18209 18212 18215 18218 18221 18224 18227 18229 18232 18234 18237 18240 18243 18246 18249 18252 18255 18258 18261 18264 18267 18270 18273 18275 18278 18281 18284 18287 18290 18293 18296 18299 18302 18304 18307 18310 18313 18315 18318 18321 18324 18327 18330 18333 18336 18339 18342 18345 18348 18351 18354 18357 18360 18363 18366 18369 18372 18375 18378 18381 18384 18387 18390 18393 18396 18399 18402 18405 18408 18411 18414 18417 18420 18422 18425 18428 18430 18433 18436 18439 18442 18444 18447 18450 18453 18456 18459 18462 18465 18468 18471 18474 18477 18480 18483 18486 18489 18491 18494 18497 18500 18503 18506 18509 18512 18515 18518 18520 18523 18525 18528 18531 18534 18537 18540 18543 18546 18548 18551 18554 18557 18560 18563 18566 18569 18572 18575 18578 18581 18584 18587 18590 18592 18595 18598 18601 18604 18607 18610 18613 18616 18619 18622 18625 18627 18630 18633 18636 18639 18642 18645 18648 18651 18654 18657 18660 18663 18666 18669 18672 18675 18678 18681 18684 18687 18690 18693 18696 18698 18701 18703 18706 18709 18712 18715 18718 18721 18723 18726 18728 18731 18734 18737 18739 18742 18745 18748 18750 18753 18756 18759 18761 18764 18767 18769 18772 18775 18778 18781 18784 18787 18790 18792 18795 18798 18801 18804 18807 18810 18813 18815 18818 18821 18824 18827 18830 18833 18836 18839 18842 18845 18848 18851 18854 18856 18859 18862 18865 18868 18871 18874 18877 18880 18882 18885 18888 18891 18894 18897 18900 18903 18906 18909 18912 18915 18918 18921 18924 18927 18930 18933 18936 18939 18942 18944 18947 18950 18953 18956 18959 18962 18965 18968 18971 18974 18977 18980 18983 18986 18989 18992 18995 18998 19001 19004 19007 19010 19013 19016 19019 19022 19025 19028 19031 19034 19037 19040 19043 19046 19049 19052 19055 19058 19061 19064 19067 19070 19073 19076 19079 19082 19085 19088 19091 19094 19096 19099 19101 19104 19107 19110 19112 19115 19118 19120 19122 19125 19127 19130 19133 19136 19139 19142 19145 19148 19151 19154 19157 19160 19163 19166 19169 19172 19175 19178 19181 19184 19187 19190 19193 19196 19199 19202 19205 19208 19211 19214 19217 19220 19223 19226 19229 19232 19234 19237 19240 19243 19246 19248 19251 19254 19256 19259 19262 19265 19267 19270 19273 19276 19279 19281 19284 19286 19288 19291 19294 19297 19300 19302 19305 19308 19311 19313 19316 19319 19322 19324 19327 19330 19333 19336 19339 19342 19344 19347 19350 19353 19356 19359 19362 19365 19368 19371 19374 19377 19380 19383 19386 19389 19392 19395 19398 19401 19404 19406 19409 19412 19415 19418 19421 19424 19427 19430 19433 19436 19439 19442 19445 19448 19451 19454 19457 19460 19462 19465 19468 19470 19473 19476 19478 19481 19484 19487 19490 19493 19496 19499 19502 19505 19508 19511 19513 19516 19519 19522 19525 19527 19530 19533 19536 19539 19541 19544 19547 19550 19552 19555 19558 19561 19564 19567 19570 19573 19576 19579 19582 19585 19588 19591 19594 19597 19600 19603 19606 19609 19612 19615 19618 19621 19624 19627 19629 19632 19635 19638 19641 19644 19647 19650 19653 19655 19658 19661 19664 19666 19669 19672 19675 19678 19681 19684 19687 19690 19693 19696 19699 19702 19705 19708 19711 19714 19717 19720 19723 19726 19729 19732 19735 19738 19740 19743 19746 19749 19751 19754 19757 19760 19763 19766 19769 19772 19775 19777 19780 19783 19785 19788 19791 19794 19797 19799 19802 19805 19808 19811 19814 19817 19820 19822 19825 19827 19830 19833 19835 19838 19841 19843 19845 19848 19851 19854 19857 19860 19863 19866 19869 19872 19875 19878 19881 19884 19887 19890 19893 19896 19899 19902 19905 19908 19910 19913 19916 19919 19922 19924 19927 19930 19933 19936 19939 19942 19945 19948 19951 19954 19957 19960 19963 19965 19968 19971 19973 19976 19979 19982 19985 19988 19991 19994 19997 20000 20003 20006 20009 20012 20015 20018 20021 20024 20027 20030 20033 20036 20039 20042 20045 20048 20051 20054 20057 20060 20063 20066 20069 20072 20075 20078 20081 20084 20087 20090 20093 20096 20099 20102 20105 20108 20111 20114 20117 20120 20123 20126 20129 20132 20135 20138 20141 20144 20147 20150 20153 20156 20159 20162 20165 20168 20171 20174 20177 20180 20183 20186 20189 20192 20195 20198 20201 20204 20207 20210 20213 20216 20219 20222 20225 20228 20231 20234 20237 20240 20243 20246 20249 20252 20255 20258 20261 20264 20267 20270 20273 20276 20279 20282 20285 20288 20291 20294 20297 20300 20303 20306 20309 20312 20315 20318 20321 20324 20327 20330 20333 20336 20339 20342 20345 20348 20351 20354 20357 20359 20362 20365 20368 20371 20374 20377 20380 20382 20385 20388 20391 20394 20397 20400 20403 20406 20409 20411 20414 20416 20419 20422 20425 20427 20430 20433 20435 20438 20441 20444 20447 20450 20453 20456 20459 20462 20465 20468 20471 20474 20477 20480 20483 20486 20489 20492 20495 20498 20501 20504 20507 20510 20513 20516 20519 20522 20525 20528 20531 20534 20537 20540 20543 20546 20548 20551 20554 20556 20558 20561 20564 20566 20569 20572 20574 20577 20580 20583 20585 20588 20591 20594 20597 20600 20603 20606 20609 20612 20614 20617 20620 20623 20626 20629 20632 20634 20637 20640 20643 20646 20649 20652 20655 20658 20661 20664 20667 20670 20673 20676 20679 20682 20685 20688 20691 20694 20697 20700 20703 20706 20709 20712 20715 20718 20721 20724 20727 20729 20732 20735 20738 20741 20744 20747 20750 20753 20756 20759 20762 20765 20768 20771 20774 20777 20780 20783 20786 20789 20792 20795 20798 20801 20804 20807 20810 20813 20816 20819 20822 20825 20828 20831 20834 20837 20840 20843 20846 20849 20852 20855 20858 20861 20864 20867 20869 20872 20874 20877 20880 20883 20886 20888 20891 20894 20897 20900 20902 20905 20908 20911 20914 20916 20919 20922 20925 20928 20931 20934 20937 20940 20942 20945 20948 20950 20953 20955 20958 20961 20964 20967 20969 20972 20975 20977 20979 20982 20985 20988 20991 20994 20997 20999 21002 21005 21008 21011 21014 21017 21020 21023 21026 21029 21031 21033 21036 21039 21042 21045 21048 21050 21053 21056 21058 21061 21064 21067 21070 21072 21075 21078 21080 21083 21086 21089 21092 21095 21098 21101 21104 21107 21110 21113 21116 21119 21122 21125 21128 21131 21134 21137 21140 21143 21146 21149 21152 21155 21158 21161 21164 21167 21169 21172 21174 21177 21180 21183 21186 21189 21192 21195 21198 21201 21204 21207 21210 21213 21215 21218 21221 21224 21227 21229 21231 21234 21237 21240 21243 21246 21249 21252 21255 21258 21261 21264 21267 21270 21273 21276 21279 21282 21285 21288 21291 21294 21297 21300 21303 21306 21309 21312 21315 21318 21321 21324 21327 21330 21333 21336 21339 21342 21345 21348 21351 21354 21357 21359 21362 21365 21368 21370 21373 21376 21379 21382 21385 21388 21391 21394 21397 21400 21403 21406 21409 21412 21415 21418 21421 21424 21427 21430 21432 21435 21438 21440 21443 21446 21449 21452 21455 21458 21461 21464 21467 21469 21472 21475 21478 21481 21484 21486 21489 21492 21495 21498 21501 21503 21506 21508 21511 21514 21517 21520 21523 21526 21529 21532 21535 21538 21541 21544 21547 21549 21552 21555 21558 21560 21562 21565 21568 21571 21574 21577 21580 21583 21586 21588 21591 21594 21596 21599 21602 21604 21606 21609 21612 21615 21618 21621 21623 21626 21629 21632 21635 21638 21641 21644 21646 21649 21652 21654 21656 21659 21662 21665 21668 21671 21674 21676 21678 21681 21684 21687 21689 21692 21695 21698 21701 21704 21707 21710 21712 21715 21718 21721 21724 21727 21730 21733 21736 21739 21742 21745 21748 21751 21754 21757 21760 21763 21766 21769 21772 21775 21778 21781 21784 21787 21790 21792 21795 21798 21801 21804 21807 21810 21813 21815 21818 21821 21824 21827 21830 21833 21836 21839 21842 21845 21848 21850 21853 21856 21859 21862 21865 21868 21871 21874 21876 21879 21882 21885 21888 21891 21894 21897 21900 21903 21906 21909 21912 21915 21918 21921 21924 21926 21929 21932 21935 21937 21940 21943 21946 21949 21952 21954 21957 21960 21963 21966 21969 21972 21975 21978 21981 21984 21987 21990 21993 21996 21998 22001 22004 22007 22010 22012 22015 22018 22020 22023 22026 22029 22032 22035 22037 22040 22043 22046 22049 22052 22055 22058 22061 22064 22067 22070 22073 22076 22079 22081 22084 22086 22089 22092 22095 22097 22100 22102 22105 22107 22110 22113 22116 22119 22122 22125 22127 22129 22132 22135 22138 22141 22144 22147 22149 22152 22154 22157 22160 22163 22166 22169 22172 22175 22178 22181 22184 22187 22190 22193 22196 22199 22202 22205 22207 22210 22213 22216 22218 22220 22223 22226 22229 22232 22235 22237 22240 22243 22245 22247 22250 22253 22256 22259 22262 22265 22268 22271 22274 22277 22280 22283 22286 22289 22292 22295 22298 22301 22304 22307 22310 22313 22316 22319 22322 22325 22328 22331 22334 22337 22340 22343 22346 22349 22352 22355 22358 22361 22364 22367 22370 22373 22376 22379 22381 22384 22387 22389 22391 22393 22396 22399 22402 22405 22408 22411 22413 22416 22419 22422 22425 22428 22431 22434 22437 22440 22442 22445 22448 22451 22453 22456 22459 22462 22465 22468 22471 22474 22477 22480 22483 22486 22489 22492 22495 22498 22501 22504 22507 22510 22513 22515 22518 22521 22524 22527 22529 22532 22535 22538 22541 22544 22547 22550 22553 22556 22559 22562 22565 22568 22571 22574 22577 22580 22583 22586 22589 22592 22595 22598 22601 22604 22607 22610 22613 22616 22619 22622 22625 22628 22631 22633 22636 22638 22641 22644 22647 22650 22653 22656 22659 22662 22664 22667 22670 22673 22675 22678 22680 22683 22686 22689 22692 22695 22698 22701 22704 22706 22709 22712 22715 22718 22720 22723 22726 22729 22732 22734 22737 22740 22743 22746 22749 22752 22755 22757 22760 22763 22766 22769 22771 22774 22777 22780 22783 22786 22789 22792 22795 22798 22801 22804 22807 22810 22813 22816 22819 22822 22825 22828 22831 22834 22837 22840 22843 22846 22849 22852 22855 22858 22861 22864 22867 22870 22873 22876 22879 22882 22885 22888 22891 22894 22897 22900 22903 22906 22909 22911 22914 22917 22920 22923 22925 22927 22930 22933 22935 22937 22940 22943 22946 22949 22952 22955 22958 22961 22964 22967 22970 22973 22976 22979 22982 22985 22988 22991 22994 22996 22999 23002 23005 23007 23009 23012 23015 23018 23021 23024 23027 23030 23033 23036 23039 23042 23045 23048 23051 23054 23057 23060 23063 23066 23069 23072 23075 23078 23081 23084 23087 23090 23092 23095 23098 23101 23104 23107 23110 23113 23115 23118 23121 23124 23127 23130 23133 23136 23139 23142 23145 23148 23151 23154 23157 23160 23162 23165 23168 23171 23174 23177 23180 23183 23186 23188 23191 23193 23195 23198 23201 23204 23207 23210 23213 23216 23219 23222 23225 23228 23231 23233 23236 23239 23242 23245 23248 23251 23254 23257 23260 23263 23266 23269 23272 23275 23278 23281 23284 23287 23289 23292 23295 23298 23300 23303 23306 23309 23312 23315 23318 23321 23324 23326 23329 23332 23335 23338 23341 23344 23347 23350 23353 23356 23359 23362 23365 23368 23371 23373 23376 23379 23382 23384 23387 23390 23393 23396 23399 23402 23405 23408 23411 23414 23417 23420 23423 23426 23429 23432 23435 23438 23441 23444 23447 23450 23453 23456 23459 23462 23465 23468 23471 23474 23477 23480 23483 23485 23488 23490 23493 23496 23499 23502 23505 23508 23511 23514 23516 23519 23522 23525 23528 23531 23534 23537 23540 23543 23545 23548 23551 23553 23556 23559 23562 23565 23568 23570 23573 23576 23579 23582 23584 23587 23590 23593 23596 23598 23601 23604 23607 23609 23612 23614 23617 23620 23622 23625 23628 23631 23634 23637 23640 23643 23646 23649 23652 23655 23658 23661 23664 23666 23669 23672 23674 23677 23679 23682 23685 23688 23690 23693 23696 23698 23701 23704 23707 23710 23712 23715 23717 23720 23723 23726 23729 23732 23735 23737 23740 23742 23745 23748 23751 23754 23757 23759 23762 23765 23768 23771 23773 23776 23779 23782 23785 23788 23791 23793 23796 23799 23802 23805 23808 23811 23814 23817 23820 23823 23826 23829 23832 23835 23838 23841 23844 23847 23850 23853 23856 23859 23862 23865 23868 23871 23874 23877 23880 23883 23886 23889 23892 23894 23896 23899 23902 23905 23908 23911 23914 23917 23920 23923 23926 23928 23931 23934 23936 23938 23941 23943 23946 23949 23952 23955 23958 23961 23964 23966 23969 23972 23975 23978 23981 23984 23987 23990 23993 23996 23999 24002 24004 24007 24010 24013 24016 24018 24021 24024 24027 24030 24033 24036 24039 24042 24045 24048 24051 24054 24056 24059 24062 24065 24068 24071 24074 24077 24080 24083 24086 24089 24092 24095 24098 24101 24104 24107 24109 24112 24115 24118 24121 24124 24126 24129 24132 24135 24137 24140 24143 24146 24149 24152 24155 24157 24160 24162 24165 24168 24171 24173 24176 24179 24182 24185 24188 24191 24194 24197 24200 24202 24205 24208 24210 24213 24216 24219 24222 24225 24228 24231 24233 24236 24239 24242 24245 24248 24251 24254 24257 24260 24263 24266 24269 24272 24274 24277 24280 24282 24285 24288 24291 24294 24297 24300 24302 24305 24308 24311 24314 24317 24320 24322 24325 24328 24331 24334 24337 24340 24343 24345 24348 24351 24354 24357 24360 24363 24366 24369 24372 24375 24378 24381 24384 24387 24390 24393 24396 24399 24402 24405 24408 24411 24413 24416 24419 24422 24425 24428 24431 24434 24437 24440 24443 24445 24448 24451 24454 24457 24459 24461 24464 24467 24470 24473 24475 24478 24481 24484 24487 24490 24493 24496 24499 24502 24504 24507 24510 24513 24516 24519 24522 24525 24528 24531 24534 24537 24539 24542 24545 24548 24550 24553 24556 24559 24561 24564 24567 24570 24573 24576 24579 24582 24585 24588 24591 24594 24597 24599 24602 24605 24608 24611 24614 24616 24619 24622 24624 24627 24630 24633 24636 24639 24642 24645 24648 24651 24654 24657 24660 24663 24666 24668 24671 24674 24677 24680 24683 24686 24689 24691 24694 24697 24700 24702 24705 24708 24711 24714 24717 24719 24722 24725 24728 24731 24734 24737 24740 24743 24746 24748 24751 24754 24757 24760 24763 24766 24769 24772 24774 24777 24780 24783 24786 24789 24791 24794 24797 24800 24803 24806 24809 24812 24814 24817 24820 24823 24826 24829 24832 24835 24838 24841 24844 24847 24850 24853 24856 24859 24862 24865 24868 24871 24874 24877 24880 24883 24886 24889 24892 24895 24898 24901 24904 24907 24910 24913 24916 24919 24922 24925 24928 24931 24934 24937 24940 24943 24946 24949 24952 24955 24958 24960 24963 24966 24969 24972 24975 24978 24981 24983 24986 24989 24992 24995 24998 25001 25004 25007 25010 25013 25016 25019 25022 25025 25028 25031 25034 25037 25040 25043 25046 25049 25051 25053 25056 25059 25061 25063 25066 25069 25072 25075 25078 25081 25084 25086 25089 25092 25095 25098 25101 25104 25107 25110 25113 25116 25119 25122 25125 25128 25130 25133 25136 25139 25142 25145 25148 25151 25154 25156 25159 25162 25164 25167 25170 25173 25175 25178 25181 25184 25187 25190 25193 25196 25199 25202 25205 25208 25211 25214 25217 25220 25223 25226 25229 25232 25235 25238 25241 25244 25247 25250 25253 25256 25259 25261 25264 25267 25270 25273 25276 25279 25282 25285 25287 25290 25293 25296 25299 25302 25305 25307 25309 25312 25315 25318 25321 25323 25326 25329 25331 25334 25337 25339 25342 25345 25348 25351 25354 25357 25359 25362 25365 25368 25371 25374 25377 25380 25383 25385 25388 25391 25394 25397 25400 25403 25406 25409 25412 25415 25418 25420 25423 25426 25428 25431 25434 25437 25440 25443 25446 25449 25451 25454 25457 25460 25462 25465 25467 25470 25472 25475 25478 25481 25484 25487 25490 25493 25496 25499 25502 25505 25508 25511 25514 25517 25520 25523 25525 25528 25530 25533 25536 25539 25542 25545 25548 25551 25554 25557 25560 25562 25565 25568 25571 25574 25577 25580 25583 25585 25588 25591 25594 25596 25599 25601 25603 25606 25609 25611 25614 25617 25620 25623 25625 25628 25631 25634 25636 25639 25642 25645 25647 25650 25652 25654 25657 25660 25663 25666 25669 25672 25674 25677 25680 25683 25686 25689 25692 25695 25698 25700 25702 25704 25707 25709 25712 25715 25717 25719 25722 25725 25727 25730 25733 25736 25739 25742 25745 25748 25751 25754 25757 25760 25762 25765 25768 25771 25774 25777 25780 25783 25786 25789 25792 25795 25798 25801 25803 25805 25808 25811 25814 25817 25819 25822 25825 25828 25830 25833 25836 25839 25842 25845 25847 25849 25852 25855 25858 25860 25863 25866 25869 25872 25875 25878 25881 25884 25887 25890 25893 25896 25899 25902 25905 25907 25910 25913 25916 25918 25921 25924 25927 25929 25932 25935 25938 25941 25944 25947 25949 25952 25955 25958 25961 25964 25966 25969 25972 25975 25978 25981 25984 25987 25990 25992 25995 25998 26001 26004 26007 26010 26013 26016 26019 26021 26024 26027 26030 26033 26035 26038 26040 26043 26046 26048 26051 26053 26056 26059 26062 26065 26068 26071 26073 26076 26078 26080 26083 26086 26089 26092 26095 26098 26101 26104 26106 26109 26111 26114 26116 26119 26121 26124 26127 26130 26133 26136 26139 26142 26145 26148 26151 26154 26156 26159 26162 26165 26167 26170 26173 26176 26179 26182 26185 26188 26191 26193 26196 26199 26202 26205 26208 26211 26214 26217 26220 26222 26225 26228 26231 26234 26236 26239 26242 26244 26247 26250 26253 26256 26259 26262 26265 26268 26271 26273 26276 26279 26282 26284 26287 26290 26293 26296 26299 26302 26305 26308 26311 26314 26317 26320 26323 26326 26329 26332 26335 26338 26341 26343 26346 26349 26352 26355 26358 26361 26364 26367 26370 26373 26375 26378 26381 26384 26387 26390 26393 26396 26399 26402 26405 26408 26411 26414 26417 26420 26423 26426 26429 26432 26435 26438 26441 26444 26447 26450 26453 26456 26459 26462 26465 26468 26471 26474 26477 26480 26483 26486 26489 26492 26495 26498 26501 26504 26507 26510 26512 26514 26517 26520 26523 26526 26529 26532 26535 26538 26541 26544 26547 26550 26553 26555 26557 26560 26563 26566 26568 26571 26574 26576 26579 26582 26585 26587 26590 26593 26596 26598 26601 26604 26607 26610 26613 26616 26619 26622 26624 26627 26630 26632 26635 26637 26639 26642 26645 26648 26651 26654 26657 26659 26662 26664 26666 26668 26671 26674 26676 26679 26682 26684 26686 26689 26692 26695 26698 26701 26704 26707 26710 26713 26716 26719 26722 26725 26728 26731 26734 26737 26740 26743 26746 26749 26751 26754 26757 26760 26763 26766 26769 26772 26775 26778 26780 26783 26786 26789 26792 26795 26798 26801 26803 26805 26808 26811 26814 26817 26820 26823 26826 26829 26832 26835 26838 26841 26844 26847 26850 26853 26856 26859 26862 26865 26868 26871 26874 26876 26879 26881 26884 26887 26890 26893 26896 26899 26902 26904 26907 26910 26913 26915 26917 26920 26923 26925 26928 26931 26934 26937 26939 26942 26945 26948 26950 26953 26956 26959 26961 26964 26967 26970 26973 26976 26979 26982 26985 26988 26990 26992 26995 26998 27001 27004 27007 27009 27012 27015 27017 27019 27021 27024 27027 27030 27033 27036 27038 27041 27044 27047 27050 27053 27056 27059 27062 27065 27067 27070 27072 27075 27078 27081 27084 27087 27090 27093 27096 27099 27102 27105 27108 27111 27114 27117 27120 27123 27126 27129 27132 27135 27138 27141 27144 27146 27149 27152 27155 27158 27160 27162 27165 27168 27171 27173 27176 27179 27182 27185 27188 27191 27194 27197 27200 27203 27206 27209 27212 27215 27218 27221 27223 27226 27229 27232 27234 27237 27240 27242 27245 27248 27251 27254 27257 27260 27263 27266 27269 27272 27275 27278 27281 27283 27286 27289 27291 27294 27297 27300 27302 27305 27307 27310 27312 27315 27317 27319 27321 27324 27327 27330 27333 27336 27339 27342 27345 27347 27350 27353 27356 27359 27362 27365 27368 27371 27373 27376 27379 27381 27384 27387 27390 27393 27396 27399 27402 27405 27408 27411 27414 27417 27420 27423 27426 27429 27432 27435 27438 27441 27444 27446 27449 27452 27455 27458 27461 27464 27467 27470 27473 27476 27478 27481 27483 27486 27489 27491 27494 27496 27499 27501 27504 27507 27509 27512 27514 27517 27520 27522 27525 27528 27531 27533 27536 27539 27542 27545 27548 27551 27554 27557 27560 27563 27566 27569 27572 27575 27578 27581 27584 27587 27590 27593 27596 27599 27602 27605 27608 27611 27614 27617 27620 27623 27626 27629 27632 27635 27638 27641 27644 27647 27650 27653 27656 27659 27662 27665 27668 27671 27674 27677 27680 27683 27686 27689 27692 27695 27698 27701 27704 27707 27710 27713 27716 27718 27721 27724 27726 27729 27732 27735 27738 27741 27744 27746 27748 27751 27754 27757 27760 27763 27766 27769 27772 27775 27778 27781 27784 27787 27790 27793 27796 27799 27802 27804 27807 27810 27813 27815 27818 27821 27824 27827 27830 27833 27836 27839 27842 27845 27848 27851 27854 27857 27860 27863 27865 27868 27871 27874 27877 27880 27883 27886 27888 27891 27894 27897 27900 27903 27906 27909 27912 27914 27917 27919 27922 27925 27928 27931 27934 27937 27940 27943 27946 27949 27952 27955 27958 27961 27964 27967 27969 27972 27975 27978 27981 27984 27987 27990 27992 27995 27998 28001 28004 28006 28009 28012 28015 28018 28021 28024 28027 28029 28032 28035 28037 28039 28042 28045 28047 28050 28053 28056 28059 28062 28065 28067 28070 28073 28076 28079 28082 28085 28088 28091 28094 28096 28099 28102 28104 28107 28110 28112 28115 28118 28120 28123 28126 28129 28132 28135 28137 28140 28143 28146 28149 28152 28155 28158 28161 28163 28166 28169 28172 28175 28178 28181 28184 28186 28189 28192 28195 28198 28201 28204 28207 28210 28213 28216 28219 28222 28224 28227 28230 28233 28236 28239 28242 28245 28247 28249 28252 28254 28257 28259 28262 28265 28268 28271 28274 28277 28280 28283 28286 28289 28292 28295 28298 28301 28304 28306 28309 28311 28314 28317 28320 28323 28326 28329 28332 28335 28337 28340 28342 28345 28347 28350 28352 28355 28357 28360 28363 28365 28368 28371 28374 28377 28380 28382 28385 28388 28391 28394 28397 28400 28403 28406 28408 28411 28414 28417 28420 28423 28425 28428 28431 28433 28436 28438 28440 28443 28446 28449 28452 28455 28458 28461 28464 28466 28469 28472 28475 28478 28481 28484 28487 28490 28493 28496 28499 28502 28505 28507 28510 28513 28516 28519 28522 28525 28528 28530 28533 28536 28539 28541 28544 28547 28550 28553 28556 28559 28562 28565 28568 28571 28574 28577 28580 28583 28586 28589 28592 28594 28597 28600 28603 28606 28609 28612 28615 28617 28620 28623 28625 28628 28631 28634 28637 28640 28643 28646 28649 28652 28655 28658 28661 28664 28667 28670 28672 28675 28678 28681 28684 28686 28689 28692 28695 28698 28701 28704 28707 28710 28713 28716 28719 28722 28725 28728 28731 28734 28737 28740 28743 28746 28749 28752 28755 28758 28761 28763 28766 28769 28772 28775 28778 28781 28783 28786 28789 28792 28795 28798 28801 28804 28807 28810 28812 28814 28817 28820 28823 28825 28828 28830 28833 28836 28839 28842 28845 28848 28851 28854 28857 28860 28863 28866 28869 28872 28875 28877 28880 28883 28886 28889 28892 28895 28898 28901 28904 28907 28910 28913 28915 28917 28920 28923 28926 28929 28932 28935 28938 28941 28943 28946 28949 28951 28954 28957 28959 28961 28964 28967 28970 28973 28976 28979 28982 28984 28987 28990 28993 28996 28999 29002 29005 29008 29011 29013 29016 29019 29022 29024 29027 29030 29033 29036 29039 29041 29044 29047 29050 29053 29056 29059 29062 29065 29068 29071 29074 29077 29079 29082 29085 29088 29090 29093 29096 29099 29101 29104 29107 29110 29113 29116 29119 29122 29125 29128 29131 29134 29137 29140 29143 29146 29149 29152 29155 29158 29161 29164 29167 29170 29173 29176 29179 29182 29185 29188 29191 29194 29197 29199 29202 29205 29208 29211 29214 29217 29220 29223 29226 29229 29232 29235 29238 29241 29244 29247 29250 29253 29256 29259 29262 29265 29268 29271 29273 29276 29278 29281 29284 29286 29289 29292 29295 29298 29301 29304 29307 29310 29313 29315 29318 29321 29324 29327 29330 29333 29336 29339 29342 29345 29348 29351 29354 29357 29359 29362 29365 29368 29371 29373 29376 29379 29382 29384 29387 29390 29393 29396 29399 29402 29405 29408 29411 29414 29417 29420 29423 29426 29429 29432 29435 29438 29441 29444 29447 29450 29453 29456 29459 29462 29465 29468 29471 29474 29477 29480 29483 29486 29489 29492 29495 29498 29501 29504 29507 29510 29513 29516 29519 29522 29525 29528 29531 29534 29537 29540 29543 29546 29549 29552 29555 29558 29561 29564 29567 29570 29573 29576 29579 29582 29585 29588 29591 29594 29597 29600 29603 29606 29609 29612 29615 29618 29621 29624 29627 29630 29633 29636 29639 29642 29645 29648 29651 29654 29657 29660 29663 29666 29669 29672 29675 29678 29681 29684 29687 29690 29693 29696 29699 29702 29705 29708 29711 29714 29717 29720 29723 29726 29729 29732 29735 29738 29741 29744 29747 29750 29753 29756 29759 29762 29765 29768 29771 29774 29777 29780 29783 29786 29789 29792 29795 29798 29801 29804 29807 29810 29813 29816 29819 29822 29825 29828 29831 29834 29837 29840 29843 29846 29849 29852 29855 29858 29861 29864 29867 29870 29873 29876 29879 29882 29885 29888 29891 29894 29897 29900 29903 29906 29909 29912 29915 29918 29921 29924 29927 29930 29933 29936 29939 29942 29945 29948 29951 29953 29956 29959 29962 29965 29968 29971 29974 29977 29980 29983 29986 29989 29992 29995 29998 30001 30003 30006 30009 30012 30015 30018 30021 30024 30027 30029 30032 30035 30038 30041 30043 30046 30049 30052 30055 30058 30061 30064 30067 30070 30073 30076 30079 30082 30085 30088 30091 30094 30097 30100 30103 30106 30109 30111 30114 30117 30120 30123 30126 30129 30132 30135 30138 30141 30144 30147 30150 30152 30154 30157 30160 30163 30166 30169 30171 30174 30176 30179 30182 30185 30188 30191 30194 30197 30200 30203 30206 30209 30211 30214 30217 30220 30223 30226 30229 30232 30234 30237 30240 30243 30246 30249 30252 30255 30258 30261 30264 30267 30270 30273 30276 30279 30281 30283 30286 30289 30292 30295 30298 30301 30304 30307 30310 30313 30316 30319 30321 30324 30327 30330 30333 30336 30339 30342 30345 30348 30351 30354 30357 30360 30363 30366 30369 30371 30374 30377 30380 30383 30386 30389 30392 30394 30397 30400 30403 30406 30409 30412 30415 30418 30421 30424 30426 30428 30431 30434 30437 30440 30443 30446 30449 30452 30455 30458 30461 30464 30467 30470 30473 30476 30479 30482 30485 30488 30491 30494 30497 30500 30503 30506 30509 30512 30515 30518 30520 30523 30526 30529 30532 30535 30537 30540 30543 30546 30549 30552 30555 30558 30561 30564 30567 30569 30572 30575 30578 30581 30583 30586 30589 30592 30595 30598 30601 30604 30607 30610 30613 30615 30618 30620 30623 30626 30629 30632 30635 30638 30641 30644 30647 30650 30653 30656 30659 30662 30665 30668 30671 30674 30677 30680 30683 30686 30689 30692 30695 30698 30701 30704 30707 30710 30713 30715 30718 30721 30724 30727 30730 30732 30735 30738 30741 30744 30747 30750 30753 30756 30759 30762 30765 30768 30771 30774 30777 30780 30783 30786 30788 30791 30794 30796 30799 30802 30805 30807 30810 30813 30816 30819 30822 30824 30827 30830 30833 30836 30839 30842 30845 30848 30851 30854 30856 30859 30862 30865 30868 30871 30874 30876 30879 30882 30885 30888 30891 30893 30895 30898 30901 30903 30906 30909 30911 30914 30917 30920 30923 30926 30929 30932 30935 30938 30941 30943 30946 30949 30951 30954 30957 30959 30962 30965 30967 30970 30973 30975 30978 30981 30983 30986 30989 30992 30995 30998 31001 31003 31006 31009 31012 31015 31018 31021 31024 31027 31030 31033 31036 31038 31041 31044 31047 31050 31053 31056 31059 31061 31064 31067 31070 31073 31075 31078 31081 31084 31086 31089 31092 31095 31098 31101 31104 31107 31110 31113 31116 31119 31121 31124 31127 31130 31133 31136 31139 31142 31145 31148 31151 31154 31157 31160 31163 31166 31169 31172 31175 31178 31181 31184 31187 31190 31193 31195 31198 31201 31204 31207 31210 31212 31215 31218 31221 31224 31227 31230 31233 31236 31239 31242 31245 31248 31251 31254 31256 31259 31262 31264 31267 31269 31272 31275 31278 31281 31283 31286 31288 31290 31293 31295 31298 31301 31304 31307 31310 31313 31316 31318 31321 31323 31326 31329 31332 31335 31338 31341 31343 31346 31349 31352 31355 31358 31361 31363 31366 31369 31372 31375 31377 31380 31383 31386 31389 31392 31394 31397 31400 31402 31405 31408 31411 31414 31416 31419 31422 31425 31428 31430 31433 31436 31439 31442 31445 31448 31450 31453 31456 31459 31462 31465 31468 31471 31474 31477 31479 31482 31485 31488 31491 31494 31497 31499 31502 31505 31508 31511 31513 31516 31519 31522 31525 31528 31531 31534 31537 31540 31543 31546 31549 31552 31555 31558 31561 31563 31566 31569 31572 31574 31577 31580 31582 31585 31588 31591 31594 31597 31600 31603 31606 31609 31612 31615 31618 31621 31624 31627 31630 31632 31635 31637 31640 31643 31646 31649 31652 31655 31658 31661 31664 31667 31670 31673 31676 31679 31682 31685 31688 31691 31694 31697 31700 31703 31706 31709 31712 31715 31717 31720 31723 31725 31728 31731 31734 31737 31740 31743 31746 31749 31752 31755 31757 31760 31763 31766 31769 31771 31774 31777 31780 31783 31785 31788 31791 31794 31797 31800 31803 31806 31809 31812 31814 31817 31820 31823 31826 31829 31832 31835 31838 31841 31844 31847 31850 31853 31856 31859 31862 31865 31868 31871 31874 31877 31880 31883 31886 31889 31892 31895 31898 
</DataArray>
<DataArray type="UInt32" Name="types" format="ascii">
5 5 5 5 5 3 5 5 5 5 5 5 5 3 5 5 5 5 3 5 5 3 5 5 5 5 3 5 5 5 5 3 5 5 5 5 5 5 5 5 5 5 5 5 5 3 5 5 3 5 5 5 5 5 3 5 5 5 5 5 5 5 3 5 5 5 5 3 5 5 5 5 5 5 5 5 5 3 5 5 3 5 5 3 5 5 5 5 3 5 5 5 5 5 5 5 3 3 3 5 5 3 5 5 5 5 5 3 5 5 5 5 5 5 5 5 5 5 5 5 5 3 5 5 5 3 5 5 5 5 5 5 3 5 5 5 5 5 5 5 5 5 5 5 5 5 5 5 5 5 5 5 5 5 5 5 5 5 3 5 5 5 3 5 5 3 5 5 5 5 5 5 5 5 5 5 5 3 5 5 5 5 5 5 5 5 3 5 5 5 5 5 5 5 5 3 5 5 5 5 5 5 5 5 5 3 5 5 5 5 5 5 5 5 5 5 5 5 5 5 5 5 5 5 5 5 5 5 5 3 5 5 5 3 5 3 5 3 5 5 3 5 5 5 3 5 3 5 3 5 3 3 5 3 5 5 3 5 3 5 5 5 3 5 3 3 5 5 3 5 5 5 3 5 3 3 3 5 3 5 5 5 3 5 3 3 3 5 5 3 3 5 5 5 5 3 5 3 5 5 3 5 5 5 3 5 3 3 3 5 5 5 3 5 3 3 3 3 5 5 5 3 3 5 5 3 3 3 5 3 5 5 5 5 3 5 5 5 5 5 5 5 3 5 5 5 5 5 5 3 3 5 5 5 3 5 5 5 3 5 3 5 3 3 5 5 5 5 3 5 5 3 5 5 5 5 3 5 3 5 5 5 5 5 3 3 5 5 5 5 5 5 5 5 3 5 5 5 3 5 5 3 5 3 5 5 5 5 5 5 5 5 5 5 5 3 5 3 5 3 5 5 5 3 5 3 5 3 5 5 5 5 5 5 3 5 3 5 5 5 3 5 5 5 3 5 3 3 5 5 5 5 3 5 5 5 5 3 3 5 5 3 5 3 5 3 3 5 5 5 3 5 5 5 5 3 5 5 5 5 5 5 5 5 5 5 5 3 5 5 5 5 3 5 5 5 3 5 3 3 3 5 5 5 3 3 5 3 5 5 3 5 5 5 5 3 5 5 5 5 5 5 5 5 5 5 5 3 3 5 5 3 5 5 5 3 5 5 5 5 5 5 3 5 5 5 3 5 5 5 3 5 5 5 5 5 5 5 5 5 5 5 3 5 5 5 3 5 5 5 5 5 5 5 3 5 5 5 5 5 3 5 5 5 5 5 5 5 5 5 5 5 5 5 5 5 5 5 5 5 3 5 5 5 5 3 5 5 3 5 5 5 5 5 5 5 3 5 5 5 5 5 5 5 5 3 5 3 5 5 3 5 5 5 3 5 5 3 5 5 5 3 5 3 5 5 3 5 3 5 5 5 5 5 5 5 5 5 5 5 5 5 5 5 5 5 5 5 5 5 5 3 5 3 5 3 5 5 5 5 5 5 5 5 5 5 5 5 5 5 5 3 5 5 5 5 5 5 5 5 5 3 5 5 5 5 5 5 5 5 5 5 5 5 5 5 5 5 5 5 5 5 5 5 5 5 5 5 5 5 5 3 5 5 3 5 5 5 3 3 5 3 5 5 5 5 5 3 5 5 5 5 5 3 5 5 5 5 5 5 5 5 5 5 5 5 5 5 5 5 5 5 5 5 5 5 5 5 5 5 5 5 5 5 5 5 5 5 5 5 5 5 5 5 5 5 5 5 5 5 5 5 5 3 5 5 5 5 5 5 5 5 5 5 5 5 5 5 5 3 5 5 5 5 3 5 5 5 5 5 5 5 5 5 5 5 5 5 5 5 5 5 5 5 5 5 5 5 5 5 5 5 3 5 5 3 5 3 3 3 3 5 5 3 5 5 5 5 5 5 5 5 5 5 5 5 5 5 5 5 5 3 5 5 3 5 3 5 5 5 5 3 5 3 5 5 5 5 3 5 5 5 3 5 5 5 5 5 3 5 3 5 5 3 3 5 3 5 5 5 5 5 5 5 5 5 5 5 3 5 5 5 3 5 5 5 3 5 5 3 3 3 5 5 5 5 5 5 5 5 5 5 5 3 5 5 5 5 5 5 5 5 3 3 3 5 5 5 5 5 5 5 5 3 3 5 5 5 3 5 5 3 5 5 5 5 5 5 5 5 5 5 5 3 5 5 5 5 5 5 5 5 3 5 5 5 5 5 5 5 5 5 5 3 5 3 3 3 5 5 5 5 5 5 5 3 3 5 3 5 5 5 5 5 3 5 3 3 5 5 5 3 5 3 5 5 5 5 3 5 5 5 5 5 5 5 5 5 5 5 5 5 5 5 5 5 3 5 5 5 3 5 5 5 5 5 3 5 5 5 5 5 5 3 5 3 5 5 5 5 5 5 5 5 3 5 5 5 3 5 5 5 5 5 5 5 5 5 5 5 5 5 5 5 5 5 5 5 5 5 5 5 5 5 3 3 3 5 5 5 5 3 5 5 5 5 3 5 5 5 5 5 5 5 3 5 5 5 5 5 5 5 5 3 5 5 5 5 5 5 5 5 5 5 5 5 3 5 5 5 5 5 5 3 5 5 5 5 5 5 5 5 3 5 5 5 3 5 5 5 5 5 5 5 5 5 5 5 5 3 5 5 5 5 5 5 5 5 5 5 5 5 5 5 5 5 5 5 5 5 5 5 5 5 5 5 5 5 5 5 5 5 5 5 5 5 5 5 5 5 5 5 5 5 5 5 5 3 5 5 5 5 5 5 5 5 5 5 5 5 5 5 5 5 5 5 5 5 5 5 5 5 3 5 5 5 5 5 5 5 5 5 5 3 5 5 3 5 5 5 5 5 5 5 5 5 3 5 3 5 5 5 5 3 5 5 3 5 3 5 5 5 5 5 3 5 5 5 5 5 5 5 5 3 5 5 5 5 5 5 5 5 5 5 5 5 5 5 3 5 3 3 5 5 5 5 5 3 5 5 5 5 5 5 5 5 5 5 5 5 5 5 5 3 5 5 5 5 5 5 5 5 5 5 5 5 5 5 5 5 3 5 5 5 5 5 3 3 5 5 3 5 5 5 5 5 5 5 5 5 5 3 5 5 5 5 5 5 5 5 5 3 5 3 5 5 5 5 5 3 5 5 5 5 3 5 5 5 3 5 5 5 3 5 5 3 5 5 5 5 5 5 5 5 5 5 5 5 5 5 5 5 3 5 5 5 5 5 5 5 3 5 5 5 5 5 5 5 5 5 5 5 5 5 5 5 5 5 5 5 5 5 5 5 5 5 5 5 3 5 5 5 5 3 5 5 5 3 5 5 5 5 5 5 5 5 5 3 5 3 5 5 5 5 5 5 5 5 5 5 5 5 5 5 5 5 5 5 3 3 5 5 5 3 5 5 3 5 5 3 5 5 5 3 5 5 3 5 5 5 5 5 5 5 5 5 5 5 5 5 5 5 5 5 5 5 5 3 5 3 5 5 5 5 5 5 5 5 5 5 5 3 5 3 5 5 5 3 5 5 5 5 5 3 5 5 5 5 5 5 3 5 5 5 5 5 5 5 5 5 5 5 3 5 5 5 5 5 5 5 5 3 5 5 5 3 5 5 3 5 5 5 5 5 3 5 5 5 5 5 5 5 5 5 3 5 5 3 5 3 5 3 3 3 5 3 5 5 5 5 5 5 3 5 5 5 5 5 5 3 5 5 5 5 5 5 5 3 5 5 5 5 3 5 5 5 5 5 3 5 3 5 5 5 5 5 5 5 5 5 5 3 5 5 5 5 5 5 5 3 5 5 5 5 5 5 5 3 5 3 5 5 5 5 5 5 5 5 3 5 5 5 3 3 5 5 5 5 5 3 3 5 3 5 5 3 5 5 3 5 5 5 5 5 5 5 5 3 5 5 5 5 5 3 5 5 5 5 3 5 5 3 5 5 5 5 5 5 5 5 5 5 5 5 5 5 5 5 5 5 5 5 5 5 5 5 5 5 5 5 5 5 5 5 5 5 5 5 5 5 5 5 5 3 5 5 3 5 5 5 5 5 3 5 5 5 5 3 5 5 5 5 5 5 5 5 5 5 5 5 5 5 5 5 5 5 5 5 5 5 5 5 3 5 5 5 3 5 5 5 5 5 5 3 5 5 5 5 5 5 5 5 5 5 5 3 5 3 3 5 5 3 5 5 5 5 5 5 5 5 5 5 5 3 5 5 3 5 5 5 5 5 5 5 5 5 5 5 5 5 5 5 3 5 5 5 5 5 5 5 3 5 3 5 5 5 5 3 5 3 5 5 5 5 5 5 5 5 5 3 5 5 5 5 5 5 5 5 5 5 5 5 5 5 5 5 5 3 5 5 5 5 5 5 5 5 5 5 5 5 5 5 5 5 5 5 5 5 5 5 5 5 5 3 3 5 5 5 5 5 5 5 5 5 5 5 3 5 5 5 5 3 5 5 5 5 3 5 5 5 5 5 5 5 5 3 5 5 5 5 5 5 5 5 5 3 5 5 5 5 5 5 5 5 5 5 5 5 5 5 5 5 5 5 5 5 3 5 5 5 5 5 5 5 5 5 5 5 5 5 5 3 5 3 5 5 5 5 5 5 5 5 3 5 5 3 5 5 5 5 5 5 5 5 5 5 5 5 5 5 5 5 5 5 5 5 5 5 5 5 5 5 5 5 5 5 5 5 5 5 5 5 3 5 5 3 5 5 5 5 3 5 3 5 5 3 5 3 5 5 5 5 5 3 5 5 5 5 5 5 5 5 5 5 5 5 3 5 5 5 3 5 5 5 5 5 5 5 5 5 3 5 5 5 5 3 3 5 5 5 5 5 5 5 5 3 5 5 5 5 5 3 5 5 5 3 5 5 5 3 5 5 5 5 3 5 5 5 5 5 5 5 5 5 5 5 5 5 5 3 5 5 5 5 5 5 3 5 3 3 5 3 5 3 5 5 5 5 3 5 5 5 5 3 5 5 5 5 5 5 5 5 5 3 5 5 5 5 5 5 5 5 5 5 5 5 5 5 3 5 5 5 3 5 5 5 3 5 3 5 5 5 5 5 5 5 5 5 5 5 5 5 5 5 5 3 5 5 5 5 5 5 3 5 5 5 5 5 5 5 5 5 5 5 5 5 5 5 5 5 5 3 5 5 5 5 5 5 5 5 5 5 5 5 5 5 5 5 5 5 5 5 5 5 5 5 5 5 5 5 5 5 5 5 5 5 3 5 5 5 5 3 5 5 5 5 5 5 5 3 5 5 5 5 5 5 5 5 5 3 5 5 3 5 5 5 5 5 3 5 5 5 3 5 5 3 5 5 5 5 5 5 5 5 5 5 5 5 5 5 5 5 5 5 5 5 3 5 5 5 5 5 5 5 5 5 5 3 3 5 3 5 5 5 5 5 3 5 5 5 5 3 5 5 5 5 5 3 5 3 5 5 3 5 5 5 5 5 5 5 5 3 5 5 5 5 5 5 3 5 5 5 5 5 5 3 5 5 5 5 3 5 5 3 5 3 5 5 3 5 5 5 5 5 5 3 5 5 5 5 3 5 5 5 5 5 5 5 5 3 3 5 5 5 5 5 5 5 5 3 5 5 5 5 5 5 3 5 5 5 5 5 5 5 3 5 5 5 3 5 5 5 5 5 5 5 5 5 5 5 5 3 5 5 5 5 3 5 5 3 5 5 5 5 3 5 5 5 3 3 5 5 5 3 5 5 5 3 5 5 5 5 5 5 5 5 5 3 5 5 5 3 5 5 5 5 5 5 5 5 5 5 5 5 3 5 3 5 5 3 5 5 3 5 5 5 5 5 5 5 3 5 5 5 5 5 3 5 3 5 5 5 3 3 5 3 3 5 3 5 5 5 5 5 5 3 5 3 5 5 5 5 5 5 5 5 5 5 5 5 5 3 5 5 3 5 3 5 5 3 5 5 5 3 3 5 5 3 5 5 5 5 5 5 5 5 5 5 5 5 5 5 5 5 5 5 5 5 5 5 5 3 3 5 3 5 3 5 5 3 3 5 5 3 5 5 3 5 5 3 5 3 5 5 5 5 3 5 5 5 5 3 5 3 3 5 3 5 5 3 3 5 5 5 3 5 5 5 5 3 3 5 5 5 5 5 3 5 5 5 5 5 5 5 5 5 5 5 3 5 3 5 3 5 5 3 5 3 5 5 5 5 5 5 5 5 3 5 5 3 5 5 5 5 3 5 5 5 5 5 5 5 5 5 5 5 5 3 5 5 5 5 5 5 5 5 5 5 5 3 5 5 5 5 5 5 3 5 3 5 5 3 5 5 5 5 5 5 5 5 5 5 5 5 5 5 5 5 5 3 3 5 5 5 3 5 5 3 5 5 5 5 5 5 5 5 5 5 5 5 5 5 5 5 5 5 5 5 5 5 5 5 5 3 3 5 5 5 5 5 5 5 5 5 5 5 3 5 5 5 5 5 5 5 5 5 5 5 5 5 5 5 5 5 5 5 5 5 5 5 5 5 5 5 5 5 5 5 5 5 3 5 5 5 5 5 3 5 5 3 5 5 3 3 5 5 5 5 5 5 5 5 5 5 5 5 5 3 5 5 3 5 5 5 5 5 5 3 5 5 3 5 5 5 5 5 5 5 5 5 5 5 5 5 3 5 5 5 5 5 5 5 3 5 5 5 5 5 5 5 5 5 5 5 5 3 5 5 3 5 5 5 5 5 5 5 5 5 5 5 5 5 5 5 5 5 5 5 5 3 5 5 3 5 3 5 5 5 3 5 5 3 5 3 5 5 5 3 5 5 5 5 3 5 5 5 5 5 5 5 3 5 5 5 3 5 5 5 5 5 5 5 5 5 5 5 5 3 5 5 5 5 5 5 5 5 3 5 5 5 5 5 5 5 5 5 5 5 3 5 5 5 5 5 5 5 5 5 5 5 5 5 5 5 5 5 5 5 3 3 5 5 5 3 5 5 5 5 5 5 5 5 5 5 5 5 3 5 5 5 5 5 5 5 5 5 3 5 5 5 5 5 5 5 5 5 5 5 5 5 5 5 5 3 5 3 5 5 5 5 5 3 5 5 5 5 3 5 5 5 3 5 5 5 3 5 5 5 5 5 5 5 5 5 3 5 5 5 3 5 5 3 5 5 5 5 5 5 3 5 5 5 5 5 5 5 5 3 5 5 5 3 5 5 5 5 5 5 5 5 5 5 5 5 5 5 5 5 5 5 5 5 5 5 5 5 5 5 5 3 5 5 5 5 5 5 5 3 5 5 5 5 5 5 5 5 5 5 5 5 5 5 5 5 5 5 5 5 5 5 5 5 5 3 5 3 5 5 5 5 5 5 3 5 5 5 3 5 5 3 5 5 5 5 5 5 5 5 5 5 5 5 3 5 5 5 5 5 3 5 5 5 5 5 5 5 5 5 5 5 5 5 3 5 5 5 3 5 5 5 5 5 5 5 5 5 5 5 5 3 3 5 5 5 5 3 5 5 5 5 5 5 5 5 5 3 3 5 5 5 5 5 3 5 5 5 5 5 3 5 5 5 5 5 3 5 3 5 5 5 5 3 5 3 5 3 3 5 5 5 5 5 5 5 3 3 5 5 5 5 5 5 3 3 3 5 3 3 5 5 5 3 5 5 5 5 5 3 3 3 5 3 5 5 5 3 5 3 3 5 5 5 5 5 5 5 3 3 5 5 3 3 3 5 5 5 5 5 5 5 5 5 5 5 5 5 5 5 5 5 5 5 5 5 5 5 5 5 5 5 5 5 5 5 5 5 5 5 5 5 5 5 5 3 5 5 5 5 5 5 5 5 5 5 3 5 5 5 5 5 5 3 5 5 3 5 5 5 5 5 5 5 5 5 5 5 5 5 3 5 3 5 5 5 5 3 5 5 5 3 5 5 3 5 5 5 3 5 5 3 5 5 5 5 5 3 5 5 5 5 5 5 5 3 5 5 5 5 5 5 5 3 5 5 3 5 5 5 5 3 5 3 5 5 5 5 5 3 5 5 5 5 3 5 5 5 5 5 5 3 3 5 5 5 5 5 3 5 5 3 5 5 5 5 5 5 5 5 5 5 3 5 5 5 5 5 5 5 5 5 5 5 5 5 5 5 5 5 5 3 5 5 5 5 5 5 3 5 5 5 5 5 5 5 3 3 5 5 5 5 3 5 5 5 5 5 5 5 3 5 5 3 5 3 3 3 5 5 5 5 5 5 3 5 5 5 5 5 3 5 5 5 5 3 5 5 5 3 5 5 5 3 5 5 5 5 5 5 5 5 5 5 5 5 5 5 5 5 5 5 5 5 5 5 5 5 5 3 5 5 5 5 5 5 5 3 5 3 5 5 5 5 5 5 3 5 5 3 5 5 5 3 5 5 3 5 5 5 5 5 3 5 5 5 3 3 5 5 5 5 5 5 5 5 5 5 5 5 3 5 5 5 5 5 5 5 5 5 3 5 5 5 5 5 3 3 5 5 5 5 5 5 5 5 5 3 5 5 5 5 5 5 5 5 3 5 5 5 5 5 5 5 5 5 5 5 5 5 5 5 5 5 5 3 5 5 5 5 3 5 3 5 3 5 5 5 5 5 5 5 5 5 5 5 5 5 5 5 5 5 3 5 5 5 5 5 3 5 5 5 3 3 5 5 5 5 5 3 5 5 5 5 3 5 5 5 5 5 5 5 5 3 5 5 5 5 5 5 5 3 5 5 5 5 5 5 5 5 5 3 5 5 5 5 5 5 5 5 5 5 5 5 5 5 5 5 5 5 3 5 5 5 5 5 5 5 5 5 5 5 5 5 3 5 5 5 5 5 5 3 5 5 3 5 5 3 5 5 5 5 5 5 5 5 5 5 5 5 5 5 5 5 5 5 5 5 5 5 5 5 5 5 3 5 3 5 3 3 5 5 5 3 5 5 5 5 5 5 5 5 5 3 3 5 3 5 5 5 5 5 5 5 5 5 5 5 5 5 5 3 5 3 3 5 3 5 5 5 5 5 5 5 5 5 3 3 5 5 5 5 5 5 5 5 5 5 5 5 5 5 5 5 5 5 5 5 5 5 3 5 5 5 5 5 3 5 5 5 5 5 3 5 5 5 3 5 5 5 5 5 5 5 5 5 3 5 5 5 5 3 5 5 5 5 5 5 3 5 5 5 5 5 5 5 3 5 5 5 5 3 5 5 5 5 5 5 5 5 5 5 3 5 5 5 5 3 5 5 5 3 5 5 5 5 5 3 5 5 5 5 5 5 5 5 5 5 5 5 5 5 3 3 5 5 3 5 5 5 5 5 5 5 3 5 5 5 5 5 5 3 5 5 5 5 5 5 5 5 5 5 5 5 5 5 5 5 5 5 5 5 5 5 5 3 5 5 5 5 5 5 5 5 3 5 5 5 5 3 5 5 5 5 5 3 5 3 5 3 5 5 5 5 5 5 5 3 5 5 5 3 5 5 5 5 5 3 5 5 5 5 5 3 5 3 5 5 3 5 3 5 5 5 5 5 3 5 5 5 3 5 5 5 5 5 5 5 5 5 5 3 5 5 5 5 5 5 5 5 5 5 5 5 5 5 5 5 5 5 5 5 5 5 3 5 5 5 5 5 5 5 5 5 5 5 5 5 5 5 5 5 5 3 5 5 5 3 5 5 5 5 5 5 3 5 5 5 3 3 5 3 5 3 3 5 3 5 5 3 5 5 3 3 5 5 5 5 5 5 5 5 3 5 3 5 5 5 5 5 5 5 5 5 5 5 5 5 5 5 5 5 5 5 5 5 5 3 5 5 5 5 5 5 5 5 3 5 5 3 5 5 3 3 5 5 3 5 5 5 5 5 5 5 5 5 5 5 5 5 5 5 5 5 5 5 5 5 5 5 5 5 5 5 5 5 5 5 5 5 5 5 5 5 5 5 3 5 3 5 5 5 5 5 5 5 5 5 5 5 5 5 5 5 5 5 5 5 5 5 5 5 5 5 5 5 5 5 5 5 5 5 5 5 5 5 5 5 5 3 5 5 3 5 5 5 5 5 3 5 3 5 5 3 5 5 5 5 5 5 3 5 5 5 5 5 5 5 5 5 5 5 3 5 5 3 3 5 3 5 5 3 5 5 5 5 3 5 5 5 5 5 5 5 5 5 3 5 3 5 5 5 5 5 5 5 3 5 3 5 5 5 5 5 5 5 5 5 3 5 3 5 5 5 5 5 5 5 5 5 5 3 5 5 5 3 5 5 3 5 5 3 5 5 5 5 3 5 5 5 3 5 5 5 5 5 5 5 5 5 5 5 5 5 5 3 5 5 5 5 5 5 3 5 3 5 3 5 5 5 3 5 5 5 5 5 5 5 5 3 5 5 5 5 5 3 5 5 3 5 5 5 5 5 5 5 5 5 3 5 5 5 3 5 5 5 5 5 5 3 5 5 5 5 5 5 5 5 5 5 5 5 5 5 5 5 5 5 5 5 5 5 5 5 5 5 5 5 5 5 5 3 5 5 5 5 5 3 5 5 3 3 5 5 5 5 3 5 5 5 5 5 3 5 5 5 5 5 5 5 5 5 5 5 5 5 5 5 5 3 5 5 5 5 5 5 5 5 3 3 5 5 5 5 5 5 3 5 5 5 5 3 5 5 5 5 5 5 5 5 5 5 5 5 5 5 5 5 5 5 5 5 5 5 5 5 3 5 5 3 5 5 5 5 5 5 5 5 5 5 5 5 5 5 5 5 5 5 5 5 5 5 5 5 5 5 5 3 5 3 5 5 5 5 5 3 5 5 5 5 5 5 5 5 5 5 5 5 5 5 5 5 5 5 5 5 3 3 5 3 5 5 5 5 5 5 5 5 5 5 5 5 5 5 5 5 3 5 5 5 3 5 5 5 5 5 5 5 5 5 5 5 5 5 3 5 5 5 5 5 5 5 5 5 5 5 5 5 5 5 5 5 5 5 5 5 5 3 5 5 5 5 5 5 5 5 5 5 5 5 5 3 5 3 5 5 3 3 5 5 5 5 5 5 5 5 5 5 5 5 5 5 5 5 5 5 5 5 3 5 5 3 5 5 5 3 5 5 5 5 5 5 3 5 5 5 3 5 5 5 5 5 5 5 5 3 5 5 3 5 5 3 5 3 5 5 5 5 3 3 5 5 3 3 5 5 3 5 5 5 5 3 5 5 3 3 5 3 5 5 5 5 5 5 5 5 5 5 5 5 5 5 5 5 5 5 5 5 3 5 5 5 5 3 5 5 5 5 3 3 5 5 5 5 5 5 5 5 5 5 5 5 3 5 5 5 3 5 5 5 5 5 5 5 3 5 5 5 3 5 5 3 3 5 5 5 3 5 5 5 3 5 5 5 5 5 5 5 5 5 5 5 5 5 5 5 5 5 5 3 5 5 5 5 5 5 5 5 5 5 5 5 5 5 5 5 5 5 3 3 5 5 5 5 5 3 3 5 3 5 5 5 5 5 5 5 5 5 3 5 5 5 3 5 5 5 5 5 5 5 5 5 5 5 5 5 5 3 5 5 5 5 5 5 5 3 5 5 3 5 5 5 5 5 5 3 5 5 5 5 3 5 5 5 5 5 5 3 5 5 5 5 5 5 5 5 3 3 5 5 5 3 3 5 5 5 5 5 3 5 5 5 5 5 5 3 5 5 5 5 3 5 5 5 5 5 3 5 5 5 5 3 5 5 5 5 5 5 5 5 5 5 5 5 5 5 5 5 5 5 5 5 5 5 5 5 5 3 5 5 5 5 3 5 3 5 3 5 5 3 5 5 3 5 5 3 5 5 5 5 5 5 3 5 5 3 5 3 3 3 5 5 3 5 3 3 5 5 5 3 5 3 5 5 5 5 5 5 3 5 5 5 3 5 5 5 5 5 5 5 3 5 5 5 3 5 3 3 5 5 5 5 5 5 5 3 5 5 5 5 5 5 5 5 3 3 5 5 5 5 3 5 5 3 5 5 5 3 5 5 5 3 3 5 5 5 5 3 5 5 5 5 5 3 3 5 5 5 5 5 5 5 5 5 5 5 5 5 5 5 5 5 5 5 5 5 5 5 5 5 5 5 5 5 5 5 3 5 5 5 3 5 5 5 5 5 5 5 5 5 5 5 5 5 5 5 3 5 3 3 5 5 3 5 5 5 5 5 5 5 5 5 5 5 5 5 5 5 5 5 5 5 5 5 5 5 3 5 5 3 3 5 5 5 5 5 5 5 3 5 5 5 3 5 5 5 5 3 3 5 5 5 5 5 5 5 3 5 5 5 5 3 5 5 5 5 3 5 5 5 5 5 5 5 5 5 5 5 5 5 5 5 5 5 5 5 3 5 5 5 5 5 5 5 5 5 5 5 5 5 5 5 5 3 5 5 5 3 5 5 5 5 5 5 5 5 5 3 5 5 5 5 5 5 5 5 5 5 5 5 5 5 5 5 5 5 5 5 5 3 5 5 5 5 5 5 5 5 5 5 5 5 5 5 5 5 5 3 5 5 5 5 5 3 5 5 5 5 5 5 5 5 5 5 5 5 5 5 5 5 5 5 5 5 5 5 5 5 5 5 5 3 5 5 3 5 5 5 3 5 5 5 5 5 5 5 5 5 5 5 5 5 5 5 3 5 3 5 5 5 5 5 5 5 5 5 3 5 5 5 5 5 5 5 5 5 3 3 5 5 5 5 5 5 5 5 5 5 5 5 5 5 5 5 5 5 5 5 5 5 5 5 5 5 5 5 5 5 5 5 5 5 5 5 5 5 5 5 5 5 5 5 5 5 5 5 5 5 5 5 5 5 5 5 5 5 5 5 5 5 5 5 5 5 5 5 5 5 5 3 5 5 5 5 5 5 3 5 5 5 5 5 5 5 5 5 3 5 3 5 5 5 5 5 5 5 5 5 5 5 5 5 5 5 5 5 5 5 5 5 5 5 5 5 5 5 5 5 5 5 5 5 5 3 5 5 5 3 3 5 5 5 5 5 5 5 5 5 5 5 5 5 5 5 5 5 5 5 5 5 5 3 3 5 5 5 5 5 5 5 5 3 5 5 5 5 5 5 3 5 5 5 5 5 3 5 5 5 5 3 5 5 5 3 5 5 5 3 5 5 3 5 5 5 5 5 5 5 5 5 5 5 5 5 3 5 5 5 5 5 5 5 5 3 5 5 5 5 5 5 5 5 5 5 5 3 5 5 5 3 5 5 5 5 3 5 5 5 5 5 5 5 5 3 5 3 5 5 3 5 5 5 5 5 3 5 5 5 5 5 5 5 5 5 5 5 5 3 5 5 5 5 5 5 5 5 5 3 5 5 5 5 5 5 3 5 5 5 5 5 5 5 3 5 5 5 5 5 3 5 5 5 5 5 5 5 5 5 5 5 5 5 5 5 5 5 5 5 5 5 5 5 5 5 5 5 5 5 5 5 5 5 5 5 5 5 5 5 5 5 5 5 5 5 5 5 3 5 3 5 5 5 5 5 5 5 5 5 5 5 5 5 5 3 5 5 5 5 5 5 5 5 5 5 5 5 5 5 5 3 5 5 3 5 3 5 5 5 5 5 3 5 5 5 5 5 5 5 5 5 5 5 5 5 5 5 5 5 5 5 5 3 5 5 5 5 5 5 5 5 5 5 5 3 5 3 5 5 3 5 3 5 5 5 5 5 5 5 3 5 3 5 5 5 5 3 5 5 5 5 3 3 5 5 3 5 5 5 5 5 5 5 5 5 5 5 5 5 5 5 5 3 5 5 5 5 5 5 5 5 5 5 5 5 5 5 3 5 3 5 5 5 5 5 5 5 3 5 3 5 5 5 5 5 5 5 5 5 3 3 5 5 5 3 5 5 5 5 3 5 3 5 5 3 5 3 3 3 5 5 3 5 5 5 3 3 3 5 5 5 5 5 5 5 5 5 5 5 3 5 5 5 5 5 5 3 5 5 5 3 5 5 5 5 5 5 5 5 3 5 5 5 3 5 5 5 5 5 5 5 5 5 5 5 5 5 5 5 5 5 5 5 5 5 5 5 5 5 5 5 5 5 5 5 5 5 5 5 5 5 5 5 5 5 5 5 5 5 5 5 5 5 5 5 5 5 5 5 5 5 5 5 5 3 5 5 5 5 5 3 5 5 5 5 3 5 5 5 3 5 5 5 5 5 5 5 5 5 5 5 5 5 5 5 5 5 5 5 5 5 5 5 5 5 5 5 5 5 5 5 5 5 5 5 5 5 5 5 5 3 5 5 3 5 5 5 5 5 5 5 3 5 5 5 5 5 5 5 5 5 5 5 3 5 5 3 5 3 5 5 5 3 5 5 5 5 5 5 5 5 3 5 5 5 5 3 5 5 5 5 3 5 3 5 5 5 5 5 5 5 5 5 5 5 5 3 5 3 5 5 5 5 5 5 5 5 5 5 5 5 5 3 5 5 5 5 5 5 5 5 5 3 5 5 5 3 5 5 5 5 5 5 5 5 5 5 5 5 5 5 5 5 5 5 5 5 5 5 5 5 5 5 5 5 5 5 5 5 5 5 5 3 5 5 3 5 5 5 5 3 5 5 5 5 5 5 5 5 5 5 5 5 5 5 5 3 5 5 5 5 5 5 5 5 5 3 5 3 5 5 5 5 5 5 5 3 5 5 5 5 5 5 5 5 5 5 5 5 5 5 3 5 5 5 5 5 5 5 5 5 5 5 3 5 5 5 5 5 5 5 5 5 5 5 5 5 5 5 5 5 5 5 5 5 5 5 3 5 3 5 5 5 5 5 5 3 5 3 5 5 5 3 5 5 5 3 5 5 5 3 5 5 3 5 5 5 5 5 5 5 3 5 5 5 5 5 5 5 3 5 5 5 5 5 5 5 5 5 5 5 5 5 3 5 5 5 5 5 5 5 5 3 5 5 5 5 5 5 5 5 5 5 5 5 5 5 5 5 5 5 5 5 3 5 5 5 5 5 5 5 5 5 5 5 5 5 5 5 5 5 5 5 5 5 5 5 5 5 5 5 5 5 5 5 5 5 5 5 5 5 5 5 5 5 5 5 5 5 5 5 5 5 5 3 5 3 5 5 5 3 5 5 3 3 5 3 5 5 5 5 5 5 5 5 5 5 5 5 5 5 5 5 5 5 5 5 5 5 5 5 5 5 5 5 5 5 5 5 5 5 5 3 5 5 5 5 3 5 5 3 5 5 5 3 5 5 5 5 3 5 3 3 5 5 5 5 3 5 5 5 3 5 5 5 3 5 5 5 5 5 5 3 5 5 5 5 5 5 5 5 5 5 5 5 5 5 5 5 5 5 5 5 3 5 5 5 5 5 5 5 5 5 5 5 5 5 5 5 5 5 5 3 5 5 3 5 5 3 5 5 5 5 5 5 5 5 5 5 5 3 5 5 5 5 3 5 5 5 5 3 5 5 5 3 5 5 5 5 5 5 5 5 5 5 5 5 5 5 5 5 5 5 5 5 5 5 5 5 5 3 5 5 5 5 5 5 5 5 3 5 5 5 3 5 5 5 5 5 5 5 5 5 5 5 5 5 5 5 5 5 5 5 5 5 5 5 5 3 5 5 5 3 5 5 5 5 5 5 5 5 3 5 5 3 5 5 5 5 3 5 5 5 5 5 5 5 3 5 3 5 5 3 5 5 3 3 5 5 5 5 5 5 5 5 5 5 5 5 5 5 5 5 5 5 5 5 5 3 5 5 5 5 3 5 5 5 5 5 5 5 5 5 5 5 5 5 3 5 5 3 5 5 5 5 5 5 5 5 5 5 5 5 5 5 5 5 5 5 5 5 5 5 5 5 5 5 5 5 5 5 5 5 5 5 5 5 5 5 5 5 5 5 5 5 5 5 5 5 5 5 5 5 5 5 5 5 5 5 5 5 5 5 5 5 5 5 5 5 5 5 5 5 5 5 5 5 5 5 5 5 5 5 5 5 5 5 5 5 5 5 5 5 5 5 5 5 5 5 5 5 5 5 5 5 5 5 5 5 5 5 5 5 5 5 5 5 5 5 5 5 5 5 5 5 5 5 5 5 3 5 5 5 5 5 5 5 3 5 5 5 5 5 5 5 5 5 3 5 3 5 5 5 3 5 5 3 5 5 5 5 5 5 5 5 5 5 5 5 5 5 5 5 5 5 5 5 5 5 5 5 5 5 5 5 5 5 5 5 5 5 5 5 5 3 5 5 3 3 5 5 3 5 5 3 5 5 5 3 5 5 5 5 5 5 5 5 5 3 5 5 5 5 5 5 3 5 5 5 5 5 5 5 5 5 5 5 5 5 5 5 5 5 5 5 5 5 5 5 5 5 5 5 5 5 5 5 3 5 5 5 5 5 5 5 5 5 5 5 5 5 5 5 5 5 5 5 5 5 5 5 5 5 5 5 5 5 5 5 5 5 5 5 5 5 5 5 5 5 5 5 5 5 5 3 5 3 5 5 5 5 3 5 5 5 5 3 5 5 5 5 3 5 5 5 5 5 5 5 5 3 5 5 3 5 3 5 5 5 5 3 5 5 3 3 5 5 5 5 5 5 3 5 5 5 5 5 5 5 5 5 5 3 3 5 5 5 5 5 3 5 5 3 5 5 5 5 3 5 5 3 5 5 5 5 5 5 5 5 5 5 5 5 5 5 5 5 5 5 5 5 5 5 5 5 5 5 5 5 5 3 5 3 5 5 5 5 5 5 5 5 5 5 5 5 5 3 5 5 5 5 3 3 5 5 5 5 5 5 5 5 5 5 5 5 5 5 5 5 5 5 5 5 5 5 5 5 5 5 5 5 5 5 5 5 5 5 5 5 5 5 5 5 5 5 3 5 5 5 3 5 5 5 5 5 5 5 5 5 5 5 5 5 5 5 5 5 5 5 5 3 5 5 3 5 5 5 5 5 5 5 5 5 3 5 5 5 5 5 3 5 5 5 5 5 3 5 3 5 5 5 5 5 5 5 5 5 5 5 5 5 3 5 5 5 3 3 5 5 5 5 5 5 5 5 3 5 5 3 5 5 3 3 5 5 5 5 5 3 5 5 5 5 5 5 5 3 5 5 3 3 5 5 5 5 5 5 3 3 5 5 5 3 5 5 5 5 5 5 5 3 5 5 5 5 5 5 5 5 5 5 5 5 5 5 5 5 5 5 5 5 5 5 5 5 5 5 3 5 5 5 5 5 5 5 3 5 5 5 5 5 5 5 5 5 5 5 3 5 5 5 5 5 5 5 5 3 5 5 5 5 5 5 5 5 5 5 5 5 5 5 5 5 3 5 5 5 3 5 5 5 5 5 3 5 5 5 5 5 5 5 5 5 5 5 5 5 5 3 5 5 5 5 3 5 5 3 5 5 5 5 5 3 5 5 5 5 5 5 5 5 5 5 5 5 5 5 3 5 3 5 5 5 3 5 3 5 3 5 5 5 5 5 5 3 3 5 5 5 5 5 5 3 5 3 5 5 5 5 5 5 5 5 5 5 5 5 5 5 5 5 5 3 5 5 5 3 3 5 5 5 5 5 3 5 5 3 3 5 5 5 5 5 5 5 5 5 5 5 5 5 5 5 5 5 5 5 5 5 5 5 5 5 5 5 5 5 5 5 5 5 5 5 5 5 5 5 5 5 5 5 5 3 5 5 3 3 3 5 5 5 5 5 5 3 5 5 5 5 5 5 5 5 5 3 5 5 5 3 5 5 5 5 5 5 5 5 5 5 5 5 5 5 5 5 5 5 5 5 3 5 5 5 5 3 5 5 5 5 5 5 5 5 5 5 5 5 5 5 5 5 5 5 5 5 5 5 5 5 5 5 5 5 5 5 5 5 5 5 3 5 3 5 5 5 5 5 5 5 5 3 5 5 5 3 5 3 5 5 5 5 5 5 5 5 3 5 5 5 5 3 5 5 5 5 3 5 5 5 5 5 5 5 3 5 5 5 5 3 5 5 5 5 5 5 5 5 5 5 5 5 5 5 5 5 5 5 5 5 5 5 5 5 5 5 5 5 5 5 5 5 5 5 5 5 5 5 5 5 5 5 5 5 5 5 3 5 5 5 5 3 3 5 5 3 3 5 5 5 5 5 5 5 5 5 5 5 5 5 5 5 5 5 5 5 3 5 5 5 3 3 5 5 5 5 5 5 5 5 5 5 5 5 5 5 5 5 5 5 5 5 5 5 5 5 5 5 5 3 5 5 5 5 5 5 5 3 5 5 5 5 5 5 5 5 5 5 5 5 5 5 5 3 5 5 5 5 5 5 5 5 3 5 3 3 5 5 5 5 5 5 5 5 5 5 5 5 3 5 5 5 5 5 5 5 5 5 5 5 5 5 5 5 5 5 5 3 5 5 5 3 5 5 5 5 5 5 5 5 3 5 5 5 5 5 5 5 5 5 5 5 5 5 5 5 3 5 5 5 3 5 5 5 5 5 5 5 5 5 5 5 5 5 5 5 5 5 5 5 5 5 5 5 5 5 5 5 5 5 5 5 5 5 3 5 3 5 5 5 5 5 5 5 5 3 5 5 5 5 5 5 5 5 5 3 5 5 3 5 5 5 5 5 3 5 5 5 5 3 5 5 5 5 3 5 5 5 3 5 3 5 5 3 5 5 5 5 5 5 5 5 5 5 5 5 5 5 3 5 5 3 5 3 5 5 5 3 5 5 3 5 5 5 5 3 5 3 5 5 5 5 5 5 3 5 3 5 5 5 5 5 3 5 5 5 5 3 5 5 5 5 5 5 3 5 5 5 5 5 5 5 5 5 5 5 5 5 5 5 5 5 5 5 5 5 5 5 5 5 5 5 5 5 5 5 5 5 3 3 5 5 5 5 5 5 5 5 5 5 3 5 5 3 3 5 3 5 5 5 5 5 5 5 3 5 5 5 5 5 5 5 5 5 5 5 5 3 5 5 5 5 3 5 5 5 5 5 5 5 5 5 5 5 5 3 5 5 5 5 5 5 5 5 5 5 5 5 5 5 5 5 5 3 5 5 5 5 5 3 5 5 5 3 5 5 5 5 5 5 3 5 3 5 5 5 3 5 5 5 5 5 5 5 5 5 3 5 5 3 5 5 5 5 5 5 5 3 5 5 5 5 5 5 5 5 5 5 5 5 5 3 5 5 3 5 5 5 5 5 5 3 5 5 5 5 5 5 3 5 5 5 5 5 5 5 3 5 5 5 5 5 5 5 5 5 5 5 5 5 5 5 5 5 5 5 5 5 5 3 5 5 5 5 5 5 5 5 5 5 3 5 5 5 5 3 3 5 5 5 5 3 5 5 5 5 5 5 5 5 5 3 5 5 5 5 5 5 5 5 5 5 5 3 5 5 5 3 5 5 5 3 5 5 5 5 5 5 5 5 5 5 5 5 3 5 5 5 5 5 3 5 5 3 5 5 5 5 5 5 5 5 5 5 5 5 5 5 3 5 5 5 5 5 5 5 3 5 5 5 3 5 5 5 5 5 3 5 5 5 5 5 5 5 5 5 3 5 5 5 5 5 5 5 5 3 5 5 5 5 5 3 5 5 5 5 5 5 5 3 5 5 5 5 5 5 5 5 5 5 5 5 5 5 5 5 5 5 5 5 5 5 5 5 5 5 5 5 5 5 5 5 5 5 5 5 5 5 5 5 5 5 5 5 5 5 5 5 3 5 5 5 5 5 5 5 3 5 5 5 5 5 5 5 5 5 5 5 5 5 5 5 5 5 5 5 5 5 5 3 3 5 5 3 3 5 5 5 5 5 5 5 3 5 5 5 5 5 5 5 5 5 5 5 5 5 5 3 5 5 5 5 5 5 5 5 3 5 5 3 5 5 5 3 5 5 5 5 5 5 5 5 5 5 5 5 5 5 5 5 5 5 5 5 5 5 5 5 5 5 5 5 3 5 5 5 5 5 5 5 5 3 5 5 5 5 5 5 3 3 5 5 5 5 3 5 5 3 5 5 3 5 5 5 5 5 5 3 5 5 5 5 5 5 5 5 3 5 5 5 5 5 5 5 5 5 5 5 3 5 5 3 5 5 5 5 5 5 5 3 5 5 5 3 5 3 5 3 5 5 5 5 5 5 5 5 5 5 5 5 5 5 5 5 5 3 5 3 5 5 5 5 5 5 5 5 5 5 3 5 5 5 5 5 5 5 3 5 5 5 3 5 3 3 5 5 3 5 5 5 5 3 5 5 5 3 5 5 5 3 5 3 3 5 5 5 5 5 5 3 5 5 5 5 5 5 5 5 3 3 3 5 3 5 5 3 3 5 5 3 5 5 5 5 5 5 5 5 5 5 5 3 5 5 5 5 5 5 5 5 5 5 5 5 5 3 3 5 5 5 5 3 5 5 5 3 5 5 5 5 5 3 3 5 5 5 3 5 5 5 5 5 5 5 5 5 5 5 5 5 5 5 3 5 5 5 3 5 5 5 3 5 5 5 5 5 5 3 5 5 5 5 5 3 5 5 5 5 5 5 5 5 3 5 5 5 5 5 5 5 5 5 3 5 5 5 5 3 5 3 5 5 3 5 3 5 5 5 5 5 5 3 5 3 3 5 5 5 5 5 5 5 5 3 5 3 5 3 5 3 5 5 5 5 5 5 5 5 5 5 5 3 5 5 5 3 5 5 5 5 5 5 5 5 3 5 5 5 5 5 5 5 5 5 3 5 5 5 5 3 5 5 3 5 5 5 5 5 5 5 5 5 3 5 5 5 3 5 5 5 5 5 5 5 5 5 5 5 5 5 5 5 5 5 5 5 3 5 5 5 5 5 5 5 5 5 5 3 5 5 5 5 5 5 5 5 5 5 5 5 5 5 5 5 5 5 5 5 5 5 5 5 5 5 5 5 5 5 5 5 5 5 5 5 5 5 5 5 5 5 5 5 5 3 3 5 5 5 5 5 5 5 5 5 5 5 5 5 3 3 5 5 5 3 5 5 3 5 5 5 3 5 5 5 3 5 5 5 5 5 5 5 5 3 5 5 3 5 3 3 5 5 5 5 5 5 3 5 3 3 3 5 5 3 5 5 3 3 5 5 5 5 5 5 5 5 5 5 5 5 5 5 5 5 5 5 5 5 5 3 5 5 5 5 5 5 5 5 5 3 5 5 5 5 5 5 5 3 3 5 5 5 5 5 5 5 5 5 5 5 5 5 5 5 5 5 5 5 5 5 5 5 3 5 3 5 5 5 5 5 5 5 3 5 5 5 3 3 5 5 3 5 5 5 5 3 5 5 5 3 5 5 5 3 5 5 5 5 5 5 5 5 5 3 3 5 5 5 5 5 3 5 5 3 3 3 5 5 5 5 5 3 5 5 5 5 5 5 5 5 5 3 5 3 5 5 5 5 5 5 5 5 5 5 5 5 5 5 5 5 5 5 5 5 5 5 5 5 3 5 5 5 5 3 3 5 5 5 3 5 5 5 5 5 5 5 5 5 5 5 5 5 5 5 5 3 5 5 5 3 5 5 3 5 5 5 5 5 5 5 5 5 5 5 5 5 3 5 5 3 5 5 5 3 5 3 5 3 5 3 3 3 5 5 5 5 5 5 5 5 3 5 5 5 5 5 5 5 5 3 5 5 3 5 5 5 5 5 5 5 5 5 5 5 5 5 5 5 5 5 5 5 5 5 3 5 5 5 5 5 5 5 5 5 5 3 5 3 5 5 3 5 3 5 3 5 5 3 5 3 5 5 3 5 5 5 3 5 5 5 5 5 5 5 5 5 5 5 5 5 5 5 5 5 5 5 5 5 5 5 5 5 5 5 5 5 5 5 5 5 5 5 5 5 5 5 5 5 5 5 5 5 5 5 5 5 5 5 5 5 5 5 5 5 5 5 5 5 3 5 5 3 5 5 5 5 5 5 3 3 5 5 5 5 5 5 5 5 5 5 5 5 5 5 5 5 5 5 3 5 5 5 3 5 5 5 5 5 5 5 5 5 5 5 5 5 5 5 5 3 5 5 5 5 5 5 5 3 5 5 5 5 5 5 5 5 3 5 3 5 5 5 5 5 5 5 5 5 5 5 5 5 5 5 5 3 5 5 5 5 5 5 5 3 5 5 5 5 3 5 5 5 5 5 5 5 3 5 5 3 3 5 5 3 5 5 5 5 5 5 3 5 5 5 5 5 5 5 5 5 3 5 5 3 5 5 3 5 5 3 5 5 5 5 5 3 5 5 5 5 5 5 5 5 3 5 5 5 5 5 5 5 3 5 5 5 5 5 5 5 5 5 5 5 5 3 5 5 5 5 5 5 5 3 3 5 3 5 3 5 5 5 5 5 5 5 5 5 5 5 5 5 5 5 3 5 3 5 5 5 5 5 5 5 5 3 5 3 5 3 5 3 5 3 5 5 3 5 5 5 5 5 3 5 5 5 5 5 5 5 5 3 5 5 5 5 5 3 5 5 3 5 3 3 5 5 5 5 5 5 5 5 3 5 5 5 5 5 5 5 5 5 5 5 5 5 3 5 5 5 5 5 5 5 3 5 5 5 3 5 5 5 5 5 5 5 5 5 5 5 5 5 5 5 5 5 3 5 5 5 5 5 5 5 3 5 5 3 5 5 5 5 5 5 5 5 5 5 5 5 5 5 5 3 5 5 5 5 3 5 5 5 5 5 5 5 5 5 5 5 5 5 5 5 5 5 5 5 5 5 5 5 5 5 3 5 5 5 5 5 5 3 5 5 5 5 5 5 5 5 5 3 3 5 5 5 3 5 3 5 5 5 5 5 5 5 5 5 5 5 5 5 5 5 3 5 5 5 5 5 5 5 5 5 5 5 5 3 3 5 5 5 5 5 5 5 5 3 5 5 3 5 5 3 3 5 5 5 5 5 5 5 3 5 5 5 5 5 5 5 5 5 3 5 5 5 3 5 5 5 5 5 3 5 5 5 5 5 5 5 5 5 5 5 5 3 5 5 5 3 5 5 5 3 5 5 5 5 5 5 5 5 5 5 5 5 5 5 5 5 5 5 5 5 5 5 5 5 5 5 5 5 5 5 5 5 3 5 5 5 5 5 5 5 5 5 5 5 5 5 5 5 5 5 5 5 5 5 5 5 5 3 5 3 5 5 3 5 5 5 5 5 5 5 5 5 3 5 5 5 5 5 5 5 5 5 5 5 5 5 5 3 5 5 5 5 3 5 5 5 3 5 5 5 5 5 5 5 5 5 5 5 5 5 5 5 5 5 5 5 5 5 5 5 5 5 5 5 5 5 5 5 5 5 5 5 5 5 5 5 5 5 5 5 5 5 5 5 5 5 5 5 5 5 5 5 5 5 5 5 5 5 5 5 5 5 5 5 5 5 5 5 5 5 5 5 5 5 5 5 5 5 5 5 5 5 5 5 5 5 5 5 5 5 5 5 5 5 5 5 5 5 5 5 5 5 5 5 5 5 5 5 5 5 5 5 5 5 5 5 5 5 5 5 5 5 5 5 5 5 5 5 5 5 5 5 5 5 5 5 5 5 5 5 5 5 5 5 5 5 5 5 5 5 5 5 5 5 5 5 5 5 5 5 5 5 5 5 5 5 5 5 5 5 5 5 5 5 5 5 5 5 5 5 5 5 5 5 5 5 3 5 5 5 5 5 5 5 5 5 5 5 5 5 5 5 5 3 5 5 5 5 5 5 5 5 3 5 5 5 5 3 5 5 5 5 5 5 5 5 5 5 5 5 5 5 5 5 5 5 5 5 5 5 3 5 5 5 5 5 5 5 5 5 5 5 5 5 3 3 5 5 5 5 5 3 5 3 5 5 5 5 5 5 5 5 5 5 5 3 5 5 5 5 5 5 5 3 5 5 5 5 5 5 5 5 5 5 5 5 5 5 5 3 3 5 5 5 5 5 5 5 5 5 5 5 5 3 5 5 5 5 5 5 5 5 5 5 5 5 5 5 5 5 3 5 5 5 5 5 5 5 3 5 5 5 5 5 5 5 5 5 5 3 3 5 5 5 5 5 5 5 5 5 5 5 5 5 5 5 5 5 5 5 5 5 5 5 5 5 5 5 5 5 5 3 5 5 5 5 5 3 5 5 5 5 5 5 5 5 5 5 3 5 5 5 5 3 5 5 5 5 5 5 5 5 5 5 3 5 3 5 5 5 5 5 5 5 5 5 5 5 5 5 5 5 5 5 5 5 5 5 5 5 5 5 5 5 5 5 5 5 3 5 5 5 5 5 3 5 5 5 5 5 5 5 5 5 5 5 5 5 5 5 5 5 5 3 5 5 3 5 5 5 3 5 5 5 5 5 3 5 5 5 5 5 5 5 5 5 5 3 5 5 5 5 5 5 3 5 5 5 5 5 3 3 5 5 3 5 5 3 5 5 5 5 5 5 5 5 5 5 3 5 5 3 5 5 3 5 5 3 5 5 3 5 5 3 5 5 5 5 5 5 3 5 5 5 5 5 5 5 5 5 5 5 3 5 5 5 5 5 5 5 3 5 5 5 5 3 5 5 5 3 5 5 5 5 5 5 5 5 5 5 5 3 5 5 5 5 5 5 5 5 5 5 5 5 5 5 5 5 5 5 5 5 5 5 5 5 3 5 5 5 5 5 3 5 5 5 5 5 5 5 5 5 5 5 5 5 5 3 5 5 3 5 3 5 5 5 5 3 5 3 3 5 3 5 5 5 5 5 5 5 3 5 3 5 5 5 5 5 5 3 5 5 5 5 5 5 3 5 5 5 5 3 5 5 5 5 5 3 5 5 3 5 5 5 5 3 5 5 5 5 3 5 5 5 5 5 5 3 5 5 5 5 5 5 5 5 5 3 5 5 5 5 5 5 3 5 5 5 5 3 5 5 5 5 5 5 5 5 5 5 5 5 5 5 5 5 3 5 5 5 3 5 5 3 5 5 5 5 5 5 5 5 5 5 5 5 5 5 5 5 3 5 3 5 5 5 5 5 5 5 5 5 5 5 5 5 5 5 5 5 5 5 5 5 5 5 5 5 5 3 5 5 3 5 5 5 5 5 5 5 5 5 5 3 5 5 5 5 3 5 5 5 5 3 5 5 5 5 5 5 5 5 5 3 5 5 5 5 5 5 5 5 5 5 5 5 5 5 5 5 5 5 5 5 5 5 5 5 5 5 5 5 
</DataArray>
</Cells>
<PointData Scalars="" Vectors="displacement," Tensors="">
<DataArray type="Float64" Name="displacement" NumberOfComponents="3" format="ascii">
-1.6870621706412892e-06 -0.034996802565246711 0 -0.00017138625423451074 -0.032716338483534661 0 3.5529590769307282e-06 -0.029500819170124818 0 -1.6870621706412892e-06 -0.034996802565246711 0 -0.00015715421230769444 -0.034197623562205667 0 -0.00017138625423451074 -0.032716338483534661 0 -1.6870621706412892e-06 -0.034996802565246711 0 -0.00015715421230769444 -0.034197623562205667 0 6.7708283304388872e-09 -0.034999128140038249 0 -0.00015715421230769444 -0.034197623562205667 0 6.7708283304388872e-09 -0.034999128140038249 0 -9.0065745131638614e-05 -0.034188174843644413 0 6.7708283304388872e-09 -0.034999128140038249 0 -9.0065745131638614e-05 -0.034188174843644413 0 -6.9797071207788414e-05 -0.034751552595577585 0 -6.8292868548672982e-05 -0.034035641484419898 0 0.00030668674049942499 -0.033552187017272035 0 -9.0065745131638614e-05 -0.034188174843644413 0 0.00035781365218305638 -0.034154969617625396 0 0.00038516836038206406 -0.034315711387948929 0 -9.0065745131638614e-05 -0.034188174843644413 0 0.00038516836038206406 -0.034315711387948929 0 0.00018471308914378595 -0.034540468212129652 0 -0.00015715421230769444 -0.034197623562205667 0 -9.0065745131638614e-05 -0.034188174843644413 0 -0.00017138625423451074 -0.032716338483534661 0 -9.0065745131638614e-05 -0.034188174843644413 0 -0.00017138625423451074 -0.032716338483534661 0 0.0006146382332051526 -0.0333613081449343 0 -0.00017138625423451074 -0.032716338483534661 0 0.0013103455342351863 -0.031612511701565135 0 0.0006146382332051526 -0.0333613081449343 0 -0.00017138625423451074 -0.032716338483534661 0 3.5529590769307282e-06 -0.029500819170124818 0 0.0013103455342351863 -0.031612511701565135 0 1.9769308346947808e-06 -0.029489659173773487 0 0.00030252047785195589 -0.027199323853921875 0 -8.2981556620641527e-07 -0.027572048352463088 0 4.5655608100641689e-07 -0.029492236494965064 0 0.00068281725221898729 -0.029449127208894213 0 -8.2981556620641527e-07 -0.027572048352463088 0 -7.7280023045855662e-05 -0.026490647513471976 0 -0.00016594811430888369 -0.025780909196153192 0 -8.2981556620641527e-07 -0.027572048352463088 0 -2.5195546275130403e-07 -0.025651172690747726 0 -0.00016594811430888369 -0.025780909196153192 0 0.00030252047785195589 -0.027199323853921875 0 -8.2981556620641527e-07 -0.027572048352463088 0 -7.7280023045855662e-05 -0.026490647513471976 0 0.00030252047785195589 -0.027199323853921875 0 -7.7280023045855662e-05 -0.026490647513471976 0 0.00013468693457487535 -0.026237390083395696 0 0.00068281725221898729 -0.029449127208894213 0 0.00058365594340572396 -0.028298580197439391 0 -7.7280023045855662e-05 -0.026490647513471976 0 -0.00020383736433838301 -0.026001179476169114 0 0.00013468693457487535 -0.026237390083395696 0 -7.7280023045855662e-05 -0.026490647513471976 0 -0.00020383736433838301 -0.026001179476169114 0 -0.00016594811430888369 -0.025780909196153192 0 -6.3371644921244677e-05 -0.023874960038664475 0 0.00058365594340572396 -0.028298580197439391 0 -3.3608885592000192e-05 -0.020594421010061967 0 -0.00060394779364885721 -0.021194751522693098 0 -0.0013531344562878909 -0.020909786076827506 0 -3.3608885592000192e-05 -0.020594421010061967 0 -0.00060394779364885721 -0.021194751522693098 0 2.3762100715475877e-05 -0.021296447550668045 0 -0.00060394779364885721 -0.021194751522693098 0 -0.0013531344562878909 -0.020909786076827506 0 -0.00077442703579970885 -0.021964010981493885 0 0.00042948189200595744 -0.034251833138059726 0 0.00029397921296750803 -0.034268469403302033 0 0.00044528756080131998 -0.034253546386180812 0 0.00058365594340572396 -0.028298580197439391 0 -0.00022432769959801677 -0.027974140758022473 0 0.00029397921296750803 -0.034268469403302033 0 0.00044528756080131998 -0.034253546386180812 0 0.00042786457978588019 -0.03423481395737641 0 -0.00077442703579970885 -0.021964010981493885 0 2.3762100715475877e-05 -0.021296447550668045 0 0.00021894391013014693 -0.021992366603768191 0 -0.00060394779364885721 -0.021194751522693098 0 -0.00077442703579970885 -0.021964010981493885 0 2.3762100715475877e-05 -0.021296447550668045 0 0.00042948189200595744 -0.034251833138059726 0 0.00035781365218305638 -0.034154969617625396 0 0.00044528756080131998 -0.034253546386180812 0 0.00058365594340572396 -0.028298580197439391 0 0.00030668674049942499 -0.033552187017272035 0 0.0013103455342351863 -0.031612511701565135 0 0.0020175436926624891 -0.032768665899112967 0 0.0006146382332051526 -0.0333613081449343 0 0.00044528756080131998 -0.034253546386180812 0 0.00038516836038206406 -0.034315711387948929 0 0.00046897957012200013 -0.034280895993395191 0 0.00044528756080131998 -0.034253546386180812 0 0.00046897957012200013 -0.034280895993395191 0 0.00042786457978588019 -0.03423481395737641 0 0.00035781365218305638 -0.034154969617625396 0 0.00044528756080131998 -0.034253546386180812 0 0.00038516836038206406 -0.034315711387948929 0 0.00038516836038206406 -0.034315711387948929 0 0.00036363136965395182 -0.034452632735977567 0 0.00018471308914378595 -0.034540468212129652 0 0.00036363136965395182 -0.034452632735977567 0 0.00032655543405812453 -0.034623053712770892 0 0.00018471308914378595 -0.034540468212129652 0 0.00036363136965395182 -0.034452632735977567 0 0.00043226474389778779 -0.034422003999938527 0 0.00042289158932393926 -0.034517745160375229 0 0.00036363136965395182 -0.034452632735977567 0 0.00044805404163446224 -0.034340513501646873 0 0.00043226474389778779 -0.034422003999938527 0 0.00038516836038206406 -0.034315711387948929 0 0.00036363136965395182 -0.034452632735977567 0 0.00044805404163446224 -0.034340513501646873 0 0.00038516836038206406 -0.034315711387948929 0 0.00046897957012200013 -0.034280895993395191 0 0.00044805404163446224 -0.034340513501646873 0 0.00046897957012200013 -0.034280895993395191 0 0.00044805404163446224 -0.034340513501646873 0 0.00053850609203522721 -0.034272528220612504 0 0.00046897957012200013 -0.034280895993395191 0 0.00053850609203522721 -0.034272528220612504 0 0.00042786457978588019 -0.03423481395737641 0 0.00053850609203522721 -0.034272528220612504 0 0.00042786457978588019 -0.03423481395737641 0 0.00043890864379189388 -0.034096540417820773 0 0.00069826840640009396 -0.034223919253149312 0 0.0007263617145634064 -0.034194007470379352 0 0.00053850609203522721 -0.034272528220612504 0 0.0004969523083452359 -0.034380631714741143 0 0.00062779564268146209 -0.034590509722719792 0 0.00053850609203522721 -0.034272528220612504 0 0.00060069606961456223 -0.034005004512459268 0 0.00043890864379189388 -0.034096540417820773 0 0.00071625729614973959 -0.034249156054775541 0 0.0007263617145634064 -0.034194007470379352 0 0.0004969523083452359 -0.034380631714741143 0 0.00042289158932393926 -0.034517745160375229 0 0.00056420425649359818 -0.034526747301097442 0 0.00044805404163446224 -0.034340513501646873 0 0.00043226474389778779 -0.034422003999938527 0 0.0004969523083452359 -0.034380631714741143 0 0.00044805404163446224 -0.034340513501646873 0 0.00053850609203522721 -0.034272528220612504 0 0.0004969523083452359 -0.034380631714741143 0 0.00043226474389778779 -0.034422003999938527 0 0.0004969523083452359 -0.034380631714741143 0 0.00042289158932393926 -0.034517745160375229 0 0.00042289158932393926 -0.034517745160375229 0 0.00056420425649359818 -0.034526747301097442 0 0.00044368497881305504 -0.034674613060756955 0 0.0007263617145634064 -0.034194007470379352 0 0.00074737385322650146 -0.03423183943681251 0 0.00056420425649359818 -0.034526747301097442 0 0.00044368497881305504 -0.034674613060756955 0 0.00058053699950736987 -0.034826097402240574 0 0.00044368497881305504 -0.034674613060756955 0 0.00032655543405812453 -0.034623053712770892 0 0.00034087325585974751 -0.034848205982882387 0 0.00032655543405812453 -0.034623053712770892 0 0.00034087325585974751 -0.034848205982882387 0 0.00017993580786710697 -0.034703801299393398 0 0.00042289158932393926 -0.034517745160375229 0 0.00044368497881305504 -0.034674613060756955 0 0.00032655543405812453 -0.034623053712770892 0 0.00036363136965395182 -0.034452632735977567 0 0.00042289158932393926 -0.034517745160375229 0 0.00032655543405812453 -0.034623053712770892 0 0.00029397921296750803 -0.034268469403302033 0 -2.7777245302662347e-05 -0.034004675094815154 0 0.00028181860710348975 -0.034078569079475075 0 -0.00077442703579970885 -0.021964010981493885 0 -0.00020381228766114891 -0.023068051881431011 0 0.00021894391013014693 -0.021992366603768191 0 -0.00022432769959801677 -0.027974140758022473 0 -0.00012403171925892581 -0.028508200998324944 0 -2.7777245302662347e-05 -0.034004675094815154 0 0.00028181860710348975 -0.034078569079475075 0 0.00015430449219916572 -0.033872306589157047 0 0.00029397921296750803 -0.034268469403302033 0 0.00028181860710348975 -0.034078569079475075 0 0.00042786457978588019 -0.03423481395737641 0 0.00028181860710348975 -0.034078569079475075 0 0.00042786457978588019 -0.03423481395737641 0 0.00043890864379189388 -0.034096540417820773 0 0.00060069606961456223 -0.034005004512459268 0 0.00035788538244540158 -0.033819744959013479 0 0.00041556356062249204 -0.033433748581701096 0 0.0007263617145634064 -0.034194007470379352 0 0.00065902213423750088 -0.033503426945800427 0 0.00028181860710348975 -0.034078569079475075 0 0.00043890864379189388 -0.034096540417820773 0 0.00035788538244540158 -0.033819744959013479 0 0.00060069606961456223 -0.034005004512459268 0 0.00043890864379189388 -0.034096540417820773 0 0.00035788538244540158 -0.033819744959013479 0 0.00028181860710348975 -0.034078569079475075 0 0.00035788538244540158 -0.033819744959013479 0 0.00015430449219916572 -0.033872306589157047 0 0.00035788538244540158 -0.033819744959013479 0 0.00015430449219916572 -0.033872306589157047 0 -8.3972144547331826e-07 -0.033575627095651928 0 -2.7777245302662347e-05 -0.034004675094815154 0 -8.3972144547331826e-07 -0.033575627095651928 0 -0.00031369694233972928 -0.033550353558524849 0 -2.7777245302662347e-05 -0.034004675094815154 0 0.00015430449219916572 -0.033872306589157047 0 -8.3972144547331826e-07 -0.033575627095651928 0 -8.3972144547331826e-07 -0.033575627095651928 0 9.0657433211021536e-05 -0.033261275680337439 0 0.00041556356062249204 -0.033433748581701096 0 -8.3972144547331826e-07 -0.033575627095651928 0 9.0657433211021536e-05 -0.033261275680337439 0 -0.00018348883499007379 -0.033209085571735582 0 0.00035788538244540158 -0.033819744959013479 0 -8.3972144547331826e-07 -0.033575627095651928 0 0.00041556356062249204 -0.033433748581701096 0 0.00065902213423750088 -0.033503426945800427 0 0.00076446308123737496 -0.031730544121716081 0 0.00068741128991869948 -0.033554514241400497 0 0.00086489229461878675 -0.032911392370724643 0 0.00032732537883510532 -0.032915168868510716 0 0.00068741128991869948 -0.033554514241400497 0 0.00086489229461878675 -0.032911392370724643 0 0.00095625772828739129 -0.0335516754590688 0 0.00054714065866815723 -0.03363296130959828 0 0.00076446308123737496 -0.031730544121716081 0 0.00012620525846670898 -0.032817331712111909 0 -0.00018348883499007379 -0.033209085571735582 0 -0.00032873399617692946 -0.032804678481646483 0 9.0657433211021536e-05 -0.033261275680337439 0 0.00012620525846670898 -0.032817331712111909 0 -0.00018348883499007379 -0.033209085571735582 0 0.00076446308123737496 -0.031730544121716081 0 0.00027541599763271357 -0.030419767156750318 0 9.0657433211021536e-05 -0.033261275680337439 0 0.00041556356062249204 -0.033433748581701096 0 0.00012620525846670898 -0.032817331712111909 0 0.0010464479742970918 -0.034190387871825247 0 0.00068741128991869948 -0.033554514241400497 0 0.00095625772828739129 -0.0335516754590688 0 0.00044368497881305504 -0.034674613060756955 0 0.00034087325585974751 -0.034848205982882387 0 0.00058053699950736987 -0.034826097402240574 0 0.00061062997726135443 -0.035072952757272194 0 0.00034087325585974751 -0.034848205982882387 0 0.00058053699950736987 -0.034826097402240574 0 0.00054714065866815723 -0.03363296130959828 0 0.00074737385322650146 -0.03423183943681251 0 0.00061062997726135443 -0.035072952757272194 0 0.00034087325585974751 -0.034848205982882387 0 0.00027066392703993156 -0.035076695907272457 0 0.00034087325585974751 -0.034848205982882387 0 0.00015385922327431742 -0.034883809068570269 0 0.00027066392703993156 -0.035076695907272457 0 0.00015385922327431742 -0.034883809068570269 0 -4.162997865865431e-05 -0.035077655678726234 0 0.00027066392703993156 -0.035076695907272457 0 0.00034087325585974751 -0.034848205982882387 0 0.00015385922327431742 -0.034883809068570269 0 0.00017993580786710697 -0.034703801299393398 0 0.00015385922327431742 -0.034883809068570269 0 4.3788044835396743e-05 -0.034776571681252304 0 0.00017993580786710697 -0.034703801299393398 0 3.9354962272807704e-05 -0.034838628120491218 0 -2.4542883275313896e-05 -0.034941317492443412 0 -2.7244635304700884e-05 -0.034815566614519386 0 5.1929873098311702e-06 -0.034993303774897747 0 4.0663637994262755e-06 -0.034997201277170965 0 5.1132145373236986e-07 -0.034997292436007382 0 5.3856386557665896e-05 -0.034873382557000253 0 -1.9097026506986954e-05 -0.034970438883873654 0 5.3856386557665896e-05 -0.034873382557000253 0 5.4326267033179817e-05 -0.034870228183029504 0 5.3856386557665896e-05 -0.034873382557000253 0 2.0547992804682762e-05 -0.034960978153955831 0 0.00015385922327431742 -0.034883809068570269 0 4.3788044835396743e-05 -0.034776571681252304 0 7.8557869714590615e-07 -0.034924646428894063 0 0.00015385922327431742 -0.034883809068570269 0 7.8557869714590615e-07 -0.034924646428894063 0 -4.162997865865431e-05 -0.035077655678726234 0 2.0547992804682762e-05 -0.034960978153955831 0 4.2513982117824672e-05 -0.034942536118689055 0 4.0663637994262755e-06 -0.034997201277170965 0 1.8272416331493753e-06 -0.034998346738374209 0 2.9979476886510603e-06 -0.03499993838023821 0 1.8272416331493753e-06 -0.034998346738374209 0 5.1132145373236986e-07 -0.034997292436007382 0 5.5526941218251729e-07 -0.03499974091801656 0 5.1132145373236986e-07 -0.034997292436007382 0 1.4589226440985357e-07 -0.034999836311688647 0 5.5526941218251729e-07 -0.03499974091801656 0 1.8272416331493753e-06 -0.034998346738374209 0 5.5526941218251729e-07 -0.03499974091801656 0 2.9979476886510603e-06 -0.03499993838023821 0 4.0663637994262755e-06 -0.034997201277170965 0 1.8272416331493753e-06 -0.034998346738374209 0 5.1132145373236986e-07 -0.034997292436007382 0 -2.2930950600153216e-08 -0.034999980529160625 0 -1.9097026506986954e-05 -0.034970438883873654 0 -1.8537685002920637e-09 -0.034999997799699541 0 5.1132145373236986e-07 -0.034997292436007382 0 1.4589226440985357e-07 -0.034999836311688647 0 5.6780525676755424e-08 -0.034999981855420755 0 -2.4542883275313896e-05 -0.034941317492443412 0 -1.4446158977080353e-07 -0.034999854402411955 0 -2.4542883275313896e-05 -0.034941317492443412 0 -2.7244635304700884e-05 -0.034815566614519386 0 -1.4446158977080353e-07 -0.034999854402411955 0 -2.7244635304700884e-05 -0.034815566614519386 0 -1.4446158977080353e-07 -0.034999854402411955 0 -6.9797071207788414e-05 -0.034751552595577585 0 6.7708283304388872e-09 -0.034999128140038249 0 -1.4446158977080353e-07 -0.034999854402411955 0 -6.9797071207788414e-05 -0.034751552595577585 0 -2.7244635304700884e-05 -0.034815566614519386 0 -6.9797071207788414e-05 -0.034751552595577585 0 -5.7259130341258794e-06 -0.034625958161364878 0 -9.0065745131638614e-05 -0.034188174843644413 0 -6.9797071207788414e-05 -0.034751552595577585 0 -5.7259130341258794e-06 -0.034625958161364878 0 -9.0065745131638614e-05 -0.034188174843644413 0 -5.7259130341258794e-06 -0.034625958161364878 0 0.00018471308914378595 -0.034540468212129652 0 -5.7259130341258794e-06 -0.034625958161364878 0 0.00018471308914378595 -0.034540468212129652 0 6.7893620230851442e-05 -0.034701919504145279 0 0.00018471308914378595 -0.034540468212129652 0 0.00017993580786710697 -0.034703801299393398 0 6.7893620230851442e-05 -0.034701919504145279 0 0.00032655543405812453 -0.034623053712770892 0 0.00018471308914378595 -0.034540468212129652 0 0.00017993580786710697 -0.034703801299393398 0 4.0648748819565397e-05 -0.034850566975586299 0 0.00017993580786710697 -0.034703801299393398 0 4.6367495244765077e-05 -0.03481577071907322 0 0.00017993580786710697 -0.034703801299393398 0 4.6367495244765077e-05 -0.03481577071907322 0 6.7893620230851442e-05 -0.034701919504145279 0 5.3856386557665896e-05 -0.034873382557000253 0 0.00014029834538268712 -0.034786173510268421 0 -2.7244635304700884e-05 -0.034815566614519386 0 4.6367495244765077e-05 -0.03481577071907322 0 6.7893620230851442e-05 -0.034701919504145279 0 3.9354962272807704e-05 -0.034838628120491218 0 -2.7244635304700884e-05 -0.034815566614519386 0 4.6367495244765077e-05 -0.03481577071907322 0 -2.7244635304700884e-05 -0.034815566614519386 0 -5.7259130341258794e-06 -0.034625958161364878 0 6.7893620230851442e-05 -0.034701919504145279 0 0.00054141385228061113 -0.018516273396157443 0 0.0014921006257817887 -0.017138971584689848 0 0.00054839372318372286 -0.017473706824720287 0 0.00063985802755695735 -0.01686707854848447 0 0.00035318342225176824 -0.017269025705425496 0 -0.00010155053213755768 -0.019632249165380106 0 0.00018363658479827549 -0.019579286364404234 0 0.00011751834999437514 -0.019721621072717497 0 -0.00010155053213755768 -0.019632249165380106 0 -4.8911694474982024e-05 -0.019674715980586593 0 0.00011751834999437514 -0.019721621072717497 0 -0.00010155053213755768 -0.019632249165380106 0 -5.9682491524238556e-05 -0.019580507770740722 0 -4.8911694474982024e-05 -0.019674715980586593 0 -0.00010155053213755768 -0.019632249165380106 0 -9.1049630497950915e-05 -0.019334921874127328 0 -0.00016891499499999032 -0.019684850029115797 0 -0.00010155053213755768 -0.019632249165380106 0 -9.1049630497950915e-05 -0.019334921874127328 0 0.00018363658479827549 -0.019579286364404234 0 0.00054141385228061113 -0.018516273396157443 0 0.00032717221017458187 -0.018424235746053085 0 -9.1049630497950915e-05 -0.019334921874127328 0 0.00018363658479827549 -0.019579286364404234 0 0.00017003187729706441 -0.018495731755168065 0 0.00054839372318372286 -0.017473706824720287 0 0.00017003187729706441 -0.018495731755168065 0 5.6674085285088643e-05 -0.017768160711189935 0 0.00017003187729706441 -0.018495731755168065 0 -3.5590842194631416e-07 -0.017968582122416966 0 -0.00010986093165954194 -0.019268209403474068 0 0.00017003187729706441 -0.018495731755168065 0 -3.5590842194631416e-07 -0.017968582122416966 0 -1.6742482475914706e-05 -0.017555629844320186 0 -3.5590842194631416e-07 -0.017968582122416966 0 -0.00010986093165954194 -0.019268209403474068 0 -3.4883508466605901e-07 -0.019889479272534507 0 -9.1049630497950915e-05 -0.019334921874127328 0 0.00017003187729706441 -0.018495731755168065 0 -0.00010986093165954194 -0.019268209403474068 0 -9.1049630497950915e-05 -0.019334921874127328 0 -0.00010986093165954194 -0.019268209403474068 0 -0.00016891499499999032 -0.019684850029115797 0 -0.00016891499499999032 -0.019684850029115797 0 -7.0600106195437625e-05 -0.020280682826637642 0 -1.6927158054160406e-05 -0.02018232535326514 0 -0.00010986093165954194 -0.019268209403474068 0 -0.00016891499499999032 -0.019684850029115797 0 -7.0600106195437625e-05 -0.020280682826637642 0 -3.4883508466605901e-07 -0.019889479272534507 0 -7.0600106195437625e-05 -0.020280682826637642 0 4.5655774183052731e-07 -0.021809988638588757 0 -0.00010986093165954194 -0.019268209403474068 0 -3.4883508466605901e-07 -0.019889479272534507 0 -7.0600106195437625e-05 -0.020280682826637642 0 -7.0600106195437625e-05 -0.020280682826637642 0 4.5655774183052731e-07 -0.021809988638588757 0 0.00015061623908436982 -0.021064570115727259 0 0.00015061623908436982 -0.021064570115727259 0 -1.6927158054160406e-05 -0.02018232535326514 0 0.00054911772326688866 -0.020438870979366662 0 -7.0600106195437625e-05 -0.020280682826637642 0 0.00015061623908436982 -0.021064570115727259 0 -1.6927158054160406e-05 -0.02018232535326514 0 -1.6927158054160406e-05 -0.02018232535326514 0 0.00025877212537373938 -0.01997470233029891 0 0.00054911772326688866 -0.020438870979366662 0 0.00025877212537373938 -0.01997470233029891 0 0.00018528413152456822 -0.01965245009996857 0 0.0004877563468272285 -0.01978895557006688 0 0.00025877212537373938 -0.01997470233029891 0 -7.0782286281234627e-05 -0.019759412555902332 0 0.00018528413152456822 -0.01965245009996857 0 -1.6927158054160406e-05 -0.02018232535326514 0 0.00025877212537373938 -0.01997470233029891 0 -7.0782286281234627e-05 -0.019759412555902332 0 -0.00010155053213755768 -0.019632249165380106 0 -0.00016891499499999032 -0.019684850029115797 0 -7.0782286281234627e-05 -0.019759412555902332 0 -0.00016891499499999032 -0.019684850029115797 0 -1.6927158054160406e-05 -0.02018232535326514 0 -7.0782286281234627e-05 -0.019759412555902332 0 -0.00010155053213755768 -0.019632249165380106 0 -7.0782286281234627e-05 -0.019759412555902332 0 -5.9682491524238556e-05 -0.019580507770740722 0 -7.0782286281234627e-05 -0.019759412555902332 0 -5.9682491524238556e-05 -0.019580507770740722 0 0.00018528413152456822 -0.01965245009996857 0 -5.9682491524238556e-05 -0.019580507770740722 0 0.00018528413152456822 -0.01965245009996857 0 0.00022855510031761345 -0.019370824581950163 0 0.00018528413152456822 -0.01965245009996857 0 0.00060204723862124459 -0.019460025434425685 0 0.00022855510031761345 -0.019370824581950163 0 0.00018528413152456822 -0.01965245009996857 0 0.0004877563468272285 -0.01978895557006688 0 0.00060204723862124459 -0.019460025434425685 0 0.00076841929837396844 -0.019324712891841532 0 0.00088496800118720829 -0.019747133849927306 0 0.00063133988984535644 -0.019294030835527828 0 0.001275534273254693 -0.019250076935888431 0 0.00091453979071498483 -0.019941660266666772 0 0.0004877563468272285 -0.01978895557006688 0 0.00060204723862124459 -0.019460025434425685 0 0.00091453979071498483 -0.019941660266666772 0 0.0010614303505901909 -0.020886263644330928 0 0.001003638829559501 -0.020744164354786113 0 0.0010228726099568422 -0.020445870310684219 0 0.0014010485238915343 -0.020723539199496172 0 0.0012136659453960525 -0.021022626118639063 0 0.0010614303505901909 -0.020886263644330928 0 0.001003638829559501 -0.020744164354786113 0 0.00087910679918299923 -0.020754451033062629 0 0.001003638829559501 -0.020744164354786113 0 0.0010228726099568422 -0.020445870310684219 0 0.00099987399100858409 -0.020536482060892501 0 0.0014010485238915343 -0.020723539199496172 0 0.0011280474099321619 -0.020257539082036809 0 0.001275534273254693 -0.019250076935888431 0 0.0010228726099568422 -0.020445870310684219 0 0.00091453979071498483 -0.019941660266666772 0 0.001003638829559501 -0.020744164354786113 0 0.00097491510842431296 -0.020627469401293404 0 0.0009157771240642864 -0.020677255957052748 0 0.001003638829559501 -0.020744164354786113 0 0.00097491510842431296 -0.020627469401293404 0 0.00099987399100858409 -0.020536482060892501 0 0.00097491510842431296 -0.020627469401293404 0 0.00097096221645124009 -0.020564492954987405 0 0.0009157771240642864 -0.020677255957052748 0 0.00097491510842431296 -0.020627469401293404 0 0.00097096221645124009 -0.020564492954987405 0 0.00099987399100858409 -0.020536482060892501 0 0.0010228726099568422 -0.020445870310684219 0 0.00063498327578717173 -0.02010886083230054 0 0.00054911772326688866 -0.020438870979366662 0 0.0010228726099568422 -0.020445870310684219 0 0.00091453979071498483 -0.019941660266666772 0 0.00063498327578717173 -0.02010886083230054 0 0.00025877212537373938 -0.01997470233029891 0 0.0004877563468272285 -0.01978895557006688 0 0.00063498327578717173 -0.02010886083230054 0 0.0004877563468272285 -0.01978895557006688 0 0.00091453979071498483 -0.019941660266666772 0 0.00063498327578717173 -0.02010886083230054 0 0.00025877212537373938 -0.01997470233029891 0 0.00063498327578717173 -0.02010886083230054 0 0.00054911772326688866 -0.020438870979366662 0 0.00015061623908436982 -0.021064570115727259 0 0.00054911772326688866 -0.020438870979366662 0 0.0010686300034461907 -0.020565087432507685 0 3.9701960300596114e-05 -0.021616841617099116 0 0.00029539769158918602 -0.02205818794143825 0 0.00015061623908436982 -0.021064570115727259 0 0.00010592786399325902 -0.022355178969965799 0 7.9539483109380759e-05 -0.023469961167002097 0 0.0010228726099568422 -0.020445870310684219 0 0.00054911772326688866 -0.020438870979366662 0 0.0010686300034461907 -0.020565087432507685 0 4.5655774183052731e-07 -0.021809988638588757 0 -3.9458706518984077e-08 -0.023730884332986337 0 5.5733220694687097e-05 -0.023106857399106704 0 4.5655774183052731e-07 -0.021809988638588757 0 0.00010592786399325902 -0.022355178969965799 0 5.5733220694687097e-05 -0.023106857399106704 0 4.5655774183052731e-07 -0.021809988638588757 0 0.00015061623908436982 -0.021064570115727259 0 0.00010592786399325902 -0.022355178969965799 0 0.00010592786399325902 -0.022355178969965799 0 5.5733220694687097e-05 -0.023106857399106704 0 7.9539483109380759e-05 -0.023469961167002097 0 5.5733220694687097e-05 -0.023106857399106704 0 7.9539483109380759e-05 -0.023469961167002097 0 -6.7467134773236377e-05 -0.024421807294984686 0 -3.9458706518984077e-08 -0.023730884332986337 0 5.5733220694687097e-05 -0.023106857399106704 0 -6.7467134773236377e-05 -0.024421807294984686 0 0.00029539769158918602 -0.02205818794143825 0 0.00023518033621369185 -0.022789660594376187 0 7.9539483109380759e-05 -0.023469961167002097 0 -0.00011400248140918352 -0.025014256055621815 0 -6.7467134773236377e-05 -0.024421807294984686 0 0.00097096221645124009 -0.020564492954987405 0 0.0010686300034461907 -0.020565087432507685 0 0.00088361680083353039 -0.02047049839217413 0 0.0010228726099568422 -0.020445870310684219 0 0.00099987399100858409 -0.020536482060892501 0 0.0010686300034461907 -0.020565087432507685 0 0.00097096221645124009 -0.020564492954987405 0 0.00099987399100858409 -0.020536482060892501 0 0.0010686300034461907 -0.020565087432507685 0 -0.00011400248140918352 -0.025014256055621815 0 -6.7467134773236377e-05 -0.024421807294984686 0 -0.00016594811430888369 -0.025780909196153192 0 -3.9458706518984077e-08 -0.023730884332986337 0 -6.7467134773236377e-05 -0.024421807294984686 0 -2.5195546275130403e-07 -0.025651172690747726 0 -6.7467134773236377e-05 -0.024421807294984686 0 -2.5195546275130403e-07 -0.025651172690747726 0 -0.00016594811430888369 -0.025780909196153192 0 -0.00020383736433838301 -0.026001179476169114 0 -0.00011400248140918352 -0.025014256055621815 0 -0.00016594811430888369 -0.025780909196153192 0 -6.3371644921244677e-05 -0.023874960038664475 0 0.00023518033621369185 -0.022789660594376187 0 -3.3608885592000192e-05 -0.020594421010061967 0 2.3762100715475877e-05 -0.021296447550668045 0 0.0005956942994722117 -0.02078524068042557 0 -3.3608885592000192e-05 -0.020594421010061967 0 0.00088361680083353039 -0.02047049839217413 0 0.0005956942994722117 -0.02078524068042557 0 2.3762100715475877e-05 -0.021296447550668045 0 0.0005956942994722117 -0.02078524068042557 0 0.00060582642221381996 -0.021414425537694508 0 0.00088361680083353039 -0.02047049839217413 0 0.0005956942994722117 -0.02078524068042557 0 0.00085016945789307145 -0.020670551281724937 0 0.00097096221645124009 -0.020564492954987405 0 0.00088361680083353039 -0.02047049839217413 0 0.00085016945789307145 -0.020670551281724937 0 0.00097096221645124009 -0.020564492954987405 0 0.00085016945789307145 -0.020670551281724937 0 0.0009157771240642864 -0.020677255957052748 0 0.00085016945789307145 -0.020670551281724937 0 0.0009157771240642864 -0.020677255957052748 0 0.00087910679918299923 -0.020754451033062629 0 0.0005956942994722117 -0.02078524068042557 0 0.0014504100507051624 -0.021472557848238368 0 0.00060582642221381996 -0.021414425537694508 0 0.0005956942994722117 -0.02078524068042557 0 0.00085016945789307145 -0.020670551281724937 0 0.00087910679918299923 -0.020754451033062629 0 0.00081635370193497479 -0.020807685932016498 0 0.0012136659453960525 -0.021022626118639063 0 0.0014504100507051624 -0.021472557848238368 0 0.00094796276700713316 -0.021799190140979807 0 0.00060582642221381996 -0.021414425537694508 0 0.001003638829559501 -0.020744164354786113 0 0.0009157771240642864 -0.020677255957052748 0 0.00087910679918299923 -0.020754451033062629 0 0.0014504100507051624 -0.021472557848238368 0 0.0015414597786194304 -0.02184019833257899 0 0.00094796276700713316 -0.021799190140979807 0 0.0021598035128521484 -0.022086752863758701 0 0.0014504100507051624 -0.021472557848238368 0 0.0015414597786194304 -0.02184019833257899 0 0.0015414597786194304 -0.02184019833257899 0 0.0011735387956840939 -0.022180236154947259 0 0.0013661887592437427 -0.022600821122366558 0 0.0015414597786194304 -0.02184019833257899 0 0.0011735387956840939 -0.022180236154947259 0 0.00094796276700713316 -0.021799190140979807 0 0.0011735387956840939 -0.022180236154947259 0 0.00094796276700713316 -0.021799190140979807 0 0.00068184250323063175 -0.022516925689558369 0 0.00094796276700713316 -0.021799190140979807 0 0.00021894391013014693 -0.021992366603768191 0 0.00068184250323063175 -0.022516925689558369 0 2.3762100715475877e-05 -0.021296447550668045 0 0.00021894391013014693 -0.021992366603768191 0 0.00060582642221381996 -0.021414425537694508 0 0.00094796276700713316 -0.021799190140979807 0 0.00021894391013014693 -0.021992366603768191 0 0.00060582642221381996 -0.021414425537694508 0 -0.00020381228766114891 -0.023068051881431011 0 0.00021894391013014693 -0.021992366603768191 0 0.00068184250323063175 -0.022516925689558369 0 -0.00020381228766114891 -0.023068051881431011 0 0.00068184250323063175 -0.022516925689558369 0 0.00060632062501853609 -0.023322860189734385 0 0.00068184250323063175 -0.022516925689558369 0 0.0011325300157882564 -0.023121861383596995 0 0.00060632062501853609 -0.023322860189734385 0 0.0015414597786194304 -0.02184019833257899 0 0.0013661887592437427 -0.022600821122366558 0 0.0020433673669182396 -0.022985138633784818 0 0.0011735387956840939 -0.022180236154947259 0 0.00068184250323063175 -0.022516925689558369 0 0.0013661887592437427 -0.022600821122366558 0 0.0013661887592437427 -0.022600821122366558 0 0.0016068152650563917 -0.023089092829782297 0 0.0011325300157882564 -0.023121861383596995 0 0.0013661887592437427 -0.022600821122366558 0 0.0016068152650563917 -0.023089092829782297 0 0.0020433673669182396 -0.022985138633784818 0 0.00068184250323063175 -0.022516925689558369 0 0.0013661887592437427 -0.022600821122366558 0 0.0011325300157882564 -0.023121861383596995 0 0.0011325300157882564 -0.023121861383596995 0 0.0010515689256286314 -0.023683911053969938 0 0.00060632062501853609 -0.023322860189734385 0 0.0010515689256286314 -0.023683911053969938 0 0.00040746231125770113 -0.024199265464283779 0 0.0017547054308964844 -0.024226071173985068 0 0.0011325300157882564 -0.023121861383596995 0 0.0015307647106408973 -0.023408646775380144 0 0.0010515689256286314 -0.023683911053969938 0 0.0016068152650563917 -0.023089092829782297 0 0.0011325300157882564 -0.023121861383596995 0 0.0015307647106408973 -0.023408646775380144 0 0.0016068152650563917 -0.023089092829782297 0 0.0015307647106408973 -0.023408646775380144 0 0.0019632065597269335 -0.023326333702952225 0 0.0016532572488636597 -0.022325655437110369 0 0.0017457549863918855 -0.022146948643882114 0 0.0015307647106408973 -0.023408646775380144 0 0.0010515689256286314 -0.023683911053969938 0 0.0017547054308964844 -0.024226071173985068 0 0.0015307647106408973 -0.023408646775380144 0 0.0017547054308964844 -0.024226071173985068 0 0.001962352090229505 -0.023326416351028743 0 -0.00020381228766114891 -0.023068051881431011 0 0.00060632062501853609 -0.023322860189734385 0 0.00040746231125770113 -0.024199265464283779 0 -0.00012403171925892581 -0.028508200998324944 0 5.2372682856788942e-05 -0.029227342934902745 0 0.0010515689256286314 -0.023683911053969938 0 0.00060632062501853609 -0.023322860189734385 0 0.00040746231125770113 -0.024199265464283779 0 -3.3935617988740889e-05 -0.030817041003508829 0 5.2372682856788942e-05 -0.029227342934902745 0 -8.3972144547331826e-07 -0.033575627095651928 0 -0.00037767847278720928 -0.033552213880862554 0 -0.00018348883499007379 -0.033209085571735582 0 5.2372682856788942e-05 -0.029227342934902745 0 0.00057892302477722981 -0.029949846581105565 0 -0.00037767847278720928 -0.033552213880862554 0 -0.00018348883499007379 -0.033209085571735582 0 -0.00058351407074079379 -0.033177067976427652 0 -0.00018348883499007379 -0.033209085571735582 0 -0.00058351407074079379 -0.033177067976427652 0 -0.00032873399617692946 -0.032804678481646483 0 0.00027541599763271357 -0.030419767156750318 0 0.00068892823689091325 -0.027820096015000611 0 -0.00058351407074079379 -0.033177067976427652 0 -0.00032873399617692946 -0.032804678481646483 0 -0.00078797658477033439 -0.032790703677264194 0 0.00069861390006799252 -0.027499588587466206 0 0.00083410356262681601 -0.027699801012963772 0 0.00092927896524692901 -0.027297616570916321 0 0.0011192259870360657 -0.024549117994450458 0 0.001377323866268978 -0.023441896147777638 0 0.0016379273965105381 -0.024034359814860174 0 0.00077657459014790909 -0.02721808144578693 0 0.0016091711365691065 -0.024394193382524326 0 0.00045314714691677556 -0.02599729177603663 0 0.0014653673055211288 -0.025981151045233616 0 0.00039498634248337879 -0.026245973530838452 0 0.00077657459014790909 -0.02721808144578693 0 0.0014386468396736095 -0.025261678170173212 0 0.00032186112374209285 -0.027674370901025588 0 0.00015864484086580705 -0.027676952306800822 0 0.00027329722283108229 -0.027881739396526946 0 0.00077657459014790909 -0.02721808144578693 0 0.00068892823689091325 -0.027820096015000611 0 0.00069861390006799252 -0.027499588587466206 0 0.00083410356262681601 -0.027699801012963772 0 0.00081052952279211379 -0.027700522809113986 0 0.00057892302477722981 -0.029949846581105565 0 0.00068892823689091325 -0.027820096015000611 0 5.2372682856788942e-05 -0.029227342934902745 0 0.0016091711365691065 -0.024394193382524326 0 0.00058573268406742851 -0.027300857777274048 0 0.00069861390006799252 -0.027499588587466206 0 0.00092927896524692901 -0.027297616570916321 0 0.0016091711365691065 -0.024394193382524326 0 0.0020089972374729048 -0.021919481594335603 0 0.0019582439991350903 -0.023453072534567378 0 0.0016379273965105381 -0.024034359814860174 0 0.0022744817089686968 -0.024189005263999551 0 0.001377323866268978 -0.023441896147777638 0 0.0019582439991350903 -0.023453072534567378 0 0.0016379273965105381 -0.024034359814860174 0 0.0014386468396736095 -0.025261678170173212 0 0.0023008308982762869 -0.021617856676027138 0 0.0016379273965105381 -0.024034359814860174 0 0.0014582465323568874 -0.024540249002962918 0 0.0022744817089686968 -0.024189005263999551 0 0.0014386468396736095 -0.025261678170173212 0 0.0022333986386223518 -0.02179583826430493 0 0.0011192259870360657 -0.024549117994450458 0 0.0016379273965105381 -0.024034359814860174 0 0.0014582465323568874 -0.024540249002962918 0 0.0013756954671681546 -0.023313366655151452 0 0.0024187347949960747 -0.023283849544436328 0 0.0022668300216945382 -0.022929936580656386 0 0.0023833928107359946 -0.019373481556928189 0 0.0023294181349344883 -0.019249074784402166 0 0.0026525301602573939 -0.01924150843670705 0 0.0023008308982762869 -0.021617856676027138 0 0.0022333986386223518 -0.02179583826430493 0 0.0021274336230788569 -0.020333824881997236 0 0.0021783876583454844 -0.020450006000727213 0 0.0023145703946419751 -0.020326365938892886 0 0.0020089972374729048 -0.021919481594335603 0 0.0022333986386223518 -0.02179583826430493 0 0.0020089972374729048 -0.021919481594335603 0 0.0021691829266644986 -0.018816563725149556 0 0.0019335635800145205 -0.020292364184101935 0 0.0018388535948769607 -0.020368536040619039 0 0.0016982681414086916 -0.020275579578799219 0 0.0018388535948769607 -0.020368536040619039 0 0.0019906371494152965 -0.020429252864464346 0 0.0018221701517815699 -0.02045447462384218 0 0.0018313505130519753 -0.021656301102987757 0 0.0013292904969990158 -0.019708819482460976 0 0.0018388535948769607 -0.020368536040619039 0 0.0018221701517815699 -0.02045447462384218 0 0.0017489807490681237 -0.020390045723296831 0 0.0018780527244157672 -0.022743954261685646 0 0.0019781859266698354 -0.022516486508024951 0 0.0019283283822124732 -0.022526354191656446 0 0.0018780527244157672 -0.022743954261685646 0 0.002075610136022134 -0.022746189265234543 0 0.0019781859266698354 -0.022516486508024951 0 0.0020089972374729048 -0.021919481594335603 0 0.0018313505130519753 -0.021656301102987757 0 0.0019335635800145205 -0.020292364184101935 0 0.0018388535948769607 -0.020368536040619039 0 0.0019906371494152965 -0.020429252864464346 0 0.0016091711365691065 -0.024394193382524326 0 0.0017457549863918855 -0.022146948643882114 0 0.0017457549863918855 -0.022146948643882114 0 0.0017834123351177728 -0.021936578783103101 0 0.0018313505130519753 -0.021656301102987757 0 0.0017834123351177728 -0.021936578783103101 0 0.0019171399955382939 -0.021798495578756547 0 0.0019986236778175444 -0.021783534940248851 0 0.0019678992602100843 -0.021916781417048864 0 0.0018313505130519753 -0.021656301102987757 0 0.0017457549863918855 -0.022146948643882114 0 0.0021598035128521484 -0.022086752863758701 0 0.0015414597786194304 -0.02184019833257899 0 0.0019791044185320907 -0.022849886447576875 0 0.0016383188830345115 -0.020905505313798773 0 0.0016702056005222618 -0.020770916777037206 0 0.0014613593056558558 -0.020753353081361437 0 0.0016497037811016265 -0.020723131143746625 0 0.0016702056005222618 -0.020770916777037206 0 0.0014613593056558558 -0.020753353081361437 0 0.0017677128651808558 -0.022199561748032198 0 0.0017834123351177728 -0.021936578783103101 0 0.0016068152650563917 -0.023089092829782297 0 0.0019632065597269335 -0.023326333702952225 0 0.0020433673669182396 -0.022985138633784818 0 0.0014010485238915343 -0.020723539199496172 0 0.0017834123351177728 -0.021936578783103101 0 0.0014010485238915343 -0.020723539199496172 0 0.0013292904969990158 -0.019708819482460976 0 0.00076841929837396844 -0.019324712891841532 0 0.001185036216583226 -0.019230931431290857 0 0.00063133988984535644 -0.019294030835527828 0 0.001275534273254693 -0.019250076935888431 0 0.00053765388923660495 -0.018647215837431053 0 0.00063133988984535644 -0.019294030835527828 0 0.00053765388923660495 -0.018647215837431053 0 0.00035083248068487518 -0.0186826997516952 0 0.0013292904969990158 -0.019708819482460976 0 0.001185036216583226 -0.019230931431290857 0 0.001185036216583226 -0.019230931431290857 0 0.0011242859056511459 -0.018581556336481831 0 0.00060204723862124459 -0.019460025434425685 0 0.00040074005595920869 -0.01907936257259513 0 0.00022855510031761345 -0.019370824581950163 0 0.0015821521996901636 -0.018799487682248782 0 0.0014335726425939604 -0.018825850005096449 0 0.0015478538419977073 -0.018723896671073704 0 0.00040074005595920869 -0.01907936257259513 0 0.00022855510031761345 -0.019370824581950163 0 -3.3487889135582712e-05 -0.019163446623760717 0 -5.9682491524238556e-05 -0.019580507770740722 0 0.00022855510031761345 -0.019370824581950163 0 -3.3487889135582712e-05 -0.019163446623760717 0 0.0011242859056511459 -0.018581556336481831 0 0.00094007785447675703 -0.018142012511362642 0 0.0019584202869302606 -0.016881621984463635 0 0.0019879838530556956 -0.016902933024384028 0 0.0020095137739493613 -0.016867449654732102 0 0.00062440164103261925 -0.019443056186977642 0 0.0011242859056511459 -0.018581556336481831 0 -5.9682491524238556e-05 -0.019580507770740722 0 -6.8214608612931165e-05 -0.019629639656901808 0 -4.8911694474982024e-05 -0.019674715980586593 0 0.0019584202869302606 -0.016881621984463635 0 0.0019879838530556956 -0.016902933024384028 0 0.0019563878713509276 -0.016933293967711802 0 0.0011242859056511459 -0.018581556336481831 0 0.0018663669570613748 -0.018089814105098224 0 0.0019879838530556956 -0.016902933024384028 0 0.0019864861107912681 -0.016927434110713083 0 0.0019563878713509276 -0.016933293967711802 0 0.0021209804486519439 -0.018745612560908127 0 0.0020096685025001214 -0.018502885340309885 0 0.0019278789271205705 -0.018579547228550309 0 0.0014335726425939604 -0.018825850005096449 0 0.0015478538419977073 -0.018723896671073704 0 0.0014525573458811574 -0.018641091880635015 0 0.0017031284830236484 -0.01922856144066655 0 0.0018663669570613748 -0.018089814105098224 0 0.0018388535948769607 -0.020368536040619039 0 0.0017489807490681237 -0.020390045723296831 0 0.0016982681414086916 -0.020275579578799219 0 0.0017031284830236484 -0.01922856144066655 0 0.0021691829266644986 -0.018816563725149556 0 0.0013292904969990158 -0.019708819482460976 0 0.0017031284830236484 -0.01922856144066655 0 0.001185036216583226 -0.019230931431290857 0 0.0017031284830236484 -0.01922856144066655 0 0.0013499482432040894 -0.019400813601873151 0 0.0013657671469419676 -0.019397659565556936 0 0.001378807097618987 -0.019424392742715256 0 0.0021783876583454844 -0.020450006000727213 0 0.0023145703946419751 -0.020326365938892886 0 0.0023373714032339857 -0.020373213815652547 0 0.0020096685025001214 -0.018502885340309885 0 0.001935649957996754 -0.018500492882691337 0 0.0019278789271205705 -0.018579547228550309 0 0.0021691829266644986 -0.018816563725149556 0 0.0021903569011884794 -0.018045609339503815 0 0.0020739823282453847 -0.018454933587489387 0 0.0020305152814368245 -0.01836214706822201 0 0.0020217306711954493 -0.018453183204998398 0 0.0021691829266644986 -0.018816563725149556 0 0.0023763692499962465 -0.01823678519096221 0 0.0023763692499962465 -0.01823678519096221 0 0.0021903569011884794 -0.018045609339503815 0 0.0023008308982762869 -0.021617856676027138 0 0.0028814017262742977 -0.017597092104455876 0 0.0022333986386223518 -0.02179583826430493 0 0.0023763692499962465 -0.01823678519096221 0 0.0023294181349344883 -0.019249074784402166 0 0.0027118920786491402 -0.019079507776491613 0 0.0026525301602573939 -0.01924150843670705 0 0.0023833928107359946 -0.019373481556928189 0 0.0026525301602573939 -0.01924150843670705 0 0.0026860713367294516 -0.019358324589965881 0 0.0027118920786491402 -0.019079507776491613 0 0.0026525301602573939 -0.01924150843670705 0 0.0026894798144834046 -0.019316398334792668 0 0.0023763692499962465 -0.01823678519096221 0 0.0028913948250823885 -0.017523522009364943 0 0.0029884738082337084 -0.017881124099575325 0 0.0028913948250823885 -0.017523522009364943 0 0.0026525301602573939 -0.01924150843670705 0 0.0026898952834374496 -0.019317584842172261 0 0.0026860713367294516 -0.019358324589965881 0 0.0032851565016175301 -0.017279760479170039 0 0.0032827932395076281 -0.017302089585995471 0 0.0032956510975256322 -0.017301792645401007 0 0.0028913948250823885 -0.017523522009364943 0 0.0028911281175140898 -0.017170602507270535 0 0.0028913948250823885 -0.017523522009364943 0 0.0028814017262742977 -0.017597092104455876 0 0.0028814017262742977 -0.017597092104455876 0 0.0028911281175140898 -0.017170602507270535 0 0.0029202028105524175 -0.01579984393057687 0 0.0028862626348484053 -0.015827483916999129 0 0.0028656903359155074 -0.015818788581940406 0 0.0028911281175140898 -0.017170602507270535 0 0.0029935492086392034 -0.013787092149958284 0 0.0029202028105524175 -0.01579984393057687 0 0.0028656903359155074 -0.015818788581940406 0 0.0028500105013617065 -0.015795100564368406 0 0.0029264121291480163 -0.015808381244144059 0 0.0029202028105524175 -0.01579984393057687 0 0.0029041277412106274 -0.015827901179690768 0 0.0029202028105524175 -0.01579984393057687 0 0.0029041277412106274 -0.015827901179690768 0 0.0028862626348484053 -0.015827483916999129 0 0.0029259934623187653 -0.015882603151323605 0 0.0029264121291480163 -0.015808381244144059 0 0.0029041277412106274 -0.015827901179690768 0 0.0023763692499962465 -0.01823678519096221 0 0.0021697552902216854 -0.016922540002150481 0 0.0029232197450889518 -0.015860734004770505 0 0.0029041277412106274 -0.015827901179690768 0 0.0028959130985015003 -0.015848429124262826 0 0.0029041277412106274 -0.015827901179690768 0 0.0028862626348484053 -0.015827483916999129 0 0.0028959130985015003 -0.015848429124262826 0 0.0028862626348484053 -0.015827483916999129 0 0.0028746951743340195 -0.015836767031247465 0 0.0028959130985015003 -0.015848429124262826 0 0.0028746951743340195 -0.015836767031247465 0 0.002854820382301981 -0.015838636176151093 0 0.0028656903359155074 -0.015818788581940406 0 0.0028862626348484053 -0.015827483916999129 0 0.0028746951743340195 -0.015836767031247465 0 0.0028656903359155074 -0.015818788581940406 0 0.0028808332937186273 -0.015860297421676162 0 0.0029233600053265541 -0.015888285903996883 0 0.0028493274880591808 -0.015890056292839537 0 0.0028746951743340195 -0.015836767031247465 0 0.0028808332937186273 -0.015860297421676162 0 0.002854820382301981 -0.015838636176151093 0 0.0021903569011884794 -0.018045609339503815 0 0.0024130488737062585 -0.016313509016664764 0 0.0019561357159563245 -0.016946524512729298 0 0.0019661089818705478 -0.016940691441707012 0 0.0020044631986942743 -0.016937652411318588 0 0.0028746951743340195 -0.015836767031247465 0 0.0028808332937186273 -0.015860297421676162 0 0.0028959130985015003 -0.015848429124262826 0 0.0028808332937186273 -0.015860297421676162 0 0.0028959130985015003 -0.015848429124262826 0 0.0029233600053265541 -0.015888285903996883 0 0.0029232197450889518 -0.015860734004770505 0 0.0028959130985015003 -0.015848429124262826 0 0.0029233600053265541 -0.015888285903996883 0 0.0019864861107912681 -0.016927434110713083 0 0.0019661089818705478 -0.016940691441707012 0 0.0019563878713509276 -0.016933293967711802 0 0.0019561357159563245 -0.016946524512729298 0 0.0019661089818705478 -0.016940691441707012 0 0.0019576155562667915 -0.016936529708468338 0 0.0021903569011884794 -0.018045609339503815 0 0.0018663669570613748 -0.018089814105098224 0 0.0018030567359480069 -0.017973595037327355 0 0.0018663669570613748 -0.018089814105098224 0 0.0019864861107912681 -0.016927434110713083 0 0.0019661089818705478 -0.016940691441707012 0 0.0020044631986942743 -0.016937652411318588 0 0.002854820382301981 -0.015838636176151093 0 0.0027848589312065111 -0.015657096836237918 0 0.0026816677300088476 -0.015888434087744364 0 0.0028493274880591808 -0.015890056292839537 0 0.002854820382301981 -0.015838636176151093 0 0.0026816677300088476 -0.015888434087744364 0 0.0024130488737062585 -0.016313509016664764 0 0.0029454076493545169 -0.014345609533857804 0 0.0020044631986942743 -0.016937652411318588 0 0.0020522319057960092 -0.016928724478357186 0 0.0020221527043943937 -0.016906166259314036 0 0.0028808332937186273 -0.015860297421676162 0 0.0028493274880591808 -0.015890056292839537 0 0.002854820382301981 -0.015838636176151093 0 0.002854820382301981 -0.015838636176151093 0 0.0027848589312065111 -0.015657096836237918 0 0.002828245907738545 -0.015655689519631987 0 0.0030982681788259501 -0.015764459103377624 0 0.0029935492086392034 -0.013787092149958284 0 0.002854820382301981 -0.015838636176151093 0 0.0028656903359155074 -0.015818788581940406 0 0.0028500105013617065 -0.015795100564368406 0 0.0029744826826604226 -0.012805513499212004 0 0.0029935492086392034 -0.013787092149958284 0 0.0044823976637065202 -0.010528042351709952 0 0.0035937824753867337 -0.011096621224666987 0 0.0036884318235600208 -0.012159732065217511 0 0.0029744826826604226 -0.012805513499212004 0 0.0023512500401688631 -0.010631149079891527 0 0.0029744826826604226 -0.012805513499212004 0 0.0029454076493545169 -0.014345609533857804 0 0.0044823976637065202 -0.010528042351709952 0 0.0035937824753867337 -0.011096621224666987 0 0.0026804016303918774 -0.010523264053407803 0 0.0035937824753867337 -0.011096621224666987 0 0.003055216078539784 -0.011679754590895078 0 0.0026804016303918774 -0.010523264053407803 0 0.0035937824753867337 -0.011096621224666987 0 0.003055216078539784 -0.011679754590895078 0 0.0036884318235600208 -0.012159732065217511 0 0.0043625972435048102 -0.012253132296445052 0 0.0036731827727389619 -0.012449034970511216 0 0.0025978971506117393 -0.012202935189125944 0 0.0029454076493545169 -0.014345609533857804 0 0.002488238977644388 -0.012715031392190162 0 0.003055216078539784 -0.011679754590895078 0 0.0036884318235600208 -0.012159732065217511 0 0.0023955414855424953 -0.012146596960381624 0 0.0043625972435048102 -0.012253132296445052 0 0.0036731827727389619 -0.012449034970511216 0 0.003755532881331747 -0.013505256777403152 0 0.0029454076493545169 -0.014345609533857804 0 0.0029590447478021142 -0.014598271236626445 0 0.0020522319057960092 -0.016928724478357186 0 0.0020658765580897904 -0.016898258376407307 0 0.0020221527043943937 -0.016906166259314036 0 0.0020658765580897904 -0.016898258376407307 0 0.0020221527043943937 -0.016906166259314036 0 0.0020393302945301206 -0.016881883363014518 0 0.003790861477884946 -0.013466444980244912 0 0.0036551071546277298 -0.013753232072476487 0 0.0039856619810562663 -0.015483787240332069 0 0.0036731827727389619 -0.012449034970511216 0 0.0037797247842648401 -0.013473430946387135 0 0.003264128393148596 -0.012985123536451745 0 0.0030905081128891421 -0.01341689043619352 0 0.0029590447478021142 -0.014598271236626445 0 0.0037797247842648401 -0.013473430946387135 0 0.0036551071546277298 -0.013753232072476487 0 0.0031478036779627322 -0.01369931919103832 0 0.0029590447478021142 -0.014598271236626445 0 0.0030159121216753902 -0.014497021089937711 0 0.0019879838530556956 -0.016902933024384028 0 0.0020221527043943937 -0.016906166259314036 0 0.0020095137739493613 -0.016867449654732102 0 0.0019864861107912681 -0.016927434110713083 0 0.0020044631986942743 -0.016937652411318588 0 0.0020221527043943937 -0.016906166259314036 0 0.0019879838530556956 -0.016902933024384028 0 0.0019864861107912681 -0.016927434110713083 0 0.0020221527043943937 -0.016906166259314036 0 0.0020221527043943937 -0.016906166259314036 0 0.0020095137739493613 -0.016867449654732102 0 0.0020393302945301206 -0.016881883363014518 0 0.0020095137739493613 -0.016867449654732102 0 0.0020393302945301206 -0.016881883363014518 0 0.0020584835977853298 -0.016855725821815395 0 0.0029590447478021142 -0.014598271236626445 0 0.0014921006257817887 -0.017138971584689848 0 0.00094007785447675703 -0.018142012511362642 0 0.0014921006257817887 -0.017138971584689848 0 0.0020658765580897904 -0.016898258376407307 0 0.0020393302945301206 -0.016881883363014518 0 0.0020584835977853298 -0.016855725821815395 0 0.0036551071546277298 -0.013753232072476487 0 0.0039856619810562663 -0.015483787240332069 0 0.0034029397316481928 -0.014393001367939711 0 0.0023158099934351755 -0.0086624865758570119 0 0.0026014407977227928 -0.0089548164945023913 0 0.0022156465372866765 -0.0084440261816099912 0 0.0023158099934351755 -0.0086624865758570119 0 0.0021672583183400852 -0.0087770841829788501 0 0.0020368785497477063 -0.0084976224139464672 0 0.0023158099934351755 -0.0086624865758570119 0 0.0021672484178162903 -0.0084767338323021874 0 0.0020368785497477063 -0.0084976224139464672 0 0.0021672484178162903 -0.0084767338323021874 0 0.0020876076200892087 -0.0083135812780198975 0 0.0020368785497477063 -0.0084976224139464672 0 0.0023158099934351755 -0.0086624865758570119 0 0.0021672484178162903 -0.0084767338323021874 0 0.0022156465372866765 -0.0084440261816099912 0 0.0022498256447249071 -0.0085987265859474443 0 0.0023509584734553099 -0.0084518189423892394 0 0.0022693562651769725 -0.0083486607349210588 0 0.0024461595175103244 -0.0091242829335886171 0 0.0023057817601452699 -0.0086599346458026936 0 0.0027635580848185803 -0.0092854711185906842 0 0.0022156465372866765 -0.0084440261816099912 0 0.0021897635641616275 -0.0082565467492744203 0 0.0022498256447249071 -0.0085987265859474443 0 0.0022693562651769725 -0.0083486607349210588 0 0.0021897635641616275 -0.0082565467492744203 0 0.0026795524592698305 -0.0093077446785041849 0 0.0027635580848185803 -0.0092854711185906842 0 0.0022156465372866765 -0.0084440261816099912 0 0.0020031762678371268 -0.011307780758311004 0 0.00184760618882645 -0.0079930062254968976 0 0.0026795524592698305 -0.0093077446785041849 0 0.0024219208706521005 -0.009709844623567946 0 0.0022156465372866765 -0.0084440261816099912 0 0.0027734013635308638 -0.009288969168414294 0 0.0024219208706521005 -0.009709844623567946 0 0.0032126235587044494 -0.010134776082228432 0 0.0020031762678371268 -0.011307780758311004 0 0.0025682910963522251 -0.013317446242721276 0 0.0026795524592698305 -0.0093077446785041849 0 0.0027734013635308638 -0.009288969168414294 0 0.0024219208706521005 -0.009709844623567946 0 0.0020398078874248045 -0.011282535853253671 0 0.0020031762678371268 -0.011307780758311004 0 0.0026014407977227928 -0.0089548164945023913 0 0.002349721800975561 -0.0088547562206527305 0 0.0023011082603954956 -0.0090686370718772707 0 0.0023158099934351755 -0.0086624865758570119 0 0.0026014407977227928 -0.0089548164945023913 0 0.002349721800975561 -0.0088547562206527305 0 0.0023158099934351755 -0.0086624865758570119 0 0.002349721800975561 -0.0088547562206527305 0 0.0021672583183400852 -0.0087770841829788501 0 0.002349721800975561 -0.0088547562206527305 0 0.0021672583183400852 -0.0087770841829788501 0 0.0023011082603954956 -0.0090686370718772707 0 0.0021672583183400852 -0.0087770841829788501 0 0.0023011082603954956 -0.0090686370718772707 0 0.0019368121807779568 -0.0090281539030746972 0 0.0026014407977227928 -0.0089548164945023913 0 0.0023011082603954956 -0.0090686370718772707 0 0.0024898625219910613 -0.0094830998543587123 0 0.0023011082603954956 -0.0090686370718772707 0 0.0021398367922313964 -0.0095240217851465074 0 0.0019368121807779568 -0.0090281539030746972 0 0.0023011082603954956 -0.0090686370718772707 0 0.0024898625219910613 -0.0094830998543587123 0 0.0021398367922313964 -0.0095240217851465074 0 0.0027861208351666294 -0.010137955144937831 0 0.0024572222132616742 -0.0098566429197346414 0 0.0019844887424892029 -0.010206502481822026 0 0.0021398367922313964 -0.0095240217851465074 0 0.0024572222132616742 -0.0098566429197346414 0 0.0019844887424892029 -0.010206502481822026 0 0.0024898625219910613 -0.0094830998543587123 0 0.0021398367922313964 -0.0095240217851465074 0 0.0024572222132616742 -0.0098566429197346414 0 0.0028579601837396061 -0.012234951983866984 0 0.0025682910963522251 -0.013317446242721276 0 0.0026187576431004459 -0.012880673186557058 0 0.0024538144765450733 -0.012883334901971258 0 0.0024981216276241179 -0.013124136918721453 0 0.0029935492086392034 -0.013787092149958284 0 0.0028579601837396061 -0.012234951983866984 0 0.0027861208351666294 -0.010137955144937831 0 0.0024572222132616742 -0.0098566429197346414 0 0.0028877015534892669 -0.0099348631711142464 0 0.0029744826826604226 -0.012805513499212004 0 0.0028579601837396061 -0.012234951983866984 0 0.0024898625219910613 -0.0094830998543587123 0 0.0024572222132616742 -0.0098566429197346414 0 0.0028877015534892669 -0.0099348631711142464 0 0.0026014407977227928 -0.0089548164945023913 0 0.0024898625219910613 -0.0094830998543587123 0 0.0028877015534892669 -0.0099348631711142464 0 0.0024219208706521005 -0.009709844623567946 0 0.0026867836457615956 -0.011230499373580016 0 0.0032126235587044494 -0.010134776082228432 0 0.0024461595175103244 -0.0091242829335886171 0 0.0028579601837396061 -0.012234951983866984 0 0.0023067157736110845 -0.01532926038871339 0 0.0032512097060617244 -0.015836703363069995 0 0.0025746758855841544 -0.014785260874239831 0 0.0025682910963522251 -0.013317446242721276 0 0.002282738837949288 -0.014244445081324582 0 0.0031722971435357017 -0.014691265152578415 0 0.0024130870341658884 -0.014488357978276724 0 0.0027462889718086608 -0.013800664971535721 0 0.0028911281175140898 -0.017170602507270535 0 0.0025682910963522251 -0.013317446242721276 0 0.0031722971435357017 -0.014691265152578415 0 0.0024511570894844422 -0.014691901698597595 0 0.0024130870341658884 -0.014488357978276724 0 0.0030638599001670034 -0.016911210301004509 0 0.0023067157736110845 -0.01532926038871339 0 0.0032512097060617244 -0.015836703363069995 0 0.003149901847341222 -0.016910281854076871 0 0.0030638599001670034 -0.016911210301004509 0 0.0032512097060617244 -0.015836703363069995 0 0.0027548937970304083 -0.019847260832623323 0 0.0024997610556285982 -0.019841639379943026 0 0.0025880749607256975 -0.019729664707382081 0 0.0027548937970304083 -0.019847260832623323 0 0.0025880749607256975 -0.019729664707382081 0 0.0026505465001340324 -0.019598915548983176 0 0.0024997610556285982 -0.019841639379943026 0 0.0025880749607256975 -0.019729664707382081 0 0.0025203907725668789 -0.019597312412495953 0 0.0028814017262742977 -0.017597092104455876 0 0.0028726576916072574 -0.017692419404745644 0 0.0025880749607256975 -0.019729664707382081 0 0.0026505465001340324 -0.019598915548983176 0 0.0025203907725668789 -0.019597312412495953 0 0.0025903909471753851 -0.022057767448476838 0 0.0027281195652561476 -0.018837207150294865 0 0.0016311116790585175 -0.024614728897580321 0 0.0014985769053517575 -0.02436456689914282 0 0.0016460573140384578 -0.024454701855943551 0 0.0032512097060617244 -0.015836703363069995 0 0.0033442329613678217 -0.014771861425226362 0 0.0025746758855841544 -0.014785260874239831 0 0.0026505465001340324 -0.019598915548983176 0 0.0025203907725668789 -0.019597312412495953 0 0.0025392631301416556 -0.019344843490070564 0 0.0028726576916072574 -0.017692419404745644 0 0.0027281195652561476 -0.018837207150294865 0 0.0016260958207718016 -0.024326389442009308 0 0.0014985769053517575 -0.02436456689914282 0 0.0016460573140384578 -0.024454701855943551 0 0.0016260958207718016 -0.024326389442009308 0 0.0014985769053517575 -0.02436456689914282 0 0.0015151745631097936 -0.02415853767969376 0 0.0016260958207718016 -0.024326389442009308 0 0.0016104401295537838 -0.024144045561023082 0 0.0015151745631097936 -0.02415853767969376 0 0.0027281195652561476 -0.018837207150294865 0 0.002217546952968242 -0.018143574187135181 0 0.002673461289108817 -0.016599055800724377 0 0.0032498501682179941 -0.017946820801633175 0 0.0033880232918445242 -0.016466617910476256 0 0.0027522426320829431 -0.015010180808475038 0 0.0027281195652561476 -0.018837207150294865 0 0.0020031762678371268 -0.011307780758311004 0 0.0027522426320829431 -0.015010180808475038 0 0.0018574454721384198 -0.014340665857391018 0 0.0030592113335917849 -0.014122099234242503 0 0.0025746758855841544 -0.014785260874239831 0 0.0018574454721384198 -0.014340665857391018 0 0.0023232429622794789 -0.015295958786015739 0 0.0025746758855841544 -0.014785260874239831 0 0.0030592113335917849 -0.014122099234242503 0 0.0033442329613678217 -0.014771861425226362 0 0.0025746758855841544 -0.014785260874239831 0 0.0025112137715727055 -0.0085749951767287811 0 0.0023509584734553099 -0.0084518189423892394 0 0.0024288794382960263 -0.0083806127696463058 0 0.0027522426320829431 -0.015010180808475038 0 0.0017135496719480128 -0.011106750944740644 0 0.0022498256447249071 -0.0085987265859474443 0 0.0025112137715727055 -0.0085749951767287811 0 0.0023509584734553099 -0.0084518189423892394 0 0.0023509584734553099 -0.0084518189423892394 0 0.0024288794382960263 -0.0083806127696463058 0 0.0023343725574927103 -0.0083323269141279115 0 0.0023509584734553099 -0.0084518189423892394 0 0.0023343725574927103 -0.0083323269141279115 0 0.0022693562651769725 -0.0083486607349210588 0 0.0012581550567049981 -0.022776011570162465 0 0.0014653294957855389 -0.023021282216008902 0 0.0018209294872881684 -0.022518004053850248 0 0.0023910229589128571 -0.017105406772439557 0 0.0023392096679614618 -0.020319788076539919 0 0.0023392096679614618 -0.020319788076539919 0 0.002217546952968242 -0.018143574187135181 0 0.0020725104056564859 -0.018974057680144998 0 0.0020443322610466642 -0.018944328051001991 0 0.0020770683208630116 -0.018936441590154739 0 0.0023113875568373105 -0.016029595300829643 0 0.0012586501335864709 -0.013559787609307056 0 0.0034340802136877458 -0.014662620338302443 0 0.0027522426320829431 -0.015010180808475038 0 0.002217546952968242 -0.018143574187135181 0 0.0023113875568373105 -0.016029595300829643 0 0.0034340802136877458 -0.014662620338302443 0 0.0033210231010076677 -0.015842387569031766 0 0.0023910229589128571 -0.017105406772439557 0 0.002217546952968242 -0.018143574187135181 0 0.0014653294957855389 -0.023021282216008902 0 0.0018209294872881684 -0.022518004053850248 0 0.0023465031261753672 -0.022889699286174205 0 0.0023392096679614618 -0.020319788076539919 0 0.0022205024889270764 -0.023898878651348657 0 0.0022205024889270764 -0.023898878651348657 0 0.0013524993753920805 -0.028852227358901843 0 0.0018518710709757842 -0.024368954400926606 0 0.0019490974554008406 -0.024534709034629641 0 0.0020033502627063607 -0.02436198085563071 0 0.0018518710709757842 -0.024368954400926606 0 0.0018173974379425289 -0.024507024590721585 0 0.0019490974554008406 -0.024534709034629641 0 0.0016260958207718016 -0.024326389442009308 0 0.0016104401295537838 -0.024144045561023082 0 0.0018173974379425289 -0.024507024590721585 0 0.0023392096679614618 -0.020319788076539919 0 0.0026324273946942761 -0.024531748574562959 0 0.0017284413892174407 -0.024375291477046472 0 0.0018518710709757842 -0.024368954400926606 0 0.0018173974379425289 -0.024507024590721585 0 0.0016260958207718016 -0.024326389442009308 0 0.0016460573140384578 -0.024454701855943551 0 0.0018173974379425289 -0.024507024590721585 0 0.0016311116790585175 -0.024614728897580321 0 0.0016460573140384578 -0.024454701855943551 0 0.0018173974379425289 -0.024507024590721585 0 0.0016311116790585175 -0.024614728897580321 0 0.0018173974379425289 -0.024507024590721585 0 0.0018583547704112758 -0.024607640705971497 0 0.0023008308982762869 -0.021617856676027138 0 0.0025903909471753851 -0.022057767448476838 0 0.0017163096516941141 -0.024783440990937967 0 0.0016311116790585175 -0.024614728897580321 0 0.0018226202629588171 -0.024707219634568657 0 0.0016311116790585175 -0.024614728897580321 0 0.0018226202629588171 -0.024707219634568657 0 0.0018583547704112758 -0.024607640705971497 0 0.0019210000998689518 -0.024785366182800361 0 0.0017163096516941141 -0.024783440990937967 0 0.0018226202629588171 -0.024707219634568657 0 0.0019210000998689518 -0.024785366182800361 0 0.0019288814644949327 -0.024727005738684481 0 0.0018226202629588171 -0.024707219634568657 0 0.0018226202629588171 -0.024707219634568657 0 0.0019332454575387195 -0.024665181365724435 0 0.0018583547704112758 -0.024607640705971497 0 0.0019288814644949327 -0.024727005738684481 0 0.0018226202629588171 -0.024707219634568657 0 0.0019332454575387195 -0.024665181365724435 0 0.0018173974379425289 -0.024507024590721585 0 0.0018583547704112758 -0.024607640705971497 0 0.0019490974554008406 -0.024534709034629641 0 0.0019332454575387195 -0.024665181365724435 0 0.0018583547704112758 -0.024607640705971497 0 0.0019490974554008406 -0.024534709034629641 0 0.0019332454575387195 -0.024665181365724435 0 0.0019490974554008406 -0.024534709034629641 0 0.0019888279880201434 -0.024659688970180449 0 0.0019490974554008406 -0.024534709034629641 0 0.0020485688275210206 -0.024632034964929123 0 0.0020971419708461312 -0.024519748921419435 0 0.0019490974554008406 -0.024534709034629641 0 0.0020485688275210206 -0.024632034964929123 0 0.0019888279880201434 -0.024659688970180449 0 0.0011088729480419183 -0.025481668124484814 0 0.0010441635127174588 -0.026450403190421714 0 0.0019332454575387195 -0.024665181365724435 0 0.0019888279880201434 -0.024659688970180449 0 0.0019891779526697963 -0.024750066469915941 0 0.0008992183274085506 -0.029322103196063386 0 0.0011116947795249458 -0.029308536847718822 0 0.0011211251228299337 -0.029353500326862701 0 0.0020485688275210206 -0.024632034964929123 0 0.0019888279880201434 -0.024659688970180449 0 0.0019891779526697963 -0.024750066469915941 0 0.0019210000998689518 -0.024785366182800361 0 0.0019288814644949327 -0.024727005738684481 0 0.001991040303188296 -0.024757226773898411 0 0.0014386468396736095 -0.025261678170173212 0 0.0010441635127174588 -0.026450403190421714 0 0.0014653673055211288 -0.025981151045233616 0 0.00039498634248337879 -0.026245973530838452 0 0.00034817733716526719 -0.026446502310053618 0 0.0011116947795249458 -0.029308536847718822 0 0.0011261368160660091 -0.02933294715555456 0 0.0011211251228299337 -0.029353500326862701 0 0.0019288814644949327 -0.024727005738684481 0 0.0019332454575387195 -0.024665181365724435 0 0.001991040303188296 -0.024757226773898411 0 0.00068892823689091325 -0.027820096015000611 0 0.00078178736750255707 -0.027208973801056552 0 0.0019332454575387195 -0.024665181365724435 0 0.0019891779526697963 -0.024750066469915941 0 0.0019826240970134469 -0.024772499733756982 0 0.00077657459014790909 -0.02721808144578693 0 0.00078178736750255707 -0.027208973801056552 0 0.00078178736750255707 -0.027208973801056552 0 0.0010441635127174588 -0.026450403190421714 0 0.001076605987311315 -0.026346426910477078 0 0.0010441635127174588 -0.026450403190421714 0 0.0008992183274085506 -0.029322103196063386 0 0.0011211251228299337 -0.029353500326862701 0 0.00078944717527349361 -0.029504897651665543 0 0.0020485688275210206 -0.024632034964929123 0 0.0019891779526697963 -0.024750066469915941 0 0.0021934175821890795 -0.024701123355577177 0 0.0019891779526697963 -0.024750066469915941 0 0.0019843491534924634 -0.024768803104683063 0 0.0021934175821890795 -0.024701123355577177 0 0.0010441635127174588 -0.026450403190421714 0 0.0011665678623658138 -0.029708996159110115 0 0.0012404256893452901 -0.029540015746825379 0 0.0011665678623658138 -0.029708996159110115 0 0.0020485688275210206 -0.024632034964929123 0 0.0020971419708461312 -0.024519748921419435 0 0.0021934175821890795 -0.024701123355577177 0 0.0012404256893452901 -0.029540015746825379 0 0.0013524993753920805 -0.028852227358901843 0 0.00026743767486262361 -0.034540995584200818 0 0.00031477631251176805 -0.034606552189007933 0 0.00023194554238191041 -0.034594612195897864 0 0.0019490974554008406 -0.024534709034629641 0 0.0020971419708461312 -0.024519748921419435 0 0.0020033502627063607 -0.02436198085563071 0 0.0013524993753920805 -0.028852227358901843 0 -0.00022301680556814733 -0.033697991939805362 0 0.00031477631251176805 -0.034606552189007933 0 0.0002303368165725305 -0.034650590267217639 0 0.00023194554238191041 -0.034594612195897864 0 -2.3780675052586796e-05 -0.034655730446072702 0 -4.671559736752959e-05 -0.034624459489288911 0 -9.6383169857890559e-06 -0.034643539267654143 0 -5.4594098200511504e-05 -0.034634705459324983 0 -2.3780675052586796e-05 -0.034655730446072702 0 -4.671559736752959e-05 -0.034624459489288911 0 -5.4594098200511504e-05 -0.034634705459324983 0 -4.671559736752959e-05 -0.034624459489288911 0 -8.5919092778083734e-05 -0.034589383136067457 0 0.0013524993753920805 -0.028852227358901843 0 0.0014008906243879 -0.028261060285003629 0 -4.671559736752959e-05 -0.034624459489288911 0 -4.2965700464728802e-05 -0.034608118461975625 0 -8.5919092778083734e-05 -0.034589383136067457 0 -4.671559736752959e-05 -0.034624459489288911 0 -4.2965700464728802e-05 -0.034608118461975625 0 -9.6383169857890559e-06 -0.034643539267654143 0 -4.2965700464728802e-05 -0.034608118461975625 0 -6.2662710443012136e-05 -0.034579862115189465 0 -8.1622263818627248e-05 -0.034562768822693608 0 -4.2965700464728802e-05 -0.034608118461975625 0 -6.2662710443012136e-05 -0.034579862115189465 0 -3.3434424244180834e-05 -0.034607400479095579 0 -6.2662710443012136e-05 -0.034579862115189465 0 -5.7235895679825626e-05 -0.034589393063253544 0 -8.8275382693852266e-05 -0.034565508944908847 0 -6.2662710443012136e-05 -0.034579862115189465 0 -3.3434424244180834e-05 -0.034607400479095579 0 -5.7235895679825626e-05 -0.034589393063253544 0 -6.2662710443012136e-05 -0.034579862115189465 0 -8.1622263818627248e-05 -0.034562768822693608 0 -8.1065824012642215e-05 -0.034542912869734148 0 -8.1622263818627248e-05 -0.034562768822693608 0 -8.1065824012642215e-05 -0.034542912869734148 0 -0.00010364800765040683 -0.034522913674174587 0 -4.2965700464728802e-05 -0.034608118461975625 0 -8.1622263818627248e-05 -0.034562768822693608 0 -8.5919092778083734e-05 -0.034589383136067457 0 0.0020838112247239522 -0.02066727861172362 0 0.001871707127848974 -0.020964721417737742 0 0.0026664888103128887 -0.021716133072599581 0 -8.1622263818627248e-05 -0.034562768822693608 0 -0.0001116913172052105 -0.034529601834110878 0 -8.5919092778083734e-05 -0.034589383136067457 0 0.0012124846380349938 -0.026147507602118324 0 0.0014008906243879 -0.028261060285003629 0 0.0012124846380349938 -0.026147507602118324 0 8.0902633667129326e-05 -0.02882165801251629 0 -8.1622263818627248e-05 -0.034562768822693608 0 -0.0001116913172052105 -0.034529601834110878 0 -0.00010364800765040683 -0.034522913674174587 0 0.00023825638762992946 -0.023877165077180275 0 0.00082230007306382483 -0.023013798842514165 0 0.00017044387048776766 -0.022786057887492998 0 0.0012124846380349938 -0.026147507602118324 0 0.0010950649535644251 -0.016263768237853103 0 0.0021305499033221161 -0.02061104488690834 0 0.0013882562408968084 -0.02068306548762415 0 0.0014818342333570976 -0.019441648932728994 0 0.00023825638762992946 -0.023877165077180275 0 0.00017044387048776766 -0.022786057887492998 0 -0.00037099890448585474 -0.022790223764721146 0 0.0021305499033221161 -0.02061104488690834 0 0.001871707127848974 -0.020964721417737742 0 0.0013882562408968084 -0.02068306548762415 0 0.0012124846380349938 -0.026147507602118324 0 0.0023090817941817023 -0.023786811052571709 0 0.001871707127848974 -0.020964721417737742 0 0.001924545012353125 -0.021743899316618253 0 0.0013374702770349277 -0.021764070746563061 0 0.001871707127848974 -0.020964721417737742 0 0.001924545012353125 -0.021743899316618253 0 0.0026664888103128887 -0.021716133072599581 0 0.0018209294872881684 -0.022518004053850248 0 0.0023465031261753672 -0.022889699286174205 0 0.0026664888103128887 -0.021716133072599581 0 0.0023465031261753672 -0.022889699286174205 0 0.003235301034230345 -0.022753073383222324 0 0.0026664888103128887 -0.021716133072599581 0 0.0018209294872881684 -0.022518004053850248 0 0.001924545012353125 -0.021743899316618253 0 0.0026664888103128887 -0.021716133072599581 0 0.0018209294872881684 -0.022518004053850248 0 0.001924545012353125 -0.021743899316618253 0 0.0013374702770349277 -0.021764070746563061 0 0.0023910229589128571 -0.017105406772439557 0 0.0024145919414027203 -0.015663406794455426 0 0.0012581550567049981 -0.022776011570162465 0 0.0018209294872881684 -0.022518004053850248 0 0.0013374702770349277 -0.021764070746563061 0 0.0034607329627409297 -0.010517478607700786 0 0.0032265325653038973 -0.010024189658255247 0 0.003526286040118929 -0.0095906819427534328 0 0.0032265325653038973 -0.010024189658255247 0 0.0031452323829608726 -0.0097014074341516179 0 0.003526286040118929 -0.0095906819427534328 0 0.0023910229589128571 -0.017105406772439557 0 0.0015168760151977538 -0.0098996288472279793 0 0.0034607329627409297 -0.010517478607700786 0 0.0032265325653038973 -0.010024189658255247 0 0.0028062632413283469 -0.0096918698478784104 0 0.0012586501335864709 -0.013559787609307056 0 0.0034340802136877458 -0.014662620338302443 0 0.00020789072709453572 -0.011087963590134505 0 0.0024288794382960263 -0.0083806127696463058 0 0.0023343725574927103 -0.0083323269141279115 0 0.0023330367182016567 -0.0082247367606645867 0 0.0017135496719480128 -0.011106750944740644 0 0.0015168760151977538 -0.0098996288472279793 0 0.0023343725574927103 -0.0083323269141279115 0 0.0023330367182016567 -0.0082247367606645867 0 0.0022911195579489604 -0.0082705799620146781 0 0.0032265325653038973 -0.010024189658255247 0 0.0030499584048026538 -0.0097457582304033338 0 0.0031452323829608726 -0.0097014074341516179 0 0.0032265325653038973 -0.010024189658255247 0 0.0028062632413283469 -0.0096918698478784104 0 0.0030499584048026538 -0.0097457582304033338 0 0.0030499584048026538 -0.0097457582304033338 0 0.0031452323829608726 -0.0097014074341516179 0 0.0029980632086576606 -0.0095844833787508982 0 0.0028062632413283469 -0.0096918698478784104 0 0.0030499584048026538 -0.0097457582304033338 0 0.0029980632086576606 -0.0095844833787508982 0 0.0029980632086576606 -0.0095844833787508982 0 0.0031231370914815873 -0.009472791367300731 0 0.0028629217529180799 -0.0092765325016450732 0 0.0031452323829608726 -0.0097014074341516179 0 0.0029980632086576606 -0.0095844833787508982 0 0.0031231370914815873 -0.009472791367300731 0 0.0028062632413283469 -0.0096918698478784104 0 0.0029980632086576606 -0.0095844833787508982 0 0.0028629217529180799 -0.0092765325016450732 0 0.0031231370914815873 -0.009472791367300731 0 0.0028629217529180799 -0.0092765325016450732 0 0.0031308556921057743 -0.0091039073826578616 0 0.0031231370914815873 -0.009472791367300731 0 0.003526286040118929 -0.0095906819427534328 0 0.0031308556921057743 -0.0091039073826578616 0 0.003526286040118929 -0.0095906819427534328 0 0.0035074030245274357 -0.0088244383658531676 0 0.0031308556921057743 -0.0091039073826578616 0 0.0024145919414027203 -0.015663406794455426 0 0.0023464099006263216 -0.014474109676005089 0 0.0031452323829608726 -0.0097014074341516179 0 0.0031231370914815873 -0.009472791367300731 0 0.003526286040118929 -0.0095906819427534328 0 0.001871707127848974 -0.020964721417737742 0 0.0013374702770349277 -0.021764070746563061 0 0.0013882562408968084 -0.02068306548762415 0 0.0035074030245274357 -0.0088244383658531676 0 0.0030729761634731246 -0.0085624882664446563 0 0.0031308556921057743 -0.0091039073826578616 0 0.0023464099006263216 -0.014474109676005089 0 0.0010950649535644251 -0.016263768237853103 0 0.0035074030245274357 -0.0088244383658531676 0 0.0030729761634731246 -0.0085624882664446563 0 0.0034936756302443102 -0.0082072968544255904 0 0.0030729761634731246 -0.0085624882664446563 0 0.0028130035635237868 -0.0088277773921386325 0 0.002623631123290416 -0.0083155533332893543 0 0.0030729761634731246 -0.0085624882664446563 0 0.002623631123290416 -0.0083155533332893543 0 0.0030851111644852498 -0.0081617203980036499 0 0.0030729761634731246 -0.0085624882664446563 0 0.0028130035635237868 -0.0088277773921386325 0 0.0031308556921057743 -0.0091039073826578616 0 0.0028629217529180799 -0.0092765325016450732 0 0.0028130035635237868 -0.0088277773921386325 0 0.0031308556921057743 -0.0091039073826578616 0 0.0028130035635237868 -0.0088277773921386325 0 0.0023923993561069902 -0.0089228086965037479 0 0.002623631123290416 -0.0083155533332893543 0 0.0028629217529180799 -0.0092765325016450732 0 0.0028130035635237868 -0.0088277773921386325 0 0.0023923993561069902 -0.0089228086965037479 0 0.0021978397504633517 -0.0085922665133501084 0 0.0020859902071571922 -0.0082747082998583625 0 0.0023923993561069902 -0.0089228086965037479 0 0.002623631123290416 -0.0083155533332893543 0 0.0020600931781205012 -0.0081792223644530909 0 0.0021190060281473799 -0.0081167054057298058 0 0.0019985547575372526 -0.0081519601964075098 0 0.0020600931781205012 -0.0081792223644530909 0 0.0021190060281473799 -0.0081167054057298058 0 0.0020382917989641047 -0.0081673110556652762 0 0.0019985547575372526 -0.0081519601964075098 0 0.0021190060281473799 -0.0081167054057298058 0 0.0020382917989641047 -0.0081673110556652762 0 0.0021443405168788602 -0.008201291394815808 0 0.0028062632413283469 -0.0096918698478784104 0 0.0028629217529180799 -0.0092765325016450732 0 0.0023923993561069902 -0.0089228086965037479 0 0.0015168760151977538 -0.0098996288472279793 0 0.0021978397504633517 -0.0085922665133501084 0 0.0021190060281473799 -0.0081167054057298058 0 0.0021443405168788602 -0.008201291394815808 0 0.0022315576359764537 -0.0082346063856951115 0 0.0023330367182016567 -0.0082247367606645867 0 0.0021190060281473799 -0.0081167054057298058 0 0.0022315576359764537 -0.0082346063856951115 0 0.0021443405168788602 -0.008201291394815808 0 0.0022315576359764537 -0.0082346063856951115 0 0.0021956647249860967 -0.008242661413011278 0 0.0021956647249860967 -0.008242661413011278 0 0.0022492473466829911 -0.0082707627274428673 0 0.002225418402304957 -0.0082787208693852511 0 0.0022315576359764537 -0.0082346063856951115 0 0.0021956647249860967 -0.008242661413011278 0 0.0022492473466829911 -0.0082707627274428673 0 0.0021956647249860967 -0.008242661413011278 0 0.002225418402304957 -0.0082787208693852511 0 0.0021897635641616275 -0.0082565467492744203 0 0.0023330367182016567 -0.0082247367606645867 0 0.0022315576359764537 -0.0082346063856951115 0 0.0022911195579489604 -0.0082705799620146781 0 0.0022315576359764537 -0.0082346063856951115 0 0.0022492473466829911 -0.0082707627274428673 0 0.0022911195579489604 -0.0082705799620146781 0 0.0023343725574927103 -0.0083323269141279115 0 0.0022911195579489604 -0.0082705799620146781 0 0.0022693562651769725 -0.0083486607349210588 0 0.0022492473466829911 -0.0082707627274428673 0 0.0022911195579489604 -0.0082705799620146781 0 0.0022693562651769725 -0.0083486607349210588 0 0.0022492473466829911 -0.0082707627274428673 0 0.0022693562651769725 -0.0083486607349210588 0 0.002225418402304957 -0.0082787208693852511 0 0.0022693562651769725 -0.0083486607349210588 0 0.002225418402304957 -0.0082787208693852511 0 0.0021897635641616275 -0.0082565467492744203 0 0.0021672484178162903 -0.0084767338323021874 0 0.0022156465372866765 -0.0084440261816099912 0 0.0020876076200892087 -0.0083135812780198975 0 0.0020382917989641047 -0.0081673110556652762 0 0.0021443405168788602 -0.008201291394815808 0 0.0020876076200892087 -0.0083135812780198975 0 0.0022156465372866765 -0.0084440261816099912 0 0.0021897635641616275 -0.0082565467492744203 0 0.0020876076200892087 -0.0083135812780198975 0 0.0021443405168788602 -0.008201291394815808 0 0.0021956647249860967 -0.008242661413011278 0 0.0021897635641616275 -0.0082565467492744203 0 0.0021443405168788602 -0.008201291394815808 0 0.0021897635641616275 -0.0082565467492744203 0 0.0020876076200892087 -0.0083135812780198975 0 5.7525737874239495e-05 -0.034942652264100565 0 0.00012349376215823978 -0.034970876369441191 0 0.00014105250213144582 -0.034855627831750051 0 5.7525737874239495e-05 -0.034942652264100565 0 0.00012349376215823978 -0.034970876369441191 0 7.3294526529355187e-06 -0.035009332702141495 0 8.9556425432402151e-05 -0.034844917492012704 0 0.00013115843453212581 -0.034701278581626485 0 0.00012349376215823978 -0.034970876369441191 0 0.00014105250213144582 -0.034855627831750051 0 0.0002501396262233596 -0.034913640516102247 0 4.9759318635565899e-05 -0.034737307391791684 0 6.151584389026314e-05 -0.0347660496660748 0 5.7479089718472726e-05 -0.034713697589843273 0 4.9759318635565899e-05 -0.034737307391791684 0 6.151584389026314e-05 -0.0347660496660748 0 3.4216046588312153e-05 -0.034824922878086813 0 6.151584389026314e-05 -0.0347660496660748 0 3.4216046588312153e-05 -0.034824922878086813 0 4.7299254916816519e-05 -0.034850825019341253 0 8.9556425432402151e-05 -0.034844917492012704 0 2.2555427279788479e-05 -0.034931800111750053 0 4.9759318635565899e-05 -0.034737307391791684 0 3.4216046588312153e-05 -0.034824922878086813 0 -1.895960366286804e-06 -0.034867029891457922 0 7.3294526529355187e-06 -0.035009332702141495 0 -2.21037688013077e-07 -0.034996643574464185 0 2.6396120057684045e-06 -0.034986919113147608 0 2.2555427279788479e-05 -0.034931800111750053 0 1.450768556042833e-08 -0.034999948837482101 0 -2.21037688013077e-07 -0.034996643574464185 0 2.3485912461038838e-09 -0.034999989662610642 0 -8.2466021866244762e-09 -0.035000006848865818 0 7.3294526529355187e-06 -0.035009332702141495 0 -2.21037688013077e-07 -0.034996643574464185 0 -8.2466021866244762e-09 -0.035000006848865818 0 -2.21037688013077e-07 -0.034996643574464185 0 1.6027628000954696e-06 -0.03499662876301992 0 2.3485912461038838e-09 -0.034999989662610642 0 5.7525737874239495e-05 -0.034942652264100565 0 2.6396120057684045e-06 -0.034986919113147608 0 2.0546260135950181e-05 -0.03486555794258981 0 1.6027628000954696e-06 -0.03499662876301992 0 2.6396120057684045e-06 -0.034986919113147608 0 -1.486859637656989e-06 -0.034998479743028478 0 -2.21037688013077e-07 -0.034996643574464185 0 1.6027628000954696e-06 -0.03499662876301992 0 2.6396120057684045e-06 -0.034986919113147608 0 5.7525737874239495e-05 -0.034942652264100565 0 7.3294526529355187e-06 -0.035009332702141495 0 2.6396120057684045e-06 -0.034986919113147608 0 3.8574525513789247e-06 -0.034974260195183869 0 1.753684249548974e-05 -0.034927999064889463 0 1.6027628000954696e-06 -0.03499662876301992 0 -1.486859637656989e-06 -0.034998479743028478 0 3.1082826788143228e-07 -0.034999413995718043 0 1.6027628000954696e-06 -0.03499662876301992 0 1.9071044553374775e-09 -0.034999999390616897 0 3.1082826788143228e-07 -0.034999413995718043 0 1.6027628000954696e-06 -0.03499662876301992 0 2.3485912461038838e-09 -0.034999989662610642 0 1.9071044553374775e-09 -0.034999999390616897 0 -1.8537685002920637e-09 -0.034999997799699541 0 1.9071044553374775e-09 -0.034999999390616897 0 1.4589226440985357e-07 -0.034999836311688647 0 1.9071044553374775e-09 -0.034999999390616897 0 3.1082826788143228e-07 -0.034999413995718043 0 1.4589226440985357e-07 -0.034999836311688647 0 -1.486859637656989e-06 -0.034998479743028478 0 3.1082826788143228e-07 -0.034999413995718043 0 5.5526941218251729e-07 -0.03499974091801656 0 -1.486859637656989e-06 -0.034998479743028478 0 5.5526941218251729e-07 -0.03499974091801656 0 -2.7895878994253766e-07 -0.034999605731285827 0 3.1082826788143228e-07 -0.034999413995718043 0 1.4589226440985357e-07 -0.034999836311688647 0 5.5526941218251729e-07 -0.03499974091801656 0 1.2208560562398338e-05 -0.034958885996878526 0 4.2513982117824672e-05 -0.034942536118689055 0 2.0546260135950181e-05 -0.03486555794258981 0 5.0486534840522772e-05 -0.034747924403798522 0 0.00014105250213144582 -0.034855627831750051 0 1.753684249548974e-05 -0.034927999064889463 0 4.2513982117824672e-05 -0.034942536118689055 0 5.7525737874239495e-05 -0.034942652264100565 0 2.0546260135950181e-05 -0.03486555794258981 0 0.00014105250213144582 -0.034855627831750051 0 5.0486534840522772e-05 -0.034747924403798522 0 0.00014105250213144582 -0.034855627831750051 0 0.0002044491688649785 -0.034741232304189226 0 4.2513982117824672e-05 -0.034942536118689055 0 0.00022149713297827176 -0.034848533533784587 0 0.00014105250213144582 -0.034855627831750051 0 0.0002044491688649785 -0.034741232304189226 0 0.00028207736704340662 -0.034809828018543994 0 0.00035834972725804062 -0.034731842040744261 0 0.0002044491688649785 -0.034741232304189226 0 0.00028207736704340662 -0.034809828018543994 0 0.00035834972725804062 -0.034731842040744261 0 0.00028207736704340662 -0.034809828018543994 0 0.00037510077783648382 -0.03485547883443843 0 0.00054714065866815723 -0.03363296130959828 0 0.00022149713297827176 -0.034848533533784587 0 0.00028207736704340662 -0.034809828018543994 0 0.00037510077783648382 -0.03485547883443843 0 0.0002501396262233596 -0.034913640516102247 0 0.0001205212940620629 -0.034546906163527701 0 0.00011870304481952036 -0.034535523538697384 0 5.7374047410249869e-05 -0.034639113750337874 0 -5.6311037538711109e-05 -0.033917771425479366 0 0.00013115843453212581 -0.034701278581626485 0 0.00014105250213144582 -0.034855627831750051 0 0.00028207736704340662 -0.034809828018543994 0 0.0002501396262233596 -0.034913640516102247 0 0.00070827841657340089 -0.032067437355437961 0 0.00081150110421351548 -0.032244228024667719 0 0.00051190446841198453 -0.032378059719421544 0 0.00068951353255368192 -0.029335063760270386 0 0.0008992183274085506 -0.029322103196063386 0 0.00078944717527349361 -0.029504897651665543 0 0.00076446308123737496 -0.031730544121716081 0 0.0011665678623658138 -0.029708996159110115 0 0.00046998554226653622 -0.032077939880179339 0 0.00070827841657340089 -0.032067437355437961 0 0.00051190446841198453 -0.032378059719421544 0 0.00054714065866815723 -0.03363296130959828 0 -5.6311037538711109e-05 -0.033917771425479366 0 0.00011931291207473614 -0.034528559787188481 0 0.00018971963907839592 -0.034530148746380725 0 0.0001535530539819188 -0.034557465977504559 0 0.0001205212940620629 -0.034546906163527701 0 0.00011931291207473614 -0.034528559787188481 0 0.0001535530539819188 -0.034557465977504559 0 -4.6385580177685426e-05 -0.033972976367429367 0 -5.6311037538711109e-05 -0.033917771425479366 0 0.00026743767486262361 -0.034540995584200818 0 0.00022334488755244866 -0.03444948211930958 0 0.00018971963907839592 -0.034530148746380725 0 0.0011665678623658138 -0.029708996159110115 0 -5.6311037538711109e-05 -0.033917771425479366 0 0.00022334488755244866 -0.03444948211930958 0 0.00011931291207473614 -0.034528559787188481 0 0.00018971963907839592 -0.034530148746380725 0 0.00026743767486262361 -0.034540995584200818 0 0.00023194554238191041 -0.034594612195897864 0 0.00018971963907839592 -0.034530148746380725 0 0.00023194554238191041 -0.034594612195897864 0 0.00018971963907839592 -0.034530148746380725 0 0.00017184106946694139 -0.034607288411667048 0 0.00018971963907839592 -0.034530148746380725 0 0.00017184106946694139 -0.034607288411667048 0 0.0001535530539819188 -0.034557465977504559 0 0.0001205212940620629 -0.034546906163527701 0 0.0001322803938946252 -0.034600697329266822 0 8.9220735554030244e-05 -0.034646328551190625 0 0.00017184106946694139 -0.034607288411667048 0 0.0001535530539819188 -0.034557465977504559 0 0.0001322803938946252 -0.034600697329266822 0 0.00017184106946694139 -0.034607288411667048 0 0.0001322803938946252 -0.034600697329266822 0 0.00012625328058932128 -0.034642142951147765 0 0.0001205212940620629 -0.034546906163527701 0 0.0001535530539819188 -0.034557465977504559 0 0.0001322803938946252 -0.034600697329266822 0 0.0001322803938946252 -0.034600697329266822 0 0.00012625328058932128 -0.034642142951147765 0 8.9220735554030244e-05 -0.034646328551190625 0 0.00017184106946694139 -0.034607288411667048 0 0.00012625328058932128 -0.034642142951147765 0 0.00014074594347418664 -0.034687194917685085 0 0.00012625328058932128 -0.034642142951147765 0 5.6380973067662205e-05 -0.034696132247791563 0 0.00014074594347418664 -0.034687194917685085 0 0.0002303368165725305 -0.034650590267217639 0 0.00017184106946694139 -0.034607288411667048 0 0.00014074594347418664 -0.034687194917685085 0 0.0002303368165725305 -0.034650590267217639 0 0.00023194554238191041 -0.034594612195897864 0 0.00017184106946694139 -0.034607288411667048 0 5.7374047410249869e-05 -0.034639113750337874 0 8.9220735554030244e-05 -0.034646328551190625 0 5.7479089718472726e-05 -0.034713697589843273 0 4.9759318635565899e-05 -0.034737307391791684 0 5.7374047410249869e-05 -0.034639113750337874 0 5.7479089718472726e-05 -0.034713697589843273 0 0.0001205212940620629 -0.034546906163527701 0 5.7374047410249869e-05 -0.034639113750337874 0 8.9220735554030244e-05 -0.034646328551190625 0 8.9220735554030244e-05 -0.034646328551190625 0 5.7479089718472726e-05 -0.034713697589843273 0 5.6380973067662205e-05 -0.034696132247791563 0 0.00012625328058932128 -0.034642142951147765 0 8.9220735554030244e-05 -0.034646328551190625 0 5.6380973067662205e-05 -0.034696132247791563 0 5.7479089718472726e-05 -0.034713697589843273 0 5.6380973067662205e-05 -0.034696132247791563 0 6.6104613164557474e-05 -0.034687789315096751 0 5.6380973067662205e-05 -0.034696132247791563 0 4.1652997000579155e-05 -0.03466346552309623 0 2.2947288729688577e-05 -0.034663796567251777 0 5.6380973067662205e-05 -0.034696132247791563 0 4.1652997000579155e-05 -0.03466346552309623 0 6.6104613164557474e-05 -0.034687789315096751 0 4.1652997000579155e-05 -0.03466346552309623 0 6.6104613164557474e-05 -0.034687789315096751 0 4.3179101832533082e-05 -0.034657645481598012 0 6.2538005167190274e-05 -0.034782439462096672 0 5.1950933746154482e-05 -0.034762901246655556 0 6.9585920382118181e-05 -0.034895890247299124 0 4.0482647789796694e-05 -0.034868543515324119 0 5.4140045288268043e-05 -0.034898768763320986 0 -0.00022301680556814733 -0.033697991939805362 0 5.2730886673548614e-05 -0.034489481298705126 0 -2.3780675052586796e-05 -0.034655730446072702 0 1.1154879279542395e-05 -0.034677679306444213 0 -9.6383169857890559e-06 -0.034643539267654143 0 5.0726304185857995e-05 -0.034621631581708973 0 5.2730886673548614e-05 -0.034489481298705126 0 5.6380973067662205e-05 -0.034696132247791563 0 1.1154879279542395e-05 -0.034677679306444213 0 2.2947288729688577e-05 -0.034663796567251777 0 1.1154879279542395e-05 -0.034677679306444213 0 2.2947288729688577e-05 -0.034663796567251777 0 -9.6383169857890559e-06 -0.034643539267654143 0 4.1652997000579155e-05 -0.03466346552309623 0 2.2947288729688577e-05 -0.034663796567251777 0 1.9959875553774976e-05 -0.034650785881195426 0 2.2947288729688577e-05 -0.034663796567251777 0 -9.6383169857890559e-06 -0.034643539267654143 0 1.9959875553774976e-05 -0.034650785881195426 0 -4.2965700464728802e-05 -0.034608118461975625 0 -9.6383169857890559e-06 -0.034643539267654143 0 -9.2828349949301599e-06 -0.034628203774465502 0 -9.6383169857890559e-06 -0.034643539267654143 0 -9.2828349949301599e-06 -0.034628203774465502 0 1.9959875553774976e-05 -0.034650785881195426 0 -4.2965700464728802e-05 -0.034608118461975625 0 -9.2828349949301599e-06 -0.034628203774465502 0 -3.3434424244180834e-05 -0.034607400479095579 0 4.1652997000579155e-05 -0.03466346552309623 0 1.9959875553774976e-05 -0.034650785881195426 0 4.2053442440590816e-05 -0.03465588765405711 0 -9.2828349949301599e-06 -0.034628203774465502 0 1.9959875553774976e-05 -0.034650785881195426 0 4.2053442440590816e-05 -0.03465588765405711 0 4.2053442440590816e-05 -0.03465588765405711 0 -4.8579075298041826e-06 -0.03462318048937487 0 4.987169482183973e-05 -0.034652923658595111 0 4.2053442440590816e-05 -0.03465588765405711 0 5.8054858274960316e-05 -0.034713431835772454 0 4.987169482183973e-05 -0.034652923658595111 0 -9.2828349949301599e-06 -0.034628203774465502 0 4.2053442440590816e-05 -0.03465588765405711 0 -4.8579075298041826e-06 -0.03462318048937487 0 -9.2828349949301599e-06 -0.034628203774465502 0 -4.8579075298041826e-06 -0.03462318048937487 0 -3.3434424244180834e-05 -0.034607400479095579 0 -4.8579075298041826e-06 -0.03462318048937487 0 -3.3434424244180834e-05 -0.034607400479095579 0 -5.7235895679825626e-05 -0.034589393063253544 0 4.1652997000579155e-05 -0.03466346552309623 0 4.2053442440590816e-05 -0.03465588765405711 0 4.3179101832533082e-05 -0.034657645481598012 0 5.1950933746154482e-05 -0.034762901246655556 0 5.1610580408187775e-05 -0.034733875036485368 0 4.2053442440590816e-05 -0.03465588765405711 0 4.3179101832533082e-05 -0.034657645481598012 0 5.8054858274960316e-05 -0.034713431835772454 0 4.0482647789796694e-05 -0.034868543515324119 0 5.7621909785359824e-05 -0.034860914108301472 0 5.8054858274960316e-05 -0.034713431835772454 0 5.7621909785359824e-05 -0.034860914108301472 0 3.1494498835541891e-05 -0.034926673739094624 0 2.5613535638369983e-05 -0.034929992402011369 0 5.7621909785359824e-05 -0.034860914108301472 0 3.1494498835541891e-05 -0.034926673739094624 0 5.4140045288268043e-05 -0.034898768763320986 0 4.0482647789796694e-05 -0.034868543515324119 0 5.7621909785359824e-05 -0.034860914108301472 0 5.4140045288268043e-05 -0.034898768763320986 0 6.9585920382118181e-05 -0.034895890247299124 0 5.4140045288268043e-05 -0.034898768763320986 0 2.8272124819106541e-05 -0.034895518711998814 0 3.1494498835541891e-05 -0.034926673739094624 0 5.4140045288268043e-05 -0.034898768763320986 0 2.8272124819106541e-05 -0.034895518711998814 0 3.4216046588312153e-05 -0.034824922878086813 0 2.8272124819106541e-05 -0.034895518711998814 0 4.7299254916816519e-05 -0.034850825019341253 0 3.4216046588312153e-05 -0.034824922878086813 0 -1.895960366286804e-06 -0.034867029891457922 0 2.8272124819106541e-05 -0.034895518711998814 0 5.8334527099338997e-05 -0.034764793607175451 0 6.2538005167190274e-05 -0.034782439462096672 0 6.151584389026314e-05 -0.0347660496660748 0 5.7479089718472726e-05 -0.034713697589843273 0 6.6104613164557474e-05 -0.034687789315096751 0 6.151584389026314e-05 -0.0347660496660748 0 6.9585920382118181e-05 -0.034895890247299124 0 4.7299254916816519e-05 -0.034850825019341253 0 6.9585920382118181e-05 -0.034895890247299124 0 2.8272124819106541e-05 -0.034895518711998814 0 4.7299254916816519e-05 -0.034850825019341253 0 -1.895960366286804e-06 -0.034867029891457922 0 -4.2316930454421647e-08 -0.034999796904922213 0 4.9539984162969982e-06 -0.034950106328501936 0 -1.895960366286804e-06 -0.034867029891457922 0 2.8272124819106541e-05 -0.034895518711998814 0 4.9539984162969982e-06 -0.034950106328501936 0 3.1494498835541891e-05 -0.034926673739094624 0 2.8272124819106541e-05 -0.034895518711998814 0 4.9539984162969982e-06 -0.034950106328501936 0 4.9539984162969982e-06 -0.034950106328501936 0 1.6602260725692886e-08 -0.034999959471125407 0 1.2721111913507315e-05 -0.034964082635851754 0 -4.2316930454421647e-08 -0.034999796904922213 0 4.9539984162969982e-06 -0.034950106328501936 0 1.6602260725692886e-08 -0.034999959471125407 0 1.6602260725692886e-08 -0.034999959471125407 0 1.2721111913507315e-05 -0.034964082635851754 0 1.2732003090416627e-08 -0.034999924279943251 0 3.1494498835541891e-05 -0.034926673739094624 0 4.9539984162969982e-06 -0.034950106328501936 0 1.2721111913507315e-05 -0.034964082635851754 0 3.1494498835541891e-05 -0.034926673739094624 0 1.2721111913507315e-05 -0.034964082635851754 0 2.5613535638369983e-05 -0.034929992402011369 0 1.2721111913507315e-05 -0.034964082635851754 0 2.5613535638369983e-05 -0.034929992402011369 0 1.2732003090416627e-08 -0.034999924279943251 0 1.2732003090416627e-08 -0.034999924279943251 0 1.5476508068916889e-05 -0.034946528665750223 0 6.3375874629916882e-09 -0.034999930296000729 0 2.5613535638369983e-05 -0.034929992402011369 0 1.2732003090416627e-08 -0.034999924279943251 0 1.5476508068916889e-05 -0.034946528665750223 0 2.5613535638369983e-05 -0.034929992402011369 0 1.5476508068916889e-05 -0.034946528665750223 0 3.7449427963499505e-05 -0.034886593455657935 0 1.5476508068916889e-05 -0.034946528665750223 0 3.7449427963499505e-05 -0.034886593455657935 0 1.3078515495714746e-05 -0.034949666250223013 0 1.5476508068916889e-05 -0.034946528665750223 0 6.3375874629916882e-09 -0.034999930296000729 0 1.3078515495714746e-05 -0.034949666250223013 0 5.7621909785359824e-05 -0.034860914108301472 0 3.7449427963499505e-05 -0.034886593455657935 0 6.1932770449681473e-05 -0.034787546314192813 0 5.7621909785359824e-05 -0.034860914108301472 0 2.5613535638369983e-05 -0.034929992402011369 0 3.7449427963499505e-05 -0.034886593455657935 0 3.7449427963499505e-05 -0.034886593455657935 0 4.3697543752833021e-05 -0.034876167512680453 0 1.3078515495714746e-05 -0.034949666250223013 0 3.7449427963499505e-05 -0.034886593455657935 0 4.3697543752833021e-05 -0.034876167512680453 0 6.1932770449681473e-05 -0.034787546314192813 0 4.3697543752833021e-05 -0.034876167512680453 0 5.017048602086015e-05 -0.034933894596346098 0 8.8941732907484188e-05 -0.034831818008725653 0 4.3697543752833021e-05 -0.034876167512680453 0 5.017048602086015e-05 -0.034933894596346098 0 1.3078515495714746e-05 -0.034949666250223013 0 5.017048602086015e-05 -0.034933894596346098 0 1.3078515495714746e-05 -0.034949666250223013 0 2.2608148401318839e-05 -0.034983357058767039 0 6.3375874629916882e-09 -0.034999930296000729 0 1.3078515495714746e-05 -0.034949666250223013 0 -8.8126741142094682e-10 -0.034999955266725044 0 1.3078515495714746e-05 -0.034949666250223013 0 5.5690040809975566e-06 -0.034990987643924262 0 2.2608148401318839e-05 -0.034983357058767039 0 1.3078515495714746e-05 -0.034949666250223013 0 -8.8126741142094682e-10 -0.034999955266725044 0 5.5690040809975566e-06 -0.034990987643924262 0 -8.8126741142094682e-10 -0.034999955266725044 0 5.5690040809975566e-06 -0.034990987643924262 0 3.7003887884763809e-09 -0.035000006446885903 0 5.5690040809975566e-06 -0.034990987643924262 0 3.7003887884763809e-09 -0.035000006446885903 0 4.2361164626988892e-06 -0.035002543300675974 0 4.7707813415766675e-07 -0.034999300262718823 0 0.00027507445544453353 -0.034580610750689862 0 4.1943594339754884e-10 -0.034999998852850454 0 5.9012101528168215e-07 -0.03499913795224012 0 5.9066727022156705e-11 -0.034999999187733249 0 1.2426789280928094e-06 -0.034999798951179925 0 1.1768288359951329e-08 -0.034999981835243721 0 6.0526218831117842e-07 -0.034998755854221769 0 0.00027507445544453353 -0.034580610750689862 0 4.1210249666311202e-08 -0.034999571146285463 0 0.0014910954091629874 -0.033571581255560312 0 0.0012198839176963319 -0.033572514708529629 0 0.0011901720520169441 -0.033778951790245863 0 0.0014910954091629874 -0.033571581255560312 0 0.0012198839176963319 -0.033572514708529629 0 0.0012096861519263103 -0.033364317294311406 0 1.2426789280928094e-06 -0.034999798951179925 0 6.0526218831117842e-07 -0.034998755854221769 0 -4.9223697789994141e-06 -0.034997571050087807 0 0.00027507445544453353 -0.034580610750689862 0 0.00058233675851507825 -0.034244582459870852 0 0.00027507445544453353 -0.034580610750689862 0 0.00065844512616792432 -0.034343127907379201 0 5.5690040809975566e-06 -0.034990987643924262 0 4.2361164626988892e-06 -0.035002543300675974 0 2.2608148401318839e-05 -0.034983357058767039 0 0.00045869680698628192 -0.034474673338191743 0 0.00065844512616792432 -0.034343127907379201 0 0.00089356435937423817 -0.034002887031912871 0 0.0011901720520169441 -0.033778951790245863 0 0.00098482699012863561 -0.033575170372818305 0 0.00089356435937423817 -0.034002887031912871 0 0.00098482699012863561 -0.033575170372818305 0 0.00069865754752845627 -0.033713897822664339 0 0.00098482699012863561 -0.033575170372818305 0 0.00070341435862115726 -0.033447267633618744 0 0.00069865754752845627 -0.033713897822664339 0 0.0012198839176963319 -0.033572514708529629 0 0.00098482699012863561 -0.033575170372818305 0 0.0012096861519263103 -0.033364317294311406 0 0.0012198839176963319 -0.033572514708529629 0 0.0011901720520169441 -0.033778951790245863 0 0.00098482699012863561 -0.033575170372818305 0 0.00043154156635054699 -0.034077112061328227 0 0.00058233675851507825 -0.034244582459870852 0 -2.6190487884573333e-05 -0.034985485925075707 0 -5.3575204275584518e-06 -0.034987145030301522 0 -4.9223697789994141e-06 -0.034997571050087807 0 0.00098482699012863561 -0.033575170372818305 0 0.00090939615255567581 -0.033148996759100727 0 0.0012096861519263103 -0.033364317294311406 0 0.00090939615255567581 -0.033148996759100727 0 0.00064319123289734398 -0.033166197072917757 0 0.00070341435862115726 -0.033447267633618744 0 0.00098482699012863561 -0.033575170372818305 0 0.00090939615255567581 -0.033148996759100727 0 0.00070341435862115726 -0.033447267633618744 0 0.00090939615255567581 -0.033148996759100727 0 0.00064319123289734398 -0.033166197072917757 0 0.00059880702281287271 -0.032949011163267948 0 0.00043154156635054699 -0.034077112061328227 0 0.0002468825402391404 -0.033983602786858018 0 -2.6190487884573333e-05 -0.034985485925075707 0 -5.3575204275584518e-06 -0.034987145030301522 0 -1.3304415519521726e-05 -0.034966620878058595 0 -5.3575204275584518e-06 -0.034987145030301522 0 2.2794514767149637e-06 -0.034990240042288456 0 1.096687179982198e-06 -0.034997162996406782 0 -5.3575204275584518e-06 -0.034987145030301522 0 2.2794514767149637e-06 -0.034990240042288456 0 -1.3304415519521726e-05 -0.034966620878058595 0 -1.4078514751839406e-08 -0.035000019695815315 0 2.2794514767149637e-06 -0.034990240042288456 0 1.096687179982198e-06 -0.034997162996406782 0 1.1768288359951329e-08 -0.034999981835243721 0 -1.4078514751839406e-08 -0.035000019695815315 0 1.096687179982198e-06 -0.034997162996406782 0 1.1768288359951329e-08 -0.034999981835243721 0 1.096687179982198e-06 -0.034997162996406782 0 6.0526218831117842e-07 -0.034998755854221769 0 1.096687179982198e-06 -0.034997162996406782 0 6.0526218831117842e-07 -0.034998755854221769 0 -4.9223697789994141e-06 -0.034997571050087807 0 -5.3575204275584518e-06 -0.034987145030301522 0 1.096687179982198e-06 -0.034997162996406782 0 -4.9223697789994141e-06 -0.034997571050087807 0 0.0002528649415449845 -0.033352914584422327 0 3.1141671232369219e-05 -0.03329196166956986 0 0.0001632002449637795 -0.033171466360422681 0 3.1141671232369219e-05 -0.03329196166956986 0 1.7072795627510623e-05 -0.033135121136636948 0 0.0001632002449637795 -0.033171466360422681 0 0.0002528649415449845 -0.033352914584422327 0 0.0001632002449637795 -0.033171466360422681 0 0.00032432291786308972 -0.033179006476946098 0 3.1141671232369219e-05 -0.03329196166956986 0 1.7072795627510623e-05 -0.033135121136636948 0 -0.00015561826671141432 -0.033157378071530276 0 3.1141671232369219e-05 -0.03329196166956986 0 -0.00012682317395967888 -0.033348678085352391 0 -0.00015561826671141432 -0.033157378071530276 0 1.7072795627510623e-05 -0.033135121136636948 0 -5.3187511016185514e-05 -0.033025512845060223 0 -0.00015561826671141432 -0.033157378071530276 0 1.7072795627510623e-05 -0.033135121136636948 0 -5.3187511016185514e-05 -0.033025512845060223 0 0.00012060861027156781 -0.033025540521909869 0 1.7072795627510623e-05 -0.033135121136636948 0 0.00012060861027156781 -0.033025540521909869 0 0.0001632002449637795 -0.033171466360422681 0 0.0001632002449637795 -0.033171466360422681 0 0.00023746789722207473 -0.03304921071669531 0 0.00032432291786308972 -0.033179006476946098 0 0.00012060861027156781 -0.033025540521909869 0 0.0001632002449637795 -0.033171466360422681 0 0.00023746789722207473 -0.03304921071669531 0 0.00012060861027156781 -0.033025540521909869 0 0.00023746789722207473 -0.03304921071669531 0 0.00023006174545068462 -0.032955705886861739 0 0.00023746789722207473 -0.03304921071669531 0 0.00037241542775858508 -0.033048570756920151 0 0.0003114345846667681 -0.032959939805548372 0 0.00037241542775858508 -0.033048570756920151 0 0.00041837843306494953 -0.032964008668029829 0 0.0003114345846667681 -0.032959939805548372 0 0.00037241542775858508 -0.033048570756920151 0 0.00046426548672015284 -0.033148076297518161 0 0.0004907009297600959 -0.033040266280143303 0 0.00037241542775858508 -0.033048570756920151 0 0.0004907009297600959 -0.033040266280143303 0 0.00041837843306494953 -0.032964008668029829 0 0.00037241542775858508 -0.033048570756920151 0 0.00046426548672015284 -0.033148076297518161 0 0.00032432291786308972 -0.033179006476946098 0 0.00023746789722207473 -0.03304921071669531 0 0.00037241542775858508 -0.033048570756920151 0 0.00032432291786308972 -0.033179006476946098 0 0.0004907009297600959 -0.033040266280143303 0 0.00064319123289734398 -0.033166197072917757 0 0.00059880702281287271 -0.032949011163267948 0 0.00046426548672015284 -0.033148076297518161 0 0.0004907009297600959 -0.033040266280143303 0 0.00064319123289734398 -0.033166197072917757 0 0.00064319123289734398 -0.033166197072917757 0 0.00046525531595764327 -0.033312785530427116 0 0.00070341435862115726 -0.033447267633618744 0 0.00046426548672015284 -0.033148076297518161 0 0.00064319123289734398 -0.033166197072917757 0 0.00046525531595764327 -0.033312785530427116 0 0.0002528649415449845 -0.033352914584422327 0 0.00032432291786308972 -0.033179006476946098 0 0.00046525531595764327 -0.033312785530427116 0 0.00046426548672015284 -0.033148076297518161 0 0.00032432291786308972 -0.033179006476946098 0 0.00046525531595764327 -0.033312785530427116 0 0.0002528649415449845 -0.033352914584422327 0 0.00046525531595764327 -0.033312785530427116 0 0.00042077288054038386 -0.033614550303802677 0 0.00046525531595764327 -0.033312785530427116 0 0.00042077288054038386 -0.033614550303802677 0 0.00070341435862115726 -0.033447267633618744 0 0.00042077288054038386 -0.033614550303802677 0 0.00070341435862115726 -0.033447267633618744 0 0.00069865754752845627 -0.033713897822664339 0 0.00089356435937423817 -0.034002887031912871 0 0.00069865754752845627 -0.033713897822664339 0 0.00051868360869384731 -0.033934044352154774 0 0.00042077288054038386 -0.033614550303802677 0 0.00069865754752845627 -0.033713897822664339 0 0.00051868360869384731 -0.033934044352154774 0 0.00042077288054038386 -0.033614550303802677 0 0.00020591530583720754 -0.033861724655124777 0 0.00051868360869384731 -0.033934044352154774 0 0.00020591530583720754 -0.033861724655124777 0 9.1601182321818714e-05 -0.033551133147984726 0 3.141651985270621e-05 -0.033789289297347938 0 0.00042077288054038386 -0.033614550303802677 0 0.00020591530583720754 -0.033861724655124777 0 9.1601182321818714e-05 -0.033551133147984726 0 0.00020591530583720754 -0.033861724655124777 0 3.141651985270621e-05 -0.033789289297347938 0 4.8902159672007977e-05 -0.034014114833796009 0 0.0002528649415449845 -0.033352914584422327 0 0.00042077288054038386 -0.033614550303802677 0 9.1601182321818714e-05 -0.033551133147984726 0 0.0002528649415449845 -0.033352914584422327 0 3.1141671232369219e-05 -0.03329196166956986 0 9.1601182321818714e-05 -0.033551133147984726 0 -0.00012682317395967888 -0.033348678085352391 0 -8.3899663553601623e-05 -0.033645845212602984 0 -0.00025018295491494708 -0.033379236215805907 0 9.1601182321818714e-05 -0.033551133147984726 0 -0.00012682317395967888 -0.033348678085352391 0 -8.3899663553601623e-05 -0.033645845212602984 0 3.1141671232369219e-05 -0.03329196166956986 0 9.1601182321818714e-05 -0.033551133147984726 0 -0.00012682317395967888 -0.033348678085352391 0 -8.3899663553601623e-05 -0.033645845212602984 0 -0.00025018295491494708 -0.033379236215805907 0 -0.00023641983969266431 -0.03384975949950491 0 9.1601182321818714e-05 -0.033551133147984726 0 -8.3899663553601623e-05 -0.033645845212602984 0 3.141651985270621e-05 -0.033789289297347938 0 -8.3899663553601623e-05 -0.033645845212602984 0 3.141651985270621e-05 -0.033789289297347938 0 -0.00013220670345872061 -0.0339071568801722 0 -8.3899663553601623e-05 -0.033645845212602984 0 -0.00013220670345872061 -0.0339071568801722 0 -0.00023641983969266431 -0.03384975949950491 0 -0.00050243189772092702 -0.033713492570331988 0 -0.00067381916485988679 -0.03339100074280358 0 -0.00013220670345872061 -0.0339071568801722 0 -0.00027280351745884971 -0.034065108177591882 0 -0.00023641983969266431 -0.03384975949950491 0 -0.00013220670345872061 -0.0339071568801722 0 -8.3609737462061367e-05 -0.034125800614912112 0 -0.00022272680099264363 -0.03419284074260312 0 -8.3609737462061367e-05 -0.034125800614912112 0 -8.7342077642458535e-05 -0.034268731160290333 0 -0.00022272680099264363 -0.03419284074260312 0 -8.3609737462061367e-05 -0.034125800614912112 0 4.8902159672007977e-05 -0.034014114833796009 0 3.9809344165706579e-05 -0.034252093086485975 0 -0.00013220670345872061 -0.0339071568801722 0 -8.3609737462061367e-05 -0.034125800614912112 0 4.8902159672007977e-05 -0.034014114833796009 0 3.141651985270621e-05 -0.033789289297347938 0 -0.00013220670345872061 -0.0339071568801722 0 4.8902159672007977e-05 -0.034014114833796009 0 0.00020591530583720754 -0.033861724655124777 0 4.8902159672007977e-05 -0.034014114833796009 0 0.00026929941560290596 -0.034161245980001274 0 4.8902159672007977e-05 -0.034014114833796009 0 3.9809344165706579e-05 -0.034252093086485975 0 0.00026929941560290596 -0.034161245980001274 0 3.9809344165706579e-05 -0.034252093086485975 0 -2.5688555864944716e-05 -0.034393929079085298 0 0.00013844711150958221 -0.034606445085573083 0 3.9809344165706579e-05 -0.034252093086485975 0 0.00026929941560290596 -0.034161245980001274 0 0.00013844711150958221 -0.034606445085573083 0 -2.5688555864944716e-05 -0.034393929079085298 0 -8.7342077642458535e-05 -0.034268731160290333 0 -0.00014015339227882204 -0.03436454194038846 0 -2.5688555864944716e-05 -0.034393929079085298 0 -5.013539967805921e-05 -0.034496099584471147 0 -0.00014015339227882204 -0.03436454194038846 0 -8.7342077642458535e-05 -0.034268731160290333 0 -0.00022272680099264363 -0.03419284074260312 0 -0.00014015339227882204 -0.03436454194038846 0 3.9809344165706579e-05 -0.034252093086485975 0 -2.5688555864944716e-05 -0.034393929079085298 0 -8.7342077642458535e-05 -0.034268731160290333 0 -8.3609737462061367e-05 -0.034125800614912112 0 3.9809344165706579e-05 -0.034252093086485975 0 -8.7342077642458535e-05 -0.034268731160290333 0 0.00045869680698628192 -0.034474673338191743 0 0.0003120699589119937 -0.034554979792094841 0 0.00089356435937423817 -0.034002887031912871 0 0.00051868360869384731 -0.033934044352154774 0 0.00058260102576986061 -0.03427329153376886 0 0.00051868360869384731 -0.033934044352154774 0 0.00026929941560290596 -0.034161245980001274 0 0.00058260102576986061 -0.03427329153376886 0 0.00020591530583720754 -0.033861724655124777 0 0.00051868360869384731 -0.033934044352154774 0 0.00026929941560290596 -0.034161245980001274 0 0.00026929941560290596 -0.034161245980001274 0 0.00058260102576986061 -0.03427329153376886 0 0.00013844711150958221 -0.034606445085573083 0 0.0003120699589119937 -0.034554979792094841 0 0.00016834377293855905 -0.034620101527887734 0 4.3697543752833021e-05 -0.034876167512680453 0 8.8941732907484188e-05 -0.034831818008725653 0 6.1932770449681473e-05 -0.034787546314192813 0 8.8941732907484188e-05 -0.034831818008725653 0 6.1932770449681473e-05 -0.034787546314192813 0 0.00013844711150958221 -0.034606445085573083 0 6.1932770449681473e-05 -0.034787546314192813 0 5.8054858274960316e-05 -0.034713431835772454 0 0.00013844711150958221 -0.034606445085573083 0 5.7621909785359824e-05 -0.034860914108301472 0 6.1932770449681473e-05 -0.034787546314192813 0 5.8054858274960316e-05 -0.034713431835772454 0 -5.013539967805921e-05 -0.034496099584471147 0 -2.8040565640481906e-06 -0.034590605960164778 0 -0.00010117173371904559 -0.034517668651560814 0 -5.013539967805921e-05 -0.034496099584471147 0 -0.00014446775568046006 -0.034451755081120514 0 -0.00014015339227882204 -0.03436454194038846 0 -5.013539967805921e-05 -0.034496099584471147 0 -0.00010117173371904559 -0.034517668651560814 0 -0.00014446775568046006 -0.034451755081120514 0 0.00013844711150958221 -0.034606445085573083 0 4.987169482183973e-05 -0.034652923658595111 0 -2.8040565640481906e-06 -0.034590605960164778 0 -2.5688555864944716e-05 -0.034393929079085298 0 -5.013539967805921e-05 -0.034496099584471147 0 0.00013844711150958221 -0.034606445085573083 0 -5.013539967805921e-05 -0.034496099584471147 0 0.00013844711150958221 -0.034606445085573083 0 -2.8040565640481906e-06 -0.034590605960164778 0 5.8054858274960316e-05 -0.034713431835772454 0 0.00013844711150958221 -0.034606445085573083 0 4.987169482183973e-05 -0.034652923658595111 0 -4.8579075298041826e-06 -0.03462318048937487 0 4.987169482183973e-05 -0.034652923658595111 0 -2.8040565640481906e-06 -0.034590605960164778 0 -4.8579075298041826e-06 -0.03462318048937487 0 -2.8040565640481906e-06 -0.034590605960164778 0 -4.9443406103535702e-05 -0.034583285696293868 0 -2.8040565640481906e-06 -0.034590605960164778 0 -4.9443406103535702e-05 -0.034583285696293868 0 -0.00010117173371904559 -0.034517668651560814 0 -4.8579075298041826e-06 -0.03462318048937487 0 -4.9443406103535702e-05 -0.034583285696293868 0 -5.7235895679825626e-05 -0.034589393063253544 0 -5.7235895679825626e-05 -0.034589393063253544 0 -8.8275382693852266e-05 -0.034565508944908847 0 -9.274045823307564e-05 -0.034560431729954842 0 -4.9443406103535702e-05 -0.034583285696293868 0 -5.7235895679825626e-05 -0.034589393063253544 0 -9.274045823307564e-05 -0.034560431729954842 0 -6.2662710443012136e-05 -0.034579862115189465 0 -8.8275382693852266e-05 -0.034565508944908847 0 -8.1065824012642215e-05 -0.034542912869734148 0 -8.8275382693852266e-05 -0.034565508944908847 0 -0.00010259868116414318 -0.034556304310638754 0 -8.1065824012642215e-05 -0.034542912869734148 0 -8.8275382693852266e-05 -0.034565508944908847 0 -0.00010259868116414318 -0.034556304310638754 0 -0.00010792404393715527 -0.034556248694237721 0 -0.00010259868116414318 -0.034556304310638754 0 -0.00010792404393715527 -0.034556248694237721 0 -0.0001347023238719376 -0.034553995698984423 0 -8.8275382693852266e-05 -0.034565508944908847 0 -0.00010792404393715527 -0.034556248694237721 0 -9.274045823307564e-05 -0.034560431729954842 0 -0.00010792404393715527 -0.034556248694237721 0 -9.274045823307564e-05 -0.034560431729954842 0 -0.0001297428461632223 -0.034532189708753838 0 -0.00010792404393715527 -0.034556248694237721 0 -0.0001297428461632223 -0.034532189708753838 0 -0.0001347023238719376 -0.034553995698984423 0 -4.9443406103535702e-05 -0.034583285696293868 0 -9.274045823307564e-05 -0.034560431729954842 0 -0.00010117173371904559 -0.034517668651560814 0 -0.0001297428461632223 -0.034532189708753838 0 -0.00014446775568046006 -0.034451755081120514 0 -0.00023603773395863709 -0.03437976544108548 0 -0.00010117173371904559 -0.034517668651560814 0 -0.0001297428461632223 -0.034532189708753838 0 -0.00014446775568046006 -0.034451755081120514 0 0.00038509860061714375 -0.032572786159682586 0 -0.00058457159011341417 -0.032035379043400286 0 -9.274045823307564e-05 -0.034560431729954842 0 -0.00010117173371904559 -0.034517668651560814 0 -0.0001297428461632223 -0.034532189708753838 0 -0.0001297428461632223 -0.034532189708753838 0 -0.0001347023238719376 -0.034553995698984423 0 -0.00023603773395863709 -0.03437976544108548 0 -0.00024766137840294964 -0.028553937579159423 0 -0.00092050931663141815 -0.029142458872467015 0 8.8798549720123289e-05 -0.030754725688495341 0 -0.00021064345508389751 -0.030395687385959758 0 -0.00039474400711196877 -0.031445608814194982 0 -0.00024766137840294964 -0.028553937579159423 0 -0.00042600316857373472 -0.025517312769979747 0 -0.00024766137840294964 -0.028553937579159423 0 -0.00058457159011341417 -0.032035379043400286 0 -0.00024766137840294964 -0.028553937579159423 0 0.00038509860061714375 -0.032572786159682586 0 -0.00024766137840294964 -0.028553937579159423 0 8.0902633667129326e-05 -0.02882165801251629 0 -9.2957314180559916e-05 -0.034463495402279373 0 -7.0869992385965493e-05 -0.034498262563476191 0 -8.1065824012642215e-05 -0.034542912869734148 0 -9.2957314180559916e-05 -0.034463495402279373 0 -8.1065824012642215e-05 -0.034542912869734148 0 -0.00010364800765040683 -0.034522913674174587 0 0.00038509860061714375 -0.032572786159682586 0 0.00016770920220382531 -0.033704268790678893 0 -0.00010259868116414318 -0.034556304310638754 0 -0.0001347023238719376 -0.034553995698984423 0 -8.1065824012642215e-05 -0.034542912869734148 0 0.0014209291702551724 -0.022146601984992527 0 0.00082230007306382483 -0.023013798842514165 0 0.00064843717853821175 -0.022277483374718618 0 0.00082230007306382483 -0.023013798842514165 0 0.00017044387048776766 -0.022786057887492998 0 0.00064843717853821175 -0.022277483374718618 0 -5.0521043137971337e-05 -0.022418751903028937 0 -0.00029270279308252748 -0.022038475025000937 0 -0.00037099890448585474 -0.022790223764721146 0 0.00017044387048776766 -0.022786057887492998 0 0.00023932515081067585 -0.022375261391741202 0 -5.0521043137971337e-05 -0.022418751903028937 0 0.00017044387048776766 -0.022786057887492998 0 0.00023932515081067585 -0.022375261391741202 0 0.00064843717853821175 -0.022277483374718618 0 0.00017044387048776766 -0.022786057887492998 0 -5.0521043137971337e-05 -0.022418751903028937 0 -0.00037099890448585474 -0.022790223764721146 0 -0.00029270279308252748 -0.022038475025000937 0 -1.1662541660674931e-05 -0.021661726670185337 0 -0.00042250194437090693 -0.021287253111044728 0 -5.0521043137971337e-05 -0.022418751903028937 0 -0.00029270279308252748 -0.022038475025000937 0 0.00013029468883812866 -0.022069668531274234 0 0.00023932515081067585 -0.022375261391741202 0 0.00013029468883812866 -0.022069668531274234 0 0.00064843717853821175 -0.022277483374718618 0 0.00023932515081067585 -0.022375261391741202 0 -5.0521043137971337e-05 -0.022418751903028937 0 0.00013029468883812866 -0.022069668531274234 0 0.00013029468883812866 -0.022069668531274234 0 -1.1662541660674931e-05 -0.021661726670185337 0 0.00039549684702050615 -0.021798469595163975 0 -0.00029270279308252748 -0.022038475025000937 0 0.00013029468883812866 -0.022069668531274234 0 -1.1662541660674931e-05 -0.021661726670185337 0 0.0014209291702551724 -0.022146601984992527 0 0.00064843717853821175 -0.022277483374718618 0 0.00087300973376988676 -0.021718749873279909 0 0.00027771800297143304 -0.02759717618180825 0 -0.00032510593019036279 -0.027149135760558749 0 -0.00050782530232802801 -0.026651114118339106 0 0.00013029468883812866 -0.022069668531274234 0 0.00064843717853821175 -0.022277483374718618 0 0.00039549684702050615 -0.021798469595163975 0 0.00064843717853821175 -0.022277483374718618 0 0.00039549684702050615 -0.021798469595163975 0 0.00087300973376988676 -0.021718749873279909 0 -0.00042600316857373472 -0.025517312769979747 0 -0.00043085372615015132 -0.025128927092982922 0 0.00039549684702050615 -0.021798469595163975 0 0.00087300973376988676 -0.021718749873279909 0 0.00033692022842163501 -0.021266567921998349 0 -0.00032510593019036279 -0.027149135760558749 0 -0.00050782530232802801 -0.026651114118339106 0 -0.00090824676148078428 -0.02667302269637508 0 -0.00092050931663141815 -0.029142458872467015 0 -0.00043085372615015132 -0.025128927092982922 0 0.00075214974645858811 -0.02002460811959365 0 0.00070782275150215487 -0.020003838638815483 0 0.00069771959474034505 -0.019944639873796275 0 -0.00043085372615015132 -0.025128927092982922 0 0.00011928545157046716 -0.020234384601995715 0 -0.0027619072286802632 -0.030260037163332865 0 -0.002343286081127105 -0.03023709589337192 0 -0.001971624572906882 -0.031167538734593783 0 -1.1662541660674931e-05 -0.021661726670185337 0 0.00033692022842163501 -0.021266567921998349 0 -0.00042250194437090693 -0.021287253111044728 0 -1.1662541660674931e-05 -0.021661726670185337 0 0.00039549684702050615 -0.021798469595163975 0 0.00033692022842163501 -0.021266567921998349 0 -0.00091820807630878579 -0.030840697002172995 0 -0.00064290726750888859 -0.031271234976827482 0 -0.00057669066461111715 -0.031321974763499794 0 -0.00043085372615015132 -0.025128927092982922 0 -0.00034048544420246866 -0.025455427997783834 0 -0.002343286081127105 -0.03023709589337192 0 -0.001971624572906882 -0.031167538734593783 0 -0.0012679683340974582 -0.031174823216825888 0 -0.00092050931663141815 -0.029142458872467015 0 -0.0011094655410412049 -0.031096694407593849 0 -0.00060949148482027104 -0.031427300166799878 0 -0.0007181790404583887 -0.031532745305582338 0 -0.00059336553593625457 -0.031569462999276494 0 -0.00064290726750888859 -0.031271234976827482 0 -0.00057669066461111715 -0.031321974763499794 0 -0.00038037529574840576 -0.031660052263257493 0 -0.00078675954533155665 -0.031227890201604158 0 -0.0008188332605438566 -0.031432470673241057 0 -0.00099104229511657368 -0.031423106906582773 0 -0.00078675954533155665 -0.031227890201604158 0 -0.00060949148482027104 -0.031427300166799878 0 -0.0008188332605438566 -0.031432470673241057 0 -0.00092050931663141815 -0.029142458872467015 0 -0.00037347962666344994 -0.031249209061899683 0 -0.00060949148482027104 -0.031427300166799878 0 -0.0008188332605438566 -0.031432470673241057 0 -0.0007181790404583887 -0.031532745305582338 0 -0.0008188332605438566 -0.031432470673241057 0 -0.00092483251760624866 -0.031610813883750047 0 -0.0007181790404583887 -0.031532745305582338 0 -0.0008188332605438566 -0.031432470673241057 0 -0.00099104229511657368 -0.031423106906582773 0 -0.00092483251760624866 -0.031610813883750047 0 -0.00064496106557912491 -0.032164710299443969 0 -0.0006640326982405904 -0.032898981175157278 0 -0.00099104229511657368 -0.031423106906582773 0 -0.0011503041544211987 -0.031261294495461445 0 -0.0012004684571003004 -0.031572328460569565 0 -0.00027280351745884971 -0.034065108177591882 0 -0.00032856122395351448 -0.033834722171927317 0 -0.00023641983969266431 -0.03384975949950491 0 -0.00027280351745884971 -0.034065108177591882 0 -0.00038039415859434956 -0.034151197987894066 0 -0.00032856122395351448 -0.033834722171927317 0 -0.00027280351745884971 -0.034065108177591882 0 -0.00038039415859434956 -0.034151197987894066 0 -0.00033602194477331236 -0.034151718908039502 0 -0.00052779214733337729 -0.032305787659267324 0 -0.00056837911399541428 -0.032305532351003342 0 -0.00051471575230408839 -0.032227835177866315 0 -0.00064496106557912491 -0.032164710299443969 0 -0.00067615078384731435 -0.032469228151352246 0 -0.00022272680099264363 -0.03419284074260312 0 -0.00023081512650866717 -0.034296607227512842 0 -0.00014015339227882204 -0.03436454194038846 0 -0.00067381916485988679 -0.03339100074280358 0 -0.00067615078384731435 -0.032469228151352246 0 -0.00023081512650866717 -0.034296607227512842 0 -0.00014015339227882204 -0.03436454194038846 0 -0.00023603773395863709 -0.03437976544108548 0 -0.00014446775568046006 -0.034451755081120514 0 -0.00014015339227882204 -0.03436454194038846 0 -0.00023603773395863709 -0.03437976544108548 0 -0.00064496106557912491 -0.032164710299443969 0 -0.00058457159011341417 -0.032035379043400286 0 -0.00067615078384731435 -0.032469228151352246 0 -0.00058457159011341417 -0.032035379043400286 0 -0.00078675954533155665 -0.031227890201604158 0 -0.00099104229511657368 -0.031423106906582773 0 -0.0011503041544211987 -0.031261294495461445 0 -0.00092050931663141815 -0.029142458872467015 0 -0.00064496106557912491 -0.032164710299443969 0 -0.00042594006620277696 -0.030281325985223616 0 -0.00074544444814259123 -0.030311114663792962 0 -0.00073314794831956 -0.030236765215644466 0 -0.00061193739380089988 -0.030056290289403563 0 -0.00042594006620277696 -0.030281325985223616 0 -0.00073314794831956 -0.030236765215644466 0 0.0023408894221998173 -0.00790108537470024 0 0.0023059662820519868 -0.0076004718862396937 0 0.002028600385079619 -0.0078186986185365473 0 0.0023408894221998173 -0.00790108537470024 0 0.0026411074726066059 -0.0075497246981430805 0 0.0023059662820519868 -0.0076004718862396937 0 0.002623631123290416 -0.0083155533332893543 0 0.0023408894221998173 -0.00790108537470024 0 0.0020600931781205012 -0.0081792223644530909 0 0.002623631123290416 -0.0083155533332893543 0 0.0023408894221998173 -0.00790108537470024 0 0.0028134228719997947 -0.0078823532611013731 0 0.0023408894221998173 -0.00790108537470024 0 0.0028134228719997947 -0.0078823532611013731 0 0.0026411074726066059 -0.0075497246981430805 0 0.0028134228719997947 -0.0078823532611013731 0 0.0030256195229963752 -0.007524762606615578 0 0.0026411074726066059 -0.0075497246981430805 0 0.0028134228719997947 -0.0078823532611013731 0 0.0030851111644852498 -0.0081617203980036499 0 0.0032448821720387254 -0.0078493388578845628 0 0.0028134228719997947 -0.0078823532611013731 0 0.0032448821720387254 -0.0078493388578845628 0 0.0030256195229963752 -0.007524762606615578 0 0.002623631123290416 -0.0083155533332893543 0 0.0028134228719997947 -0.0078823532611013731 0 0.0030851111644852498 -0.0081617203980036499 0 0.0010950649535644251 -0.016263768237853103 0 0.0011373455655869517 -0.014997926660565215 0 0.0030851111644852498 -0.0081617203980036499 0 0.0034936756302443102 -0.0082072968544255904 0 0.0032448821720387254 -0.0078493388578845628 0 0.0030729761634731246 -0.0085624882664446563 0 0.0030851111644852498 -0.0081617203980036499 0 0.0034936756302443102 -0.0082072968544255904 0 -0.00029270279308252748 -0.022038475025000937 0 -0.00037099890448585474 -0.022790223764721146 0 -0.00077971995170665533 -0.022047733872201446 0 0.0011373455655869517 -0.014997926660565215 0 0.0013249518028428148 -0.014507283050088185 0 -0.00029270279308252748 -0.022038475025000937 0 -0.00077971995170665533 -0.022047733872201446 0 -0.00042250194437090693 -0.021287253111044728 0 -0.00077971995170665533 -0.022047733872201446 0 -0.00042250194437090693 -0.021287253111044728 0 -0.0011830978390700885 -0.021307395996331985 0 0.00070782275150215487 -0.020003838638815483 0 0.00069771959474034505 -0.019944639873796275 0 0.0006594215772797187 -0.019985340778183341 0 0.00011928545157046716 -0.020234384601995715 0 0.0013249518028428148 -0.014507283050088185 0 0.00069771959474034505 -0.019944639873796275 0 0.00062819331728590489 -0.019922769856719879 0 0.0006594215772797187 -0.019985340778183341 0 0.0025976030638350306 -0.0073938253893869373 0 0.0027242163386948918 -0.0076340240823066837 0 0.0025098532715438142 -0.0076162459305562291 0 0.0014465596983771992 -0.013743113194343282 0 0.0013249518028428148 -0.014507283050088185 0 0.0013249518028428148 -0.014507283050088185 0 0.0027296709333748752 -0.0093696695244379295 0 0.0027296709333748752 -0.0093696695244379295 0 0.0024499368703702977 -0.0084303534763157193 0 0.0025976030638350306 -0.0073938253893869373 0 0.0025098532715438142 -0.0076162459305562291 0 0.0023561229369605391 -0.0073908572129480158 0 0.0025976030638350306 -0.0073938253893869373 0 0.0023561229369605391 -0.0073908572129480158 0 0.0024608461901491343 -0.007172708871419884 0 0.0023561229369605391 -0.0073908572129480158 0 0.0021391570770067001 -0.0074742704304378745 0 0.0021903258500799261 -0.0072695541387190615 0 0.0023561229369605391 -0.0073908572129480158 0 0.0022910146711192431 -0.007233932159307655 0 0.0021903258500799261 -0.0072695541387190615 0 0.0023561229369605391 -0.0073908572129480158 0 0.0023059662820519868 -0.0076004718862396937 0 0.0021391570770067001 -0.0074742704304378745 0 0.0025098532715438142 -0.0076162459305562291 0 0.0023561229369605391 -0.0073908572129480158 0 0.0023059662820519868 -0.0076004718862396937 0 0.0023407413090695273 -0.0070554290273275311 0 0.0023273299437962503 -0.0070703129314845957 0 0.0024608461901491343 -0.007172708871419884 0 0.0022524968606883874 -0.0070069270004437887 0 0.0023273299437962503 -0.0070703129314845957 0 0.0022999870040191989 -0.0069489891157513955 0 0.0022524968606883874 -0.0070069270004437887 0 0.0023273299437962503 -0.0070703129314845957 0 0.0022451109173193995 -0.0070761216855967108 0 0.0022524968606883874 -0.0070069270004437887 0 0.0022451109173193995 -0.0070761216855967108 0 0.002177456483543466 -0.0069995190581761393 0 0.0023407413090695273 -0.0070554290273275311 0 0.0023273299437962503 -0.0070703129314845957 0 0.0023306318689874216 -0.0070672791647766482 0 0.0015859369418154291 -0.0098395104207737432 0 0.0020809859157636191 -0.013960451099050142 0 0.0023273299437962503 -0.0070703129314845957 0 0.0023304268284694073 -0.0071465361399227403 0 0.0024608461901491343 -0.007172708871419884 0 0.0023273299437962503 -0.0070703129314845957 0 0.0022451109173193995 -0.0070761216855967108 0 0.0023304268284694073 -0.0071465361399227403 0 0.0022451109173193995 -0.0070761216855967108 0 0.00222725012001251 -0.0071565723861104534 0 0.0023304268284694073 -0.0071465361399227403 0 0.0023561229369605391 -0.0073908572129480158 0 0.0022910146711192431 -0.007233932159307655 0 0.0024608461901491343 -0.007172708871419884 0 0.00222725012001251 -0.0071565723861104534 0 0.0022910146711192431 -0.007233932159307655 0 0.0023304268284694073 -0.0071465361399227403 0 0.0022910146711192431 -0.007233932159307655 0 0.0023304268284694073 -0.0071465361399227403 0 0.0024608461901491343 -0.007172708871419884 0 0.00222725012001251 -0.0071565723861104534 0 0.0022910146711192431 -0.007233932159307655 0 0.0021903258500799261 -0.0072695541387190615 0 0.00062819331728590489 -0.019922769856719879 0 0.00059086120983507762 -0.019856762876136757 0 0.00063357143358437531 -0.01986550072294024 0 0.0014465596983771992 -0.013743113194343282 0 0.0010877865607396094 -0.013452169224490296 0 0.0022464006969269618 -0.01829706986915559 0 0.0008002406522631051 -0.025819791503265518 0 0.0022464006969269618 -0.01829706986915559 0 0.0010877865607396094 -0.013452169224490296 0 0.00055305239103670568 -0.019780740115679638 0 0.00059086120983507762 -0.019856762876136757 0 0.00063357143358437531 -0.01986550072294024 0 -6.5580593036905721e-05 -0.03270922574949494 0 -0.00026912005634407272 -0.032602645820107447 0 -0.0003512366736194302 -0.032121959513505056 0 -0.00026912005634407272 -0.032602645820107447 0 -0.00067657556165197862 -0.032534135001054364 0 -0.00025600408689761302 -0.032879103244483981 0 -0.00024568632280041298 -0.033042096801435591 0 -0.00024901661212918812 -0.033059466636664397 0 -0.00021991402333020599 -0.032969109471358213 0 -0.00067657556165197862 -0.032534135001054364 0 -0.0003512366736194302 -0.032121959513505056 0 -0.00079051487727576839 -0.032125772113534838 0 -0.00026912005634407272 -0.032602645820107447 0 -0.00067657556165197862 -0.032534135001054364 0 -0.0003512366736194302 -0.032121959513505056 0 0.00069771959474034505 -0.019944639873796275 0 0.00062819331728590489 -0.019922769856719879 0 0.00063357143358437531 -0.01986550072294024 0 -0.0012679683340974582 -0.031174823216825888 0 -0.0003512366736194302 -0.032121959513505056 0 -0.00079051487727576839 -0.032125772113534838 0 -0.00034048544420246866 -0.025455427997783834 0 0.0008002406522631051 -0.025819791503265518 0 -0.0007800422734921792 -0.032132487357014232 0 -0.00060792448414651848 -0.032160301569832891 0 -0.001971624572906882 -0.031167538734593783 0 -0.0012679683340974582 -0.031174823216825888 0 -0.001218565114033597 -0.032043206907993699 0 -0.0012679683340974582 -0.031174823216825888 0 -0.00079051487727576839 -0.032125772113534838 0 -0.001218565114033597 -0.032043206907993699 0 -0.00057669066461111715 -0.031321974763499794 0 -0.00026557719283998809 -0.031748529075320976 0 -0.00038037529574840576 -0.031660052263257493 0 -0.0011094655410412049 -0.031096694407593849 0 -0.00060792448414651848 -0.032160301569832891 0 -0.00026358032428709481 -0.033089692631902388 0 -0.00024901661212918812 -0.033059466636664397 0 -0.00027078519912554104 -0.033108508154825723 0 -0.00024568632280041298 -0.033042096801435591 0 -0.00026358032428709481 -0.033089692631902388 0 -0.00024901661212918812 -0.033059466636664397 0 -0.00039469140851835057 -0.032709447446553179 0 -0.00060792448414651848 -0.032160301569832891 0 -0.00067657556165197862 -0.032534135001054364 0 -0.00079051487727576839 -0.032125772113534838 0 -0.0011316576582563014 -0.032076478706372036 0 -0.00023607091671082144 -0.033027138694832009 0 -0.00027351263669575678 -0.03309000775488876 0 -0.00027498228053848253 -0.03310904060993157 0 -0.00024901661212918812 -0.033059466636664397 0 -0.00023607091671082144 -0.033027138694832009 0 -0.00027351263669575678 -0.03309000775488876 0 -0.00024901661212918812 -0.033059466636664397 0 -0.00023607091671082144 -0.033027138694832009 0 -0.00021991402333020599 -0.032969109471358213 0 -0.00023607091671082144 -0.033027138694832009 0 -0.00021269867731062725 -0.033088665367537462 0 -0.00027498228053848253 -0.03310904060993157 0 -0.00021269867731062725 -0.033088665367537462 0 -0.00027498228053848253 -0.03310904060993157 0 -0.00022618250786781259 -0.033228016897105257 0 -0.00021269867731062725 -0.033088665367537462 0 -0.00012632935689986446 -0.032941753631608506 0 -0.00013524317641945896 -0.03322582424795497 0 -0.00023607091671082144 -0.033027138694832009 0 -0.00021269867731062725 -0.033088665367537462 0 -0.00012632935689986446 -0.032941753631608506 0 -0.00012632935689986446 -0.032941753631608506 0 -0.00021991402333020599 -0.032969109471358213 0 -0.00025600408689761302 -0.032879103244483981 0 -0.00023607091671082144 -0.033027138694832009 0 -0.00012632935689986446 -0.032941753631608506 0 -0.00021991402333020599 -0.032969109471358213 0 -0.00024568632280041298 -0.033042096801435591 0 -0.00021991402333020599 -0.032969109471358213 0 -0.00025600408689761302 -0.032879103244483981 0 -0.00039469140851835057 -0.032709447446553179 0 -0.00030613905443140462 -0.032838080213889259 0 -6.5580593036905721e-05 -0.03270922574949494 0 -0.00026912005634407272 -0.032602645820107447 0 -0.00017875197510699845 -0.03280630131278281 0 -0.00026912005634407272 -0.032602645820107447 0 -0.00025600408689761302 -0.032879103244483981 0 -0.00017875197510699845 -0.03280630131278281 0 -6.5580593036905721e-05 -0.03270922574949494 0 -0.00017875197510699845 -0.03280630131278281 0 -0.00017973517730906452 -0.032788192386833837 0 -0.00017875197510699845 -0.03280630131278281 0 -0.00019890044321404295 -0.032799849911843641 0 -0.00017973517730906452 -0.032788192386833837 0 -0.00017875197510699845 -0.03280630131278281 0 -0.00018513477974878352 -0.032863318419600371 0 -0.00019890044321404295 -0.032799849911843641 0 -0.00025600408689761302 -0.032879103244483981 0 -0.00017875197510699845 -0.03280630131278281 0 -0.00018513477974878352 -0.032863318419600371 0 -0.00012632935689986446 -0.032941753631608506 0 -0.00025600408689761302 -0.032879103244483981 0 -0.00018513477974878352 -0.032863318419600371 0 -0.00012632935689986446 -0.032941753631608506 0 -0.00018513477974878352 -0.032863318419600371 0 -0.00017753461641040403 -0.032729875506241027 0 -7.9089169278832936e-05 -0.032851328313266766 0 -4.9144351038124278e-05 -0.03270604245475936 0 -0.00012632935689986446 -0.032941753631608506 0 -0.00017753461641040403 -0.032729875506241027 0 -5.6418962017338709e-05 -0.032375575656667099 0 -0.00017753461641040403 -0.032729875506241027 0 -0.00025746213300475334 -0.032713938262899214 0 -0.00028190425183024202 -0.03257246323917351 0 -0.00017753461641040403 -0.032729875506241027 0 -0.00028190425183024202 -0.03257246323917351 0 -5.6418962017338709e-05 -0.032375575656667099 0 -0.00017753461641040403 -0.032729875506241027 0 -0.00019890044321404295 -0.032799849911843641 0 -0.00025746213300475334 -0.032713938262899214 0 -0.00018513477974878352 -0.032863318419600371 0 -0.00017753461641040403 -0.032729875506241027 0 -0.00019890044321404295 -0.032799849911843641 0 -0.00019890044321404295 -0.032799849911843641 0 -0.00027239870756625963 -0.032744826266233595 0 -0.00025746213300475334 -0.032713938262899214 0 -0.00027239870756625963 -0.032744826266233595 0 -0.00025746213300475334 -0.032713938262899214 0 -0.00038295107044076132 -0.032671237189630151 0 -0.00028190425183024202 -0.03257246323917351 0 -0.00038295107044076132 -0.032671237189630151 0 -0.00041307996859150399 -0.032361223437643305 0 -0.00025746213300475334 -0.032713938262899214 0 -0.00028190425183024202 -0.03257246323917351 0 -0.00038295107044076132 -0.032671237189630151 0 -0.00038295107044076132 -0.032671237189630151 0 -0.00049603486131412594 -0.032707056843474427 0 -0.00041307996859150399 -0.032361223437643305 0 0.00084467589634743554 -0.020835278806482626 0 0.0015625957702199171 -0.020086105391136661 0 0.0035567799352958975 -0.015284943104681457 0 0.0044093711016385227 -0.019277376457227977 0 0.0023920121310131185 -0.015737401267199063 0 0.0015625957702199171 -0.020086105391136661 0 0.0031361762440160422 -0.019424901771739028 0 0.0015625957702199171 -0.020086105391136661 0 0.0040854374840765921 -0.014514497086239793 0 0.0031361762440160422 -0.019424901771739028 0 0.0040854374840765921 -0.014514497086239793 0 -0.00027239870756625963 -0.032744826266233595 0 -0.00038891882679036673 -0.032676193990067048 0 -0.00023724912635874853 -0.032775968161461166 0 -0.00027239870756625963 -0.032744826266233595 0 -0.00038295107044076132 -0.032671237189630151 0 -0.00038891882679036673 -0.032676193990067048 0 0.0043039133302943304 -0.014094973246854115 0 0.0043979876096975519 -0.014541068270286164 0 0.0032690323479759773 -0.013609633819213186 0 -0.00019890044321404295 -0.032799849911843641 0 -0.00027239870756625963 -0.032744826266233595 0 -0.00017973517730906452 -0.032788192386833837 0 -0.00027239870756625963 -0.032744826266233595 0 -0.00023724912635874853 -0.032775968161461166 0 -0.00017973517730906452 -0.032788192386833837 0 0.0016347710578930752 -0.016925402926922364 0 0.0021751227894086303 -0.017917661904870864 0 0.0020487409132353995 -0.017271476469847721 0 -6.5580593036905721e-05 -0.03270922574949494 0 -0.00023724912635874853 -0.032775968161461166 0 -0.00017973517730906452 -0.032788192386833837 0 0.0022464006969269618 -0.01829706986915559 0 0.0031361762440160422 -0.019424901771739028 0 0.0022464006969269618 -0.01829706986915559 0 0.0020809859157636191 -0.013960451099050142 0 0.0022524968606883874 -0.0070069270004437887 0 0.0022999870040191989 -0.0069489891157513955 0 0.0021938221484946196 -0.0069360439590471423 0 0.0031361762440160422 -0.019424901771739028 0 0.0020809859157636191 -0.013960451099050142 0 -0.00025903323691647552 -0.033295571488500784 0 -0.0002867916524230282 -0.0332133926030031 0 -0.00025418254299520667 -0.033264747602778554 0 -0.00025903323691647552 -0.033295571488500784 0 -0.0002867916524230282 -0.0332133926030031 0 -0.00026613234652049999 -0.033248518929499142 0 -0.00025903323691647552 -0.033295571488500784 0 -0.00025018295491494708 -0.033379236215805907 0 -0.00025418254299520667 -0.033264747602778554 0 -0.00012682317395967888 -0.033348678085352391 0 -0.00025018295491494708 -0.033379236215805907 0 -0.00025418254299520667 -0.033264747602778554 0 -0.00025903323691647552 -0.033295571488500784 0 -0.00025018295491494708 -0.033379236215805907 0 -0.00027404018470712495 -0.033275226829713345 0 -0.0004885321319645135 -0.033427109019452374 0 -0.0006640326982405904 -0.032898981175157278 0 -0.00025018295491494708 -0.033379236215805907 0 -0.00038489148212707258 -0.033824018656888222 0 -0.00023641983969266431 -0.03384975949950491 0 -0.0006640326982405904 -0.032898981175157278 0 -0.00049931250681856619 -0.033015649104082639 0 -0.0006640326982405904 -0.032898981175157278 0 -0.00061147148787152512 -0.032499619547191286 0 -0.00099104229511657368 -0.031423106906582773 0 -0.0012004684571003004 -0.031572328460569565 0 -0.00092483251760624866 -0.031610813883750047 0 -0.00025903323691647552 -0.033295571488500784 0 -0.00027404018470712495 -0.033275226829713345 0 -0.00026613234652049999 -0.033248518929499142 0 -0.00026613234652049999 -0.033248518929499142 0 -0.00028223913425208004 -0.033154493427830868 0 -0.0002886364707171618 -0.033155133914570152 0 -0.00061147148787152512 -0.032499619547191286 0 -0.0004161497590425726 -0.032397697636973567 0 -0.00092483251760624866 -0.031610813883750047 0 -0.0007181790404583887 -0.031532745305582338 0 -0.00064622297061420642 -0.031661955431717195 0 -0.00060792448414651848 -0.032160301569832891 0 -0.0004161497590425726 -0.032397697636973567 0 -0.00026557719283998809 -0.031748529075320976 0 -0.00038037529574840576 -0.031660052263257493 0 -0.00064622297061420642 -0.031661955431717195 0 -0.00026358032428709481 -0.033089692631902388 0 -0.00028223913425208004 -0.033154493427830868 0 -0.00027078519912554104 -0.033108508154825723 0 -0.00060949148482027104 -0.031427300166799878 0 -0.00038037529574840576 -0.031660052263257493 0 -0.00059336553593625457 -0.031569462999276494 0 -0.00038037529574840576 -0.031660052263257493 0 -0.00059336553593625457 -0.031569462999276494 0 -0.00064622297061420642 -0.031661955431717195 0 -0.00037347962666344994 -0.031249209061899683 0 -0.00036417438384961766 -0.031509222175557114 0 -0.0007181790404583887 -0.031532745305582338 0 -0.00059336553593625457 -0.031569462999276494 0 -0.00064622297061420642 -0.031661955431717195 0 -0.00028223913425208004 -0.033154493427830868 0 -0.00027078519912554104 -0.033108508154825723 0 -0.0002886364707171618 -0.033155133914570152 0 -0.00027078519912554104 -0.033108508154825723 0 -0.0002886364707171618 -0.033155133914570152 0 -0.00027351263669575678 -0.03309000775488876 0 -0.00024901661212918812 -0.033059466636664397 0 -0.00027078519912554104 -0.033108508154825723 0 -0.00027351263669575678 -0.03309000775488876 0 -0.0002867916524230282 -0.0332133926030031 0 -0.00026613234652049999 -0.033248518929499142 0 -0.0002886364707171618 -0.033155133914570152 0 -0.0002867916524230282 -0.0332133926030031 0 -0.0002886364707171618 -0.033155133914570152 0 -0.00031376178252389369 -0.033137020874900433 0 -0.00031376178252389369 -0.033137020874900433 0 -0.00027351263669575678 -0.03309000775488876 0 -0.00027498228053848253 -0.03310904060993157 0 -0.0002886364707171618 -0.033155133914570152 0 -0.00031376178252389369 -0.033137020874900433 0 -0.00027351263669575678 -0.03309000775488876 0 -0.00031376178252389369 -0.033137020874900433 0 -0.00027498228053848253 -0.03310904060993157 0 -0.00035471980844063342 -0.033139675156419107 0 -0.00031376178252389369 -0.033137020874900433 0 -0.00035471980844063342 -0.033139675156419107 0 -0.00029636613235824584 -0.033162228668122962 0 -0.00035471980844063342 -0.033139675156419107 0 -0.00029636613235824584 -0.033162228668122962 0 -0.00025807263110149445 -0.033020609172936539 0 -0.0002867916524230282 -0.0332133926030031 0 -0.00029636613235824584 -0.033162228668122962 0 -0.00025418254299520667 -0.033264747602778554 0 -0.0002867916524230282 -0.0332133926030031 0 -0.00031376178252389369 -0.033137020874900433 0 -0.00029636613235824584 -0.033162228668122962 0 -0.00029636613235824584 -0.033162228668122962 0 -0.00025418254299520667 -0.033264747602778554 0 -0.00015561826671141432 -0.033157378071530276 0 -0.00012682317395967888 -0.033348678085352391 0 -0.00025418254299520667 -0.033264747602778554 0 -0.00015561826671141432 -0.033157378071530276 0 -5.3187511016185514e-05 -0.033025512845060223 0 -0.00015561826671141432 -0.033157378071530276 0 -0.00025807263110149445 -0.033020609172936539 0 -0.00029636613235824584 -0.033162228668122962 0 -0.00015561826671141432 -0.033157378071530276 0 -0.00025807263110149445 -0.033020609172936539 0 -0.00036316711297930312 -0.033128420480558564 0 -0.00027821025916558014 -0.033196088301196719 0 -0.00051718819647525666 -0.033210864432069699 0 -0.00053914375118886248 -0.033280766274849612 0 -0.00061708969649894546 -0.033263208999202341 0 -5.3187511016185514e-05 -0.033025512845060223 0 -0.00025807263110149445 -0.033020609172936539 0 -4.8771925517613616e-05 -0.032888101134259121 0 -0.00053914375118886248 -0.033280766274849612 0 -0.00049270773846833542 -0.033353879180213535 0 -0.0006096822477431545 -0.033310012485609795 0 -0.0001185073238458121 -0.033611634912092618 0 -0.00020204392783313815 -0.033625649685355335 0 0.00024939778128303588 -0.033869171486696693 0 0.00026855845695074288 -0.03389124513019922 0 0.00027525447750674433 -0.033900382044647029 0 -0.00049270773846833542 -0.033353879180213535 0 -0.00043042789585389946 -0.033273415289793308 0 -0.00035914568780285173 -0.033420131521142753 0 -0.00053914375118886248 -0.033280766274849612 0 -0.00049270773846833542 -0.033353879180213535 0 -0.00043042789585389946 -0.033273415289793308 0 -0.00051718819647525666 -0.033210864432069699 0 -0.00053914375118886248 -0.033280766274849612 0 -0.00043042789585389946 -0.033273415289793308 0 -0.00035471980844063342 -0.033139675156419107 0 -0.00051718819647525666 -0.033210864432069699 0 -0.00043042789585389946 -0.033273415289793308 0 -0.00035299024409070253 -0.033127352647334601 0 -0.00036316711297930312 -0.033128420480558564 0 -0.00035471980844063342 -0.033139675156419107 0 -0.00043042789585389946 -0.033273415289793308 0 -0.00031314130845591252 -0.033256203043057951 0 -0.00027498228053848253 -0.03310904060993157 0 -0.00035471980844063342 -0.033139675156419107 0 -0.00031314130845591252 -0.033256203043057951 0 -0.00027498228053848253 -0.03310904060993157 0 -0.00031314130845591252 -0.033256203043057951 0 -0.00022618250786781259 -0.033228016897105257 0 -0.00031314130845591252 -0.033256203043057951 0 -0.00023143173620838718 -0.033347993938759736 0 -0.00022618250786781259 -0.033228016897105257 0 -0.00031314130845591252 -0.033256203043057951 0 -0.00023143173620838718 -0.033347993938759736 0 -0.00035914568780285173 -0.033420131521142753 0 -0.00043042789585389946 -0.033273415289793308 0 -0.00031314130845591252 -0.033256203043057951 0 -0.00035914568780285173 -0.033420131521142753 0 -0.0001185073238458121 -0.033611634912092618 0 -0.00010822001614923426 -0.033593108110013981 0 0.00024939778128303588 -0.033869171486696693 0 0.00010440713740335736 -0.033771456379826648 0 0.00014821670924500133 -0.033686844849993069 0 -0.00010822001614923426 -0.033593108110013981 0 -9.7014537971410993e-05 -0.033572763336689605 0 0.00010440713740335736 -0.033771456379826648 0 0.00014821670924500133 -0.033686844849993069 0 -0.00011600260644362263 -0.033543495987509483 0 -0.00023143173620838718 -0.033347993938759736 0 -0.00035914568780285173 -0.033420131521142753 0 -0.00011600260644362263 -0.033543495987509483 0 0.00014821670924500133 -0.033686844849993069 0 -0.00011600260644362263 -0.033543495987509483 0 5.9459600746627026e-05 -0.033573124175319838 0 0.00014821670924500133 -0.033686844849993069 0 0.00025975481295928177 -0.03379993454750202 0 0.00025415106516996495 -0.03370919292237691 0 0.00025975481295928177 -0.03379993454750202 0 0.00025415106516996495 -0.03370919292237691 0 0.00029544902239969206 -0.033828525208075964 0 0.00025975481295928177 -0.03379993454750202 0 0.00029544902239969206 -0.033828525208075964 0 0.00027525447750674433 -0.033900382044647029 0 0.00024939778128303588 -0.033869171486696693 0 0.00025975481295928177 -0.03379993454750202 0 0.00027525447750674433 -0.033900382044647029 0 0.00024939778128303588 -0.033869171486696693 0 0.00014821670924500133 -0.033686844849993069 0 0.00025975481295928177 -0.03379993454750202 0 0.00036252781003911393 -0.032476136819175778 0 -4.9144351038124278e-05 -0.03270604245475936 0 -0.00038380442232347921 -0.031629014171974959 0 -0.00041307996859150399 -0.032361223437643305 0 -0.00075499816406326883 -0.032067000692420723 0 -0.00049603486131412594 -0.032707056843474427 0 -0.00041307996859150399 -0.032361223437643305 0 -0.00075499816406326883 -0.032067000692420723 0 -0.00038380442232347921 -0.031629014171974959 0 -0.00041307996859150399 -0.032361223437643305 0 -5.6418962017338709e-05 -0.032375575656667099 0 0.0015625957702199171 -0.020086105391136661 0 0.00060829520349366866 -0.025507606113389026 0 -0.00028190425183024202 -0.03257246323917351 0 -0.00041307996859150399 -0.032361223437643305 0 -5.6418962017338709e-05 -0.032375575656667099 0 -3.4982508907292905e-05 -0.033389767663018877 0 3.2159047321860336e-06 -0.033250949026892886 0 -6.1724753395312086e-05 -0.033418538226014517 0 3.2159047321860336e-06 -0.033250949026892886 0 -8.163062456448798e-05 -0.033399069509314573 0 -6.1724753395312086e-05 -0.033418538226014517 0 -8.163062456448798e-05 -0.033399069509314573 0 -0.00014643041546358497 -0.033344168026920314 0 -0.00011600260644362263 -0.033543495987509483 0 -8.163062456448798e-05 -0.033399069509314573 0 -0.00013524317641945896 -0.03322582424795497 0 -0.00014643041546358497 -0.033344168026920314 0 -0.00012632935689986446 -0.032941753631608506 0 3.2159047321860336e-06 -0.033250949026892886 0 -0.00013524317641945896 -0.03322582424795497 0 3.2159047321860336e-06 -0.033250949026892886 0 -8.163062456448798e-05 -0.033399069509314573 0 -0.00013524317641945896 -0.03322582424795497 0 -0.00013524317641945896 -0.03322582424795497 0 -0.00022618250786781259 -0.033228016897105257 0 -0.00014643041546358497 -0.033344168026920314 0 -0.00021269867731062725 -0.033088665367537462 0 -0.00013524317641945896 -0.03322582424795497 0 -0.00022618250786781259 -0.033228016897105257 0 -0.00023143173620838718 -0.033347993938759736 0 -0.00014643041546358497 -0.033344168026920314 0 -0.00011600260644362263 -0.033543495987509483 0 -0.00023143173620838718 -0.033347993938759736 0 -0.00022618250786781259 -0.033228016897105257 0 -0.00014643041546358497 -0.033344168026920314 0 -0.00011600260644362263 -0.033543495987509483 0 -6.8564835779665747e-05 -0.033514684253534884 0 -9.0974826723538979e-05 -0.033486707874048609 0 -0.00011600260644362263 -0.033543495987509483 0 -6.8564835779665747e-05 -0.033514684253534884 0 5.9459600746627026e-05 -0.033573124175319838 0 -6.8564835779665747e-05 -0.033514684253534884 0 -9.0974826723538979e-05 -0.033486707874048609 0 -9.400502337266656e-05 -0.033456007716485721 0 -9.0974826723538979e-05 -0.033486707874048609 0 -9.9528073453258368e-05 -0.033450326847892342 0 -9.400502337266656e-05 -0.033456007716485721 0 -8.163062456448798e-05 -0.033399069509314573 0 -0.00011600260644362263 -0.033543495987509483 0 -9.0974826723538979e-05 -0.033486707874048609 0 -8.163062456448798e-05 -0.033399069509314573 0 -9.0974826723538979e-05 -0.033486707874048609 0 -6.1724753395312086e-05 -0.033418538226014517 0 -9.0974826723538979e-05 -0.033486707874048609 0 -6.1724753395312086e-05 -0.033418538226014517 0 -9.9528073453258368e-05 -0.033450326847892342 0 -6.1724753395312086e-05 -0.033418538226014517 0 -9.9528073453258368e-05 -0.033450326847892342 0 -8.4844598717675185e-05 -0.033421145646521919 0 -9.9528073453258368e-05 -0.033450326847892342 0 -0.00012709129062571446 -0.033420797327494867 0 -0.0001372994771647387 -0.033413671622403635 0 -9.9528073453258368e-05 -0.033450326847892342 0 -0.00012709129062571446 -0.033420797327494867 0 -8.4844598717675185e-05 -0.033421145646521919 0 -0.00012709129062571446 -0.033420797327494867 0 -8.4844598717675185e-05 -0.033421145646521919 0 -0.00010633912582738521 -0.033407417759249457 0 -0.00012709129062571446 -0.033420797327494867 0 -0.00016768695568949985 -0.033403600020197342 0 -0.00010633912582738521 -0.033407417759249457 0 -3.4982508907292905e-05 -0.033389767663018877 0 -8.4844598717675185e-05 -0.033421145646521919 0 -0.00010633912582738521 -0.033407417759249457 0 -3.4982508907292905e-05 -0.033389767663018877 0 -6.1724753395312086e-05 -0.033418538226014517 0 -8.4844598717675185e-05 -0.033421145646521919 0 0.00036252781003911393 -0.032476136819175778 0 0.00051853994427084385 -0.027106221311226 0 0.00014231767504170923 -0.026911175796739989 0 0.00051976505318542953 -0.023900470016784681 0 -0.00010122785204072733 -0.031643158414315128 0 2.0006802620087439e-06 -0.0292416138857979 0 0.0003937604183761865 -0.029840504749790785 0 0.00060235555944556664 -0.029568214030581672 0 0.00072431652360655126 -0.028984473229605297 0 0.00017226009911570689 -0.026538315854663264 0 2.2468360157402588e-05 -0.027075602788938048 0 0.00031285392835009849 -0.026233909983836626 0 -0.00026351103750389882 -0.033271501741077077 0 -0.00018702744355719776 -0.033365272074506166 0 -0.00016768695568949985 -0.033403600020197342 0 0.0003937604183761865 -0.029840504749790785 0 0.00060235555944556664 -0.029568214030581672 0 0.00048365231822552611 -0.030159284587400796 0 0.00021902167867023011 -0.028030774572112237 0 0.00014231767504170923 -0.026911175796739989 0 -0.00026351103750389882 -0.033271501741077077 0 -0.0002116740646356569 -0.033303062593580068 0 -0.00017588834328559092 -0.033079412105882937 0 -0.0002116740646356569 -0.033303062593580068 0 -0.00018702744355719776 -0.033365272074506166 0 -0.0001673983762671351 -0.033370225892096254 0 -0.00026351103750389882 -0.033271501741077077 0 -0.0002116740646356569 -0.033303062593580068 0 -0.00018702744355719776 -0.033365272074506166 0 -0.00015597093172647133 -0.033403927757612036 0 -0.00018702744355719776 -0.033365272074506166 0 -0.00016768695568949985 -0.033403600020197342 0 0.00021902167867023011 -0.028030774572112237 0 2.0006802620087439e-06 -0.0292416138857979 0 -0.00012709129062571446 -0.033420797327494867 0 -0.00015597093172647133 -0.033403927757612036 0 -0.00016768695568949985 -0.033403600020197342 0 -0.00012709129062571446 -0.033420797327494867 0 -0.00015597093172647133 -0.033403927757612036 0 -0.0001372994771647387 -0.033413671622403635 0 -0.00015597093172647133 -0.033403927757612036 0 -0.00018702744355719776 -0.033365272074506166 0 -0.0001372994771647387 -0.033413671622403635 0 -0.00018702744355719776 -0.033365272074506166 0 -0.0001372994771647387 -0.033413671622403635 0 -0.0001673983762671351 -0.033370225892096254 0 -0.0001372994771647387 -0.033413671622403635 0 -0.00013437206273266567 -0.033385891333133126 0 -0.0001673983762671351 -0.033370225892096254 0 -0.0001372994771647387 -0.033413671622403635 0 -0.00013437206273266567 -0.033385891333133126 0 -9.400502337266656e-05 -0.033456007716485721 0 -9.9528073453258368e-05 -0.033450326847892342 0 -0.0001372994771647387 -0.033413671622403635 0 -9.400502337266656e-05 -0.033456007716485721 0 -0.00017873330583140966 -0.033303392994857677 0 3.6497461124538117e-05 -0.033287101209876692 0 -0.0002116740646356569 -0.033303062593580068 0 0.00019797871646985059 -0.033193595933678217 0 -0.00017588834328559092 -0.033079412105882937 0 -0.0002116740646356569 -0.033303062593580068 0 -0.00013437206273266567 -0.033385891333133126 0 -8.290636197508979e-05 -0.033372782945692146 0 -0.0002116740646356569 -0.033303062593580068 0 -0.00013437206273266567 -0.033385891333133126 0 -0.0001673983762671351 -0.033370225892096254 0 -0.00013437206273266567 -0.033385891333133126 0 -8.290636197508979e-05 -0.033372782945692146 0 -9.400502337266656e-05 -0.033456007716485721 0 -8.290636197508979e-05 -0.033372782945692146 0 -9.400502337266656e-05 -0.033456007716485721 0 -3.8816397895143397e-05 -0.033463049698530277 0 -6.8564835779665747e-05 -0.033514684253534884 0 -3.8816397895143397e-05 -0.033463049698530277 0 5.9459600746627026e-05 -0.033573124175319838 0 -6.8564835779665747e-05 -0.033514684253534884 0 -9.400502337266656e-05 -0.033456007716485721 0 -3.8816397895143397e-05 -0.033463049698530277 0 -8.290636197508979e-05 -0.033372782945692146 0 -3.8816397895143397e-05 -0.033463049698530277 0 3.0898336658615015e-05 -0.03338197161410679 0 3.6497461124538117e-05 -0.033287101209876692 0 0.00025373184588038216 -0.033290737543639433 0 0.00019797871646985059 -0.033193595933678217 0 0.00030479078595112784 -0.032995936625682662 0 0.00046353883829360537 -0.033159032230987387 0 0.00030479078595112784 -0.032995936625682662 0 0.00043149055226655446 -0.032928088816428024 0 0.00046353883829360537 -0.033159032230987387 0 0.00030479078595112784 -0.032995936625682662 0 0.00043149055226655446 -0.032928088816428024 0 0.00024714954704981685 -0.032736904329654294 0 0.00043149055226655446 -0.032928088816428024 0 0.00024714954704981685 -0.032736904329654294 0 0.00034284215396155444 -0.032608595906456192 0 0.00030479078595112784 -0.032995936625682662 0 0.00024714954704981685 -0.032736904329654294 0 4.0129495240613629e-05 -0.032920490124032795 0 0.00024714954704981685 -0.032736904329654294 0 2.9198567657852799e-05 -0.032494988517229581 0 0.00019216866766754562 -0.032280569221541072 0 0.00024714954704981685 -0.032736904329654294 0 4.0129495240613629e-05 -0.032920490124032795 0 2.9198567657852799e-05 -0.032494988517229581 0 0.00019797871646985059 -0.033193595933678217 0 0.00030479078595112784 -0.032995936625682662 0 4.0129495240613629e-05 -0.032920490124032795 0 0.00019797871646985059 -0.033193595933678217 0 -0.00017588834328559092 -0.033079412105882937 0 4.0129495240613629e-05 -0.032920490124032795 0 -0.00017588834328559092 -0.033079412105882937 0 -0.00012911155536257868 -0.032892566570163498 0 -0.00030222295679589137 -0.03280549369948222 0 -0.00017588834328559092 -0.033079412105882937 0 -0.00012911155536257868 -0.032892566570163498 0 4.0129495240613629e-05 -0.032920490124032795 0 4.0129495240613629e-05 -0.032920490124032795 0 -8.6842988309717545e-05 -0.03278219622462928 0 2.9198567657852799e-05 -0.032494988517229581 0 -6.70396110581412e-05 -0.03171102828717811 0 -6.026516372282041e-05 -0.031785572500244781 0 2.9198567657852799e-05 -0.032494988517229581 0 -0.00030222295679589137 -0.03280549369948222 0 -3.0159956073385998e-05 -0.031844516074837341 0 -0.00012911155536257868 -0.032892566570163498 0 4.0129495240613629e-05 -0.032920490124032795 0 -8.6842988309717545e-05 -0.03278219622462928 0 -8.6842988309717545e-05 -0.03278219622462928 0 2.9198567657852799e-05 -0.032494988517229581 0 -0.00030222295679589137 -0.03280549369948222 0 -0.00012911155536257868 -0.032892566570163498 0 -8.6842988309717545e-05 -0.03278219622462928 0 -0.00030222295679589137 -0.03280549369948222 0 0.00018799959670837097 -0.030576876448098516 0 0.00027839712638696784 -0.030881164760611465 0 0.00019564843915730488 -0.031398298783977104 0 6.0567164998869004e-05 -0.030721950476108803 0 0.0003524381056935545 -0.030670758248345337 0 0.00019564843915730488 -0.031398298783977104 0 -0.00030925914057615991 -0.028640104163287175 0 -0.00029275434981704105 -0.031122465876369354 0 0.00034307856999265732 -0.031012776651419292 0 0.00027839712638696784 -0.030881164760611465 0 0.00019564843915730488 -0.031398298783977104 0 0.0003682470220198035 -0.030773293273731475 0 0.00045279115639053981 -0.030635986857440383 0 0.00047106558501270137 -0.030873469550457389 0 0.00034307856999265732 -0.031012776651419292 0 0.0003682470220198035 -0.030773293273731475 0 0.00047106558501270137 -0.030873469550457389 0 0.00034307856999265732 -0.031012776651419292 0 0.00027839712638696784 -0.030881164760611465 0 0.0003682470220198035 -0.030773293273731475 0 0.00027839712638696784 -0.030881164760611465 0 0.0003682470220198035 -0.030773293273731475 0 0.00031202820151853461 -0.03069844241635088 0 0.0003682470220198035 -0.030773293273731475 0 0.00031202820151853461 -0.03069844241635088 0 0.00045279115639053981 -0.030635986857440383 0 0.00018799959670837097 -0.030576876448098516 0 0.00031202820151853461 -0.03069844241635088 0 0.00045279115639053981 -0.030635986857440383 0 0.00018799959670837097 -0.030576876448098516 0 0.00027839712638696784 -0.030881164760611465 0 0.00031202820151853461 -0.03069844241635088 0 -0.00030925914057615991 -0.028640104163287175 0 0.00014231767504170923 -0.026911175796739989 0 0.0003937604183761865 -0.029840504749790785 0 6.0567164998869004e-05 -0.030721950476108803 0 0.00048365231822552611 -0.030159284587400796 0 -0.00033048122028404571 -0.024719124699170678 0 -7.8488106997018218e-05 -0.023744501956633472 0 0.0011093124936116274 -0.023884549132133229 0 -0.00026351103750389882 -0.033271501741077077 0 -0.00017588834328559092 -0.033079412105882937 0 -0.00030222295679589137 -0.03280549369948222 0 -0.00010122785204072733 -0.031643158414315128 0 -6.70396110581412e-05 -0.03171102828717811 0 6.0567164998869004e-05 -0.030721950476108803 0 0.0003524381056935545 -0.030670758248345337 0 0.00048365231822552611 -0.030159284587400796 0 0.00032044704696880186 -0.033640818987676707 0 0.00021346799963211583 -0.033577091338073864 0 0.00036787007801955611 -0.033377152057736642 0 0.00032044704696880186 -0.033640818987676707 0 0.00036787007801955611 -0.033377152057736642 0 0.00037513447229395368 -0.033573727160600718 0 0.00032044704696880186 -0.033640818987676707 0 0.00037513447229395368 -0.033573727160600718 0 0.00032139334997165984 -0.03376881126079314 0 0.00029544902239969206 -0.033828525208075964 0 0.00032044704696880186 -0.033640818987676707 0 0.00032139334997165984 -0.03376881126079314 0 0.00025415106516996495 -0.03370919292237691 0 0.00029544902239969206 -0.033828525208075964 0 0.00032044704696880186 -0.033640818987676707 0 0.00025415106516996495 -0.03370919292237691 0 0.00032044704696880186 -0.033640818987676707 0 0.00021346799963211583 -0.033577091338073864 0 0.00014821670924500133 -0.033686844849993069 0 0.00025415106516996495 -0.03370919292237691 0 0.00021346799963211583 -0.033577091338073864 0 0.00014821670924500133 -0.033686844849993069 0 0.00021346799963211583 -0.033577091338073864 0 5.9459600746627026e-05 -0.033573124175319838 0 0.00021346799963211583 -0.033577091338073864 0 5.9459600746627026e-05 -0.033573124175319838 0 3.0898336658615015e-05 -0.03338197161410679 0 -3.8816397895143397e-05 -0.033463049698530277 0 5.9459600746627026e-05 -0.033573124175319838 0 3.0898336658615015e-05 -0.03338197161410679 0 0.00021346799963211583 -0.033577091338073864 0 3.0898336658615015e-05 -0.03338197161410679 0 0.00036787007801955611 -0.033377152057736642 0 0.00025373184588038216 -0.033290737543639433 0 0.00036398023465244479 -0.033328526873891311 0 0.00046353883829360537 -0.033159032230987387 0 0.00053015311209909141 -0.033107043393452482 0 0.00036787007801955611 -0.033377152057736642 0 0.00043149055226655446 -0.032928088816428024 0 0.00046353883829360537 -0.033159032230987387 0 0.00053015311209909141 -0.033107043393452482 0 0.00043149055226655446 -0.032928088816428024 0 0.00053015311209909141 -0.033107043393452482 0 0.00043295363831091809 -0.032643474927573163 0 0.00053015311209909141 -0.033107043393452482 0 0.00048822299705351073 -0.033342178945450496 0 0.00036787007801955611 -0.033377152057736642 0 0.00048822299705351073 -0.033342178945450496 0 0.00036787007801955611 -0.033377152057736642 0 0.00037513447229395368 -0.033573727160600718 0 0.00048822299705351073 -0.033342178945450496 0 0.00037513447229395368 -0.033573727160600718 0 0.00036320845799955734 -0.03360682884451717 0 0.00036320845799955734 -0.03360682884451717 0 0.00025961731826579026 -0.033870522938415235 0 0.00030776935449861829 -0.033791153924295138 0 0.00036320845799955734 -0.03360682884451717 0 0.00025961731826579026 -0.033870522938415235 0 0.00030802120315439599 -0.033704551558642999 0 0.00025961731826579026 -0.033870522938415235 0 0.00030776935449861829 -0.033791153924295138 0 0.00022990596663191788 -0.033983570649930309 0 0.00037513447229395368 -0.033573727160600718 0 0.00036320845799955734 -0.03360682884451717 0 0.00030776935449861829 -0.033791153924295138 0 0.00030776935449861829 -0.033791153924295138 0 0.00028001029757398973 -0.033925292784142809 0 0.00032139334997165984 -0.03376881126079314 0 0.00037513447229395368 -0.033573727160600718 0 0.00030776935449861829 -0.033791153924295138 0 0.00032139334997165984 -0.03376881126079314 0 0.00030776935449861829 -0.033791153924295138 0 0.00028001029757398973 -0.033925292784142809 0 0.00022990596663191788 -0.033983570649930309 0 0.00028001029757398973 -0.033925292784142809 0 0.0002865307921649433 -0.033932098516332207 0 0.00026076894619579238 -0.034039322466671573 0 0.00028001029757398973 -0.033925292784142809 0 0.00032139334997165984 -0.03376881126079314 0 0.0002865307921649433 -0.033932098516332207 0 0.00029544902239969206 -0.033828525208075964 0 0.00032139334997165984 -0.03376881126079314 0 0.0002865307921649433 -0.033932098516332207 0 0.00017915192474372369 -0.034213178324870482 0 0.00014824898618754053 -0.034207431689139055 0 0.00012622401459956136 -0.034365928021558745 0 0.00017915192474372369 -0.034213178324870482 0 0.00022015555478979536 -0.034090270296408855 0 0.00021778753976189565 -0.034159808153454811 0 0.00017915192474372369 -0.034213178324870482 0 0.00012622401459956136 -0.034365928021558745 0 0.00017276656197628466 -0.034296412611684146 0 0.00022015555478979536 -0.034090270296408855 0 0.00026076894619579238 -0.034039322466671573 0 0.00021778753976189565 -0.034159808153454811 0 0.00028001029757398973 -0.033925292784142809 0 0.00022015555478979536 -0.034090270296408855 0 0.00026076894619579238 -0.034039322466671573 0 0.00028001029757398973 -0.033925292784142809 0 0.00022015555478979536 -0.034090270296408855 0 0.00022990596663191788 -0.033983570649930309 0 0.00022015555478979536 -0.034090270296408855 0 0.00014824898618754053 -0.034207431689139055 0 0.00022990596663191788 -0.033983570649930309 0 0.00017915192474372369 -0.034213178324870482 0 0.00022015555478979536 -0.034090270296408855 0 0.00014824898618754053 -0.034207431689139055 0 0.00014824898618754053 -0.034207431689139055 0 0.00016484167551715631 -0.034064892609727469 0 0.0001155170235837699 -0.034204244119120465 0 0.00014824898618754053 -0.034207431689139055 0 0.00016484167551715631 -0.034064892609727469 0 0.00022990596663191788 -0.033983570649930309 0 0.00025961731826579026 -0.033870522938415235 0 0.00016484167551715631 -0.034064892609727469 0 0.00022990596663191788 -0.033983570649930309 0 0.00025961731826579026 -0.033870522938415235 0 0.00016484167551715631 -0.034064892609727469 0 0.00017966757923086675 -0.034036701312804542 0 0.00016484167551715631 -0.034064892609727469 0 8.0948767959827402e-05 -0.034185495492804273 0 0.00017966757923086675 -0.034036701312804542 0 8.0948767959827402e-05 -0.034185495492804273 0 5.6295808388687955e-05 -0.03423608356670365 0 5.8281013877480938e-05 -0.034339188874658741 0 5.6295808388687955e-05 -0.03423608356670365 0 5.8281013877480938e-05 -0.034339188874658741 0 8.1507911581009127e-05 -0.034382503419577132 0 8.0948767959827402e-05 -0.034185495492804273 0 5.8281013877480938e-05 -0.034339188874658741 0 7.864435491497599e-05 -0.034354991306790247 0 5.8281013877480938e-05 -0.034339188874658741 0 6.6647226645311636e-05 -0.034482552802348514 0 6.8065888629655801e-05 -0.034551957884315934 0 5.8281013877480938e-05 -0.034339188874658741 0 6.6647226645311636e-05 -0.034482552802348514 0 7.864435491497599e-05 -0.034354991306790247 0 0.00014824898618754053 -0.034207431689139055 0 7.864435491497599e-05 -0.034354991306790247 0 0.0001155170235837699 -0.034204244119120465 0 0.00016484167551715631 -0.034064892609727469 0 8.0948767959827402e-05 -0.034185495492804273 0 0.0001155170235837699 -0.034204244119120465 0 8.0948767959827402e-05 -0.034185495492804273 0 7.864435491497599e-05 -0.034354991306790247 0 0.0001155170235837699 -0.034204244119120465 0 -3.1804432825579303e-10 -0.035000062650461773 0 1.9338931081370722e-05 -0.034997742801089353 0 5.3422135749979443e-06 -0.035001265738246405 0 0.00023367490229496413 -0.034351528457286402 0 0.00011594276640618816 -0.034241564984305424 0 8.1507911581009127e-05 -0.034382503419577132 0 0.00023367490229496413 -0.034351528457286402 0 8.1507911581009127e-05 -0.034382503419577132 0 9.8301805997091896e-05 -0.034589820702393519 0 5.6295808388687955e-05 -0.03423608356670365 0 0.00011594276640618816 -0.034241564984305424 0 8.1507911581009127e-05 -0.034382503419577132 0 5.8281013877480938e-05 -0.034339188874658741 0 8.1507911581009127e-05 -0.034382503419577132 0 6.8065888629655801e-05 -0.034551957884315934 0 6.8065888629655801e-05 -0.034551957884315934 0 9.8301805997091896e-05 -0.034589820702393519 0 7.2815586055216062e-05 -0.034731525061889694 0 8.1507911581009127e-05 -0.034382503419577132 0 6.8065888629655801e-05 -0.034551957884315934 0 9.8301805997091896e-05 -0.034589820702393519 0 -3.1804432825579303e-10 -0.035000062650461773 0 1.9338931081370722e-05 -0.034997742801089353 0 6.7177702900312781e-05 -0.034909438780287197 0 0.00023367490229496413 -0.034351528457286402 0 9.8301805997091896e-05 -0.034589820702393519 0 6.7177702900312781e-05 -0.034909438780287197 0 -3.1804432825579303e-10 -0.035000062650461773 0 1.68218206984812e-07 -0.034999443730584417 0 6.7177702900312781e-05 -0.034909438780287197 0 9.6266133217398555e-05 -0.034678300131075659 0 9.465701580148005e-05 -0.034813683308695872 0 9.8301805997091896e-05 -0.034589820702393519 0 6.7177702900312781e-05 -0.034909438780287197 0 7.2815586055216062e-05 -0.034731525061889694 0 1.68218206984812e-07 -0.034999443730584417 0 5.6615052431415525e-05 -0.034844968149722898 0 3.3758911598324317e-05 -0.034871536351210396 0 1.68218206984812e-07 -0.034999443730584417 0 6.7177702900312781e-05 -0.034909438780287197 0 5.6615052431415525e-05 -0.034844968149722898 0 6.7177702900312781e-05 -0.034909438780287197 0 5.6615052431415525e-05 -0.034844968149722898 0 7.2815586055216062e-05 -0.034731525061889694 0 5.6615052431415525e-05 -0.034844968149722898 0 6.6012808307333506e-05 -0.034687918882488886 0 3.3758911598324317e-05 -0.034871536351210396 0 5.6615052431415525e-05 -0.034844968149722898 0 6.6012808307333506e-05 -0.034687918882488886 0 7.2815586055216062e-05 -0.034731525061889694 0 6.8065888629655801e-05 -0.034551957884315934 0 6.6012808307333506e-05 -0.034687918882488886 0 7.2815586055216062e-05 -0.034731525061889694 0 6.6647226645311636e-05 -0.034482552802348514 0 6.8065888629655801e-05 -0.034551957884315934 0 6.6012808307333506e-05 -0.034687918882488886 0 6.6012808307333506e-05 -0.034687918882488886 0 5.8669540833636973e-05 -0.034659763820390904 0 7.4824139018681292e-05 -0.03451666849628407 0 6.6012808307333506e-05 -0.034687918882488886 0 5.8669540833636973e-05 -0.034659763820390904 0 3.3758911598324317e-05 -0.034871536351210396 0 5.8669540833636973e-05 -0.034659763820390904 0 3.3758911598324317e-05 -0.034871536351210396 0 3.187129129441883e-05 -0.034762018875765403 0 1.68218206984812e-07 -0.034999443730584417 0 3.3758911598324317e-05 -0.034871536351210396 0 9.8721908324011198e-09 -0.034999675624623972 0 0.00014824898618754053 -0.034207431689139055 0 7.864435491497599e-05 -0.034354991306790247 0 0.00010124846059342678 -0.034381442487691538 0 0.00014824898618754053 -0.034207431689139055 0 0.00010124846059342678 -0.034381442487691538 0 0.00012622401459956136 -0.034365928021558745 0 7.864435491497599e-05 -0.034354991306790247 0 0.00010124846059342678 -0.034381442487691538 0 7.4824139018681292e-05 -0.03451666849628407 0 6.6647226645311636e-05 -0.034482552802348514 0 7.864435491497599e-05 -0.034354991306790247 0 7.4824139018681292e-05 -0.03451666849628407 0 6.6647226645311636e-05 -0.034482552802348514 0 6.6012808307333506e-05 -0.034687918882488886 0 7.4824139018681292e-05 -0.03451666849628407 0 0.00010124846059342678 -0.034381442487691538 0 7.4824139018681292e-05 -0.03451666849628407 0 8.4732823987769361e-05 -0.034503113693314373 0 5.8669540833636973e-05 -0.034659763820390904 0 8.4732823987769361e-05 -0.034503113693314373 0 7.4912324886541488e-05 -0.034529126729714234 0 5.8669540833636973e-05 -0.034659763820390904 0 7.4824139018681292e-05 -0.03451666849628407 0 8.4732823987769361e-05 -0.034503113693314373 0 8.4732823987769361e-05 -0.034503113693314373 0 0.00012622401459956136 -0.034365928021558745 0 7.4912324886541488e-05 -0.034529126729714234 0 0.00010124846059342678 -0.034381442487691538 0 8.4732823987769361e-05 -0.034503113693314373 0 0.00012622401459956136 -0.034365928021558745 0 0.00012622401459956136 -0.034365928021558745 0 7.4912324886541488e-05 -0.034529126729714234 0 0.00017276656197628466 -0.034296412611684146 0 7.4912324886541488e-05 -0.034529126729714234 0 7.3879496801443359e-06 -0.03475256588795269 0 9.718130363698966e-05 -0.034375204003799877 0 2.5135770430208815e-05 -0.034662463116344959 0 2.755558703065342e-06 -0.034592659833710425 0 7.4912324886541488e-05 -0.034529126729714234 0 9.718130363698966e-05 -0.034375204003799877 0 0.00017276656197628466 -0.034296412611684146 0 9.718130363698966e-05 -0.034375204003799877 0 0.00020105316150276955 -0.034162061969803238 0 0.00017276656197628466 -0.034296412611684146 0 3.3758911598324317e-05 -0.034871536351210396 0 9.8721908324011198e-09 -0.034999675624623972 0 3.187129129441883e-05 -0.034762018875765403 0 5.8669540833636973e-05 -0.034659763820390904 0 7.4912324886541488e-05 -0.034529126729714234 0 3.187129129441883e-05 -0.034762018875765403 0 7.4912324886541488e-05 -0.034529126729714234 0 3.187129129441883e-05 -0.034762018875765403 0 7.3879496801443359e-06 -0.03475256588795269 0 9.8721908324011198e-09 -0.034999675624623972 0 3.187129129441883e-05 -0.034762018875765403 0 7.3879496801443359e-06 -0.03475256588795269 0 9.8721908324011198e-09 -0.034999675624623972 0 7.3879496801443359e-06 -0.03475256588795269 0 6.6610699949582981e-08 -0.034999831480117476 0 7.3879496801443359e-06 -0.03475256588795269 0 6.6610699949582981e-08 -0.034999831480117476 0 -1.3354310860599345e-05 -0.034936368193680789 0 7.3879496801443359e-06 -0.03475256588795269 0 -1.3354310860599345e-05 -0.034936368193680789 0 -8.2301952523839111e-05 -0.034888734540872358 0 2.2794514767149637e-06 -0.034990240042288456 0 -1.3354310860599345e-05 -0.034936368193680789 0 -8.9415323601695838e-05 -0.034979081850968576 0 -8.818138974403416e-06 -0.034983420689392912 0 -5.3221427406988495e-05 -0.03496256334133066 0 2.2794514767149637e-06 -0.034990240042288456 0 6.6610699949582981e-08 -0.034999831480117476 0 -1.3354310860599345e-05 -0.034936368193680789 0 -1.4078514751839406e-08 -0.035000019695815315 0 2.2794514767149637e-06 -0.034990240042288456 0 6.6610699949582981e-08 -0.034999831480117476 0 2.755558703065342e-06 -0.034592659833710425 0 -4.7617167736019534e-05 -0.034472972910852696 0 -0.00016813565973407279 -0.034898806683476863 0 -0.0002360142887019995 -0.034937610597440515 0 -0.00026442472315976414 -0.034866261184154576 0 -0.00016813565973407279 -0.034898806683476863 0 -0.00015549027699175697 -0.034827372847818665 0 -0.00026442472315976414 -0.034866261184154576 0 7.3879496801443359e-06 -0.03475256588795269 0 -0.00015549027699175697 -0.034827372847818665 0 -8.2301952523839111e-05 -0.034888734540872358 0 -0.00016813565973407279 -0.034898806683476863 0 -0.00015549027699175697 -0.034827372847818665 0 -8.2301952523839111e-05 -0.034888734540872358 0 -1.3354310860599345e-05 -0.034936368193680789 0 -8.2301952523839111e-05 -0.034888734540872358 0 -8.9415323601695838e-05 -0.034979081850968576 0 -0.00016813565973407279 -0.034898806683476863 0 -8.2301952523839111e-05 -0.034888734540872358 0 -8.9415323601695838e-05 -0.034979081850968576 0 -2.6190487884573333e-05 -0.034985485925075707 0 -1.3304415519521726e-05 -0.034966620878058595 0 -5.1671492211374456e-05 -0.034942588363995081 0 -0.00016813565973407279 -0.034898806683476863 0 -8.9415323601695838e-05 -0.034979081850968576 0 -0.0002360142887019995 -0.034937610597440515 0 -2.6190487884573333e-05 -0.034985485925075707 0 -6.2499726130222234e-05 -0.034957193348170781 0 -5.1671492211374456e-05 -0.034942588363995081 0 -5.3221427406988495e-05 -0.03496256334133066 0 -0.00012762692780458204 -0.034861163352914996 0 -6.2499726130222234e-05 -0.034957193348170781 0 -5.1671492211374456e-05 -0.034942588363995081 0 -0.00010687284139361254 -0.03491674589441171 0 -0.00012762692780458204 -0.034861163352914996 0 -2.969867496075577e-05 -0.034105477218717137 0 0.0004907009297600959 -0.033040266280143303 0 0.00059880702281287271 -0.032949011163267948 0 0.00041837843306494953 -0.032964008668029829 0 -0.0002360142887019995 -0.034937610597440515 0 -0.00026442472315976414 -0.034866261184154576 0 -0.00035439446558907549 -0.03489952178358751 0 0.00020105316150276955 -0.034162061969803238 0 0.00024534008831760695 -0.034125097086822299 0 0.00026430854972993425 -0.034078933231579775 0 -0.00026442472315976414 -0.034866261184154576 0 -0.00036569674906437942 -0.034890964156287466 0 -0.00035439446558907549 -0.03489952178358751 0 -4.7617167736019534e-05 -0.034472972910852696 0 -1.5793215279897007e-05 -0.034062412119578701 0 0.00024534008831760695 -0.034125097086822299 0 0.00026430854972993425 -0.034078933231579775 0 0.0002670753254541012 -0.034078315398991581 0 0.00030414000329002949 -0.032778357388909871 0 0.00026527492259239351 -0.032807903030381391 0 0.00023733786719466504 -0.032765947761567847 0 -2.969867496075577e-05 -0.034105477218717137 0 -4.9433010765668758e-05 -0.033916732810808647 0 -2.3615653906421114e-05 -0.033974893659659271 0 -4.7860906175225329e-06 -0.033988027864481844 0 -4.0705176198784557e-05 -0.033979685597118454 0 -1.5793215279897007e-05 -0.034062412119578701 0 -2.969867496075577e-05 -0.034105477218717137 0 0.00059880702281287271 -0.032949011163267948 0 0.00036074769256660776 -0.032877950118032642 0 0.00041837843306494953 -0.032964008668029829 0 0.00030414000329002949 -0.032778357388909871 0 0.00029573544885355701 -0.032831868241090453 0 0.00036074769256660776 -0.032877950118032642 0 0.00029573544885355701 -0.032831868241090453 0 0.00026527492259239351 -0.032807903030381391 0 0.00025290469344338792 -0.032863569372171254 0 0.00059880702281287271 -0.032949011163267948 0 0.00030414000329002949 -0.032778357388909871 0 0.00036074769256660776 -0.032877950118032642 0 0.00030414000329002949 -0.032778357388909871 0 0.00029573544885355701 -0.032831868241090453 0 0.00026527492259239351 -0.032807903030381391 0 0.0002468825402391404 -0.033983602786858018 0 -2.969867496075577e-05 -0.034105477218717137 0 0.00029573544885355701 -0.032831868241090453 0 0.00036074769256660776 -0.032877950118032642 0 0.00025290469344338792 -0.032863569372171254 0 0.0003114345846667681 -0.032959939805548372 0 0.00023006174545068462 -0.032955705886861739 0 0.00025290469344338792 -0.032863569372171254 0 0.00036074769256660776 -0.032877950118032642 0 0.0003114345846667681 -0.032959939805548372 0 0.00025290469344338792 -0.032863569372171254 0 0.00036074769256660776 -0.032877950118032642 0 0.00041837843306494953 -0.032964008668029829 0 0.0003114345846667681 -0.032959939805548372 0 0.00012060861027156781 -0.033025540521909869 0 0.00023006174545068462 -0.032955705886861739 0 0.00016824933755517658 -0.032924032421730837 0 0.00016207492501923247 -0.032848696798793875 0 -4.8771925517613616e-05 -0.032888101134259121 0 0.00023733786719466504 -0.032765947761567847 0 0.00023746789722207473 -0.03304921071669531 0 0.0003114345846667681 -0.032959939805548372 0 0.00023006174545068462 -0.032955705886861739 0 7.8113447115259166e-05 -0.032922668410029263 0 0.00016207492501923247 -0.032848696798793875 0 -4.8771925517613616e-05 -0.032888101134259121 0 -0.00027821025916558014 -0.033196088301196719 0 -4.9433010765668758e-05 -0.033916732810808647 0 0.00023006174545068462 -0.032955705886861739 0 0.00016824933755517658 -0.032924032421730837 0 0.00025290469344338792 -0.032863569372171254 0 0.00012060861027156781 -0.033025540521909869 0 0.00016824933755517658 -0.032924032421730837 0 7.8113447115259166e-05 -0.032922668410029263 0 0.00016824933755517658 -0.032924032421730837 0 7.8113447115259166e-05 -0.032922668410029263 0 0.00016207492501923247 -0.032848696798793875 0 0.00026527492259239351 -0.032807903030381391 0 0.00022935815512887837 -0.032821782597201747 0 0.00023733786719466504 -0.032765947761567847 0 0.00026527492259239351 -0.032807903030381391 0 0.00022935815512887837 -0.032821782597201747 0 0.00025290469344338792 -0.032863569372171254 0 0.00016207492501923247 -0.032848696798793875 0 0.00022935815512887837 -0.032821782597201747 0 0.00025290469344338792 -0.032863569372171254 0 0.00016207492501923247 -0.032848696798793875 0 0.00022935815512887837 -0.032821782597201747 0 0.00023733786719466504 -0.032765947761567847 0 0.00016824933755517658 -0.032924032421730837 0 0.00016207492501923247 -0.032848696798793875 0 0.00025290469344338792 -0.032863569372171254 0 -5.3187511016185514e-05 -0.033025512845060223 0 7.8113447115259166e-05 -0.032922668410029263 0 -4.8771925517613616e-05 -0.032888101134259121 0 -5.3187511016185514e-05 -0.033025512845060223 0 0.00012060861027156781 -0.033025540521909869 0 7.8113447115259166e-05 -0.032922668410029263 0 -0.00061708969649894546 -0.033263208999202341 0 -0.0006096822477431545 -0.033310012485609795 0 -0.00068602869968465395 -0.033291623249641085 0 0.00026855845695074288 -0.03389124513019922 0 0.00025547734077900505 -0.033896677606859917 0 0.00027525447750674433 -0.033900382044647029 0 -0.00053914375118886248 -0.033280766274849612 0 -0.00061708969649894546 -0.033263208999202341 0 -0.0006096822477431545 -0.033310012485609795 0 0.00026855845695074288 -0.03389124513019922 0 0.0002371480133243803 -0.033881595416559794 0 0.00025547734077900505 -0.033896677606859917 0 -0.00020204392783313815 -0.033625649685355335 0 -4.9433010765668758e-05 -0.033916732810808647 0 0.00023390730099495769 -0.033882574754163231 0 0.0002371480133243803 -0.033881595416559794 0 0.00025547734077900505 -0.033896677606859917 0 -1.5793215279897007e-05 -0.034062412119578701 0 -4.9433010765668758e-05 -0.033916732810808647 0 -1.5793215279897007e-05 -0.034062412119578701 0 0.00024348263886153258 -0.034012847553424916 0 0.00026430854972993425 -0.034078933231579775 0 0.00027071296986226146 -0.034040396812015553 0 0.0002670753254541012 -0.034078315398991581 0 0.0002670753254541012 -0.034078315398991581 0 0.00027711281688945927 -0.034007940439398095 0 0.00025257323594746119 -0.034107386571211137 0 0.00027071296986226146 -0.034040396812015553 0 0.0002670753254541012 -0.034078315398991581 0 0.00027711281688945927 -0.034007940439398095 0 0.00027071296986226146 -0.034040396812015553 0 0.00027711281688945927 -0.034007940439398095 0 0.00027525447750674433 -0.033900382044647029 0 0.00027711281688945927 -0.034007940439398095 0 0.00027525447750674433 -0.033900382044647029 0 0.00028336437460437956 -0.03391652365529696 0 0.00024348263886153258 -0.034012847553424916 0 0.00025994765665672055 -0.033963571718233845 0 0.00027711281688945927 -0.034007940439398095 0 0.0002865307921649433 -0.033932098516332207 0 0.00028336437460437956 -0.03391652365529696 0 0.00029544902239969206 -0.033828525208075964 0 0.00027525447750674433 -0.033900382044647029 0 0.00028336437460437956 -0.03391652365529696 0 0.00029544902239969206 -0.033828525208075964 0 0.0002865307921649433 -0.033932098516332207 0 0.00028336437460437956 -0.03391652365529696 0 0.00027711281688945927 -0.034007940439398095 0 0.00026076894619579238 -0.034039322466671573 0 0.00025257323594746119 -0.034107386571211137 0 0.00027711281688945927 -0.034007940439398095 0 0.0002865307921649433 -0.033932098516332207 0 0.00026076894619579238 -0.034039322466671573 0 0.00021778753976189565 -0.034159808153454811 0 0.00022260341052610788 -0.034186609405294541 0 0.00025257323594746119 -0.034107386571211137 0 0.00026076894619579238 -0.034039322466671573 0 0.00021778753976189565 -0.034159808153454811 0 0.00025257323594746119 -0.034107386571211137 0 0.00021778753976189565 -0.034159808153454811 0 0.00017276656197628466 -0.034296412611684146 0 0.00022260341052610788 -0.034186609405294541 0 0.00017915192474372369 -0.034213178324870482 0 0.00021778753976189565 -0.034159808153454811 0 0.00017276656197628466 -0.034296412611684146 0 0.00020105316150276955 -0.034162061969803238 0 0.00017276656197628466 -0.034296412611684146 0 0.00022260341052610788 -0.034186609405294541 0 0.00020105316150276955 -0.034162061969803238 0 0.00024534008831760695 -0.034125097086822299 0 0.00022260341052610788 -0.034186609405294541 0 0.00024534008831760695 -0.034125097086822299 0 0.00022260341052610788 -0.034186609405294541 0 0.00025257323594746119 -0.034107386571211137 0 0.00024534008831760695 -0.034125097086822299 0 0.0002670753254541012 -0.034078315398991581 0 0.00025257323594746119 -0.034107386571211137 0 0.0038309985669844615 0.00071755371083620891 0 0.0043427213496154207 -0.00060232696528011423 0 0.0028846899219699611 -0.00062093275678383551 0 0.0038309985669844615 0.00071755371083620891 0 0.005524116161685343 -0.0006213492796715704 0 0.0043427213496154207 -0.00060232696528011423 0 0.0018651421849185169 1.1734859785116702e-06 0 0.00055186085179353289 0.00094818813394757903 0 0.0038309985669844615 0.00071755371083620891 0 0.0023949967787212593 0.0010703838531282591 0 0.0028846899219699611 -0.00062093275678383551 0 0.0023949967787212593 0.0010703838531282591 0 0.0028846899219699611 -0.00062093275678383551 0 0.0014805521762617717 0.00097745725931062152 0 0.0038309985669844615 0.00071755371083620891 0 0.0030086481633653066 0.0015145662851377706 0 0.0023949967787212593 0.0010703838531282591 0 0.0030086481633653066 0.0015145662851377706 0 0.0023949967787212593 0.0010703838531282591 0 0.002428475765747163 0.0020631903354059013 0 0.0023949967787212593 0.0010703838531282591 0 0.002428475765747163 0.0020631903354059013 0 0.0014246950211054302 0.0017776053636810874 0 0.0023949967787212593 0.0010703838531282591 0 0.0014805521762617717 0.00097745725931062152 0 0.0014246950211054302 0.0017776053636810874 0 0.002428475765747163 0.0020631903354059013 0 0.0014246950211054302 0.0017776053636810874 0 0.001785285339299851 0.0026828741133639181 0 0.0030086481633653066 0.0015145662851377706 0 0.002428475765747163 0.0020631903354059013 0 0.0033715768911791867 0.0023792706535703573 0 0.002428475765747163 0.0020631903354059013 0 0.0033715768911791867 0.0023792706535703573 0 0.0026176946687259291 0.002943600946036979 0 0.0038309985669844615 0.00071755371083620891 0 0.0033715768911791867 0.0023792706535703573 0 0.0051681267602025852 0.0021282960914769393 0 0.0038309985669844615 0.00071755371083620891 0 0.0030086481633653066 0.0015145662851377706 0 0.0033715768911791867 0.0023792706535703573 0 0.0052764904440892419 0.00032352074109686779 0 0.0060525454401292606 0.00027410631140997895 0 0.005524116161685343 -0.0006213492796715704 0 0.0052764904440892419 0.00032352074109686779 0 0.0060525454401292606 0.00027410631140997895 0 0.0062051686263500981 0.0012327253445824401 0 0.0064015624849620232 -4.8556182054170161e-05 0 0.0060525454401292606 0.00027410631140997895 0 0.0067136519898017494 0.00066950083368764372 0 0.0064015624849620232 -4.8556182054170161e-05 0 0.0062954971533121084 -0.00065829628171931102 0 0.005524116161685343 -0.0006213492796715704 0 0.0064015624849620232 -4.8556182054170161e-05 0 0.0060525454401292606 0.00027410631140997895 0 0.005524116161685343 -0.0006213492796715704 0 0.0051790929292133562 0.0012883721860790004 0 0.0054873983876908726 -0.00033117874405257634 0 0.0038309985669844615 0.00071755371083620891 0 0.0051681267602025852 0.0021282960914769393 0 0.005524116161685343 -0.0006213492796715704 0 0.005524116161685343 -0.0006213492796715704 0 0.0063301856791431995 -0.0012509900172696872 0 0.0050534445219428377 -0.0016740885796786918 0 0.005524116161685343 -0.0006213492796715704 0 0.0050534445219428377 -0.0016740885796786918 0 0.0043427213496154207 -0.00060232696528011423 0 0.0062954971533121084 -0.00065829628171931102 0 0.005524116161685343 -0.0006213492796715704 0 0.0063301856791431995 -0.0012509900172696872 0 0.0063301856791431995 -0.0012509900172696872 0 0.0050534445219428377 -0.0016740885796786918 0 0.0061624776226741861 -0.0021835727038732977 0 0.0034586064394661314 -0.00097065250786244981 0 0.0046340401972841455 -0.0017182513481176275 0 0.0010980640421697407 -0.00041825871169564314 0 0.0019011280845889422 -0.0013097710599573396 0 0.0019678024827233134 -0.00027748859835241221 0 0.00095651551759258426 -0.00025184269244780808 0 0.0018855485609821196 -0.0014286991314447774 0 0.0019678024827233134 -0.00027748859835241221 0 0.00091088727524727482 0.0004257939676722037 0 0.00095651551759258426 -0.00025184269244780808 0 0.0034586064394661314 -0.00097065250786244981 0 0.0018651421849185169 1.1734859785116702e-06 0 0.0050534445219428377 -0.0016740885796786918 0 0.0043427213496154207 -0.00060232696528011423 0 0.0028846899219699611 -0.00062093275678383551 0 0.00091088727524727482 0.0004257939676722037 0 0.00060387750375469958 0.00013863446199830675 0 0.00095651551759258426 -0.00025184269244780808 0 0.00091088727524727482 0.0004257939676722037 0 0.00060387750375469958 0.00013863446199830675 0 0.00049082522346853596 0.00060240388710440605 0 0.00060387750375469958 0.00013863446199830675 0 0.00095651551759258426 -0.00025184269244780808 0 0.00041355349050986481 -0.00034272364072253489 0 0.00095651551759258426 -0.00025184269244780808 0 0.00041355349050986481 -0.00034272364072253489 0 0.000899270759183491 -0.0011686392277816869 0 -0.00023762632123502616 0.00030598218977790417 0 -0.00083630897632891606 0.00034925597507106678 0 -0.00094472269557421482 0.00067041071627484128 0 -0.00023762632123502616 0.00030598218977790417 0 -0.00083630897632891606 0.00034925597507106678 0 -0.00091488962612459185 -0.00042299106961269609 0 -0.0010974406043044662 0.000896787643001269 0 -0.00108575862119961 0.0012374753013171401 0 -0.0015226557646614684 0.0012967805892200401 0 -0.0010985224663131476 0.00080365747425752327 0 -0.00083630897632891606 0.00034925597507106678 0 -0.00091488962612459185 -0.00042299106961269609 0 -0.0010985224663131476 0.00080365747425752327 0 -0.0010974406043044662 0.000896787643001269 0 -0.0015226557646614684 0.0012967805892200401 0 -0.001155611373698976 0.00061267269641063313 0 -0.0011541332293576395 0.0003975161180608443 0 -0.0010974406043044662 0.000896787643001269 0 -0.00075683980967703368 0.0011507102422524881 0 -0.00108575862119961 0.0012374753013171401 0 -0.0010985224663131476 0.00080365747425752327 0 -0.00083630897632891606 0.00034925597507106678 0 -0.00094472269557421482 0.00067041071627484128 0 -0.0010985224663131476 0.00080365747425752327 0 -0.0010974406043044662 0.000896787643001269 0 -0.0010987819084485393 0.00076688674476606147 0 -0.0010985224663131476 0.00080365747425752327 0 -0.00094472269557421482 0.00067041071627484128 0 -0.0010987819084485393 0.00076688674476606147 0 -0.00094472269557421482 0.00067041071627484128 0 -0.00092394016673644425 0.00087347829621696601 0 -0.0010987819084485393 0.00076688674476606147 0 -0.00023762632123502616 0.00030598218977790417 0 -0.00094472269557421482 0.00067041071627484128 0 -0.00092394016673644425 0.00087347829621696601 0 0.00060387750375469958 0.00013863446199830675 0 0.00041355349050986481 -0.00034272364072253489 0 0.00029720438043659078 0.00025150843054739212 0 0.00041355349050986481 -0.00034272364072253489 0 -0.00014161790867878098 0.00031690911952406825 0 0.00029720438043659078 0.00025150843054739212 0 -0.00014161790867878098 0.00031690911952406825 0 0.00029720438043659078 0.00025150843054739212 0 0.0001119360734736351 0.00057086036219294162 0 0.0001176036254369806 -0.00011511235129170915 0 -0.00054517837951462665 0.00061171464409252299 0 0.00060387750375469958 0.00013863446199830675 0 0.00029720438043659078 0.00025150843054739212 0 0.00049082522346853596 0.00060240388710440605 0 -0.00039384284053943812 0.0086496719140960118 0 -0.00032135764811111087 0.0085911497584089634 0 -0.0003214940438283353 0.0012339077790807238 0 -0.00058110895786219754 0.00079524974751332049 0 -0.00020270640108889959 0.00056692626847366836 0 -0.0003214940438283353 0.0012339077790807238 0 -0.00020270640108889959 0.00056692626847366836 0 0.00033884217426891614 0.0013896893073071094 0 -0.0003214940438283353 0.0012339077790807238 0 -0.00058110895786219754 0.00079524974751332049 0 -0.00075683980967703368 0.0011507102422524881 0 -0.0010974406043044662 0.000896787643001269 0 -0.00075683980967703368 0.0011507102422524881 0 -0.00080617371076156428 0.00079812107363328095 0 -0.00058110895786219754 0.00079524974751332049 0 -0.00075683980967703368 0.0011507102422524881 0 -0.00080617371076156428 0.00079812107363328095 0 -0.00077920550472895518 0.00096920545518894687 0 -0.00014815682183825263 0.00056052723695762812 0 -0.00058110895786219754 0.00079524974751332049 0 -0.00075804360379352941 0.00042402289993487833 0 -0.00020270640108889959 0.00056692626847366836 0 -0.0010974406043044662 0.000896787643001269 0 -0.00080617371076156428 0.00079812107363328095 0 -0.00075804360379352941 0.00042402289993487833 0 -0.00058110895786219754 0.00079524974751332049 0 -0.00080617371076156428 0.00079812107363328095 0 -0.00075804360379352941 0.00042402289993487833 0 -0.00062140552719271277 0.016759268817641917 0 -0.00074711898525465636 0.017352571713710355 0 -0.00025275541678320893 0.017590148154816333 0 -0.00039384284053943812 0.0086496719140960118 0 -0.00023620926301711715 0.008833839504555881 0 -0.00062140552719271277 0.016759268817641917 0 -0.00074711898525465636 0.017352571713710355 0 -0.0011585908781905621 0.017181715045424806 0 -0.00074711898525465636 0.017352571713710355 0 -0.00070040806290778415 0.017766733168716881 0 -0.00098216180482237677 0.017610760127455233 0 -0.00074711898525465636 0.017352571713710355 0 -0.00025275541678320893 0.017590148154816333 0 -0.00070040806290778415 0.017766733168716881 0 -0.00014815682183825263 0.00056052723695762812 0 -0.00023620926301711715 0.008833839504555881 0 -0.0010987819084485393 0.00076688674476606147 0 -0.0012017464081747046 0.0011413535736442117 0 -0.0010841983274514151 0.0011776468410783596 0 -0.00075804360379352941 0.00042402289993487833 0 -0.00020270640108889959 0.00056692626847366836 0 -0.00058338502518240983 7.4866192931956562e-07 0 0.00047439550108617246 0.01478460889032652 0 0.0016409620669062864 0.017118269475218894 0 -0.00022496986859993007 0.016853874894329646 0 -0.00023620926301711715 0.008833839504555881 0 0.00023513789891283122 0.008415111821605115 0 -0.0010841983274514151 0.0011776468410783596 0 -0.00064149431393961589 0.0012916726657303487 0 -0.00063541164773850769 0.0023677778125976742 0 -0.0012017464081747046 0.0011413535736442117 0 -0.0010841983274514151 0.0011776468410783596 0 -0.00063541164773850769 0.0023677778125976742 0 -0.00023620926301711715 0.008833839504555881 0 -0.00098399627632036915 0.017823303859672551 0 -0.00025275541678320893 0.017590148154816333 0 -0.00070040806290778415 0.017766733168716881 0 -0.00051488605603012291 0.018276472992211024 0 -0.00070040806290778415 0.017766733168716881 0 -0.00051488605603012291 0.018276472992211024 0 -0.0010558002199152635 0.017962909953068935 0 -0.00070040806290778415 0.017766733168716881 0 -0.00098216180482237677 0.017610760127455233 0 -0.0010558002199152635 0.017962909953068935 0 0.00091088727524727482 0.0004257939676722037 0 0.00049082522346853596 0.00060240388710440605 0 0.00033170322438220615 0.0011157162718127426 0 0.0028846899219699611 -0.00062093275678383551 0 0.0014805521762617717 0.00097745725931062152 0 0.00033170322438220615 0.0011157162718127426 0 0.00033154791903031161 0.00081225562984833203 0 0.00049082522346853596 0.00060240388710440605 0 0.00033170322438220615 0.0011157162718127426 0 0.00033154791903031161 0.00081225562984833203 0 0.00020865772037309825 0.00097464333673973383 0 1.105376356842542e-05 0.00090483905112546178 0 0.00020865772037309825 0.00097464333673973383 0 0.00016011433090508867 0.0010768695314855262 0 1.105376356842542e-05 0.00090483905112546178 0 0.00020865772037309825 0.00097464333673973383 0 0.00016011433090508867 0.0010768695314855262 0 0.00033170322438220615 0.0011157162718127426 0 0.00033154791903031161 0.00081225562984833203 0 0.00020865772037309825 0.00097464333673973383 0 0.00033170322438220615 0.0011157162718127426 0 0.00033154791903031161 0.00081225562984833203 0 0.0001119360734736351 0.00057086036219294162 0 1.105376356842542e-05 0.00090483905112546178 0 0.00033154791903031161 0.00081225562984833203 0 0.00049082522346853596 0.00060240388710440605 0 0.0001119360734736351 0.00057086036219294162 0 0.00029720438043659078 0.00025150843054739212 0 0.00049082522346853596 0.00060240388710440605 0 0.0001119360734736351 0.00057086036219294162 0 -0.00014161790867878098 0.00031690911952406825 0 -0.0001055088164595218 0.00067101618055547202 0 -0.00042299606394646116 0.00090184442114698063 0 -0.00092394016673644425 0.00087347829621696601 0 -0.0010987819084485393 0.00076688674476606147 0 -0.0010841983274514151 0.0011776468410783596 0 -0.00014161790867878098 0.00031690911952406825 0 -0.0010841983274514151 0.0011776468410783596 0 -0.00042299606394646116 0.00090184442114698063 0 -0.00054517837951462665 0.00061171464409252299 0 -0.00099723824261821752 0.0010865073975957051 0 0.0001119360734736351 0.00057086036219294162 0 -0.0001055088164595218 0.00067101618055547202 0 1.105376356842542e-05 0.00090483905112546178 0 -0.00014161790867878098 0.00031690911952406825 0 0.0001119360734736351 0.00057086036219294162 0 -0.0001055088164595218 0.00067101618055547202 0 -0.0010841983274514151 0.0011776468410783596 0 -0.00042299606394646116 0.00090184442114698063 0 -0.00064149431393961589 0.0012916726657303487 0 -0.00042299606394646116 0.00090184442114698063 0 1.105376356842542e-05 0.00090483905112546178 0 -0.00025756561209681027 0.0013019978064608623 0 -0.0001055088164595218 0.00067101618055547202 0 -0.00042299606394646116 0.00090184442114698063 0 1.105376356842542e-05 0.00090483905112546178 0 1.105376356842542e-05 0.00090483905112546178 0 2.0905946807059187e-05 0.0011324312605503842 0 -0.00025756561209681027 0.0013019978064608623 0 0.00016011433090508867 0.0010768695314855262 0 1.105376356842542e-05 0.00090483905112546178 0 2.0905946807059187e-05 0.0011324312605503842 0 0.001231591915161346 0.0014336243133353747 0 0.00023513789891283122 0.008415111821605115 0 2.0905946807059187e-05 0.0011324312605503842 0 -0.00025756561209681027 0.0013019978064608623 0 0.0001819986720537555 0.0012584245804816204 0 -0.00025756561209681027 0.0013019978064608623 0 -0.00064149431393961589 0.0012916726657303487 0 -0.00063541164773850769 0.0023677778125976742 0 0.0001819986720537555 0.0012584245804816204 0 2.0626818159056707e-05 0.0026375574249214648 0 -0.0012270418112149608 0.0032557482126088842 0 -0.00025756561209681027 0.0013019978064608623 0 0.0001819986720537555 0.0012584245804816204 0 -0.00063541164773850769 0.0023677778125976742 0 -0.00042299606394646116 0.00090184442114698063 0 -0.00025756561209681027 0.0013019978064608623 0 -0.00064149431393961589 0.0012916726657303487 0 0.00055770263122338181 0.0022213428722839003 0 0.0001819986720537555 0.0012584245804816204 0 2.0626818159056707e-05 0.0026375574249214648 0 0.00055770263122338181 0.0022213428722839003 0 0.00053501426084343127 0.0015472168283066716 0 0.00084587100995875181 0.0018256563112383183 0 0.00055770263122338181 0.0022213428722839003 0 0.00053501426084343127 0.0015472168283066716 0 0.0001819986720537555 0.0012584245804816204 0 0.00053501426084343127 0.0015472168283066716 0 0.00090929479086656999 0.0014533522225263816 0 0.00084587100995875181 0.0018256563112383183 0 0.00053501426084343127 0.0015472168283066716 0 0.00033170322438220615 0.0011157162718127426 0 0.00090929479086656999 0.0014533522225263816 0 0.00016011433090508867 0.0010768695314855262 0 0.00033170322438220615 0.0011157162718127426 0 0.0001819986720537555 0.0012584245804816204 0 0.00053501426084343127 0.0015472168283066716 0 0.00033170322438220615 0.0011157162718127426 0 0.0001819986720537555 0.0012584245804816204 0 0.00016011433090508867 0.0010768695314855262 0 2.0905946807059187e-05 0.0011324312605503842 0 0.0001819986720537555 0.0012584245804816204 0 0.0014805521762617717 0.00097745725931062152 0 0.00090929479086656999 0.0014533522225263816 0 0.0014246950211054302 0.0017776053636810874 0 0.0014805521762617717 0.00097745725931062152 0 0.00033170322438220615 0.0011157162718127426 0 0.00090929479086656999 0.0014533522225263816 0 0.00090929479086656999 0.0014533522225263816 0 0.0014246950211054302 0.0017776053636810874 0 0.00084587100995875181 0.0018256563112383183 0 0.0014246950211054302 0.0017776053636810874 0 0.0010978951627352467 0.0023474058382280225 0 0.001785285339299851 0.0026828741133639181 0 0.0014246950211054302 0.0017776053636810874 0 0.00084587100995875181 0.0018256563112383183 0 0.0010978951627352467 0.0023474058382280225 0 0.00055770263122338181 0.0022213428722839003 0 0.00084587100995875181 0.0018256563112383183 0 0.0010978951627352467 0.0023474058382280225 0 0.0010978951627352467 0.0023474058382280225 0 0.00098770527359823127 0.0031542388060202559 0 0.001785285339299851 0.0026828741133639181 0 0.00055770263122338181 0.0022213428722839003 0 0.0010978951627352467 0.0023474058382280225 0 0.00098770527359823127 0.0031542388060202559 0 0.00098770527359823127 0.0031542388060202559 0 0.00117071990928402 0.0045601839268427004 0 0.0020886041404932693 0.0037657009260939054 0 0.00098770527359823127 0.0031542388060202559 0 0.00025194168662337295 0.0037550916357549464 0 0.00117071990928402 0.0045601839268427004 0 0.00098770527359823127 0.0031542388060202559 0 0.00025194168662337295 0.0037550916357549464 0 2.0626818159056707e-05 0.0026375574249214648 0 0.00055770263122338181 0.0022213428722839003 0 0.00098770527359823127 0.0031542388060202559 0 2.0626818159056707e-05 0.0026375574249214648 0 0.00025194168662337295 0.0037550916357549464 0 2.0626818159056707e-05 0.0026375574249214648 0 -0.0012270418112149608 0.0032557482126088842 0 0.00025194168662337295 0.0037550916357549464 0 -0.0012270418112149608 0.0032557482126088842 0 -8.7737436576976533e-05 0.0054158121213243758 0 0.00023513789891283122 0.008415111821605115 0 0.0007208324405420458 0.0075129358101921374 0 0.0014723106776131187 0.009186047183754778 0 0.001873986153525863 0.0099487125699243145 0 0.0014092201612017565 0.0099913320803915254 0 0.00025194168662337295 0.0037550916357549464 0 -8.7737436576976533e-05 0.0054158121213243758 0 0.00117071990928402 0.0045601839268427004 0 -8.7737436576976533e-05 0.0054158121213243758 0 0.00117071990928402 0.0045601839268427004 0 0.0014072665734981859 0.0059324184052785113 0 -0.00051488605603012291 0.018276472992211024 0 -0.0011873976773343789 0.0183086972136891 0 -0.0011428199668909083 0.018716422363724509 0 -0.00098399627632036915 0.017823303859672551 0 -0.00079556921848173247 0.018380955225026367 0 -0.00051488605603012291 0.018276472992211024 0 -0.0010558002199152635 0.017962909953068935 0 -0.0011873976773343789 0.0183086972136891 0 0.0016409620669062864 0.017118269475218894 0 -0.00022496986859993007 0.016853874894329646 0 0.00020808490946659953 0.018948196357095781 0 0.0014723106776131187 0.009186047183754778 0 0.00099228777688843413 0.0098277806605747142 0 0.0014092201612017565 0.0099913320803915254 0 0.00023513789891283122 0.008415111821605115 0 -0.00010796096380322046 0.014196014882390234 0 -0.00022496986859993007 0.016853874894329646 0 0.00020808490946659953 0.018948196357095781 0 -0.00072039107891663844 0.018840452680614829 0 -0.00051488605603012291 0.018276472992211024 0 -0.00072039107891663844 0.018840452680614829 0 -0.0011428199668909083 0.018716422363724509 0 0.00020808490946659953 0.018948196357095781 0 -0.00072039107891663844 0.018840452680614829 0 -0.00063507946669763408 0.019292515719183698 0 -0.00072039107891663844 0.018840452680614829 0 -0.0009419227483687335 0.019276616115198712 0 -0.00063507946669763408 0.019292515719183698 0 -0.00072039107891663844 0.018840452680614829 0 -0.0009419227483687335 0.019276616115198712 0 -0.001027337417924247 0.018990187339953047 0 -0.00072039107891663844 0.018840452680614829 0 -0.001027337417924247 0.018990187339953047 0 -0.0011428199668909083 0.018716422363724509 0 0.00099228777688843413 0.0098277806605747142 0 0.00049070836404365977 0.010450303502014069 0 0.00054453917932713379 0.010422234128535842 0 0.00020808490946659953 0.018948196357095781 0 -0.00078790786174569381 0.019857121735439937 0 -0.00063507946669763408 0.019292515719183698 0 0.00099228777688843413 0.0098277806605747142 0 0.00054453917932713379 0.010422234128535842 0 0.0010837728809582315 0.010381670127582801 0 -0.00010796096380322046 0.014196014882390234 0 -0.00033761736148079838 0.014054271529151993 0 0.00048517509149507141 0.010445949072893946 0 0.00054453917932713379 0.010422234128535842 0 0.00052675201945925844 0.010577634098316196 0 -0.00033761736148079838 0.014054271529151993 0 -0.00028126477335789523 0.013999219562052145 0 -0.00078790786174569381 0.019857121735439937 0 -0.00084697868200870067 0.019513341353266836 0 -0.0010930342739201438 0.019664967715568287 0 -0.00084697868200870067 0.019513341353266836 0 -0.0009419227483687335 0.019276616115198712 0 -0.0010930342739201438 0.019664967715568287 0 -0.00078790786174569381 0.019857121735439937 0 -0.00084697868200870067 0.019513341353266836 0 -0.00063507946669763408 0.019292515719183698 0 -0.00084697868200870067 0.019513341353266836 0 -0.0009419227483687335 0.019276616115198712 0 -0.00063507946669763408 0.019292515719183698 0 0.00054453917932713379 0.010422234128535842 0 0.0010837728809582315 0.010381670127582801 0 0.00070572893205829283 0.010671815179405153 0 0.00099228777688843413 0.0098277806605747142 0 0.0010837728809582315 0.010381670127582801 0 0.0014092201612017565 0.0099913320803915254 0 0.0010837728809582315 0.010381670127582801 0 0.0014092201612017565 0.0099913320803915254 0 0.001595374090871203 0.010504642580148099 0 0.0011429811560675111 0.010796509705002101 0 0.00082348256962378331 0.011037233415111683 0 0.001504353710299334 0.011108091839212773 0 0.0011429811560675111 0.010796509705002101 0 0.001595374090871203 0.010504642580148099 0 0.001504353710299334 0.011108091839212773 0 0.0010837728809582315 0.010381670127582801 0 0.0011429811560675111 0.010796509705002101 0 0.001595374090871203 0.010504642580148099 0 0.0010837728809582315 0.010381670127582801 0 0.0011429811560675111 0.010796509705002101 0 0.00070572893205829283 0.010671815179405153 0 0.00070572893205829283 0.010671815179405153 0 0.00082348256962378331 0.011037233415111683 0 0.00043983464606590287 0.010802945493348648 0 0.0011429811560675111 0.010796509705002101 0 0.00070572893205829283 0.010671815179405153 0 0.00082348256962378331 0.011037233415111683 0 0.00082348256962378331 0.011037233415111683 0 0.00043983464606590287 0.010802945493348648 0 0.00032052353743765771 0.011131229619566757 0 0.00043983464606590287 0.010802945493348648 0 0.00052675201945925844 0.010577634098316196 0 0.00036293912743093934 0.010560318897187565 0 0.00070572893205829283 0.010671815179405153 0 0.00043983464606590287 0.010802945493348648 0 0.00052675201945925844 0.010577634098316196 0 0.00054453917932713379 0.010422234128535842 0 0.00070572893205829283 0.010671815179405153 0 0.00052675201945925844 0.010577634098316196 0 0.00048517509149507141 0.010445949072893946 0 0.00052675201945925844 0.010577634098316196 0 0.00036293912743093934 0.010560318897187565 0 -0.00033761736148079838 0.014054271529151993 0 -2.4253347107447802e-05 0.013504309878783101 0 0.0007208324405420458 0.0075129358101921374 0 0.0018975399820245894 0.0091293105555603372 0 -8.7737436576976533e-05 0.0054158121213243758 0 0.0014072665734981859 0.0059324184052785113 0 0.001058144991525738 0.0076069442473432961 0 0.001873986153525863 0.0099487125699243145 0 0.0014092201612017565 0.0099913320803915254 0 0.001595374090871203 0.010504642580148099 0 0.001873986153525863 0.0099487125699243145 0 0.001595374090871203 0.010504642580148099 0 0.0022752281782748851 0.010715289896437167 0 0.0018975399820245894 0.0091293105555603372 0 0.0015499343008159381 0.010903863609202084 0 0.001595374090871203 0.010504642580148099 0 0.0022752281782748851 0.010715289896437167 0 0.001504353710299334 0.011108091839212773 0 0.0026698807426058803 0.01051792206844963 0 0.0018200241062670541 0.010940034900324993 0 0.0024996811350414322 0.011106124288234494 0 0.0018975399820245894 0.0091293105555603372 0 0.0024293489977302608 0.010059144693448397 0 0.0011136070963414643 0.0075300151004900149 0 0.0026795989851937626 0.0080564453056604403 0 0.0019126316361699751 0.0091339493453364579 0 0.0026795989851937626 0.0080564453056604403 0 0.0042044214820453063 0.0074401218223418535 0 0.0026037476942626344 0.0068415008880700033 0 0.0018975399820245894 0.0091293105555603372 0 0.0027423435772266211 0.007413535592453337 0 0.0011136070963414643 0.0075300151004900149 0 0.0026795989851937626 0.0080564453056604403 0 0.0026037476942626344 0.0068415008880700033 0 0.0042044214820453063 0.0074401218223418535 0 0.0056078696603018329 0.0083248837929552795 0 0.003705375842800653 0.0089917779900850724 0 0.0026795989851937626 0.0080564453056604403 0 0.0042044214820453063 0.0074401218223418535 0 0.003705375842800653 0.0089917779900850724 0 0.0041971669128068245 0.0068631174456389027 0 0.0045860097453053039 0.0042911841188189 0 0.0042044214820453063 0.0074401218223418535 0 0.0038785417060782303 0.0062058629541231576 0 0.0026037476942626344 0.0068415008880700033 0 0.0042044214820453063 0.0074401218223418535 0 0.0038785417060782303 0.0062058629541231576 0 0.0046424384692001887 0.0049015379916517365 0 0.003512508170102496 0.0067548155739252536 0 0.0027423435772266211 0.007413535592453337 0 0.0038785417060782303 0.0062058629541231576 0 0.0024511488540979714 0.0069310653571294425 0 0.0024499991867077062 0.005154608876594074 0 0.0014072665734981859 0.0059324184052785113 0 0.0024511488540979714 0.0069310653571294425 0 0.0024499991867077062 0.005154608876594074 0 0.0014072665734981859 0.0059324184052785113 0 0.001058144991525738 0.0076069442473432961 0 0.0024511488540979714 0.0069310653571294425 0 0.00117071990928402 0.0045601839268427004 0 0.0014072665734981859 0.0059324184052785113 0 0.0024499991867077062 0.005154608876594074 0 0.00117071990928402 0.0045601839268427004 0 0.0024499991867077062 0.005154608876594074 0 0.0020886041404932693 0.0037657009260939054 0 0.0024499991867077062 0.005154608876594074 0 0.0034131820135372775 0.0038229997325622419 0 0.0020886041404932693 0.0037657009260939054 0 0.0038785417060782303 0.0062058629541231576 0 0.0024499991867077062 0.005154608876594074 0 0.0036006844456292568 0.0050263458463342646 0 0.0038785417060782303 0.0062058629541231576 0 0.0036006844456292568 0.0050263458463342646 0 0.0046424384692001887 0.0049015379916517365 0 0.0036006844456292568 0.0050263458463342646 0 0.0034131820135372775 0.0038229997325622419 0 0.0046424384692001887 0.0049015379916517365 0 0.0024499991867077062 0.005154608876594074 0 0.0036006844456292568 0.0050263458463342646 0 0.0034131820135372775 0.0038229997325622419 0 0.0033715768911791867 0.0023792706535703573 0 0.0051681267602025852 0.0021282960914769393 0 0.0034131820135372775 0.0038229997325622419 0 0.0051681267602025852 0.0021282960914769393 0 0.0034131820135372775 0.0038229997325622419 0 0.0046424384692001887 0.0049015379916517365 0 0.0033715768911791867 0.0023792706535703573 0 0.0034131820135372775 0.0038229997325622419 0 0.0026176946687259291 0.002943600946036979 0 0.00098770527359823127 0.0031542388060202559 0 0.001785285339299851 0.0026828741133639181 0 0.0020886041404932693 0.0037657009260939054 0 0.0026176946687259291 0.002943600946036979 0 0.001785285339299851 0.0026828741133639181 0 0.0020886041404932693 0.0037657009260939054 0 0.002428475765747163 0.0020631903354059013 0 0.0026176946687259291 0.002943600946036979 0 0.001785285339299851 0.0026828741133639181 0 0.0034131820135372775 0.0038229997325622419 0 0.0026176946687259291 0.002943600946036979 0 0.0020886041404932693 0.0037657009260939054 0 0.0060525454401292606 0.00027410631140997895 0 0.0062051686263500981 0.0012327253445824401 0 0.0067136519898017494 0.00066950083368764372 0 0.0062051686263500981 0.0012327253445824401 0 0.0067136519898017494 0.00066950083368764372 0 0.0067712502488472366 0.0011749537699329972 0 0.0052764904440892419 0.00032352074109686779 0 0.0062051686263500981 0.0012327253445824401 0 0.0043991773323123519 0.0035189239444863014 0 0.0051790929292133562 0.0012883721860790004 0 0.0045860097453053039 0.0042911841188189 0 0.0062051686263500981 0.0012327253445824401 0 0.0043991773323123519 0.0035189239444863014 0 0.0064773096440724166 0.003850374810500426 0 0.0064985764018411331 0.0014647042386776304 0 0.0075135174479782074 0.0025079233071313859 0 0.0062051686263500981 0.0012327253445824401 0 0.0064773096440724166 0.003850374810500426 0 0.0087551791538272757 0.0043453772916217234 0 0.0065938093422797201 0.0062443981996409773 0 0.0084646870249073386 0.0067598618283953946 0 0.0087551791538272757 0.0043453772916217234 0 0.0064773096440724166 0.003850374810500426 0 0.0065938093422797201 0.0062443981996409773 0 0.0087551791538272757 0.0043453772916217234 0 0.0042044214820453063 0.0074401218223418535 0 0.0043991773323123519 0.0035189239444863014 0 0.0065938093422797201 0.0062443981996409773 0 0.0043991773323123519 0.0035189239444863014 0 0.0064773096440724166 0.003850374810500426 0 0.0065938093422797201 0.0062443981996409773 0 0.0065938093422797201 0.0062443981996409773 0 0.0056078696603018329 0.0083248837929552795 0 0.0070790880248576557 0.0088288022904580224 0 0.0042044214820453063 0.0074401218223418535 0 0.0065938093422797201 0.0062443981996409773 0 0.0056078696603018329 0.0083248837929552795 0 0.0065938093422797201 0.0062443981996409773 0 0.0084646870249073386 0.0067598618283953946 0 0.0070790880248576557 0.0088288022904580224 0 0.0084646870249073386 0.0067598618283953946 0 0.0088130360992014507 0.0084608887841525014 0 0.0070790880248576557 0.0088288022904580224 0 0.0072575571190545644 0.0014661041797986911 0 0.0075867973965005608 0.0010032642258485452 0 0.0067712502488472366 0.0011749537699329972 0 0.0084646870249073386 0.0067598618283953946 0 0.010533651101228296 0.0069474097632355502 0 0.0088130360992014507 0.0084608887841525014 0 0.010291369466108879 0.0051375138763008589 0 0.0075135174479782074 0.0025079233071313859 0 0.0084646870249073386 0.0067598618283953946 0 0.010533651101228296 0.0069474097632355502 0 0.0087551791538272757 0.0043453772916217234 0 0.010291369466108879 0.0051375138763008589 0 0.0064583579200922503 -0.0078837543565679295 0 0.0072575571190545644 0.0014661041797986911 0 0.0078537242997073851 0.0014403553641342793 0 0.0076343393127444679 0.0017592331870982826 0 0.0015495813622950355 -0.030415496474682006 0 0.0014026619462207944 -0.030500184580785732 0 0.0014988971142236573 -0.030114747136573788 0 0.0015495813622950355 -0.030415496474682006 0 0.0014026619462207944 -0.030500184580785732 0 0.0014732606378128727 -0.030585773109270846 0 0.005661811668074941 -0.014261882253135834 0 0.0053151441798153535 -0.014349370960851596 0 0.0078537242997073851 0.0014403553641342793 0 0.0075867973965005608 0.0010032642258485452 0 0.0081317137602192786 0.0010474875394930474 0 0.0072575571190545644 0.0014661041797986911 0 0.0078537242997073851 0.0014403553641342793 0 0.0075867973965005608 0.0010032642258485452 0 0.0075867973965005608 0.0010032642258485452 0 0.0079936822070113805 0.00074806741229410147 0 0.0081317137602192786 0.0010474875394930474 0 0.0075867973965005608 0.0010032642258485452 0 0.0079936822070113805 0.00074806741229410147 0 0.0078472589378746575 0.00032121395150682167 0 0.0079936822070113805 0.00074806741229410147 0 0.0078472589378746575 0.00032121395150682167 0 0.0083810107581352277 0.00061617388561147437 0 0.01052233298052096 0.00070824476773629122 0 0.0057692361437032529 -0.011905377247612467 0 0.0075867973965005608 0.0010032642258485452 0 0.0078472589378746575 0.00032121395150682167 0 0.0072114349204451395 0.00067723273277257357 0 0.0078472589378746575 0.00032121395150682167 0 0.0072114349204451395 0.00067723273277257357 0 0.0072227782647375982 3.7963027967921892e-05 0 0.0072114349204451395 0.00067723273277257357 0 0.0067136519898017494 0.00066950083368764372 0 0.0072227782647375982 3.7963027967921892e-05 0 0.0075867973965005608 0.0010032642258485452 0 0.0072114349204451395 0.00067723273277257357 0 0.0067712502488472366 0.0011749537699329972 0 0.0072114349204451395 0.00067723273277257357 0 0.0067136519898017494 0.00066950083368764372 0 0.0067712502488472366 0.0011749537699329972 0 -7.8488106997018218e-05 -0.023744501956633472 0 0.0011093124936116274 -0.023884549132133229 0 0.00076572552852780407 -0.022999555553070778 0 -0.00030925914057615991 -0.028640104163287175 0 0.00091642827586749134 -0.026899010069447275 0 0.00018799959670837097 -0.030576876448098516 0 0.00067401931874378894 -0.030277906894425503 0 0.00045279115639053981 -0.030635986857440383 0 0.00067401931874378894 -0.030277906894425503 0 0.00064262098480672163 -0.030694568156029271 0 0.0008268673869387791 -0.030576004142048238 0 0.00067401931874378894 -0.030277906894425503 0 0.00045279115639053981 -0.030635986857440383 0 0.00064262098480672163 -0.030694568156029271 0 0.00045279115639053981 -0.030635986857440383 0 0.00047106558501270137 -0.030873469550457389 0 0.00064262098480672163 -0.030694568156029271 0 0.00047106558501270137 -0.030873469550457389 0 0.00064262098480672163 -0.030694568156029271 0 0.00057727418157362442 -0.030955053066241005 0 0.00064262098480672163 -0.030694568156029271 0 0.00057727418157362442 -0.030955053066241005 0 0.00075005063468015266 -0.030829859358911232 0 0.00064262098480672163 -0.030694568156029271 0 0.0008268673869387791 -0.030576004142048238 0 0.00075005063468015266 -0.030829859358911232 0 0.0008268673869387791 -0.030576004142048238 0 0.00099593302461241525 -0.030656994206677144 0 0.00099900379135613431 -0.030343484246169856 0 0.0008268673869387791 -0.030576004142048238 0 0.00099593302461241525 -0.030656994206677144 0 0.00075005063468015266 -0.030829859358911232 0 0.00067401931874378894 -0.030277906894425503 0 0.0008268673869387791 -0.030576004142048238 0 0.00099900379135613431 -0.030343484246169856 0 0.00067401931874378894 -0.030277906894425503 0 0.00099900379135613431 -0.030343484246169856 0 0.0010046689876687729 -0.030009114172971967 0 0.00091642827586749134 -0.026899010069447275 0 0.00024282791974615712 -0.025461098231413275 0 0.00099900379135613431 -0.030343484246169856 0 0.0012365847435140335 -0.03013816890381283 0 0.0010046689876687729 -0.030009114172971967 0 0.00099900379135613431 -0.030343484246169856 0 0.0012365847435140335 -0.03013816890381283 0 0.0012140282525930539 -0.03043445424174511 0 0.00099593302461241525 -0.030656994206677144 0 0.00099900379135613431 -0.030343484246169856 0 0.0012140282525930539 -0.03043445424174511 0 0.00099593302461241525 -0.030656994206677144 0 0.0012140282525930539 -0.03043445424174511 0 0.0011652189902116598 -0.030711591288967572 0 0.0012140282525930539 -0.03043445424174511 0 0.0014026619462207944 -0.030500184580785732 0 0.0011652189902116598 -0.030711591288967572 0 0.0012140282525930539 -0.03043445424174511 0 0.0014026619462207944 -0.030500184580785732 0 0.0014988971142236573 -0.030114747136573788 0 0.0012365847435140335 -0.03013816890381283 0 0.0012140282525930539 -0.03043445424174511 0 0.0014988971142236573 -0.030114747136573788 0 0.0079936822070113805 0.00074806741229410147 0 0.0081317137602192786 0.0010474875394930474 0 0.0083810107581352277 0.00061617388561147437 0 0.0053151441798153535 -0.014349370960851596 0 0.0057692361437032529 -0.011905377247612467 0 0.0012365847435140335 -0.03013816890381283 0 0.0014988971142236573 -0.030114747136573788 0 0.0013629334645068967 -0.02973471403339685 0 0.0086876474357394408 0.00066177138947014723 0 0.00912712472477188 -1.0899795916911554e-05 0 0.0085660142370949047 0.0001637840177900623 0 0.0078472589378746575 0.00032121395150682167 0 0.0086876474357394408 0.00066177138947014723 0 0.0085660142370949047 0.0001637840177900623 0 0.0057692361437032529 -0.011905377247612467 0 0.0059097874020532983 -0.010417753359669723 0 0.0038113036173511644 -0.022248788462077583 0 0.0023578351912500154 -0.021689781873919352 0 0.0029423995890449635 -0.020810475708761138 0 0.0038113036173511644 -0.022248788462077583 0 0.0024746661071101909 -0.023056702954148404 0 0.0023578351912500154 -0.021689781873919352 0 0.0057692361437032529 -0.011905377247612467 0 0.00024282791974615712 -0.025461098231413275 0 0.0012365847435140335 -0.03013816890381283 0 0.0013629334645068967 -0.02973471403339685 0 0.0010046689876687729 -0.030009114172971967 0 0.0024746661071101909 -0.023056702954148404 0 0.0015319478512006372 -0.022421603756739024 0 0.0023578351912500154 -0.021689781873919352 0 0.0011093124936116274 -0.023884549132133229 0 0.0024746661071101909 -0.023056702954148404 0 0.0015319478512006372 -0.022421603756739024 0 0.0015319478512006372 -0.022421603756739024 0 0.0023578351912500154 -0.021689781873919352 0 0.0015256422836250742 -0.021256247932512226 0 0.0015256422836250742 -0.021256247932512226 0 0.00041776067857061754 -0.022016838210227582 0 0.0008310699492430735 -0.020564994396275474 0 0.00051976505318542953 -0.023900470016784681 0 0.00050696105811223898 -0.024460447451608983 0 0.00032138532585871305 -0.025999892036822039 0 0.00031285392835009849 -0.026233909983836626 0 0.00056742400997984005 -0.025488652285426794 0 0.0015319478512006372 -0.022421603756739024 0 0.0015256422836250742 -0.021256247932512226 0 0.00041776067857061754 -0.022016838210227582 0 0.00017226009911570689 -0.026538315854663264 0 0.00032138532585871305 -0.025999892036822039 0 0.00031285392835009849 -0.026233909983836626 0 0.0015319478512006372 -0.022421603756739024 0 0.00041776067857061754 -0.022016838210227582 0 0.00076572552852780407 -0.022999555553070778 0 0.0011093124936116274 -0.023884549132133229 0 0.0015319478512006372 -0.022421603756739024 0 0.00076572552852780407 -0.022999555553070778 0 -7.8488106997018218e-05 -0.023744501956633472 0 0.00041776067857061754 -0.022016838210227582 0 0.00076572552852780407 -0.022999555553070778 0 -0.00038380442232347921 -0.031629014171974959 0 -0.0010024222553588764 -0.031181109439058979 0 -0.00091823304581280859 -0.030775374086201089 0 0.00096859589656909766 -0.019686995246036631 0 0.0012494695022700533 -0.019644280253999932 0 0.0011973320016481143 -0.018915065585286793 0 0.0012494695022700533 -0.019644280253999932 0 0.0010084393390109572 -0.020431527285131559 0 0.0018868263584592567 -0.020455573698983421 0 0.0012080305036959056 -0.02067042756921993 0 0.00042449831898884227 -0.024125984501269775 0 0.0012494695022700533 -0.019644280253999932 0 0.00080159440360532677 -0.020464475142675527 0 0.00099693775327608586 -0.020745707930138472 0 0.00096859589656909766 -0.019686995246036631 0 0.0012494695022700533 -0.019644280253999932 0 0.00080159440360532677 -0.020464475142675527 0 0.00077853152182014575 -0.024269561815095864 0 0.00051853994427084385 -0.027106221311226 0 -0.00035967776088732849 -0.028815506459066633 0 0.0004362389084389703 -0.02495247579496751 0 0.00072930182216561805 -0.026121409209149828 0 2.0006802620087439e-06 -0.0292416138857979 0 0.00051853994427084385 -0.027106221311226 0 0.0004362389084389703 -0.02495247579496751 0 0.00072930182216561805 -0.026121409209149828 0 0.00087478204253176614 -0.025579920982648795 0 0.00051853994427084385 -0.027106221311226 0 0.00042449831898884227 -0.024125984501269775 0 0.00050696105811223898 -0.024460447451608983 0 0.00042449831898884227 -0.024125984501269775 0 2.0006802620087439e-06 -0.0292416138857979 0 0.00050696105811223898 -0.024460447451608983 0 0.0015256422836250742 -0.021256247932512226 0 0.0008310699492430735 -0.020564994396275474 0 0.00088278635087656488 -0.020367881379627965 0 0.00025456316403604356 -0.021854227259122373 0 0.00042449831898884227 -0.024125984501269775 0 0.0018868263584592567 -0.020455573698983421 0 0.0021232593281997579 -0.019497735298027549 0 0.0029423995890449635 -0.020810475708761138 0 0.0023578351912500154 -0.021689781873919352 0 0.0015256422836250742 -0.021256247932512226 0 0.0018868263584592567 -0.020455573698983421 0 0.0023578351912500154 -0.021689781873919352 0 0.0018868263584592567 -0.020455573698983421 0 0.0029423995890449635 -0.020810475708761138 0 0.0015256422836250742 -0.021256247932512226 0 0.0010084393390109572 -0.020431527285131559 0 0.0018868263584592567 -0.020455573698983421 0 0.0012494695022700533 -0.019644280253999932 0 0.0018868263584592567 -0.020455573698983421 0 0.0021232593281997579 -0.019497735298027549 0 0.0012494695022700533 -0.019644280253999932 0 0.0021232593281997579 -0.019497735298027549 0 0.0011973320016481143 -0.018915065585286793 0 0.0058977754410763682 -0.010261990928964087 0 0.0059097874020532983 -0.010417753359669723 0 0.009708748581463757 -0.00083537313267480944 0 0.0090072660620135747 -0.00059177381882964675 0 0.0087036832092384341 -0.0011589853635963617 0 0.009708748581463757 -0.00083537313267480944 0 0.0090072660620135747 -0.00059177381882964675 0 0.00912712472477188 -1.0899795916911554e-05 0 0.0090072660620135747 -0.00059177381882964675 0 0.00912712472477188 -1.0899795916911554e-05 0 0.0085323189848920764 -0.00040883207977620987 0 0.00912712472477188 -1.0899795916911554e-05 0 0.0085660142370949047 0.0001637840177900623 0 0.0085323189848920764 -0.00040883207977620987 0 0.0085323189848920764 -0.00040883207977620987 0 0.0087036832092384341 -0.0011589853635963617 0 0.0079338367717207946 -0.00067532461040424379 0 0.0090072660620135747 -0.00059177381882964675 0 0.0085323189848920764 -0.00040883207977620987 0 0.0087036832092384341 -0.0011589853635963617 0 0.0085323282912537022 -0.0012824223724737808 0 0.0078938178557466428 -0.0018179365276532581 0 0.0088353022690779021 -0.0024066271084470592 0 0.0075396566047780207 -0.0020939525004262912 0 0.0079043830504551913 -0.0031760772964912511 0 0.0087036832092384341 -0.0011589853635963617 0 0.0088353022690779021 -0.0024066271084470592 0 0.0075396566047780207 -0.0020939525004262912 0 0.0088353022690779021 -0.0024066271084470592 0 0.0094763063913181796 -0.0016848902259536818 0 0.0096488557806117745 -0.0023644618265894969 0 0.0088353022690779021 -0.0024066271084470592 0 0.0096488557806117745 -0.0023644618265894969 0 0.0094384751370776496 -0.0029513859021029153 0 0.009708748581463757 -0.00083537313267480944 0 0.0087036832092384341 -0.0011589853635963617 0 0.0094763063913181796 -0.0016848902259536818 0 0.0087036832092384341 -0.0011589853635963617 0 0.0088353022690779021 -0.0024066271084470592 0 0.0094763063913181796 -0.0016848902259536818 0 0.0021232593281997579 -0.019497735298027549 0 0.001410765287933542 -0.01828831381060872 0 0.0011973320016481143 -0.018915065585286793 0 0.0058977754410763682 -0.010261990928964087 0 0.0053717449673777659 -0.010066874439727324 0 0.009708748581463757 -0.00083537313267480944 0 0.0094763063913181796 -0.0016848902259536818 0 0.010392481589133444 -0.0019546143222453631 0 0.0096488557806117745 -0.0023644618265894969 0 0.010392481589133444 -0.0019546143222453631 0 0.010070265157540947 -0.0028048569966522062 0 0.0094763063913181796 -0.0016848902259536818 0 0.0096488557806117745 -0.0023644618265894969 0 0.010392481589133444 -0.0019546143222453631 0 0.00058598332520487517 -0.01726123080481087 0 0.00089082281622296323 -0.017782451098434481 0 0.00078561578982204829 -0.018401003842343725 0 0.0053717449673777659 -0.010066874439727324 0 0.0040854374840765921 -0.014514497086239793 0 0.001410765287933542 -0.01828831381060872 0 0.00089082281622296323 -0.017782451098434481 0 0.00078403796894675358 -0.017180487386011301 0 0.010392481589133444 -0.0019546143222453631 0 0.011022246185042424 -0.003158860347644211 0 0.010070265157540947 -0.0028048569966522062 0 0.001410765287933542 -0.01828831381060872 0 0.00089082281622296323 -0.017782451098434481 0 0.00078561578982204829 -0.018401003842343725 0 -0.00038380442232347921 -0.031629014171974959 0 -0.0010024222553588764 -0.031181109439058979 0 -0.00075499816406326883 -0.032067000692420723 0 0.0010252335462048263 -0.019667334563449976 0 0.00078561578982204829 -0.018401003842343725 0 0.0011973320016481143 -0.018915065585286793 0 0.00077853152182014575 -0.024269561815095864 0 0.00060829520349366866 -0.025507606113389026 0 0.001410765287933542 -0.01828831381060872 0 0.00078561578982204829 -0.018401003842343725 0 0.0011973320016481143 -0.018915065585286793 0 0.00077853152182014575 -0.024269561815095864 0 0.0013706819802826286 -0.020183426134915337 0 0.0072227782647375982 3.7963027967921892e-05 0 0.0079338367717207946 -0.00067532461040424379 0 0.0069895893686330651 -0.0008148614607555245 0 0.0064015624849620232 -4.8556182054170161e-05 0 0.0062954971533121084 -0.00065829628171931102 0 0.0069895893686330651 -0.0008148614607555245 0 0.0064015624849620232 -4.8556182054170161e-05 0 0.0072227782647375982 3.7963027967921892e-05 0 0.0069895893686330651 -0.0008148614607555245 0 0.0064015624849620232 -4.8556182054170161e-05 0 0.0067136519898017494 0.00066950083368764372 0 0.0072227782647375982 3.7963027967921892e-05 0 0.0078472589378746575 0.00032121395150682167 0 0.0072227782647375982 3.7963027967921892e-05 0 0.0079338367717207946 -0.00067532461040424379 0 0.0078472589378746575 0.00032121395150682167 0 0.0085323189848920764 -0.00040883207977620987 0 0.0079338367717207946 -0.00067532461040424379 0 0.0078472589378746575 0.00032121395150682167 0 0.0085660142370949047 0.0001637840177900623 0 0.0085323189848920764 -0.00040883207977620987 0 0.0079338367717207946 -0.00067532461040424379 0 0.007569896925176841 -0.001374528104468141 0 0.0069895893686330651 -0.0008148614607555245 0 0.0087036832092384341 -0.0011589853635963617 0 0.0079338367717207946 -0.00067532461040424379 0 0.008222061376692456 -0.001542472211625164 0 0.0079338367717207946 -0.00067532461040424379 0 0.008222061376692456 -0.001542472211625164 0 0.007569896925176841 -0.001374528104468141 0 0.0078938178557466428 -0.0018179365276532581 0 0.0070346547827782047 -0.0025154178957124324 0 0.008222061376692456 -0.001542472211625164 0 0.007569896925176841 -0.001374528104468141 0 0.0076583345271348836 -0.0021217033576444158 0 0.007569896925176841 -0.001374528104468141 0 0.0069762438490123344 -0.0017488720225649487 0 0.0076583345271348836 -0.0021217033576444158 0 0.007569896925176841 -0.001374528104468141 0 0.0069762438490123344 -0.0017488720225649487 0 0.0069895893686330651 -0.0008148614607555245 0 0.0063301856791431995 -0.0012509900172696872 0 0.0069762438490123344 -0.0017488720225649487 0 0.0069895893686330651 -0.0008148614607555245 0 0.0062954971533121084 -0.00065829628171931102 0 0.0063301856791431995 -0.0012509900172696872 0 0.0069895893686330651 -0.0008148614607555245 0 0.0063301856791431995 -0.0012509900172696872 0 0.0069762438490123344 -0.0017488720225649487 0 0.0061624776226741861 -0.0021835727038732977 0 0.0069762438490123344 -0.0017488720225649487 0 0.0070106817030502417 -0.0027452761586546398 0 0.0061624776226741861 -0.0021835727038732977 0 0.0057678338870325039 -0.0030809760393926649 0 0.0046340401972841455 -0.0017182513481176275 0 0.0044566692096589169 -0.0023761410974371591 0 0.004581064758431958 -0.002268851143051183 0 0.0032685240840074083 -0.0012442445294034233 0 0.003726078260332132 -0.0025746617786899183 0 0.0044566692096589169 -0.0023761410974371591 0 0.0032685240840074083 -0.0012442445294034233 0 0.003726078260332132 -0.0025746617786899183 0 0.0044566692096589169 -0.0023761410974371591 0 0.0043009148606889909 -0.0027141322352950978 0 0.0046156187357594162 -0.0025991483834270517 0 0.0045762836766954163 -0.0022748609245205153 0 0.0049664031529635319 -0.0028584586774085753 0 0.0044890513146590341 -0.0026458663518050267 0 0.0044566692096589169 -0.0023761410974371591 0 0.0043009148606889909 -0.0027141322352950978 0 0.0046156187357594162 -0.0025991483834270517 0 0.0044890513146590341 -0.0026458663518050267 0 0.0044566692096589169 -0.0023761410974371591 0 0.0046156187357594162 -0.0025991483834270517 0 0.0044566692096589169 -0.0023761410974371591 0 0.0045762836766954163 -0.0022748609245205153 0 0.005720320968744144 -0.0030839618308697407 0 0.0057678338870325039 -0.0030809760393926649 0 0.0069762438490123344 -0.0017488720225649487 0 0.0070106817030502417 -0.0027452761586546398 0 0.0076583345271348836 -0.0021217033576444158 0 0.0057678338870325039 -0.0030809760393926649 0 0.0070346547827782047 -0.0025154178957124324 0 0.006477841019837889 -0.003004199824860279 0 0.0071929823986886876 -0.003867050268858144 0 0.0079043830504551913 -0.0031760772964912511 0 0.0075396566047780207 -0.0020939525004262912 0 0.006477841019837889 -0.003004199824860279 0 0.0079043830504551913 -0.0031760772964912511 0 0.0071929823986886876 -0.003867050268858144 0 0.0066671507208120751 -0.0048649101118033071 0 0.0081801047943019182 -0.0042724517612242651 0 0.0071929823986886876 -0.003867050268858144 0 0.0079043830504551913 -0.0031760772964912511 0 0.0081801047943019182 -0.0042724517612242651 0 0.0071929823986886876 -0.003867050268858144 0 0.0064736384189084785 -0.0039234155645885265 0 0.0066671507208120751 -0.0048649101118033071 0 0.0054298517064821352 -0.0039115608440222242 0 0.006477841019837889 -0.003004199824860279 0 0.0064736384189084785 -0.0039234155645885265 0 0.0054298517064821352 -0.0039115608440222242 0 0.0064736384189084785 -0.0039234155645885265 0 0.0066671507208120751 -0.0048649101118033071 0 0.006477841019837889 -0.003004199824860279 0 0.0071929823986886876 -0.003867050268858144 0 0.0064736384189084785 -0.0039234155645885265 0 0.0041140661512921702 -0.0052265668742374196 0 0.003348808005375961 -0.00531852540167579 0 0.0057955814997957657 -0.0032331467937682444 0 0.0049664031529635319 -0.0028584586774085753 0 0.0049433008753234087 -0.0035626000860962521 0 0.0017557094768837953 -0.0069214061421012255 0 0.0017636489965503243 -0.0069313743219247123 0 0.0017923097183381138 -0.0069557116989636385 0 0.0017557094768837953 -0.0069214061421012255 0 0.0018042654935564472 -0.0069151646546226474 0 0.0017923097183381138 -0.0069557116989636385 0 0.0041140661512921702 -0.0052265668742374196 0 0.004976995074913013 -0.0056197545637453085 0 0.0041140661512921702 -0.0052265668742374196 0 0.0026648855317607501 -0.0057567861409111663 0 0.0017636489965503243 -0.0069313743219247123 0 0.0016890369467579577 -0.0068948849763725249 0 0.0017713452267592632 -0.0069847855571463016 0 0.0017075423569164071 -0.0068454498612841776 0 0.0017636489965503243 -0.0069313743219247123 0 0.0016890369467579577 -0.0068948849763725249 0 0.0017075423569164071 -0.0068454498612841776 0 0.0016890369467579577 -0.0068948849763725249 0 0.0016519372791306999 -0.0068493001236154573 0 0.0016890369467579577 -0.0068948849763725249 0 0.0016519372791306999 -0.0068493001236154573 0 0.0016284805071768739 -0.0068273945161590284 0 0.0016590908501116148 -0.0068376154015449379 0 0.0016519372791306999 -0.0068493001236154573 0 0.0016284805071768739 -0.0068273945161590284 0 0.0030632305661210286 -0.0054640348211157461 0 0.003348808005375961 -0.00531852540167579 0 0.0030632305661210286 -0.0054640348211157461 0 0.0024306635398901977 -0.0060602644288546628 0 0.0015819126264573443 -0.0066920156726727985 0 0.0015507078135441603 -0.0067973706117049849 0 0.0015200816088703618 -0.0066131556116747177 0 0.0030632305661210286 -0.0054640348211157461 0 0.0025045822885820493 -0.0059948572057293998 0 0.003726078260332132 -0.0025746617786899183 0 0.0042404050343928567 -0.0031320140247021351 0 0.0029783057978344809 -0.0026802115562230906 0 0.0040800539894200174 -0.0039051113690421664 0 0.0042404050343928567 -0.0031320140247021351 0 0.0029783057978344809 -0.0026802115562230906 0 0.0030632305661210286 -0.0054640348211157461 0 0.0032232885315203546 -0.002894096695505203 0 0.003726078260332132 -0.0025746617786899183 0 0.0042404050343928567 -0.0031320140247021351 0 0.0043009148606889909 -0.0027141322352950978 0 0.0042404050343928567 -0.0031320140247021351 0 0.0043009148606889909 -0.0027141322352950978 0 0.0045832235578257725 -0.0028935223553101124 0 0.0057678338870325039 -0.0030809760393926649 0 0.0041140661512921702 -0.0052265668742374196 0 0.0045762836766954163 -0.0022748609245205153 0 0.0057955814997957657 -0.0032331467937682444 0 0.0049664031529635319 -0.0028584586774085753 0 0.0044890513146590341 -0.0026458663518050267 0 0.0043009148606889909 -0.0027141322352950978 0 0.0045832235578257725 -0.0028935223553101124 0 0.0046156187357594162 -0.0025991483834270517 0 0.0044890513146590341 -0.0026458663518050267 0 0.0045832235578257725 -0.0028935223553101124 0 0.0046156187357594162 -0.0025991483834270517 0 0.0045832235578257725 -0.0028935223553101124 0 0.0049664031529635319 -0.0028584586774085753 0 0.0045832235578257725 -0.0028935223553101124 0 0.0049664031529635319 -0.0028584586774085753 0 0.0049433008753234087 -0.0035626000860962521 0 0.0040800539894200174 -0.0039051113690421664 0 0.0042404050343928567 -0.0031320140247021351 0 0.0049433008753234087 -0.0035626000860962521 0 0.0042404050343928567 -0.0031320140247021351 0 0.0045832235578257725 -0.0028935223553101124 0 0.0049433008753234087 -0.0035626000860962521 0 0.0022999870040191989 -0.0069489891157513955 0 0.0021938221484946196 -0.0069360439590471423 0 0.0021126463479811822 -0.006799011895060195 0 0.0020809859157636191 -0.013960451099050142 0 0.0048628920525413616 -0.010119121896179048 0 0.002116854157662842 -0.0069327072006023218 0 0.0021126463479811822 -0.006799011895060195 0 0.0020125848407012347 -0.0069281666918887515 0 0.0021938221484946196 -0.0069360439590471423 0 0.002116854157662842 -0.0069327072006023218 0 0.002177456483543466 -0.0069995190581761393 0 0.0021938221484946196 -0.0069360439590471423 0 0.002116854157662842 -0.0069327072006023218 0 0.0021126463479811822 -0.006799011895060195 0 0.0043039133302943304 -0.014094973246854115 0 0.0038947068221635963 -0.01337274096572076 0 0.0032690323479759773 -0.013609633819213186 0 0.011022246185042424 -0.003158860347644211 0 0.010481457361239505 -0.0033502297030648409 0 0.010070265157540947 -0.0028048569966522062 0 0.0040854374840765921 -0.014514497086239793 0 0.0048628920525413616 -0.010119121896179048 0 0.00058598332520487517 -0.01726123080481087 0 0.00089082281622296323 -0.017782451098434481 0 0.00078403796894675358 -0.017180487386011301 0 0.010070265157540947 -0.0028048569966522062 0 0.0096422476206511169 -0.003676185852669689 0 0.0094384751370776496 -0.0029513859021029153 0 0.010481457361239505 -0.0033502297030648409 0 0.010070265157540947 -0.0028048569966522062 0 0.0096422476206511169 -0.003676185852669689 0 0.0096488557806117745 -0.0023644618265894969 0 0.010070265157540947 -0.0028048569966522062 0 0.0094384751370776496 -0.0029513859021029153 0 0.0048628920525413616 -0.010119121896179048 0 0.0062024987217494535 -0.0062112053058744465 0 0.0019676104040148618 -0.0068517074216636999 0 0.0020125848407012347 -0.0069281666918887515 0 0.0019020632221197153 -0.0069799314914973654 0 0.0021126463479811822 -0.006799011895060195 0 0.0019676104040148618 -0.0068517074216636999 0 0.0020125848407012347 -0.0069281666918887515 0 0.0062024987217494535 -0.0062112053058744465 0 0.004976995074913013 -0.0056197545637453085 0 0.0096422476206511169 -0.003676185852669689 0 0.0088086785794659218 -0.0033019097695375765 0 0.0081801047943019182 -0.0042724517612242651 0 0.0019676104040148618 -0.0068517074216636999 0 0.0018042654935564472 -0.0069151646546226474 0 0.0019020632221197153 -0.0069799314914973654 0 0.0096422476206511169 -0.003676185852669689 0 0.0088086785794659218 -0.0033019097695375765 0 0.0094384751370776496 -0.0029513859021029153 0 0.0088353022690779021 -0.0024066271084470592 0 0.0088086785794659218 -0.0033019097695375765 0 0.0094384751370776496 -0.0029513859021029153 0 0.0088353022690779021 -0.0024066271084470592 0 0.0088086785794659218 -0.0033019097695375765 0 0.0079043830504551913 -0.0031760772964912511 0 0.0088086785794659218 -0.0033019097695375765 0 0.0079043830504551913 -0.0031760772964912511 0 0.0081801047943019182 -0.0042724517612242651 0 0.0017923097183381138 -0.0069557116989636385 0 0.0018179289923964028 -0.0070263052960219067 0 0.0019020632221197153 -0.0069799314914973654 0 0.0018042654935564472 -0.0069151646546226474 0 0.0017923097183381138 -0.0069557116989636385 0 0.0019020632221197153 -0.0069799314914973654 0 0.0017636489965503243 -0.0069313743219247123 0 0.0017923097183381138 -0.0069557116989636385 0 0.0018179289923964028 -0.0070263052960219067 0 0.0017636489965503243 -0.0069313743219247123 0 0.0018179289923964028 -0.0070263052960219067 0 0.0017713452267592632 -0.0069847855571463016 0 0.0018179289923964028 -0.0070263052960219067 0 0.0018881318243169939 -0.007071928925523753 0 0.0019020632221197153 -0.0069799314914973654 0 0.0018179289923964028 -0.0070263052960219067 0 0.0018337536190597596 -0.0070973356145200492 0 0.0018128900252115932 -0.0070479899729046407 0 0.0018179289923964028 -0.0070263052960219067 0 0.0018881318243169939 -0.007071928925523753 0 0.0018337536190597596 -0.0070973356145200492 0 0.0018881318243169939 -0.007071928925523753 0 0.0018610957408566598 -0.0071906711464200098 0 0.0018337536190597596 -0.0070973356145200492 0 0.0020125848407012347 -0.0069281666918887515 0 0.0019020632221197153 -0.0069799314914973654 0 0.0019771554872350639 -0.0070290446646909342 0 0.0020125848407012347 -0.0069281666918887515 0 0.0019771554872350639 -0.0070290446646909342 0 0.0020772685066687128 -0.0070070379490251812 0 0.002116854157662842 -0.0069327072006023218 0 0.0020125848407012347 -0.0069281666918887515 0 0.0020772685066687128 -0.0070070379490251812 0 0.0019771554872350639 -0.0070290446646909342 0 0.0020149909726069975 -0.0071108741223185959 0 0.0020772685066687128 -0.0070070379490251812 0 0.0018881318243169939 -0.007071928925523753 0 0.0019020632221197153 -0.0069799314914973654 0 0.0019771554872350639 -0.0070290446646909342 0 0.0018881318243169939 -0.007071928925523753 0 0.0019771554872350639 -0.0070290446646909342 0 0.0020149909726069975 -0.0071108741223185959 0 0.0018881318243169939 -0.007071928925523753 0 0.0020149909726069975 -0.0071108741223185959 0 0.0018610957408566598 -0.0071906711464200098 0 0.0020149909726069975 -0.0071108741223185959 0 0.0021254993850574693 -0.0071693056839416376 0 0.0020276648350734559 -0.0072913118200436623 0 0.0020149909726069975 -0.0071108741223185959 0 0.0021254993850574693 -0.0071693056839416376 0 0.0021490783085802712 -0.0070753843945706371 0 0.00222725012001251 -0.0071565723861104534 0 0.0021254993850574693 -0.0071693056839416376 0 0.0021903258500799261 -0.0072695541387190615 0 0.00222725012001251 -0.0071565723861104534 0 0.0021254993850574693 -0.0071693056839416376 0 0.0021490783085802712 -0.0070753843945706371 0 0.0022451109173193995 -0.0070761216855967108 0 0.00222725012001251 -0.0071565723861104534 0 0.0021490783085802712 -0.0070753843945706371 0 0.0022451109173193995 -0.0070761216855967108 0 0.0021490783085802712 -0.0070753843945706371 0 0.002177456483543466 -0.0069995190581761393 0 0.0020149909726069975 -0.0071108741223185959 0 0.0021490783085802712 -0.0070753843945706371 0 0.0020772685066687128 -0.0070070379490251812 0 0.0021490783085802712 -0.0070753843945706371 0 0.0020772685066687128 -0.0070070379490251812 0 0.002177456483543466 -0.0069995190581761393 0 0.002116854157662842 -0.0069327072006023218 0 0.0020772685066687128 -0.0070070379490251812 0 0.002177456483543466 -0.0069995190581761393 0 0.0022524968606883874 -0.0070069270004437887 0 0.0021938221484946196 -0.0069360439590471423 0 0.002177456483543466 -0.0069995190581761393 0 0.0021391570770067001 -0.0074742704304378745 0 0.0020276648350734559 -0.0072913118200436623 0 0.0019471118365338789 -0.007565490857122768 0 0.0023059662820519868 -0.0076004718862396937 0 0.0021391570770067001 -0.0074742704304378745 0 0.002028600385079619 -0.0078186986185365473 0 0.0021391570770067001 -0.0074742704304378745 0 0.0019471118365338789 -0.007565490857122768 0 0.002028600385079619 -0.0078186986185365473 0 0.0021391570770067001 -0.0074742704304378745 0 0.0021903258500799261 -0.0072695541387190615 0 0.0020276648350734559 -0.0072913118200436623 0 0.0021254993850574693 -0.0071693056839416376 0 0.0021903258500799261 -0.0072695541387190615 0 0.0020276648350734559 -0.0072913118200436623 0 0.0020149909726069975 -0.0071108741223185959 0 0.0020276648350734559 -0.0072913118200436623 0 0.0018610957408566598 -0.0071906711464200098 0 0.0020276648350734559 -0.0072913118200436623 0 0.0018610957408566598 -0.0071906711464200098 0 0.0018348553839570955 -0.0074386457666925469 0 0.0019471118365338789 -0.007565490857122768 0 0.0018348553839570955 -0.0074386457666925469 0 0.0017278124963752985 -0.0077807595343438573 0 0.0020276648350734559 -0.0072913118200436623 0 0.0019471118365338789 -0.007565490857122768 0 0.0018348553839570955 -0.0074386457666925469 0 0.001579805538625273 -0.0071037998593865559 0 0.0014845247909633028 -0.0071820857406725089 0 0.0016085294111161767 -0.0072329072899435251 0 0.0016846052810629004 -0.0072108193212197975 0 0.0016824783715083072 -0.0075022633117871867 0 0.0018348553839570955 -0.0074386457666925469 0 0.0016296511870478865 -0.0073880603147969239 0 0.0017278124963752985 -0.0077807595343438573 0 0.0018610957408566598 -0.0071906711464200098 0 0.0018348553839570955 -0.0074386457666925469 0 0.0016296511870478865 -0.0073880603147969239 0 0.001796651931082416 -0.0071621310440881372 0 0.0016846052810629004 -0.0072108193212197975 0 0.0018610957408566598 -0.0071906711464200098 0 0.0018337536190597596 -0.0070973356145200492 0 0.0018227420005919774 -0.0070672276335926694 0 0.0018337536190597596 -0.0070973356145200492 0 0.0018227420005919774 -0.0070672276335926694 0 0.0018128900252115932 -0.0070479899729046407 0 0.0018179289923964028 -0.0070263052960219067 0 0.0018128900252115932 -0.0070479899729046407 0 0.0017713452267592632 -0.0069847855571463016 0 0.0018227420005919774 -0.0070672276335926694 0 0.0018128900252115932 -0.0070479899729046407 0 0.0018009123710254632 -0.0070365802565201946 0 0.0018128900252115932 -0.0070479899729046407 0 0.0018009123710254632 -0.0070365802565201946 0 0.0017713452267592632 -0.0069847855571463016 0 0.0016846052810629004 -0.0072108193212197975 0 0.0016563009465420594 -0.0071240901203621218 0 0.0018009123710254632 -0.0070365802565201946 0 0.0017908360005800088 -0.0070381377801832122 0 0.0017594657606595848 -0.0070007058729090535 0 0.0018227420005919774 -0.0070672276335926694 0 0.0018009123710254632 -0.0070365802565201946 0 0.0017908360005800088 -0.0070381377801832122 0 0.0014845247909633028 -0.0071820857406725089 0 0.0015083815621679782 -0.0072833676564158026 0 0.0016085294111161767 -0.0072329072899435251 0 0.0015083815621679782 -0.0072833676564158026 0 0.0016648003017230412 -0.0073805250303984275 0 0.0014365439201699884 -0.0073865189901394217 0 0.0016824783715083072 -0.0075022633117871867 0 0.0017446008997862052 -0.0077252312188926617 0 0.0015083815621679782 -0.0072833676564158026 0 0.0016085294111161767 -0.0072329072899435251 0 0.0016648003017230412 -0.0073805250303984275 0 0.0019471118365338789 -0.007565490857122768 0 0.0017278124963752985 -0.0077807595343438573 0 0.002028600385079619 -0.0078186986185365473 0 0.0017278124963752985 -0.0077807595343438573 0 0.002028600385079619 -0.0078186986185365473 0 0.001829453651155181 -0.0080877322771359655 0 0.002028600385079619 -0.0078186986185365473 0 0.0020600931781205012 -0.0081792223644530909 0 0.001829453651155181 -0.0080877322771359655 0 0.0023408894221998173 -0.00790108537470024 0 0.002028600385079619 -0.0078186986185365473 0 0.0020600931781205012 -0.0081792223644530909 0 0.0016064921364278416 -0.0069266939405402995 0 0.0015429297611063342 -0.007067351473047009 0 0.0014987794371795198 -0.0069621265696143851 0 0.0016064921364278416 -0.0069266939405402995 0 0.0015507078135441603 -0.0067973706117049849 0 0.0014987794371795198 -0.0069621265696143851 0 0.0015507078135441603 -0.0067973706117049849 0 0.0014987794371795198 -0.0069621265696143851 0 0.0014569592917810946 -0.0067759217366406355 0 0.0015819126264573443 -0.0066920156726727985 0 0.0015507078135441603 -0.0067973706117049849 0 0.0016284805071768739 -0.0068273945161590284 0 0.0016064921364278416 -0.0069266939405402995 0 0.0016284805071768739 -0.0068273945161590284 0 0.0016624893106382843 -0.0068927659648045309 0 0.0016064921364278416 -0.0069266939405402995 0 0.0015507078135441603 -0.0067973706117049849 0 0.0016284805071768739 -0.0068273945161590284 0 0.0016064921364278416 -0.0069266939405402995 0 0.0016624893106382843 -0.0068927659648045309 0 0.0017099652531741957 -0.0069507454555725479 0 0.0016890369467579577 -0.0068948849763725249 0 0.0016284805071768739 -0.0068273945161590284 0 0.0016624893106382843 -0.0068927659648045309 0 0.0016890369467579577 -0.0068948849763725249 0 0.0016624893106382843 -0.0068927659648045309 0 0.0017099652531741957 -0.0069507454555725479 0 0.0016890369467579577 -0.0068948849763725249 0 0.0017099652531741957 -0.0069507454555725479 0 0.0017713452267592632 -0.0069847855571463016 0 0.0017099652531741957 -0.0069507454555725479 0 0.0017713452267592632 -0.0069847855571463016 0 0.0017594657606595848 -0.0070007058729090535 0 0.0018009123710254632 -0.0070365802565201946 0 0.0017713452267592632 -0.0069847855571463016 0 0.0017594657606595848 -0.0070007058729090535 0 0.0017908360005800088 -0.0070381377801832122 0 0.0017594657606595848 -0.0070007058729090535 0 0.0016999121434299331 -0.0070054615061073038 0 0.0017099652531741957 -0.0069507454555725479 0 0.0017594657606595848 -0.0070007058729090535 0 0.0016999121434299331 -0.0070054615061073038 0 0.0016064921364278416 -0.0069266939405402995 0 0.0016999121434299331 -0.0070054615061073038 0 0.0015429297611063342 -0.007067351473047009 0 0.0016064921364278416 -0.0069266939405402995 0 0.0017099652531741957 -0.0069507454555725479 0 0.0016999121434299331 -0.0070054615061073038 0 0.0017117119487824288 -0.0071032263350023954 0 0.0014726299140069732 -0.00725877764858691 0 0.0015429297611063342 -0.007067351473047009 0 0.0016999121434299331 -0.0070054615061073038 0 0.0017117119487824288 -0.0071032263350023954 0 0.0015429297611063342 -0.007067351473047009 0 0.0017908360005800088 -0.0070381377801832122 0 0.0016999121434299331 -0.0070054615061073038 0 0.0017117119487824288 -0.0071032263350023954 0 0.0016563009465420594 -0.0071240901203621218 0 0.0015621804603877288 -0.0071852421650723981 0 0.0014845247909633028 -0.0071820857406725089 0 0.0015083815621679782 -0.0072833676564158026 0 0.0014080477867915667 -0.0072664055003772024 0 0.0015083815621679782 -0.0072833676564158026 0 0.0014080477867915667 -0.0072664055003772024 0 0.0014365439201699884 -0.0073865189901394217 0 0.0014080477867915667 -0.0072664055003772024 0 0.0014365439201699884 -0.0073865189901394217 0 0.0013813399360700631 -0.0073574115293403158 0 0.0015621804603877288 -0.0071852421650723981 0 0.0014994565105354953 -0.0072361237590690434 0 0.0014080477867915667 -0.0072664055003772024 0 0.0014726299140069732 -0.00725877764858691 0 0.0013813399360700631 -0.0073574115293403158 0 0.0014726299140069732 -0.00725877764858691 0 0.0015429297611063342 -0.007067351473047009 0 0.0014208948010531854 -0.0071767845670488778 0 0.0015429297611063342 -0.007067351473047009 0 0.0014987794371795198 -0.0069621265696143851 0 0.0014208948010531854 -0.0071767845670488778 0 0.0014987794371795198 -0.0069621265696143851 0 0.0014208948010531854 -0.0071767845670488778 0 0.0013997829393114444 -0.0070263604115987296 0 0.0014208948010531854 -0.0071767845670488778 0 0.0012959415852704806 -0.0071693241807550909 0 0.0013997829393114444 -0.0070263604115987296 0 0.0012959415852704806 -0.0071693241807550909 0 0.0012792919386183795 -0.0070010154695243883 0 0.0013997829393114444 -0.0070263604115987296 0 0.0012592709130550197 -0.0070022730641674307 0 0.001193684932665042 -0.0070728409315167261 0 0.0012959415852704806 -0.0071693241807550909 0 0.0012792919386183795 -0.0070010154695243883 0 0.0011429163011180709 -0.0071861703179226391 0 0.0012792919386183795 -0.0070010154695243883 0 0.0014569592917810946 -0.0067759217366406355 0 0.0013111586675729951 -0.0068538077400315351 0 0.0012792919386183795 -0.0070010154695243883 0 0.0011824995356520087 -0.0069160461562528227 0 0.0013111586675729951 -0.0068538077400315351 0 0.0012792919386183795 -0.0070010154695243883 0 0.0013997829393114444 -0.0070263604115987296 0 0.0014569592917810946 -0.0067759217366406355 0 0.0014987794371795198 -0.0069621265696143851 0 0.0013997829393114444 -0.0070263604115987296 0 0.0014569592917810946 -0.0067759217366406355 0 0.0011749440014057096 -0.0069354255458871925 0 0.0011719707421679498 -0.0069205670336399848 0 0.0011998602843581215 -0.0069537346178611178 0 0.0011749440014057096 -0.0069354255458871925 0 0.0011998602843581215 -0.0069537346178611178 0 0.0012013002465637876 -0.0069616676163326884 0 0.0012792919386183795 -0.0070010154695243883 0 0.0011749440014057096 -0.0069354255458871925 0 0.0012013002465637876 -0.0069616676163326884 0 0.0012792919386183795 -0.0070010154695243883 0 0.0011824995356520087 -0.0069160461562528227 0 0.0011749440014057096 -0.0069354255458871925 0 0.0011824995356520087 -0.0069160461562528227 0 0.0011749440014057096 -0.0069354255458871925 0 0.0011454904133005714 -0.006900452451039229 0 0.0011749440014057096 -0.0069354255458871925 0 0.0011496526890364856 -0.0068849786175810149 0 0.0011719707421679498 -0.0069205670336399848 0 -0.00078625584609838442 0.00057794965727323683 0 0.00029701931220814658 -0.00084052013137312363 0 0.0011749440014057096 -0.0069354255458871925 0 0.0011454904133005714 -0.006900452451039229 0 0.0011496526890364856 -0.0068849786175810149 0 -0.00071706342208890125 0.00012691924632569356 0 0.00069314938676766054 -0.0018820582530989156 0 -0.00078625584609838442 0.00057794965727323683 0 0.00069314938676766054 -0.0018820582530989156 0 -0.00050338969194534144 -0.00028839291015217368 0 -0.00060215957418243164 -0.00074220436214397464 0 0.00023669711275037318 -0.00055499634082512115 0 0.0011454904133005714 -0.006900452451039229 0 0.0011496526890364856 -0.0068849786175810149 0 0.0011019414132357756 -0.0068891750797832494 0 -0.00071706342208890125 0.00012691924632569356 0 -0.00078625584609838442 0.00057794965727323683 0 -0.0023868436750851163 0.0045140380630735851 0 -0.0022936835358364034 0.0049677988289157666 0 -0.0019597248063409167 0.0046296574145877562 0 -8.3962237269541559e-05 -0.0066978197003561375 0 0.0011019414132357756 -0.0068891750797832494 0 0.00094327593434511835 -0.006408108508823597 0 0.0011824995356520087 -0.0069160461562528227 0 0.0011454904133005714 -0.006900452451039229 0 0.0011019414132357756 -0.0068891750797832494 0 0.0011824995356520087 -0.0069160461562528227 0 0.0011019414132357756 -0.0068891750797832494 0 0.0013111586675729951 -0.0068538077400315351 0 0.0011019414132357756 -0.0068891750797832494 0 0.00094327593434511835 -0.006408108508823597 0 0.001353947668256843 -0.0066794458433702538 0 0.0011019414132357756 -0.0068891750797832494 0 0.0013111586675729951 -0.0068538077400315351 0 0.001353947668256843 -0.0066794458433702538 0 0.00094327593434511835 -0.006408108508823597 0 0.001105976156502149 -0.005198002514043956 0 1.5127476300759156e-05 -0.0053902597698582454 0 0.00094327593434511835 -0.006408108508823597 0 0.0015832614537024945 -0.006300602379681608 0 0.001105976156502149 -0.005198002514043956 0 0.00094327593434511835 -0.006408108508823597 0 0.001353947668256843 -0.0066794458433702538 0 0.0015832614537024945 -0.006300602379681608 0 -8.3962237269541559e-05 -0.0066978197003561375 0 0.00094327593434511835 -0.006408108508823597 0 1.5127476300759156e-05 -0.0053902597698582454 0 -0.0022712739088433381 0.0041403501518345754 0 -0.0024397554414365458 0.003420128074716386 0 -0.0019063312688345931 0.0035639477664963018 0 -0.00071706342208890125 0.00012691924632569356 0 -0.0010066797620759342 -0.0010393811247991357 0 0.0014569592917810946 -0.0067759217366406355 0 0.0013111586675729951 -0.0068538077400315351 0 0.001353947668256843 -0.0066794458433702538 0 0.0014569592917810946 -0.0067759217366406355 0 0.001353947668256843 -0.0066794458433702538 0 0.0015832614537024945 -0.006300602379681608 0 0.0018111229485325143 -0.0062658374203317033 0 0.0025045822885820493 -0.0059948572057293998 0 0.0014569592917810946 -0.0067759217366406355 0 0.0015832614537024945 -0.006300602379681608 0 0.0015200816088703618 -0.0066131556116747177 0 0.0015507078135441603 -0.0067973706117049849 0 0.0014569592917810946 -0.0067759217366406355 0 0.0015200816088703618 -0.0066131556116747177 0 0.0036057600874196041 -0.005550950829933776 0 0.0022832161448326795 -0.0045135479517642947 0 0.0035670955521647451 -0.0028558112051610155 0 0.0053768080027526647 -0.0048535494282752958 0 0.0036057600874196041 -0.005550950829933776 0 0.0035670955521647451 -0.0028558112051610155 0 0.0022728957895326893 -0.0032700812423781937 0 0.0022832161448326795 -0.0045135479517642947 0 0.0035670955521647451 -0.0028558112051610155 0 0.0022728957895326893 -0.0032700812423781937 0 0.0014771202480196146 -0.0039093242727163803 0 0.0014524293486431429 -0.0029329251687118182 0 0.0022728957895326893 -0.0032700812423781937 0 0.0022832161448326795 -0.0045135479517642947 0 0.0014771202480196146 -0.0039093242727163803 0 0.0022832161448326795 -0.0045135479517642947 0 0.001105976156502149 -0.005198002514043956 0 0.0014771202480196146 -0.0039093242727163803 0 0.0015832614537024945 -0.006300602379681608 0 0.0036057600874196041 -0.005550950829933776 0 0.0022832161448326795 -0.0045135479517642947 0 0.0015832614537024945 -0.006300602379681608 0 0.0022832161448326795 -0.0045135479517642947 0 0.001105976156502149 -0.005198002514043956 0 0.001105976156502149 -0.005198002514043956 0 1.5127476300759156e-05 -0.0053902597698582454 0 0.00062207734912230633 -0.0041102690179191772 0 0.001105976156502149 -0.005198002514043956 0 0.0014771202480196146 -0.0039093242727163803 0 0.00062207734912230633 -0.0041102690179191772 0 -0.0024397554414365458 0.003420128074716386 0 -0.0022717437054075901 0.002917787323159852 0 -0.0026094579400519455 0.0026761879383029241 0 1.5127476300759156e-05 -0.0053902597698582454 0 0.00024796909830340248 -0.0036586464580198189 0 0.00062207734912230633 -0.0041102690179191772 0 -0.0024397554414365458 0.003420128074716386 0 -0.0019153612991168365 0.0029890949936993666 0 -0.0019063312688345931 0.0035639477664963018 0 -0.0010066797620759342 -0.0010393811247991357 0 -0.00034915428657971754 -0.0011492253990410064 0 -0.0024397554414365458 0.003420128074716386 0 -0.0022717437054075901 0.002917787323159852 0 -0.0019153612991168365 0.0029890949936993666 0 -0.0026094579400519455 0.0026761879383029241 0 -0.0021203096047598059 0.0025819649220589782 0 -0.0020925137534393793 0.0020158300269948843 0 -0.0022717437054075901 0.002917787323159852 0 -0.0021203096047598059 0.0025819649220589782 0 -0.0019153612991168365 0.0029890949936993666 0 -0.0022717437054075901 0.002917787323159852 0 -0.0026094579400519455 0.0026761879383029241 0 -0.0021203096047598059 0.0025819649220589782 0 0.00024036813249068739 -0.0035598556417222767 0 0.00092865174021717484 -0.0033006033588590593 0 0.00087345931974702566 -0.0020708906777777052 0 0.0014771202480196146 -0.0039093242727163803 0 0.00062207734912230633 -0.0041102690179191772 0 0.00092865174021717484 -0.0033006033588590593 0 0.00024036813249068739 -0.0035598556417222767 0 0.00062207734912230633 -0.0041102690179191772 0 0.00092865174021717484 -0.0033006033588590593 0 -0.00034915428657971754 -0.0011492253990410064 0 0.00017729945691540613 -0.0019885608805313712 0 0.0014771202480196146 -0.0039093242727163803 0 0.00092865174021717484 -0.0033006033588590593 0 0.0014524293486431429 -0.0029329251687118182 0 -0.00034915428657971754 -0.0011492253990410064 0 2.5443285062183761e-05 -0.002306879832742702 0 0.00087345931974702566 -0.0020708906777777052 0 0.000899270759183491 -0.0011686392277816869 0 0.0017500964130570263 -0.0022037159294947964 0 0.0014524293486431429 -0.0029329251687118182 0 0.00087345931974702566 -0.0020708906777777052 0 0.0017500964130570263 -0.0022037159294947964 0 0.00092865174021717484 -0.0033006033588590593 0 0.0014524293486431429 -0.0029329251687118182 0 0.00087345931974702566 -0.0020708906777777052 0 0.00067548950188394601 -0.0029460721436453193 0 0.00087345931974702566 -0.0020708906777777052 0 -0.00014356230915673089 -0.0018479558903114225 0 -0.00034915428657971754 -0.0011492253990410064 0 -0.0011645101183330698 0.00016076541937134844 0 0.00087345931974702566 -0.0020708906777777052 0 0.000899270759183491 -0.0011686392277816869 0 -0.00014356230915673089 -0.0018479558903114225 0 0.0001176036254369806 -0.00011511235129170915 0 0.00077782927636519793 -0.00091705840510425776 0 -0.00023762632123502616 0.00030598218977790417 0 0.000899270759183491 -0.0011686392277816869 0 -0.00011129352412473273 -0.00077781177562631361 0 0.000899270759183491 -0.0011686392277816869 0 -0.00011129352412473273 -0.00077781177562631361 0 -0.00014356230915673089 -0.0018479558903114225 0 0.00095651551759258426 -0.00025184269244780808 0 0.000899270759183491 -0.0011686392277816869 0 0.0018779374776159131 -0.0011572490236648001 0 0.000899270759183491 -0.0011686392277816869 0 0.0018779374776159131 -0.0011572490236648001 0 0.0017500964130570263 -0.0022037159294947964 0 0.0019678024827233134 -0.00027748859835241221 0 0.0018855485609821196 -0.0014286991314447774 0 0.0032685240840074083 -0.0012442445294034233 0 0.0018855485609821196 -0.0014286991314447774 0 0.0032685240840074083 -0.0012442445294034233 0 0.0029783057978344809 -0.0026802115562230906 0 0.003726078260332132 -0.0025746617786899183 0 0.0032685240840074083 -0.0012442445294034233 0 0.0029783057978344809 -0.0026802115562230906 0 0.0018779374776159131 -0.0011572490236648001 0 0.0035670955521647451 -0.0028558112051610155 0 0.0017500964130570263 -0.0022037159294947964 0 0.0022728957895326893 -0.0032700812423781937 0 0.0035670955521647451 -0.0028558112051610155 0 0.0017500964130570263 -0.0022037159294947964 0 0.0019011280845889422 -0.0013097710599573396 0 0.0032232885315203546 -0.002894096695505203 0 0.0022728957895326893 -0.0032700812423781937 0 0.0014524293486431429 -0.0029329251687118182 0 0.0017500964130570263 -0.0022037159294947964 0 -0.00056833960285230937 0.0020168178701094534 0 -0.00094221457573796655 0.0022447131571539927 0 -0.00067549764679536765 0.002627826307430955 0 -0.00056833960285230937 0.0020168178701094534 0 -0.00094582439647975458 0.0015982496931407314 0 -0.00094221457573796655 0.0022447131571539927 0 -0.00056833960285230937 0.0020168178701094534 0 -0.00029397234509148906 0.0023372295490717405 0 -0.00067549764679536765 0.002627826307430955 0 -9.0085253931878497e-05 0.0018914433564237486 0 9.3048931898135761e-05 0.0025224064943444317 0 0.00033535543840587141 0.002161473400627863 0 -0.00029397234509148906 0.0023372295490717405 0 -9.0085253931878497e-05 0.0018914433564237486 0 9.3048931898135761e-05 0.0025224064943444317 0 -0.00056833960285230937 0.0020168178701094534 0 -0.00029397234509148906 0.0023372295490717405 0 -9.0085253931878497e-05 0.0018914433564237486 0 -0.0003214940438283353 0.0012339077790807238 0 -9.0085253931878497e-05 0.0018914433564237486 0 0.00033884217426891614 0.0013896893073071094 0 -9.0085253931878497e-05 0.0018914433564237486 0 0.00033884217426891614 0.0013896893073071094 0 0.00033535543840587141 0.002161473400627863 0 -0.0003214940438283353 0.0012339077790807238 0 -9.0085253931878497e-05 0.0018914433564237486 0 -0.00054996200421832315 0.0016081932153264443 0 -0.0003214940438283353 0.0012339077790807238 0 -0.00075683980967703368 0.0011507102422524881 0 -0.00054996200421832315 0.0016081932153264443 0 -0.00056833960285230937 0.0020168178701094534 0 -9.0085253931878497e-05 0.0018914433564237486 0 -0.00054996200421832315 0.0016081932153264443 0 -0.00056833960285230937 0.0020168178701094534 0 -0.00054996200421832315 0.0016081932153264443 0 -0.00094582439647975458 0.0015982496931407314 0 -0.00075683980967703368 0.0011507102422524881 0 -0.00108575862119961 0.0012374753013171401 0 -0.00094582439647975458 0.0015982496931407314 0 -0.00075683980967703368 0.0011507102422524881 0 -0.00054996200421832315 0.0016081932153264443 0 -0.00094582439647975458 0.0015982496931407314 0 -0.00108575862119961 0.0012374753013171401 0 -0.00094582439647975458 0.0015982496931407314 0 -0.0015226557646614684 0.0012967805892200401 0 -0.00094582439647975458 0.0015982496931407314 0 -0.0015226557646614684 0.0012967805892200401 0 -0.0013522333877444021 0.0020332275265796253 0 -0.0011541332293576395 0.0003975161180608443 0 -0.0011645101183330698 0.00016076541937134844 0 -0.0015226557646614684 0.0012967805892200401 0 -0.0020925137534393793 0.0020158300269948843 0 -0.0013522333877444021 0.0020332275265796253 0 -0.00011129352412473273 -0.00077781177562631361 0 -0.00091488962612459185 -0.00042299106961269609 0 -0.00014356230915673089 -0.0018479558903114225 0 -0.00023762632123502616 0.00030598218977790417 0 -0.00011129352412473273 -0.00077781177562631361 0 -0.00091488962612459185 -0.00042299106961269609 0 -0.0020925137534393793 0.0020158300269948843 0 -0.0013522333877444021 0.0020332275265796253 0 -0.0017220010894843318 0.0024373418213386976 0 -0.0021203096047598059 0.0025819649220589782 0 -0.0020925137534393793 0.0020158300269948843 0 -0.0017220010894843318 0.0024373418213386976 0 -0.00094221457573796655 0.0022447131571539927 0 -0.0013522333877444021 0.0020332275265796253 0 -0.0012977362513388547 0.0027138649927178193 0 -0.00094582439647975458 0.0015982496931407314 0 -0.00094221457573796655 0.0022447131571539927 0 -0.0013522333877444021 0.0020332275265796253 0 -0.0013522333877444021 0.0020332275265796253 0 -0.0012977362513388547 0.0027138649927178193 0 -0.0017220010894843318 0.0024373418213386976 0 -0.00094221457573796655 0.0022447131571539927 0 -0.0012977362513388547 0.0027138649927178193 0 -0.00067549764679536765 0.002627826307430955 0 -0.0012977362513388547 0.0027138649927178193 0 -0.00090568582986225263 0.0031079241056877248 0 -0.00067549764679536765 0.002627826307430955 0 -0.0012977362513388547 0.0027138649927178193 0 -0.0017220010894843318 0.0024373418213386976 0 -0.0019153612991168365 0.0029890949936993666 0 -0.0021203096047598059 0.0025819649220589782 0 -0.0017220010894843318 0.0024373418213386976 0 -0.0019153612991168365 0.0029890949936993666 0 -0.0012977362513388547 0.0027138649927178193 0 -0.0019153612991168365 0.0029890949936993666 0 -0.0013943784491739948 0.003355335245792733 0 -0.0019153612991168365 0.0029890949936993666 0 -0.0013943784491739948 0.003355335245792733 0 -0.0019063312688345931 0.0035639477664963018 0 -0.0013943784491739948 0.003355335245792733 0 -0.00090568582986225263 0.0031079241056877248 0 -0.00072093997774726941 0.0036837149572847821 0 -0.0012977362513388547 0.0027138649927178193 0 -0.0013943784491739948 0.003355335245792733 0 -0.00090568582986225263 0.0031079241056877248 0 -0.00090568582986225263 0.0031079241056877248 0 -0.00031078824559487771 0.0031906094913807369 0 -0.00072093997774726941 0.0036837149572847821 0 -0.00067549764679536765 0.002627826307430955 0 -0.00024176603889353835 0.0027307825459078317 0 -0.00031078824559487771 0.0031906094913807369 0 -0.00090568582986225263 0.0031079241056877248 0 -0.00067549764679536765 0.002627826307430955 0 -0.00031078824559487771 0.0031906094913807369 0 -0.00029397234509148906 0.0023372295490717405 0 -0.00067549764679536765 0.002627826307430955 0 -0.00024176603889353835 0.0027307825459078317 0 9.3048931898135761e-05 0.0025224064943444317 0 0.00011385736542374492 0.0028839105725086043 0 0.00047801362325751863 0.0026958501616345261 0 9.3048931898135761e-05 0.0025224064943444317 0 -0.00024176603889353835 0.0027307825459078317 0 0.00011385736542374492 0.0028839105725086043 0 -0.00029397234509148906 0.0023372295490717405 0 9.3048931898135761e-05 0.0025224064943444317 0 -0.00024176603889353835 0.0027307825459078317 0 -0.00024176603889353835 0.0027307825459078317 0 0.00011385736542374492 0.0028839105725086043 0 -0.00031078824559487771 0.0031906094913807369 0 -0.00031078824559487771 0.0031906094913807369 0 0.00018786916132611893 0.0035122435384119621 0 -0.00072093997774726941 0.0036837149572847821 0 -8.901655810297784e-06 0.0035360584238222372 0 -0.00067958072981320189 0.0036954060759673917 0 -0.00012277363363525815 0.003487473810358637 0 0.00063519331421258156 0.0040646343472662549 0 -0.00031078824559487771 0.0031906094913807369 0 0.00018786916132611893 0.0035122435384119621 0 0.00066585302715806345 0.0032898337499439119 0 0.00011385736542374492 0.0028839105725086043 0 -0.00031078824559487771 0.0031906094913807369 0 0.00049775298687601208 0.0032231128468701922 0 0.00018786916132611893 0.0035122435384119621 0 0.00017495893029963435 0.0039359718998195703 0 -0.0007028819618071511 0.0039042566672690408 0 0.00018786916132611893 0.0035122435384119621 0 0.00017495893029963435 0.0039359718998195703 0 0.00062746186122445173 0.0037853003260776676 0 0.00017495893029963435 0.0039359718998195703 0 1.4462642762584595e-05 0.0043010723130380794 0 -0.0007028819618071511 0.0039042566672690408 0 0.00017495893029963435 0.0039359718998195703 0 1.4462642762584595e-05 0.0043010723130380794 0 0.000781806516493733 0.0041975914198904198 0 1.4462642762584595e-05 0.0043010723130380794 0 -0.00044950940715823319 0.0043897178621671107 0 -0.00014808415537870712 0.0046419613684323784 0 -0.0007028819618071511 0.0039042566672690408 0 -0.00044950940715823319 0.0043897178621671107 0 -0.00082276968890645759 0.0047870458999473798 0 1.4462642762584595e-05 0.0043010723130380794 0 -0.0007028819618071511 0.0039042566672690408 0 -0.00044950940715823319 0.0043897178621671107 0 -0.00044950940715823319 0.0043897178621671107 0 -0.00082276968890645759 0.0047870458999473798 0 -0.00014808415537870712 0.0046419613684323784 0 -0.00082276968890645759 0.0047870458999473798 0 -4.6031578371202223e-05 0.0052043915985664655 0 -0.000464287979454538 0.0051719299571745779 0 -0.00066569733593526044 0.0048965977351435909 0 -4.6914049023908717e-05 0.0051774881841329754 0 -0.00082276968890645759 0.0047870458999473798 0 -0.0011673685532924839 0.0052754121144674149 0 -0.000464287979454538 0.0051719299571745779 0 -0.00082276968890645759 0.0047870458999473798 0 0.00016902631882703703 0.0050731618712299992 0 -0.00014808415537870712 0.0046419613684323784 0 1.4462642762584595e-05 0.0043010723130380794 0 -0.00014808415537870712 0.0046419613684323784 0 0.00036039607772055761 0.0046543649869601684 0 0.00016902631882703703 0.0050731618712299992 0 -0.00014808415537870712 0.0046419613684323784 0 0.00036039607772055761 0.0046543649869601684 0 -0.00071706342208890125 0.00012691924632569356 0 -0.0019316368781452523 0.0036444381900604924 0 -0.0022712739088433381 0.0041403501518345754 0 -0.0019063312688345931 0.0035639477664963018 0 -0.0015073967805992957 0.0038991062236053849 0 -0.0023868436750851163 0.0045140380630735851 0 -0.0015551186570346208 0.0042292264061249245 0 -0.0019597248063409167 0.0046296574145877562 0 -0.0013943784491739948 0.003355335245792733 0 -0.0019063312688345931 0.0035639477664963018 0 -0.0015073967805992957 0.0038991062236053849 0 -0.0013943784491739948 0.003355335245792733 0 -0.00072093997774726941 0.0036837149572847821 0 -0.0015073967805992957 0.0038991062236053849 0 -0.00067958072981320189 0.0036954060759673917 0 -0.0019316368781452523 0.0036444381900604924 0 -0.0007028819618071511 0.0039042566672690408 0 -0.00082276968890645759 0.0047870458999473798 0 -0.0015551186570346208 0.0042292264061249245 0 -0.00082276968890645759 0.0047870458999473798 0 -0.0016019038866276307 0.0048078413907179192 0 -0.0011673685532924839 0.0052754121144674149 0 -0.00082276968890645759 0.0047870458999473798 0 -0.0015551186570346208 0.0042292264061249245 0 -0.0016019038866276307 0.0048078413907179192 0 -0.0022936835358364034 0.0049677988289157666 0 -0.0016019038866276307 0.0048078413907179192 0 -0.0011673685532924839 0.0052754121144674149 0 -0.0022936835358364034 0.0049677988289157666 0 -0.0016019038866276307 0.0048078413907179192 0 -0.0019597248063409167 0.0046296574145877562 0 -0.0015551186570346208 0.0042292264061249245 0 -0.0016019038866276307 0.0048078413907179192 0 -0.0019597248063409167 0.0046296574145877562 0 -0.0004099940219598267 0.0053306591035053854 0 -0.00032642582572413727 0.0054334845877776648 0 -0.00035512436110543625 0.0055318350854037532 0 -0.0004099940219598267 0.0053306591035053854 0 -0.00032642582572413727 0.0054334845877776648 0 -0.00022436684801963754 0.0054256058324162557 0 -0.00078625584609838442 0.00057794965727323683 0 -0.00055892603152521328 0.0050984101786011593 0 -0.00032642582572413727 0.0054334845877776648 0 -0.00022436684801963754 0.0054256058324162557 0 -0.000258550126261441 0.005515946376977398 0 -0.00022436684801963754 0.0054256058324162557 0 -0.000258550126261441 0.005515946376977398 0 -0.00017311347431288627 0.0055539350395490744 0 -0.000258550126261441 0.005515946376977398 0 -0.00017311347431288627 0.0055539350395490744 0 -0.0002254257748464218 0.0056268135300426526 0 -0.000258550126261441 0.005515946376977398 0 -0.00035512436110543625 0.0055318350854037532 0 -0.0002254257748464218 0.0056268135300426526 0 -0.00032642582572413727 0.0054334845877776648 0 -0.000258550126261441 0.005515946376977398 0 -0.00035512436110543625 0.0055318350854037532 0 -0.000121577621470828 0.0055117387059337563 0 5.5338526238234796e-05 0.0055029518183725553 0 1.2702790964848836e-05 0.005625168055614623 0 -4.6031578371202223e-05 0.0052043915985664655 0 -0.000121577621470828 0.0055117387059337563 0 5.5338526238234796e-05 0.0055029518183725553 0 -4.6031578371202223e-05 0.0052043915985664655 0 -0.000121577621470828 0.0055117387059337563 0 -0.000464287979454538 0.0051719299571745779 0 -0.0011673685532924839 0.0052754121144674149 0 -0.000121577621470828 0.0055117387059337563 0 -0.000464287979454538 0.0051719299571745779 0 -0.00055892603152521328 0.0050984101786011593 0 -0.00022594663553425988 0.0054431048625680611 0 -0.00022436684801963754 0.0054256058324162557 0 -0.000121577621470828 0.0055117387059337563 0 -0.00017311347431288627 0.0055539350395490744 0 -0.000121577621470828 0.0055117387059337563 0 -0.00017311347431288627 0.0055539350395490744 0 -9.590392995090321e-05 0.005600827755879138 0 -0.00017311347431288627 0.0055539350395490744 0 -9.590392995090321e-05 0.005600827755879138 0 -0.00011739979344063401 0.0056684330059144587 0 -0.000121577621470828 0.0055117387059337563 0 -9.590392995090321e-05 0.005600827755879138 0 1.2702790964848836e-05 0.005625168055614623 0 -9.590392995090321e-05 0.005600827755879138 0 -2.5262843821460903e-05 0.0056646207713159256 0 1.2702790964848836e-05 0.005625168055614623 0 -2.5262843821460903e-05 0.0056646207713159256 0 -0.00011739979344063401 0.0056684330059144587 0 -2.0991585407106043e-05 0.005731393052545118 0 -9.590392995090321e-05 0.005600827755879138 0 -2.5262843821460903e-05 0.0056646207713159256 0 -0.00011739979344063401 0.0056684330059144587 0 -0.00011739979344063401 0.0056684330059144587 0 -0.00015412838517944247 0.0057183464923878484 0 -0.0002254257748464218 0.0056268135300426526 0 -0.00017311347431288627 0.0055539350395490744 0 -0.00011739979344063401 0.0056684330059144587 0 -0.0002254257748464218 0.0056268135300426526 0 -0.00011739979344063401 0.0056684330059144587 0 -0.00015412838517944247 0.0057183464923878484 0 -9.9773826934598157e-05 0.0057565288965107982 0 -0.00015412838517944247 0.0057183464923878484 0 -9.9773826934598157e-05 0.0057565288965107982 0 -0.00017077888164334824 0.0057630164213596643 0 -9.9773826934598157e-05 0.0057565288965107982 0 -2.0991585407106043e-05 0.005731393052545118 0 -3.3497609993412676e-05 0.0058345101874783282 0 -0.00011739979344063401 0.0056684330059144587 0 -9.9773826934598157e-05 0.0057565288965107982 0 -2.0991585407106043e-05 0.005731393052545118 0 -9.9773826934598157e-05 0.0057565288965107982 0 -3.3497609993412676e-05 0.0058345101874783282 0 -0.00012022951186201254 0.0058133395563465338 0 -9.9773826934598157e-05 0.0057565288965107982 0 -0.00012022951186201254 0.0058133395563465338 0 -0.00017077888164334824 0.0057630164213596643 0 -0.00012022951186201254 0.0058133395563465338 0 -0.00016719410881510131 0.005824256076330585 0 -0.00017077888164334824 0.0057630164213596643 0 -0.00012022951186201254 0.0058133395563465338 0 -0.0001276071784916349 0.0058770383134318866 0 -0.00016719410881510131 0.005824256076330585 0 -0.0001276071784916349 0.0058770383134318866 0 -0.00017118558792925774 0.0058571906981676487 0 -0.00016719410881510131 0.005824256076330585 0 0.0030849718204302204 0.018050402738968335 0 0.0042050510468830612 0.016971655315125247 0 0.002796633483911893 0.017020964318374535 0 -3.3497609993412676e-05 0.0058345101874783282 0 -0.00012022951186201254 0.0058133395563465338 0 -0.0001276071784916349 0.0058770383134318866 0 0.0015549264823422279 0.011811286166514428 0 0.0012722949111281243 0.011579061684147117 0 0.001259824159589071 -0.0071368225221559237 0 0.0012791075348567973 -0.0071564421038932263 0 0.0012617161223117382 -0.0071384458418643848 0 0.0012032156600871658 -0.0071662265328527545 0 0.0012365120540032174 -0.0071189042613032556 0 0.0011830087932559801 -0.0071357445407270364 0 0.001259824159589071 -0.0071368225221559237 0 0.0012032156600871658 -0.0071662265328527545 0 0.0012365120540032174 -0.0071189042613032556 0 0.001259824159589071 -0.0071368225221559237 0 0.0012617161223117382 -0.0071384458418643848 0 0.0012032156600871658 -0.0071662265328527545 0 0.0012365120540032174 -0.0071189042613032556 0 0.0011830087932559801 -0.0071357445407270364 0 0.0012499503269658137 -0.0070500856031141595 0 0.001259824159589071 -0.0071368225221559237 0 0.0012791075348567973 -0.0071564421038932263 0 0.0012888624489611861 -0.0070753137740314498 0 0.0012365120540032174 -0.0071189042613032556 0 0.0012888624489611861 -0.0070753137740314498 0 0.0012499503269658137 -0.0070500856031141595 0 0.001259824159589071 -0.0071368225221559237 0 0.0012365120540032174 -0.0071189042613032556 0 0.0012888624489611861 -0.0070753137740314498 0 -0.00022037032312104005 0.0058192244254610158 0 -0.00017118558792925774 0.0058571906981676487 0 -0.00016719410881510131 0.005824256076330585 0 -0.00022037032312104005 0.0058192244254610158 0 -0.00016719410881510131 0.005824256076330585 0 -0.00019945538927223586 0.0057860668120862258 0 -0.00016719410881510131 0.005824256076330585 0 -0.00019945538927223586 0.0057860668120862258 0 -0.00017077888164334824 0.0057630164213596643 0 -0.00022037032312104005 0.0058192244254610158 0 -0.00019945538927223586 0.0057860668120862258 0 -0.00022524112579272456 0.0057486934970104502 0 -0.00019945538927223586 0.0057860668120862258 0 -0.00017077888164334824 0.0057630164213596643 0 -0.00022524112579272456 0.0057486934970104502 0 -0.00022037032312104005 0.0058192244254610158 0 -0.00022524112579272456 0.0057486934970104502 0 -0.00029048065992257944 0.0056912102045555352 0 0.00044451763474924954 -0.0012388517458559293 0 0.00047898347288781603 -0.00054318757362547426 0 0.0012617161223117382 -0.0071384458418643848 0 0.00118608317918939 -0.0069748553004833104 0 0.0012246387211507978 -0.0069796999426825143 0 0.001225575804880289 -0.0071359924706583654 0 0.0011838853816290747 -0.0071320067615621421 0 0.0012791075348567973 -0.0071564421038932263 0 0.0012617161223117382 -0.0071384458418643848 0 0.00118608317918939 -0.0069748553004833104 0 0.0012617161223117382 -0.0071384458418643848 0 0.0012032156600871658 -0.0071662265328527545 0 0.0011301240167607637 -0.0072809617326569159 0 -0.00015412838517944247 0.0057183464923878484 0 -0.00021529898615693744 0.0057078197776625379 0 -0.0002254257748464218 0.0056268135300426526 0 -0.00029048065992257944 0.0056912102045555352 0 -0.00021529898615693744 0.0057078197776625379 0 -0.0002254257748464218 0.0056268135300426526 0 -0.00017077888164334824 0.0057630164213596643 0 -0.00022524112579272456 0.0057486934970104502 0 -0.00021529898615693744 0.0057078197776625379 0 -0.00015412838517944247 0.0057183464923878484 0 -0.00017077888164334824 0.0057630164213596643 0 -0.00021529898615693744 0.0057078197776625379 0 -0.00022524112579272456 0.0057486934970104502 0 -0.00029048065992257944 0.0056912102045555352 0 -0.00021529898615693744 0.0057078197776625379 0 0.0011719707421679498 -0.0069205670336399848 0 0.00118608317918939 -0.0069748553004833104 0 0.0011998602843581215 -0.0069537346178611178 0 0.00029701931220814658 -0.00084052013137312363 0 0.00047898347288781603 -0.00054318757362547426 0 -0.00035512436110543625 0.0055318350854037532 0 -0.00029048065992257944 0.0056912102045555352 0 -0.0002254257748464218 0.0056268135300426526 0 0.0011998602843581215 -0.0069537346178611178 0 0.0012013002465637876 -0.0069616676163326884 0 0.0012246387211507978 -0.0069796999426825143 0 0.001193684932665042 -0.0070728409315167261 0 0.0011838853816290747 -0.0071320067615621421 0 0.0011429163011180709 -0.0071861703179226391 0 0.0011430948066914481 -0.0072588986739599874 0 0.0012156138440436342 -0.0072510467425551828 0 0.0011430948066914481 -0.0072588986739599874 0 0.0012156138440436342 -0.0072510467425551828 0 0.0011405783962879458 -0.0072697487757183666 0 0.0011429163011180709 -0.0071861703179226391 0 0.0011430948066914481 -0.0072588986739599874 0 0.0011301240167607637 -0.0072809617326569159 0 0.00118608317918939 -0.0069748553004833104 0 0.0011998602843581215 -0.0069537346178611178 0 0.0012246387211507978 -0.0069796999426825143 0 0.0011430948066914481 -0.0072588986739599874 0 0.0011301240167607637 -0.0072809617326569159 0 0.0011185105786545575 -0.0072607475271410241 0 0.0014208948010531854 -0.0071767845670488778 0 0.0012959415852704806 -0.0071693241807550909 0 0.0013341035866076987 -0.0072692456556509698 0 0.0012959415852704806 -0.0071693241807550909 0 0.0013341035866076987 -0.0072692456556509698 0 0.0012156138440436342 -0.0072510467425551828 0 0.0012959415852704806 -0.0071693241807550909 0 0.0011429163011180709 -0.0071861703179226391 0 0.0012156138440436342 -0.0072510467425551828 0 0.0012156138440436342 -0.0072510467425551828 0 0.0012505451154103708 -0.0073005815272498432 0 0.0011405783962879458 -0.0072697487757183666 0 0.0013341035866076987 -0.0072692456556509698 0 0.0012505451154103708 -0.0073005815272498432 0 0.0013484394458147645 -0.0073290833856721159 0 0.0013341035866076987 -0.0072692456556509698 0 0.0012156138440436342 -0.0072510467425551828 0 0.0012505451154103708 -0.0073005815272498432 0 0.0012505451154103708 -0.0073005815272498432 0 0.0013484394458147645 -0.0073290833856721159 0 0.0013524204007152698 -0.0073889062241295567 0 0.0012505451154103708 -0.0073005815272498432 0 0.0011267143241002358 -0.0072826569260977672 0 0.0011405783962879458 -0.0072697487757183666 0 0.0012043999771929441 -0.0073610172058369483 0 0.0011267143241002358 -0.0072826569260977672 0 0.0010078141139025385 -0.0072727490558465707 0 0.0012043999771929441 -0.0073610172058369483 0 0.0010078141139025385 -0.0072727490558465707 0 0.0010102947414034932 -0.0075002712086820354 0 0.0012505451154103708 -0.0073005815272498432 0 0.0012043999771929441 -0.0073610172058369483 0 0.0011267143241002358 -0.0072826569260977672 0 0.0012505451154103708 -0.0073005815272498432 0 0.0012043999771929441 -0.0073610172058369483 0 0.0013524204007152698 -0.0073889062241295567 0 0.0012032156600871658 -0.0071662265328527545 0 0.0011301240167607637 -0.0072809617326569159 0 0.0011377551267007832 -0.0072167113748867031 0 0.0011301240167607637 -0.0072809617326569159 0 0.0011377551267007832 -0.0072167113748867031 0 0.0011185105786545575 -0.0072607475271410241 0 0.0011377551267007832 -0.0072167113748867031 0 0.0011185105786545575 -0.0072607475271410241 0 0.0010818815633974561 -0.0072511906270734351 0 0.0011430948066914481 -0.0072588986739599874 0 0.0011185105786545575 -0.0072607475271410241 0 0.0011405783962879458 -0.0072697487757183666 0 0.0011267143241002358 -0.0072826569260977672 0 0.0011405783962879458 -0.0072697487757183666 0 0.0010818815633974561 -0.0072511906270734351 0 0.0011185105786545575 -0.0072607475271410241 0 0.0011405783962879458 -0.0072697487757183666 0 0.0010818815633974561 -0.0072511906270734351 0 0.0010818815633974561 -0.0072511906270734351 0 0.0010078141139025385 -0.0072727490558465707 0 0.0011129034242104974 -0.0071837085035512055 0 0.0011267143241002358 -0.0072826569260977672 0 0.0010818815633974561 -0.0072511906270734351 0 0.0010078141139025385 -0.0072727490558465707 0 0.0010078141139025385 -0.0072727490558465707 0 0.0011129034242104974 -0.0071837085035512055 0 0.0010871415456285927 -0.007088929398699732 0 0.0011129034242104974 -0.0071837085035512055 0 0.0011503761582937718 -0.0070865188138332872 0 0.0010871415456285927 -0.007088929398699732 0 0.0011377551267007832 -0.0072167113748867031 0 0.0010818815633974561 -0.0072511906270734351 0 0.0011129034242104974 -0.0071837085035512055 0 0.0011377551267007832 -0.0072167113748867031 0 0.0011129034242104974 -0.0071837085035512055 0 0.0011830087932559801 -0.0071357445407270364 0 0.0012032156600871658 -0.0071662265328527545 0 0.0011377551267007832 -0.0072167113748867031 0 0.0011830087932559801 -0.0071357445407270364 0 0.0011129034242104974 -0.0071837085035512055 0 0.0011830087932559801 -0.0071357445407270364 0 0.0011503761582937718 -0.0070865188138332872 0 0.0011830087932559801 -0.0071357445407270364 0 0.0012038139787044354 -0.0070419525871352326 0 0.0011503761582937718 -0.0070865188138332872 0 0.0012038139787044354 -0.0070419525871352326 0 0.0011503761582937718 -0.0070865188138332872 0 0.0011625418388974207 -0.0069577737717243541 0 0.0012038139787044354 -0.0070419525871352326 0 0.0011625418388974207 -0.0069577737717243541 0 0.0012559435570909661 -0.0069255163412371363 0 0.0011625418388974207 -0.0069577737717243541 0 0.0010847496279170073 -0.0069395617726952935 0 0.0010871415456285927 -0.007088929398699732 0 0.0011503761582937718 -0.0070865188138332872 0 0.0011625418388974207 -0.0069577737717243541 0 0.0010871415456285927 -0.007088929398699732 0 0.00090758681311279546 -0.0072695241622682287 0 0.00085883556465338553 -0.007073522840330226 0 0.0010078141139025385 -0.0072727490558465707 0 0.0010102947414034932 -0.0075002712086820354 0 0.00086550943787508838 -0.0076173992451290008 0 0.0010078141139025385 -0.0072727490558465707 0 0.0010871415456285927 -0.007088929398699732 0 0.00096650854935218596 -0.0069427439986279246 0 0.00080947919854813929 -0.0072303130382525204 0 0.00085883556465338553 -0.007073522840330226 0 0.0010847496279170073 -0.0069395617726952935 0 0.0010871415456285927 -0.007088929398699732 0 0.00096650854935218596 -0.0069427439986279246 0 0.0010102947414034932 -0.0075002712086820354 0 0.00080263765568698933 -0.0076829011560976788 0 0.00085477612468375899 -0.0080199025763735329 0 0.00080263765568698933 -0.0076829011560976788 0 0.00085477612468375899 -0.0080199025763735329 0 0.0007780974012301182 -0.0081259215880508558 0 0.00084827725173841813 -0.0065695873675075036 0 0.0013561586643707354 -0.0061180677723750047 0 0.0009749636788049282 -0.0057325337841464697 0 0.00085883556465338553 -0.007073522840330226 0 0.00090760071910335732 -0.0069667996031378158 0 0.0011180396673813064 -0.0067778279324535581 0 0.0012635466154617319 -0.006623063914437506 0 0.0012574796192025017 -0.0067765822457179839 0 0.0010154515124057525 -0.0061930712009830198 0 0.0023631663500506745 -0.0033650684169250177 0 0.0011625418388974207 -0.0069577737717243541 0 0.0011180396673813064 -0.0067778279324535581 0 0.0012574796192025017 -0.0067765822457179839 0 0.0010847496279170073 -0.0069395617726952935 0 0.00096650854935218596 -0.0069427439986279246 0 0.0011180396673813064 -0.0067778279324535581 0 0.00085883556465338553 -0.007073522840330226 0 0.0010154515124057525 -0.0061930712009830198 0 0.0011625418388974207 -0.0069577737717243541 0 0.0010847496279170073 -0.0069395617726952935 0 0.0011180396673813064 -0.0067778279324535581 0 0.00098327255126734198 -0.0078731919302475421 0 0.0010512435530789818 -0.0077423536794161106 0 0.0012043999771929441 -0.0073610172058369483 0 0.0012703761154623928 -0.0075629509788444696 0 0.0013524204007152698 -0.0073889062241295567 0 0.00075462186296327942 -0.008176908650166485 0 0.00074533076685231786 -0.0081902284367552994 0 0.00072527148671783074 -0.0080940583572831782 0 0.0012043999771929441 -0.0073610172058369483 0 0.0010102947414034932 -0.0075002712086820354 0 0.0012703761154623928 -0.0075629509788444696 0 0.00085477612468375899 -0.0080199025763735329 0 0.00075462186296327942 -0.008176908650166485 0 0.00079282429421922659 -0.0081188280507210869 0 0.0010102947414034932 -0.0075002712086820354 0 0.00085477612468375899 -0.0080199025763735329 0 0.0012703761154623928 -0.0075629509788444696 0 0.00086414595366690551 -0.0079943335902597258 0 0.00098327255126734198 -0.0078731919302475421 0 0.00075462186296327942 -0.008176908650166485 0 0.00079282429421922659 -0.0081188280507210869 0 0.00074533076685231786 -0.0081902284367552994 0 0.00074533076685231786 -0.0081902284367552994 0 0.00075935801498581306 -0.0081419628121181097 0 0.00074001335023577287 -0.0082456716656415848 0 0.00079282429421922659 -0.0081188280507210869 0 0.00075935801498581306 -0.0081419628121181097 0 0.00079208580190398602 -0.0081121100426646015 0 0.00079282429421922659 -0.0081188280507210869 0 0.00074533076685231786 -0.0081902284367552994 0 0.00075935801498581306 -0.0081419628121181097 0 0.00079282429421922659 -0.0081188280507210869 0 0.00079208580190398602 -0.0081121100426646015 0 0.00081949668823180647 -0.0081022370664030167 0 0.00085477612468375899 -0.0080199025763735329 0 0.00079282429421922659 -0.0081188280507210869 0 0.00081949668823180647 -0.0081022370664030167 0 0.00079208580190398602 -0.0081121100426646015 0 0.00081949668823180647 -0.0081022370664030167 0 0.00080375179079601462 -0.0081086463185289503 0 0.00079208580190398602 -0.0081121100426646015 0 0.00079041554770180463 -0.008093082071988715 0 0.00076168735246026555 -0.0080994565623973332 0 0.00079208580190398602 -0.0081121100426646015 0 0.00079041554770180463 -0.008093082071988715 0 0.00080375179079601462 -0.0081086463185289503 0 0.00075935801498581306 -0.0081419628121181097 0 0.00076168735246026555 -0.0080994565623973332 0 0.00073042578277456244 -0.0081070281355327123 0 0.00075935801498581306 -0.0081419628121181097 0 0.00079208580190398602 -0.0081121100426646015 0 0.00076168735246026555 -0.0080994565623973332 0 0.0013223297305775836 -0.0056051934125690012 0 0.0009749636788049282 -0.0057325337841464697 0 0.0011000927964146493 -0.0049080198727098493 0 0.001279338094960275 -0.0056300029245171237 0 0.0023631663500506745 -0.0033650684169250177 0 0.0013223297305775836 -0.0056051934125690012 0 0.0011000927964146493 -0.0049080198727098493 0 0.0018585487669522415 -0.0056668628005636891 0 0.0013561586643707354 -0.0061180677723750047 0 0.0013223297305775836 -0.0056051934125690012 0 0.0018585487669522415 -0.0056668628005636891 0 0.0013561586643707354 -0.0061180677723750047 0 0.0013223297305775836 -0.0056051934125690012 0 0.0009749636788049282 -0.0057325337841464697 0 0.00090760071910335732 -0.0069667996031378158 0 0.001279338094960275 -0.0056300029245171237 0 0.0007780974012301182 -0.0081259215880508558 0 0.00080375179079601462 -0.0081086463185289503 0 0.00081577826090854604 -0.0080954237883907425 0 0.00085477612468375899 -0.0080199025763735329 0 0.0007780974012301182 -0.0081259215880508558 0 0.00081949668823180647 -0.0081022370664030167 0 0.0007780974012301182 -0.0081259215880508558 0 0.00081949668823180647 -0.0081022370664030167 0 0.00080375179079601462 -0.0081086463185289503 0 0.00079041554770180463 -0.008093082071988715 0 0.00080375179079601462 -0.0081086463185289503 0 0.00081577826090854604 -0.0080954237883907425 0 0.002103974882542175 -0.0031648804352594931 0 0.0025815628417371591 -0.0031629091699342934 0 0.0025596902150049768 -0.0036209300333361095 0 0.002103974882542175 -0.0031648804352594931 0 0.0025815628417371591 -0.0031629091699342934 0 0.0023532502701728007 -0.0029150491586512409 0 0.0025815628417371591 -0.0031629091699342934 0 0.0025596902150049768 -0.0036209300333361095 0 0.0028741547129738487 -0.003346079563829334 0 0.0025815628417371591 -0.0031629091699342934 0 0.0028725625751142361 -0.0030425202105055795 0 0.0026965238548346147 -0.0028574954795476011 0 0.0025815628417371591 -0.0031629091699342934 0 0.0028741547129738487 -0.003346079563829334 0 0.0028725625751142361 -0.0030425202105055795 0 0.0023631663500506745 -0.0033650684169250177 0 0.0028882365429143057 -0.0014529035408465752 0 0.0032740749869195731 0.00047556418685816446 0 0.0030559798892966254 0.00055463205277954614 0 0.0030388042165178284 0.00027595309606951249 0 0.0039974288141473345 0.0045569865887539959 0 0.0030705550503475872 0.004394942952075348 0 0.0042996448457993082 0.0059848814021477284 0 0.0030559798892966254 0.00055463205277954614 0 0.0028796436693728695 0.00041421825283024507 0 0.0029482777945693222 0.00076931948550203752 0 0.0030559798892966254 0.00055463205277954614 0 0.0028796436693728695 0.00041421825283024507 0 0.0030388042165178284 0.00027595309606951249 0 0.0028882365429143057 -0.0014529035408465752 0 0.0031959395179988947 0.00057098415246332589 0 0.0033595854305342051 0.0025159589514155726 0 0.0031959395179988947 0.00057098415246332589 0 0.0028796436693728695 0.00041421825283024507 0 0.0030388042165178284 0.00027595309606951249 0 0.0028144870621472271 7.6777313924685523e-05 0 0.0028741547129738487 -0.003346079563829334 0 0.0028725625751142361 -0.0030425202105055795 0 0.0031997677362723782 -0.0030646058727705774 0 0.0037079837879206777 0.0030955644644625876 0 0.0031230475637380939 0.0029717953079131309 0 0.0028376991966644143 0.0034589849667644372 0 0.0037079837879206777 0.0030955644644625876 0 0.0028376991966644143 0.0034589849667644372 0 0.0030705550503475872 0.004394942952075348 0 0.0028376991966644143 0.0034589849667644372 0 0.002117740771116336 0.0041912631271562297 0 0.002590661941659887 0.0022544937418796226 0 0.0039974288141473345 0.0045569865887539959 0 0.0037079837879206777 0.0030955644644625876 0 0.0030705550503475872 0.004394942952075348 0 0.0031230475637380939 0.0029717953079131309 0 0.0028376991966644143 0.0034589849667644372 0 0.002590661941659887 0.0022544937418796226 0 0.0028376991966644143 0.0034589849667644372 0 0.002117740771116336 0.0041912631271562297 0 0.0030705550503475872 0.004394942952075348 0 0.0021923218269278158 0.0038216858979329086 0 0.0025173871253673656 0.0025055923851971876 0 0.0019221817515695477 0.0032319405188175189 0 0.002117740771116336 0.0041912631271562297 0 0.0025397375187975082 0.0025445776352633147 0 0.0015419883913824815 0.0031043258888641106 0 0.0019221817515695477 0.0032319405188175189 0 0.0014379534795054478 0.0038877113430249364 0 0.0019221817515695477 0.0032319405188175189 0 0.0014379534795054478 0.0038877113430249364 0 0.002117740771116336 0.0041912631271562297 0 0.0014379534795054478 0.0038877113430249364 0 0.0023494614780853241 0.0049933286284069393 0 0.00053831575096777769 0.0040623596310440189 0 0.0014379534795054478 0.0038877113430249364 0 0.002117740771116336 0.0041912631271562297 0 0.0023494614780853241 0.0049933286284069393 0 0.0037966221445707772 0.010030786543699495 0 0.0014364721015411453 0.0090021538229264533 0 0.0023494614780853241 0.0049933286284069393 0 0.0030705550503475872 0.004394942952075348 0 0.0042996448457993082 0.0059848814021477284 0 0.002117740771116336 0.0041912631271562297 0 0.0023494614780853241 0.0049933286284069393 0 0.0030705550503475872 0.004394942952075348 0 0.0038234810977166829 0.015017824784324967 0 0.0043734495916463367 0.015918088494723089 0 0.0052355486090198012 0.015697564797584565 0 0.0037966221445707772 0.010030786543699495 0 0.0031994972723981825 0.0041337203857992636 0 0.0038234810977166829 0.015017824784324967 0 0.0033414885157930308 0.016072967272370727 0 0.0027580278800598593 0.015400310839257289 0 0.0038234810977166829 0.015017824784324967 0 0.0043734495916463367 0.015918088494723089 0 0.0033414885157930308 0.016072967272370727 0 0.0042050510468830612 0.016971655315125247 0 0.0033414885157930308 0.016072967272370727 0 0.002796633483911893 0.017020964318374535 0 0.0012722949111281243 0.011579061684147117 0 0.0022298857813420133 0.00351397256587852 0 0.0042050510468830612 0.016971655315125247 0 0.0043734495916463367 0.015918088494723089 0 0.0033414885157930308 0.016072967272370727 0 0.0042050510468830612 0.016971655315125247 0 0.0043734495916463367 0.015918088494723089 0 0.0052671617013293299 0.015834184343177311 0 -0.00022037032312104005 0.0058192244254610158 0 -0.00017118558792925774 0.0058571906981676487 0 -0.00016981310985693244 0.0059026508529920162 0 0.0012791075348567973 -0.0071564421038932263 0 0.0012888624489611861 -0.0070753137740314498 0 0.001471717078554802 -0.0068145313398968298 0 0.00044451763474924954 -0.0012388517458559293 0 0.0022298857813420133 0.00351397256587852 0 -0.0001276071784916349 0.0058770383134318866 0 -0.00017118558792925774 0.0058571906981676487 0 -0.00016981310985693244 0.0059026508529920162 0 0.0012888624489611861 -0.0070753137740314498 0 0.0013153704803362937 -0.006991943267207739 0 0.001471717078554802 -0.0068145313398968298 0 0.0012888624489611861 -0.0070753137740314498 0 0.0013153704803362937 -0.006991943267207739 0 0.0012499503269658137 -0.0070500856031141595 0 0.0013153704803362937 -0.006991943267207739 0 0.0012499503269658137 -0.0070500856031141595 0 0.0012787073673518185 -0.0069842240848957838 0 0.0012038139787044354 -0.0070419525871352326 0 0.0012787073673518185 -0.0069842240848957838 0 0.0012559435570909661 -0.0069255163412371363 0 0.0011830087932559801 -0.0071357445407270364 0 0.0012038139787044354 -0.0070419525871352326 0 0.0012499503269658137 -0.0070500856031141595 0 0.0012038139787044354 -0.0070419525871352326 0 0.0012499503269658137 -0.0070500856031141595 0 0.0012787073673518185 -0.0069842240848957838 0 0.0013153704803362937 -0.006991943267207739 0 0.0013299321159615648 -0.0069128259924107699 0 0.001471717078554802 -0.0068145313398968298 0 0.0012787073673518185 -0.0069842240848957838 0 0.0012559435570909661 -0.0069255163412371363 0 0.0013299321159615648 -0.0069128259924107699 0 0.0013153704803362937 -0.006991943267207739 0 0.0012787073673518185 -0.0069842240848957838 0 0.0013299321159615648 -0.0069128259924107699 0 0.0012559435570909661 -0.0069255163412371363 0 0.0013092860690342909 -0.0068783774797164816 0 0.0013299321159615648 -0.0069128259924107699 0 0.0013092860690342909 -0.0068783774797164816 0 0.0013299321159615648 -0.0069128259924107699 0 0.0013714683975887152 -0.0068402637884791917 0 0.0032740749869195731 0.00047556418685816446 0 0.0030559798892966254 0.00055463205277954614 0 0.0029854275407196033 0.00078791716336483486 0 0.0013714683975887152 -0.0068402637884791917 0 0.0012574796192025017 -0.0067765822457179839 0 0.0014396038424448793 -0.0067953527434380717 0 0.0023631663500506745 -0.0033650684169250177 0 0.0024431463593565421 0.0025471986372278305 0 0.0013092860690342909 -0.0068783774797164816 0 0.0013714683975887152 -0.0068402637884791917 0 0.0012574796192025017 -0.0067765822457179839 0 0.0012635466154617319 -0.006623063914437506 0 0.0012574796192025017 -0.0067765822457179839 0 0.0014396038424448793 -0.0067953527434380717 0 0.0011625418388974207 -0.0069577737717243541 0 0.0012559435570909661 -0.0069255163412371363 0 0.0012574796192025017 -0.0067765822457179839 0 0.0012559435570909661 -0.0069255163412371363 0 0.0013092860690342909 -0.0068783774797164816 0 0.0012574796192025017 -0.0067765822457179839 0 0.0030559798892966254 0.00055463205277954614 0 0.0029482777945693222 0.00076931948550203752 0 0.0029854275407196033 0.00078791716336483486 0 0.0043734495916463367 0.015918088494723089 0 0.0052671617013293299 0.015834184343177311 0 0.0052355486090198012 0.015697564797584565 0 0.0033595854305342051 0.0025159589514155726 0 0.0031994972723981825 0.0041337203857992636 0 0.0013299321159615648 -0.0069128259924107699 0 0.0013714683975887152 -0.0068402637884791917 0 0.001471717078554802 -0.0068145313398968298 0 0.0022298857813420133 0.00351397256587852 0 0.0024431463593565421 0.0025471986372278305 0 0.0012757724018946494 0.0010834656826571221 0 0.0024431463593565421 0.0025471986372278305 0 0.0013714683975887152 -0.0068402637884791917 0 0.001471717078554802 -0.0068145313398968298 0 0.0014516278809896367 -0.0067903120962573916 0 0.0022298857813420133 0.00351397256587852 0 0.0031994972723981825 0.0041337203857992636 0 0.0018749206608885472 0.0027503627973826778 0 0.0015901433970464699 0.0014294158043888759 0 0.0026481565042806559 0.0019688264403864772 0 0.0031994972723981825 0.0041337203857992636 0 0.0024431463593565421 0.0025471986372278305 0 0.0020382917989641047 -0.0081673110556652762 0 0.0020876076200892087 -0.0083135812780198975 0 0.001946580938474479 -0.0082731945556722281 0 0.001946580938474479 -0.0082731945556722281 0 0.0017879599320497668 -0.0081300169325900905 0 0.0017597831160064733 -0.0084422319836724349 0 0.0020382917989641047 -0.0081673110556652762 0 0.001946580938474479 -0.0082731945556722281 0 0.0017879599320497668 -0.0081300169325900905 0 0.0020876076200892087 -0.0083135812780198975 0 0.001946580938474479 -0.0082731945556722281 0 0.0020368785497477063 -0.0084976224139464672 0 0.0018092385662951693 -0.0080879694841089027 0 0.0017951402961802229 -0.0079171114501125055 0 0.0017879599320497668 -0.0081300169325900905 0 0.0019985547575372526 -0.0081519601964075098 0 0.0018915453675632883 -0.0081514406690608877 0 0.0017879599320497668 -0.0081300169325900905 0 0.0017380528896304133 -0.0076541969139846712 0 0.0015344995069774879 -0.0079625102618731351 0 0.0020382917989641047 -0.0081673110556652762 0 0.0017879599320497668 -0.0081300169325900905 0 0.0019985547575372526 -0.0081519601964075098 0 0.0019985547575372526 -0.0081519601964075098 0 0.0020600931781205012 -0.0081792223644530909 0 0.001829453651155181 -0.0080877322771359655 0 0.0017951402961802229 -0.0079171114501125055 0 0.0017446008997862052 -0.0077252312188926617 0 0.0019985547575372526 -0.0081519601964075098 0 0.0018915453675632883 -0.0081514406690608877 0 0.001829453651155181 -0.0080877322771359655 0 0.0017380528896304133 -0.0076541969139846712 0 0.0016648003017230412 -0.0073805250303984275 0 0.0014690852223282621 -0.0076395728809311551 0 0.0016648003017230412 -0.0073805250303984275 0 0.0014365439201699884 -0.0073865189901394217 0 0.0014690852223282621 -0.0076395728809311551 0 0.0014690852223282621 -0.0076395728809311551 0 0.0015344995069774879 -0.0079625102618731351 0 0.0013468159131981108 -0.0080149836823291062 0 0.0015344995069774879 -0.0079625102618731351 0 0.0013468159131981108 -0.0080149836823291062 0 0.001360597052599774 -0.0084381459794266121 0 0.0017879599320497668 -0.0081300169325900905 0 0.0015344995069774879 -0.0079625102618731351 0 0.001360597052599774 -0.0084381459794266121 0 0.0017380528896304133 -0.0076541969139846712 0 0.0014690852223282621 -0.0076395728809311551 0 0.0015344995069774879 -0.0079625102618731351 0 0.0013468159131981108 -0.0080149836823291062 0 0.001104294775978418 -0.0080525198618539781 0 0.0012649738036294405 -0.0082562964821874165 0 0.001104294775978418 -0.0080525198618539781 0 0.00088146759107443173 -0.0078649092182954735 0 0.00089633485946557048 -0.0081798641595514608 0 0.0012531193936166384 -0.0075330804024008281 0 0.0011456176332234433 -0.0076169747385857007 0 0.001104294775978418 -0.0080525198618539781 0 0.0012729916637042144 -0.0075258153677889589 0 0.00088146759107443173 -0.0078649092182954735 0 0.0014690852223282621 -0.0076395728809311551 0 0.0013468159131981108 -0.0080149836823291062 0 0.0012729916637042144 -0.0075258153677889589 0 0.0013468159131981108 -0.0080149836823291062 0 0.001104294775978418 -0.0080525198618539781 0 0.0012729916637042144 -0.0075258153677889589 0 0.0014365439201699884 -0.0073865189901394217 0 0.0014690852223282621 -0.0076395728809311551 0 0.0012729916637042144 -0.0075258153677889589 0 0.0014365439201699884 -0.0073865189901394217 0 0.0013813399360700631 -0.0073574115293403158 0 0.0012729916637042144 -0.0075258153677889589 0 0.0014726299140069732 -0.00725877764858691 0 0.0013813399360700631 -0.0073574115293403158 0 0.001380447813024461 -0.007357959324775433 0 0.0012729916637042144 -0.0075258153677889589 0 0.001380447813024461 -0.007357959324775433 0 0.0013656075771019012 -0.0073590033162776103 0 0.0013813399360700631 -0.0073574115293403158 0 0.0012729916637042144 -0.0075258153677889589 0 0.001380447813024461 -0.007357959324775433 0 0.0014726299140069732 -0.00725877764858691 0 0.0014208948010531854 -0.0071767845670488778 0 0.001380447813024461 -0.007357959324775433 0 0.0014208948010531854 -0.0071767845670488778 0 0.0013341035866076987 -0.0072692456556509698 0 0.001380447813024461 -0.007357959324775433 0 0.0013341035866076987 -0.0072692456556509698 0 0.001380447813024461 -0.007357959324775433 0 0.0013484394458147645 -0.0073290833856721159 0 0.0013484394458147645 -0.0073290833856721159 0 0.0013656075771019012 -0.0073590033162776103 0 0.0013524204007152698 -0.0073889062241295567 0 0.001380447813024461 -0.007357959324775433 0 0.0013484394458147645 -0.0073290833856721159 0 0.0013656075771019012 -0.0073590033162776103 0 0.00088146759107443173 -0.0078649092182954735 0 0.00072527148671783074 -0.0080940583572831782 0 0.00089633485946557048 -0.0081798641595514608 0 0.0011456176332234433 -0.0076169747385857007 0 0.0010512435530789818 -0.0077423536794161106 0 0.00074533076685231786 -0.0081902284367552994 0 0.00072527148671783074 -0.0080940583572831782 0 0.00074001335023577287 -0.0082456716656415848 0 0.00072527148671783074 -0.0080940583572831782 0 0.00089633485946557048 -0.0081798641595514608 0 0.00074001335023577287 -0.0082456716656415848 0 0.00089633485946557048 -0.0081798641595514608 0 0.00074001335023577287 -0.0082456716656415848 0 0.00092952202699089087 -0.0083985890425702682 0 0.00068277236165441605 -0.0083047175995140821 0 0.00054150967144600689 -0.0082988062537531441 0 0.00075935801498581306 -0.0081419628121181097 0 0.00074001335023577287 -0.0082456716656415848 0 0.00070717194205789397 -0.0081325973159330541 0 0.00075935801498581306 -0.0081419628121181097 0 0.00070717194205789397 -0.0081325973159330541 0 0.00073042578277456244 -0.0081070281355327123 0 0.00070717194205789397 -0.0081325973159330541 0 0.00073042578277456244 -0.0081070281355327123 0 0.00070036008347393081 -0.0080923890171310936 0 0.00054150967144600689 -0.0082988062537531441 0 0.00021102470099013465 -0.010156417094415024 0 0.00075245024496544712 -0.0085706751838907063 0 0.00093729959397379132 -0.0086517903438576745 0 0.00080942017722142226 -0.0088117527816399133 0 0.0010812642318047275 -0.0087323090700218431 0 0.00021102470099013465 -0.010156417094415024 0 0.00093729959397379132 -0.0086517903438576745 0 0.00095674431425399602 -0.0088048676070571798 0 0.00078270179805051457 -0.0088327034358738968 0 0.00074001335023577287 -0.0082456716656415848 0 0.00075245024496544712 -0.0085706751838907063 0 0.00092952202699089087 -0.0083985890425702682 0 0.00075245024496544712 -0.0085706751838907063 0 0.00092952202699089087 -0.0083985890425702682 0 0.00093729959397379132 -0.0086517903438576745 0 0.00092952202699089087 -0.0083985890425702682 0 0.0010537956735118665 -0.008521191112837171 0 0.00093729959397379132 -0.0086517903438576745 0 0.00093729959397379132 -0.0086517903438576745 0 0.0011063493489972187 -0.0087509911787630075 0 0.00095674431425399602 -0.0088048676070571798 0 0.0010537956735118665 -0.008521191112837171 0 0.00093729959397379132 -0.0086517903438576745 0 0.0011063493489972187 -0.0087509911787630075 0 0.0011063493489972187 -0.0087509911787630075 0 0.0012221470346595474 -0.0085289184708925506 0 0.0012902452249882565 -0.0086980023954773746 0 0.0010537956735118665 -0.008521191112837171 0 0.0011063493489972187 -0.0087509911787630075 0 0.0012221470346595474 -0.0085289184708925506 0 0.0010537956735118665 -0.008521191112837171 0 0.0012221470346595474 -0.0085289184708925506 0 0.0011112785615602534 -0.0083450560410864485 0 0.0012221470346595474 -0.0085289184708925506 0 0.0011112785615602534 -0.0083450560410864485 0 0.0012972593948924567 -0.0084081569974626784 0 0.0011112785615602534 -0.0083450560410864485 0 0.0012649738036294405 -0.0082562964821874165 0 0.0012972593948924567 -0.0084081569974626784 0 0.00089633485946557048 -0.0081798641595514608 0 0.00092952202699089087 -0.0083985890425702682 0 0.0011112785615602534 -0.0083450560410864485 0 0.00092952202699089087 -0.0083985890425702682 0 0.0010537956735118665 -0.008521191112837171 0 0.0011112785615602534 -0.0083450560410864485 0 0.001104294775978418 -0.0080525198618539781 0 0.00089633485946557048 -0.0081798641595514608 0 0.0011112785615602534 -0.0083450560410864485 0 0.001104294775978418 -0.0080525198618539781 0 0.0011112785615602534 -0.0083450560410864485 0 0.0012649738036294405 -0.0082562964821874165 0 0.0013468159131981108 -0.0080149836823291062 0 0.0012649738036294405 -0.0082562964821874165 0 0.001360597052599774 -0.0084381459794266121 0 0.0012316518650577841 -0.0085720563515653738 0 0.0010853399456696637 -0.0089034581366270547 0 0.001360597052599774 -0.0084381459794266121 0 0.0012972593948924567 -0.0084081569974626784 0 0.0014157815218017917 -0.0085094904209435142 0 0.001360597052599774 -0.0084381459794266121 0 0.00080332800159670494 -0.0091588069617191473 0 0.0015596182502673726 -0.0087901071055852282 0 0.0012649738036294405 -0.0082562964821874165 0 0.001360597052599774 -0.0084381459794266121 0 0.0012972593948924567 -0.0084081569974626784 0 0.0012221470346595474 -0.0085289184708925506 0 0.0012902452249882565 -0.0086980023954773746 0 0.0014157815218017917 -0.0085094904209435142 0 0.0012221470346595474 -0.0085289184708925506 0 0.0012972593948924567 -0.0084081569974626784 0 0.0014157815218017917 -0.0085094904209435142 0 0.0012902452249882565 -0.0086980023954773746 0 0.0014439325485725127 -0.0087518825234444205 0 0.0014157815218017917 -0.0085094904209435142 0 0.00082331746441700025 -0.0095665338227949957 0 0.0010853399456696637 -0.0089034581366270547 0 0.00021465776307268066 -0.010174248494133285 0 0.00080332800159670494 -0.0091588069617191473 0 0.00094997435297420338 -0.0098141439487577625 0 0.00021465776307268066 -0.010174248494133285 0 0.00094997435297420338 -0.0098141439487577625 0 0.00087202029873044472 -0.010449980410091224 0 0.00080332800159670494 -0.0091588069617191473 0 0.0015154300422767705 -0.0094873108280626086 0 0.0015596182502673726 -0.0087901071055852282 0 0.00080332800159670494 -0.0091588069617191473 0 0.0015154300422767705 -0.0094873108280626086 0 0.00094997435297420338 -0.0098141439487577625 0 0.0015154300422767705 -0.0094873108280626086 0 0.00094997435297420338 -0.0098141439487577625 0 0.001340888223469132 -0.0099837700159149615 0 0.00094997435297420338 -0.0098141439487577625 0 0.001340888223469132 -0.0099837700159149615 0 0.00087202029873044472 -0.010449980410091224 0 0.0015154300422767705 -0.0094873108280626086 0 0.001340888223469132 -0.0099837700159149615 0 0.0019844887424892029 -0.010206502481822026 0 0.0021398367922313964 -0.0095240217851465074 0 0.0015154300422767705 -0.0094873108280626086 0 0.0019844887424892029 -0.010206502481822026 0 0.0015154300422767705 -0.0094873108280626086 0 0.0019368121807779568 -0.0090281539030746972 0 0.0015596182502673726 -0.0087901071055852282 0 0.0021398367922313964 -0.0095240217851465074 0 0.0015154300422767705 -0.0094873108280626086 0 0.0019368121807779568 -0.0090281539030746972 0 0.0021672583183400852 -0.0087770841829788501 0 0.0019368121807779568 -0.0090281539030746972 0 0.0018835735188243044 -0.0086908148536579809 0 0.0021672583183400852 -0.0087770841829788501 0 0.0018835735188243044 -0.0086908148536579809 0 0.0020368785497477063 -0.0084976224139464672 0 0.0019368121807779568 -0.0090281539030746972 0 0.0018835735188243044 -0.0086908148536579809 0 0.0015596182502673726 -0.0087901071055852282 0 0.001360597052599774 -0.0084381459794266121 0 0.0015596182502673726 -0.0087901071055852282 0 0.0017597831160064733 -0.0084422319836724349 0 0.0018835735188243044 -0.0086908148536579809 0 0.0015596182502673726 -0.0087901071055852282 0 0.0017597831160064733 -0.0084422319836724349 0 0.0017879599320497668 -0.0081300169325900905 0 0.001360597052599774 -0.0084381459794266121 0 0.0017597831160064733 -0.0084422319836724349 0 0.001946580938474479 -0.0082731945556722281 0 0.0017597831160064733 -0.0084422319836724349 0 0.0020368785497477063 -0.0084976224139464672 0 0.0018835735188243044 -0.0086908148536579809 0 0.0017597831160064733 -0.0084422319836724349 0 0.0020368785497477063 -0.0084976224139464672 0 0.0014921006257817887 -0.017138971584689848 0 0.0011441284989411856 -0.016519482405469535 0 0.0039856619810562663 -0.015483787240332069 0 0.0028234944550538429 -0.01463603363344273 0 0.0021260507560676291 -0.01589811612714797 0 0.0028234944550538429 -0.01463603363344273 0 0.0018771135316787786 -0.014559101852045436 0 0.002410952672077383 -0.0137538255074085 0 0.0039856619810562663 -0.015483787240332069 0 0.0028234944550538429 -0.01463603363344273 0 0.0034029397316481928 -0.014393001367939711 0 0.0028234944550538429 -0.01463603363344273 0 0.0018771135316787786 -0.014559101852045436 0 0.0021260507560676291 -0.01589811612714797 0 0.0011829263930285962 -0.015103502399948848 0 0.0018771135316787786 -0.014559101852045436 0 0.0021260507560676291 -0.01589811612714797 0 0.0011829263930285962 -0.015103502399948848 0 -0.00030522514374369794 -0.016435080737638431 0 0.0021260507560676291 -0.01589811612714797 0 0.0011829263930285962 -0.015103502399948848 0 0.00029420896043247949 -0.015139122038849762 0 -0.00030522514374369794 -0.016435080737638431 0 0.00029420896043247949 -0.015139122038849762 0 0.0010101221295584883 -0.014327110326061513 0 0.00041192405239202283 -0.014328704971639005 0 0.0011829263930285962 -0.015103502399948848 0 0.00029420896043247949 -0.015139122038849762 0 0.0010101221295584883 -0.014327110326061513 0 0.0011829263930285962 -0.015103502399948848 0 0.0010101221295584883 -0.014327110326061513 0 0.0018771135316787786 -0.014559101852045436 0 0.0010101221295584883 -0.014327110326061513 0 0.0018771135316787786 -0.014559101852045436 0 0.0016706796999003536 -0.01377243327921863 0 0.0010101221295584883 -0.014327110326061513 0 0.0016706796999003536 -0.01377243327921863 0 0.001098945585594979 -0.013288526297213809 0 0.0016706796999003536 -0.01377243327921863 0 0.0018550794878856151 -0.012909749877575715 0 0.002410952672077383 -0.0137538255074085 0 0.0010101221295584883 -0.014327110326061513 0 0.001098945585594979 -0.013288526297213809 0 0.00038678485611035268 -0.013721114827468411 0 0.0010101221295584883 -0.014327110326061513 0 0.00038678485611035268 -0.013721114827468411 0 0.00041192405239202283 -0.014328704971639005 0 0.001098945585594979 -0.013288526297213809 0 0.0018550794878856151 -0.012909749877575715 0 0.00094913676560296758 -0.012160113036498497 0 0.001098945585594979 -0.013288526297213809 0 0.00034667373758285941 -0.012914457216035513 0 0.00038678485611035268 -0.013721114827468411 0 0.001098945585594979 -0.013288526297213809 0 0.00094913676560296758 -0.012160113036498497 0 0.00034667373758285941 -0.012914457216035513 0 0.0016706796999003536 -0.01377243327921863 0 0.001098945585594979 -0.013288526297213809 0 0.0018550794878856151 -0.012909749877575715 0 0.0018550794878856151 -0.012909749877575715 0 0.0026408561826568797 -0.013086584241404454 0 0.002410952672077383 -0.0137538255074085 0 0.0018771135316787786 -0.014559101852045436 0 0.0016706796999003536 -0.01377243327921863 0 0.002410952672077383 -0.0137538255074085 0 0.0026408561826568797 -0.013086584241404454 0 0.002410952672077383 -0.0137538255074085 0 0.0031478036779627322 -0.01369931919103832 0 0.0028234944550538429 -0.01463603363344273 0 0.0034029397316481928 -0.014393001367939711 0 0.0031478036779627322 -0.01369931919103832 0 0.0028234944550538429 -0.01463603363344273 0 0.002410952672077383 -0.0137538255074085 0 0.0031478036779627322 -0.01369931919103832 0 0.0036551071546277298 -0.013753232072476487 0 0.0034029397316481928 -0.014393001367939711 0 0.0031478036779627322 -0.01369931919103832 0 0.0037797247842648401 -0.013473430946387135 0 0.0031478036779627322 -0.01369931919103832 0 0.003264128393148596 -0.012985123536451745 0 0.0026408561826568797 -0.013086584241404454 0 0.0031478036779627322 -0.01369931919103832 0 0.003264128393148596 -0.012985123536451745 0 0.0036731827727389619 -0.012449034970511216 0 0.003264128393148596 -0.012985123536451745 0 0.0025978971506117393 -0.012202935189125944 0 0.0026408561826568797 -0.013086584241404454 0 0.003264128393148596 -0.012985123536451745 0 0.0025978971506117393 -0.012202935189125944 0 0.0018550794878856151 -0.012909749877575715 0 0.0026408561826568797 -0.013086584241404454 0 0.0025978971506117393 -0.012202935189125944 0 0.0023955414855424953 -0.012146596960381624 0 0.0024089570922070092 -0.011425980917115684 0 0.0017191088629219585 -0.011212885092918241 0 0.003055216078539784 -0.011679754590895078 0 0.0023955414855424953 -0.012146596960381624 0 0.0024089570922070092 -0.011425980917115684 0 0.003055216078539784 -0.011679754590895078 0 0.0024089570922070092 -0.011425980917115684 0 0.0026804016303918774 -0.010523264053407803 0 0.0024089570922070092 -0.011425980917115684 0 0.0026804016303918774 -0.010523264053407803 0 0.0017191088629219585 -0.011212885092918241 0 0.0023512500401688631 -0.010631149079891527 0 0.0010954232344457286 -0.010471259396447309 0 0.0026804016303918774 -0.010523264053407803 0 0.00087202029873044472 -0.010449980410091224 0 0.0017191088629219585 -0.011212885092918241 0 0.001340888223469132 -0.0099837700159149615 0 0.0019844887424892029 -0.010206502481822026 0 0.00087202029873044472 -0.010449980410091224 0 0.00087202029873044472 -0.010449980410091224 0 0.0017191088629219585 -0.011212885092918241 0 0.00060933517543115541 -0.011213427871229141 0 0.0018550794878856151 -0.012909749877575715 0 0.0025978971506117393 -0.012202935189125944 0 0.00094913676560296758 -0.012160113036498497 0 0.002488238977644388 -0.012715031392190162 0 0.0013994415311392575 -0.012396739478137629 0 0.0017191088629219585 -0.011212885092918241 0 0.00094913676560296758 -0.012160113036498497 0 0.00060933517543115541 -0.011213427871229141 0 0.0023955414855424953 -0.012146596960381624 0 0.0017191088629219585 -0.011212885092918241 0 0.00094913676560296758 -0.012160113036498497 0 0.00094913676560296758 -0.012160113036498497 0 -0.00039489460698077452 -0.011954538108147257 0 0.00034667373758285941 -0.012914457216035513 0 0.00094913676560296758 -0.012160113036498497 0 -0.00039489460698077452 -0.011954538108147257 0 0.00060933517543115541 -0.011213427871229141 0 -0.00039489460698077452 -0.011954538108147257 0 -0.00013204211819695474 -0.01336542189495208 0 0.00034667373758285941 -0.012914457216035513 0 0.0014439325485725127 -0.0087518825234444205 0 0.0014481881337531112 -0.0090332512136379293 0 0.0013401099600041163 -0.0088676021413607725 0 0.00021465776307268066 -0.010174248494133285 0 -0.00039489460698077452 -0.011954538108147257 0 0.00060933517543115541 -0.011213427871229141 0 0.00082331746441700025 -0.0095665338227949957 0 0.0005459199501476271 -0.010460839562957867 0 0.00021465776307268066 -0.010174248494133285 0 0.00087202029873044472 -0.010449980410091224 0 0.00060933517543115541 -0.011213427871229141 0 0.0012902452249882565 -0.0086980023954773746 0 0.0013401099600041163 -0.0088676021413607725 0 0.0012377584885927898 -0.0088609119701464935 0 0.0012902452249882565 -0.0086980023954773746 0 0.0014439325485725127 -0.0087518825234444205 0 0.0013401099600041163 -0.0088676021413607725 0 0.0013401099600041163 -0.0088676021413607725 0 0.001284692080616677 -0.0090089219627563638 0 0.0012377584885927898 -0.0088609119701464935 0 0.0014481881337531112 -0.0090332512136379293 0 0.0013401099600041163 -0.0088676021413607725 0 0.001284692080616677 -0.0090089219627563638 0 0.0014481881337531112 -0.0090332512136379293 0 0.001284692080616677 -0.0090089219627563638 0 0.0013352787185497835 -0.0091360699695210729 0 0.001284692080616677 -0.0090089219627563638 0 0.0013352787185497835 -0.0091360699695210729 0 0.0011899411000945196 -0.0091534358398235611 0 0.0014481881337531112 -0.0090332512136379293 0 0.0013352787185497835 -0.0091360699695210729 0 0.0014223610748724811 -0.0093434667076671783 0 -0.0021384719631444499 -0.013730972732865485 0 -0.0017224965303301127 -0.013833760667793656 0 -0.0019987450267080222 -0.013877047882247067 0 0.00015439098412835307 -0.012636830776348954 0 -0.00041867899849704033 -0.011559569846439475 0 0.0013352787185497835 -0.0091360699695210729 0 0.0014223610748724811 -0.0093434667076671783 0 0.0011899411000945196 -0.0091534358398235611 0 -0.00039489460698077452 -0.011954538108147257 0 -0.00013204211819695474 -0.01336542189495208 0 -0.00080695045266857555 -0.014042866433436106 0 0.0005459199501476271 -0.010460839562957867 0 0.00015439098412835307 -0.012636830776348954 0 -0.00013204211819695474 -0.01336542189495208 0 0.00034667373758285941 -0.012914457216035513 0 0.00038678485611035268 -0.013721114827468411 0 -0.00013204211819695474 -0.01336542189495208 0 0.00038678485611035268 -0.013721114827468411 0 -3.327296182541081e-05 -0.014145746901736096 0 0.00038678485611035268 -0.013721114827468411 0 -3.327296182541081e-05 -0.014145746901736096 0 0.00041192405239202283 -0.014328704971639005 0 -0.00013204211819695474 -0.01336542189495208 0 -3.327296182541081e-05 -0.014145746901736096 0 -0.00080695045266857555 -0.014042866433436106 0 -0.0015281454607269942 -0.014328556548329645 0 -0.00090885339153606067 -0.015414847236152451 0 -0.0015577030400160765 -0.016283278813347124 0 0.00015439098412835307 -0.012636830776348954 0 5.3374358189209508e-05 -0.012939995459864373 0 0.00029420896043247949 -0.015139122038849762 0 -0.0014792023401458761 -0.013808011318982181 0 -0.0015281454607269942 -0.014328556548329645 0 0.00029420896043247949 -0.015139122038849762 0 -0.0015281454607269942 -0.014328556548329645 0 -0.00090885339153606067 -0.015414847236152451 0 0.00029420896043247949 -0.015139122038849762 0 -3.327296182541081e-05 -0.014145746901736096 0 0.00041192405239202283 -0.014328704971639005 0 0.00035828990095869244 -0.014071114438142192 0 0.00015439098412835307 -0.012636830776348954 0 0.00029420896043247949 -0.015139122038849762 0 -3.327296182541081e-05 -0.014145746901736096 0 -0.00080695045266857555 -0.014042866433436106 0 0.00029420896043247949 -0.015139122038849762 0 -0.00090885339153606067 -0.015414847236152451 0 -0.00030522514374369794 -0.016435080737638431 0 -0.0021677724849545172 -0.013913808651750263 0 -0.0020953826254457258 -0.014023370705878852 0 -0.0021384719631444499 -0.013730972732865485 0 -0.0017980720866998224 -0.012880951214978051 0 -0.0022554260712609351 -0.012408537931000847 0 -0.0021384719631444499 -0.013730972732865485 0 -0.0015281454607269942 -0.014328556548329645 0 -0.0015577030400160765 -0.016283278813347124 0 -0.0021384719631444499 -0.013730972732865485 0 -0.0022554260712609351 -0.012408537931000847 0 -0.0029905184121387859 -0.01218051326947543 0 -0.0021384719631444499 -0.013730972732865485 0 -0.0017224965303301127 -0.013833760667793656 0 -0.0015281454607269942 -0.014328556548329645 0 -0.0013138125040753302 -0.0131145114599476 0 -0.0017980720866998224 -0.012880951214978051 0 -0.0017805139207108488 -0.013554323566300357 0 -0.0021384719631444499 -0.013730972732865485 0 -0.0017980720866998224 -0.012880951214978051 0 -0.0017805139207108488 -0.013554323566300357 0 -0.0017980720866998224 -0.012880951214978051 0 -0.0013818641661687663 -0.012560882891491633 0 -0.0018491743027715959 -0.011968899585534699 0 -0.0013138125040753302 -0.0131145114599476 0 -0.0017980720866998224 -0.012880951214978051 0 -0.0013818641661687663 -0.012560882891491633 0 -0.0013138125040753302 -0.0131145114599476 0 -0.0013818641661687663 -0.012560882891491633 0 -0.00094983808511815183 -0.012738724473024545 0 -0.0013818641661687663 -0.012560882891491633 0 -0.00094983808511815183 -0.012738724473024545 0 -0.00099322716691893956 -0.012017093698060519 0 -0.00094983808511815183 -0.012738724473024545 0 -0.00025901342104144926 -0.012737466791637937 0 -0.00099322716691893956 -0.012017093698060519 0 -0.00094983808511815183 -0.012738724473024545 0 -0.00071705721918483836 -0.013283553892260849 0 -0.00025901342104144926 -0.012737466791637937 0 -0.0013138125040753302 -0.0131145114599476 0 -0.00094983808511815183 -0.012738724473024545 0 -0.00071705721918483836 -0.013283553892260849 0 -0.0013138125040753302 -0.0131145114599476 0 -0.00071705721918483836 -0.013283553892260849 0 -0.0010247205599161889 -0.013790677083549776 0 -0.00071705721918483836 -0.013283553892260849 0 -0.0010247205599161889 -0.013790677083549776 0 -0.00011789263174016109 -0.014025484653037266 0 -0.0010247205599161889 -0.013790677083549776 0 -0.0017805139207108488 -0.013554323566300357 0 -0.0019987450267080222 -0.013877047882247067 0 -0.0013138125040753302 -0.0131145114599476 0 -0.0010247205599161889 -0.013790677083549776 0 -0.0017805139207108488 -0.013554323566300357 0 -0.0021384719631444499 -0.013730972732865485 0 -0.0017805139207108488 -0.013554323566300357 0 -0.0019987450267080222 -0.013877047882247067 0 0.001284692080616677 -0.0090089219627563638 0 0.0011899411000945196 -0.0091534358398235611 0 0.0011494571207572345 -0.0089739363580723479 0 0.0011899411000945196 -0.0091534358398235611 0 0.0011494571207572345 -0.0089739363580723479 0 0.00099571796182443707 -0.0089858205616513715 0 -0.00041867899849704033 -0.011559569846439475 0 0.00025562460317649668 -0.011722756373491818 0 0.0011063493489972187 -0.0087509911787630075 0 0.0012902452249882565 -0.0086980023954773746 0 0.0012377584885927898 -0.0088609119701464935 0 0.0011063493489972187 -0.0087509911787630075 0 0.0011494571207572345 -0.0089739363580723479 0 0.0012377584885927898 -0.0088609119701464935 0 0.0011063493489972187 -0.0087509911787630075 0 0.0011494571207572345 -0.0089739363580723479 0 0.00099571796182443707 -0.0089858205616513715 0 0.001284692080616677 -0.0090089219627563638 0 0.0011494571207572345 -0.0089739363580723479 0 0.0012377584885927898 -0.0088609119701464935 0 0.0011063493489972187 -0.0087509911787630075 0 0.00095674431425399602 -0.0088048676070571798 0 0.00099571796182443707 -0.0089858205616513715 0 0.00095674431425399602 -0.0088048676070571798 0 0.00099571796182443707 -0.0089858205616513715 0 0.00078270179805051457 -0.0088327034358738968 0 -0.0010247205599161889 -0.013790677083549776 0 -0.0008739044929100369 -0.014662117594988731 0 -0.00011789263174016109 -0.014025484653037266 0 -0.0010247205599161889 -0.013790677083549776 0 -0.0019987450267080222 -0.013877047882247067 0 -0.0008739044929100369 -0.014662117594988731 0 -0.0008739044929100369 -0.014662117594988731 0 8.9744625870166796e-05 -0.015275788012680152 0 -0.00011789263174016109 -0.014025484653037266 0 -0.00040698349603706405 -0.01064698002155713 0 -0.00045956539617121985 -0.01071184000549693 0 -0.00039386560471364328 -0.010759194098612269 0 0.00021102470099013465 -0.010156417094415024 0 -0.00010738490108709883 -0.012711346515127052 0 0.00025562460317649668 -0.011722756373491818 0 0.00021102470099013465 -0.010156417094415024 0 0.00070036008347393081 -0.0080923890171310936 0 0.0007342990396024808 -0.0080839914108092985 0 0.00072910827166592707 -0.0080606340693562643 0 0.00021102470099013465 -0.010156417094415024 0 0.00014658521416099557 -0.0093882167482959144 0 0.00076168735246026555 -0.0080994565623973332 0 0.00073042578277456244 -0.0081070281355327123 0 0.0007342990396024808 -0.0080839914108092985 0 0.00073042578277456244 -0.0081070281355327123 0 0.00070036008347393081 -0.0080923890171310936 0 0.0007342990396024808 -0.0080839914108092985 0 0.0007342990396024808 -0.0080839914108092985 0 0.00072910827166592707 -0.0080606340693562643 0 0.00075851412433494832 -0.0080687099641402974 0 -0.00045956539617121985 -0.01071184000549693 0 -0.00046266396071808748 -0.010756910926363101 0 -0.00039386560471364328 -0.010759194098612269 0 -0.00045956539617121985 -0.01071184000549693 0 -0.00046266396071808748 -0.010756910926363101 0 -0.00050064620605251066 -0.010763159889924462 0 0.00014658521416099557 -0.0093882167482959144 0 0.00036778362684157778 -0.0084373470633062921 0 -0.00046266396071808748 -0.010756910926363101 0 -0.00047303404139980285 -0.010796521339036639 0 -0.00050064620605251066 -0.010763159889924462 0 -0.00047303404139980285 -0.010796521339036639 0 -0.00043378771585468698 -0.010787473151728892 0 -0.00042146729740315762 -0.010834465024595027 0 -0.00046266396071808748 -0.010756910926363101 0 -0.00043378771585468698 -0.010787473151728892 0 -0.00039386560471364328 -0.010759194098612269 0 -0.00046266396071808748 -0.010756910926363101 0 -0.00047303404139980285 -0.010796521339036639 0 -0.00043378771585468698 -0.010787473151728892 0 -0.00010738490108709883 -0.012711346515127052 0 -0.00036872833935791728 -0.01168853752806868 0 -0.00071705721918483836 -0.013283553892260849 0 -0.00011789263174016109 -0.014025484653037266 0 -0.00025901342104144926 -0.012737466791637937 0 -0.00043378771585468698 -0.010787473151728892 0 -0.00039386560471364328 -0.010759194098612269 0 -0.00042146729740315762 -0.010834465024595027 0 -0.00039386560471364328 -0.010759194098612269 0 -0.00042146729740315762 -0.010834465024595027 0 -0.00039601846510594539 -0.010855702564015312 0 -0.00039601846510594539 -0.010855702564015312 0 -0.00042291627929014203 -0.010860882352659307 0 -0.0004461515454406411 -0.010865763791587687 0 -0.00042146729740315762 -0.010834465024595027 0 -0.00039601846510594539 -0.010855702564015312 0 -0.00042291627929014203 -0.010860882352659307 0 0.00017946521460549772 -0.009536077517843319 0 -7.1897170955468362e-05 -0.010597324435138292 0 -0.00046709885700624466 -0.01079746991547963 0 -0.00042146729740315762 -0.010834465024595027 0 -0.00042291627929014203 -0.010860882352659307 0 0.00017946521460549772 -0.009536077517843319 0 -0.00013697481476769769 -0.010221101809613676 0 -0.00041018059377871311 -0.010822475924156524 0 -0.00042291627929014203 -0.010860882352659307 0 -0.00041589531123840251 -0.010854974810441264 0 -0.00041018059377871311 -0.010822475924156524 0 -0.00041589531123840251 -0.010854974810441264 0 -0.00041532119748462454 -0.01080409640054584 0 0.00020720255458816795 -0.011011977811816833 0 0.00061913594080818834 -0.0078517208626738139 0 8.0647862121226353e-05 -0.011224210864359379 0 0.00050728751905483366 -0.011278145051948799 0 0.0003637159084982009 -0.011035413981878068 0 8.0647862121226353e-05 -0.011224210864359379 0 9.5695215724638522e-05 -0.01084678181589256 0 -0.0004269093419074333 -0.010830917510264789 0 9.5695215724638522e-05 -0.01084678181589256 0 0.00030451874371154844 -0.010527655762230635 0 0.00048788259255252964 -0.010775504439084212 0 9.5695215724638522e-05 -0.01084678181589256 0 0.00048788259255252964 -0.010775504439084212 0 0.0003637159084982009 -0.011035413981878068 0 8.0647862121226353e-05 -0.011224210864359379 0 9.5695215724638522e-05 -0.01084678181589256 0 0.0003637159084982009 -0.011035413981878068 0 -0.00042291627929014203 -0.010860882352659307 0 -0.00041589531123840251 -0.010854974810441264 0 -0.0004269093419074333 -0.010830917510264789 0 -0.00042291627929014203 -0.010860882352659307 0 -0.0004461515454406411 -0.010865763791587687 0 -0.0004269093419074333 -0.010830917510264789 0 9.5695215724638522e-05 -0.01084678181589256 0 -0.0004269093419074333 -0.010830917510264789 0 -0.00012884481006543194 -0.010650429461272461 0 0.00020720255458816795 -0.011011977811816833 0 -0.00036421778255625419 -0.010768203444706586 0 -0.0004461515454406411 -0.010865763791587687 0 -0.0004269093419074333 -0.010830917510264789 0 -0.00058036079332297278 -0.010899525631898841 0 -0.0004269093419074333 -0.010830917510264789 0 -0.00012884481006543194 -0.010650429461272461 0 -0.00036589732102153434 -0.01034142210988474 0 -0.0004269093419074333 -0.010830917510264789 0 -0.00036589732102153434 -0.01034142210988474 0 -0.00058036079332297278 -0.010899525631898841 0 -0.00012884481006543194 -0.010650429461272461 0 -0.00036589732102153434 -0.01034142210988474 0 -0.00013048665906311617 -0.010107193352527861 0 -0.00012884481006543194 -0.010650429461272461 0 -0.00013048665906311617 -0.010107193352527861 0 0.00016944862256026554 -0.0096662744487817781 0 -0.00012884481006543194 -0.010650429461272461 0 0.00030451874371154844 -0.010527655762230635 0 0.00041374019895116409 -0.0099352259814932606 0 -0.00013095969381961045 -0.010448629952614563 0 2.8361675991142997e-05 -0.0097953125280869514 0 9.5695215724638522e-05 -0.01084678181589256 0 -0.00012884481006543194 -0.010650429461272461 0 0.00030451874371154844 -0.010527655762230635 0 -0.00013048665906311617 -0.010107193352527861 0 -0.00017501784657115657 -0.0098845944838335531 0 0.00016944862256026554 -0.0096662744487817781 0 -3.1526783184445988e-07 -0.0088535967377931252 0 -0.00017501784657115657 -0.0098845944838335531 0 -7.9481201383281259e-07 -0.010531358913173134 0 -3.1526783184445988e-07 -0.0088535967377931252 0 -0.00017501784657115657 -0.0098845944838335531 0 0.00016944862256026554 -0.0096662744487817781 0 -0.00017501784657115657 -0.0098845944838335531 0 -7.9481201383281259e-07 -0.010531358913173134 0 -0.00020837928590555243 -0.010737834145680898 0 -0.00036589732102153434 -0.01034142210988474 0 -0.00013048665906311617 -0.010107193352527861 0 -0.00017501784657115657 -0.0098845944838335531 0 -0.00030345101505059157 -0.010223667431520884 0 -0.00035704756919074048 -0.01048217480833063 0 -0.00036589732102153434 -0.01034142210988474 0 -0.00017501784657115657 -0.0098845944838335531 0 -0.00063418228302006383 -0.0099561951537974099 0 -0.00063418228302006383 -0.0099561951537974099 0 -0.0010741470791932794 -0.01051378593393233 0 -0.00065425537252041639 -0.01040765829611319 0 -0.00036589732102153434 -0.01034142210988474 0 -0.00063418228302006383 -0.0099561951537974099 0 -0.00065425537252041639 -0.01040765829611319 0 -0.00063418228302006383 -0.0099561951537974099 0 -0.0014859609361025647 -0.010105711431788308 0 -0.0010741470791932794 -0.01051378593393233 0 -0.00035704756919074048 -0.01048217480833063 0 -0.00083058059779898884 -0.011517475723172504 0 -7.9481201383281259e-07 -0.010531358913173134 0 -0.00020837928590555243 -0.010737834145680898 0 1.2206882582630101e-06 -0.012203816899171802 0 -0.00020837928590555243 -0.010737834145680898 0 1.2206882582630101e-06 -0.012203816899171802 0 0.00062337565955887118 -0.010533019908305673 0 -1.6033442346318351e-07 -0.012207219358781645 0 -0.00083058059779898884 -0.011517475723172504 0 1.5143914421881296e-06 -0.012209481455655844 0 0.00032481915667935152 -0.014047841056989391 0 -0.00013806965138754958 -0.013708621178443509 0 -0.00083058059779898884 -0.011517475723172504 0 -0.001149618279608904 -0.012830500275098917 0 -0.0015992377166508182 -0.010341145256983894 0 -0.0017293352403920659 -0.011159910862095283 0 -0.0025347542133890184 -0.010642369616078305 0 -0.0017148270240764836 -0.010870101851114772 0 -0.0010741470791932794 -0.01051378593393233 0 -0.0012042803994106071 -0.011277613508817673 0 -0.00083058059779898884 -0.011517475723172504 0 -0.0013908325240384852 -0.011139883724069143 0 -0.0014859609361025647 -0.010105711431788308 0 -0.0017148270240764836 -0.010870101851114772 0 -0.0010741470791932794 -0.01051378593393233 0 -0.0010741470791932794 -0.01051378593393233 0 -0.00065425537252041639 -0.01040765829611319 0 -0.00058036079332297278 -0.010899525631898841 0 -0.00036589732102153434 -0.01034142210988474 0 -0.00065425537252041639 -0.01040765829611319 0 -0.00058036079332297278 -0.010899525631898841 0 -0.0010741470791932794 -0.01051378593393233 0 -0.00058036079332297278 -0.010899525631898841 0 -0.0012042803994106071 -0.011277613508817673 0 -0.00058036079332297278 -0.010899525631898841 0 -0.0012042803994106071 -0.011277613508817673 0 -0.00099322716691893956 -0.012017093698060519 0 -0.00025901342104144926 -0.012737466791637937 0 -0.00058036079332297278 -0.010899525631898841 0 -0.00099322716691893956 -0.012017093698060519 0 -0.00036872833935791728 -0.01168853752806868 0 -0.00052529872219474617 -0.011055704663574662 0 -0.00039601846510594539 -0.010855702564015312 0 -0.0004461515454406411 -0.010865763791587687 0 -0.00058036079332297278 -0.010899525631898841 0 -0.0013818641661687663 -0.012560882891491633 0 -0.00099322716691893956 -0.012017093698060519 0 -0.0018491743027715959 -0.011968899585534699 0 -0.0017980720866998224 -0.012880951214978051 0 -0.0018491743027715959 -0.011968899585534699 0 -0.0022554260712609351 -0.012408537931000847 0 -0.0017293352403920659 -0.011159910862095283 0 -0.0018491743027715959 -0.011968899585534699 0 -0.0024789878549344633 -0.011466663294259003 0 -0.0013908325240384852 -0.011139883724069143 0 -0.0016058152789258854 -0.011624177296767487 0 -0.0017148270240764836 -0.010870101851114772 0 -0.0012042803994106071 -0.011277613508817673 0 -0.0018491743027715959 -0.011968899585534699 0 -0.0012042803994106071 -0.011277613508817673 0 -0.00099322716691893956 -0.012017093698060519 0 -0.0018491743027715959 -0.011968899585534699 0 -0.0018491743027715959 -0.011968899585534699 0 -0.0022554260712609351 -0.012408537931000847 0 -0.0024789878549344633 -0.011466663294259003 0 -0.0022554260712609351 -0.012408537931000847 0 -0.0029905184121387859 -0.01218051326947543 0 -0.0024789878549344633 -0.011466663294259003 0 -0.0029905184121387859 -0.01218051326947543 0 -0.0034912815410375999 -0.010952748336731547 0 -0.0024789878549344633 -0.011466663294259003 0 -0.0015577030400160765 -0.016283278813347124 0 -0.00064652380853582366 -0.017829100614582347 0 -0.00023283635523610089 -0.017210551375802418 0 -0.00090885339153606067 -0.015414847236152451 0 -0.0015577030400160765 -0.016283278813347124 0 -0.00030522514374369794 -0.016435080737638431 0 -0.0015577030400160765 -0.016283278813347124 0 -0.00030522514374369794 -0.016435080737638431 0 -0.00023283635523610089 -0.017210551375802418 0 -0.0020953826254457258 -0.014023370705878852 0 -0.00065888377680932029 -0.014949858203443299 0 -0.00065888377680932029 -0.014949858203443299 0 -0.001149618279608904 -0.012830500275098917 0 -0.0034912815410375999 -0.010952748336731547 0 -0.0024789878549344633 -0.011466663294259003 0 -0.0025347542133890184 -0.010642369616078305 0 -0.0017293352403920659 -0.011159910862095283 0 -0.0024789878549344633 -0.011466663294259003 0 -0.0025347542133890184 -0.010642369616078305 0 0.00032481915667935152 -0.014047841056989391 0 -0.00013383601525556485 -0.014137619201954915 0 -0.00013806965138754958 -0.013708621178443509 0 -0.00013383601525556485 -0.014137619201954915 0 -0.00013806965138754958 -0.013708621178443509 0 -0.00012669505140946346 -0.014103989860263753 0 -1.485184758557411e-06 -0.014127678008242833 0 -0.00013806965138754958 -0.013708621178443509 0 -0.00012669505140946346 -0.014103989860263753 0 1.5143914421881296e-06 -0.012209481455655844 0 -1.485184758557411e-06 -0.014127678008242833 0 -0.00013806965138754958 -0.013708621178443509 0 -1.485184758557411e-06 -0.014127678008242833 0 -3.1705320805541619e-05 -0.014453754051702756 0 1.4440206438895342e-06 -0.015980774666186741 0 -1.485184758557411e-06 -0.014127678008242833 0 -0.00012669505140946346 -0.014103989860263753 0 -3.1705320805541619e-05 -0.014453754051702756 0 -0.00065888377680932029 -0.014949858203443299 0 7.3409371263015097e-05 -0.015970500344349783 0 -0.0001060262959413913 -0.014126341847898445 0 -0.00012669505140946346 -0.014103989860263753 0 -3.1705320805541619e-05 -0.014453754051702756 0 -0.0001060262959413913 -0.014126341847898445 0 -0.00013383601525556485 -0.014137619201954915 0 -0.00012669505140946346 -0.014103989860263753 0 0.00029864350394593378 -0.01764788428842208 0 0.00047174513665540837 -0.017472412879780408 0 0.00024739861657816615 -0.017627364151658421 0 0.00047174513665540837 -0.017472412879780408 0 5.4170731765458393e-05 -0.01710208547413667 0 5.6674085285088643e-05 -0.017768160711189935 0 0.00047174513665540837 -0.017472412879780408 0 5.6674085285088643e-05 -0.017768160711189935 0 0.00024739861657816615 -0.017627364151658421 0 0.00047174513665540837 -0.017472412879780408 0 5.4170731765458393e-05 -0.01710208547413667 0 1.242903146885999e-06 -0.015987061010691757 0 7.3409371263015097e-05 -0.015970500344349783 0 3.0265752958894632e-05 -0.015877950512234607 0 5.4170731765458393e-05 -0.01710208547413667 0 1.242903146885999e-06 -0.015987061010691757 0 -1.6742482475914706e-05 -0.017555629844320186 0 -3.5590842194631416e-07 -0.017968582122416966 0 1.242903146885999e-06 -0.015987061010691757 0 -1.6742482475914706e-05 -0.017555629844320186 0 5.4170731765458393e-05 -0.01710208547413667 0 -1.6742482475914706e-05 -0.017555629844320186 0 5.6674085285088643e-05 -0.017768160711189935 0 0.00017003187729706441 -0.018495731755168065 0 -1.6742482475914706e-05 -0.017555629844320186 0 5.6674085285088643e-05 -0.017768160711189935 0 0.00054839372318372286 -0.017473706824720287 0 5.6674085285088643e-05 -0.017768160711189935 0 0.00035318342225176824 -0.017269025705425496 0 5.6674085285088643e-05 -0.017768160711189935 0 0.00016067588757960363 -0.017467651312888754 0 0.00035318342225176824 -0.017269025705425496 0 0.00029864350394593378 -0.01764788428842208 0 0.00024739861657816615 -0.017627364151658421 0 0.00016067588757960363 -0.017467651312888754 0 -0.00065888377680932029 -0.014949858203443299 0 -0.00030368150687479852 -0.016460468182059866 0 5.6674085285088643e-05 -0.017768160711189935 0 0.00024739861657816615 -0.017627364151658421 0 0.00016067588757960363 -0.017467651312888754 0 -0.00064652380853582366 -0.017829100614582347 0 -0.00023283635523610089 -0.017210551375802418 0 0.00016067588757960363 -0.017467651312888754 0 -0.00023283635523610089 -0.017210551375802418 0 0.00016067588757960363 -0.017467651312888754 0 0.00025189686325551616 -0.016825003424580463 0 6.3537347665473869e-05 -0.016552057496907354 0 0.0011441284989411856 -0.016519482405469535 0 -0.00030522514374369794 -0.016435080737638431 0 -0.00023283635523610089 -0.017210551375802418 0 0.00025189686325551616 -0.016825003424580463 0 0.00016067588757960363 -0.017467651312888754 0 0.00035318342225176824 -0.017269025705425496 0 0.00025189686325551616 -0.016825003424580463 0 0.00063985802755695735 -0.01686707854848447 0 0.00035318342225176824 -0.017269025705425496 0 0.00025189686325551616 -0.016825003424580463 0 0.0030494392229048635 -0.0020575647170776915 0 0.0026090902436850757 -0.0021520052981821849 0 0.0028882104669613862 -0.0017703306548825946 0 0.0030494392229048635 -0.0020575647170776915 0 0.0026090902436850757 -0.0021520052981821849 0 0.0028416485201968873 -0.0024223051413612656 0 0.0030494392229048635 -0.0020575647170776915 0 0.0034111816733661954 -0.0022005975577890696 0 0.0031516823763267881 -0.0023805614441021299 0 0.0026090902436850757 -0.0021520052981821849 0 0.0025067292616932735 -0.0017872851997853233 0 0.0022921595869640063 -0.0020623975856250282 0 0.0026090902436850757 -0.0021520052981821849 0 0.0025067292616932735 -0.0017872851997853233 0 0.0028882104669613862 -0.0017703306548825946 0 0.0025067292616932735 -0.0017872851997853233 0 0.0028882104669613862 -0.0017703306548825946 0 0.0028701792374948637 -0.0013281857306282644 0 0.0025067292616932735 -0.0017872851997853233 0 0.0028701792374948637 -0.0013281857306282644 0 0.0026029437223954901 -0.0011883980570856427 0 0.0030494392229048635 -0.0020575647170776915 0 0.0028882104669613862 -0.0017703306548825946 0 0.0032723231215591227 -0.0016119206465580816 0 0.0028882104669613862 -0.0017703306548825946 0 0.0032723231215591227 -0.0016119206465580816 0 0.0028701792374948637 -0.0013281857306282644 0 0.0034415589705096964 0.0029245510352742385 0 0.0041745946398831675 0.00098116557571721651 0 0.0044875895234721972 0.0038029733675849094 0 0.0047133149603542897 0.0051508146733784095 0 0.0059079263598602544 0.0025466586798931069 0 0.0030921551916945253 -0.00020594362752125947 0 0.0027288179082683123 0.00043233941330201382 0 0.002862849863725109 -0.00058270556889379458 0 0.0022130056979253695 0.00061826044122033309 0 0.0027288179082683123 0.00043233941330201382 0 0.002862849863725109 -0.00058270556889379458 0 0.0047560004930683394 0.0027296338820973374 0 0.0044875895234721972 0.0038029733675849094 0 0.0059079263598602544 0.0025466586798931069 0 0.0022141721162001085 0.002590778771098463 0 0.0021093464011006906 0.0038011756643502198 0 0.0020868745135766173 0.00051906228069315669 0 0.001945570445381228 0.00018516798651138641 0 0.0012818251457426808 0.0011307353359514508 0 0.0047560004930683394 0.0027296338820973374 0 0.0044875895234721972 0.0038029733675849094 0 0.0031706646155622029 0.0038842579917121828 0 0.0035187195752490992 0.0016837565926686026 0 0.0021093464011006906 0.0038011756643502198 0 0.0044875895234721972 0.0038029733675849094 0 0.0038772970376110554 0.0047066262212113498 0 0.0031706646155622029 0.0038842579917121828 0 0.0044875895234721972 0.0038029733675849094 0 0.0038772970376110554 0.0047066262212113498 0 0.0047133149603542897 0.0051508146733784095 0 0.0038772970376110554 0.0047066262212113498 0 0.0047133149603542897 0.0051508146733784095 0 0.0038467557494657315 0.0056961007430078436 0 0.0038772970376110554 0.0047066262212113498 0 0.0038467557494657315 0.0056961007430078436 0 0.0031504836776088314 0.0053627170072035098 0 0.0031763564990007105 -0.00092063519247865026 0 0.0030493298808312915 -6.3972103451549088e-05 0 0.0030494392229048635 -0.0020575647170776915 0 0.0032723231215591227 -0.0016119206465580816 0 0.0034111816733661954 -0.0022005975577890696 0 0.0030921551916945253 -0.00020594362752125947 0 0.0027288179082683123 0.00043233941330201382 0 0.0028345650981251424 0.00087639967836844056 0 0.0022130056979253695 0.00061826044122033309 0 0.0027288179082683123 0.00043233941330201382 0 0.0029079668478658636 0.00095959645096755297 0 0.0030431702288901278 0.00028177718716069838 0 0.0030493298808312915 -6.3972103451549088e-05 0 0.0030493298808312915 -6.3972103451549088e-05 0 0.0031831763999443964 -0.00045066681945841791 0 0.0031346929830847665 0.00026699912243221868 0 0.0034411175057044922 0.0016898230574696729 0 0.002590661941659887 0.0022544937418796226 0 0.0034111816733661954 -0.0022005975577890696 0 0.003302025469237615 -0.0026394076379668849 0 0.0031516823763267881 -0.0023805614441021299 0 0.0029079668478658636 0.00095959645096755297 0 0.0022156899871681643 0.0017225142014267274 0 0.0025397375187975082 0.0025445776352633147 0 0.0030493298808312915 -6.3972103451549088e-05 0 0.0025173871253673656 0.0025055923851971876 0 0.0022130056979253695 0.00061826044122033309 0 0.0029079668478658636 0.00095959645096755297 0 0.0022156899871681643 0.0017225142014267274 0 0.0047133149603542897 0.0051508146733784095 0 0.0038467557494657315 0.0056961007430078436 0 0.0035064083345719499 0.0078184682036840873 0 0.0022130056979253695 0.00061826044122033309 0 0.0022156899871681643 0.0017225142014267274 0 0.0013884849031195257 0.0022972622028301971 0 0.0034415589705096964 0.0029245510352742385 0 0.0025718383107270551 0.0049072735243782988 0 0.0038467557494657315 0.0056961007430078436 0 0.0035064083345719499 0.0078184682036840873 0 0.0033510496649784261 0.0062518657987608054 0 0.0022156899871681643 0.0017225142014267274 0 0.0019493785960073447 0.0024159138048214348 0 0.0013884849031195257 0.0022972622028301971 0 0.0022156899871681643 0.0017225142014267274 0 0.0019493785960073447 0.0024159138048214348 0 0.0025397375187975082 0.0025445776352633147 0 0.0019493785960073447 0.0024159138048214348 0 0.0019900659298391424 0.002742942531589492 0 0.0025397375187975082 0.0025445776352633147 0 0.0019221817515695477 0.0032319405188175189 0 0.0019900659298391424 0.002742942531589492 0 0.0025397375187975082 0.0025445776352633147 0 0.0015419883913824815 0.0031043258888641106 0 0.0019493785960073447 0.0024159138048214348 0 0.0013884849031195257 0.0022972622028301971 0 0.0015419883913824815 0.0031043258888641106 0 0.0019493785960073447 0.0024159138048214348 0 0.0019900659298391424 0.002742942531589492 0 0.0015419883913824815 0.0031043258888641106 0 0.0019221817515695477 0.0032319405188175189 0 0.0019900659298391424 0.002742942531589492 0 0.0037320312426087653 0.0030856079242114897 0 0.0034411175057044922 0.0016898230574696729 0 0.0030578406938997337 0.002494130568899969 0 0.0031959395179988947 0.00057098415246332589 0 0.0031831763999443964 -0.00045066681945841791 0 0.0034411175057044922 0.0016898230574696729 0 0.002590661941659887 0.0022544937418796226 0 0.0030578406938997337 0.002494130568899969 0 0.0031230475637380939 0.0029717953079131309 0 0.002590661941659887 0.0022544937418796226 0 0.0030578406938997337 0.002494130568899969 0 0.0037079837879206777 0.0030955644644625876 0 0.0031230475637380939 0.0029717953079131309 0 0.0030578406938997337 0.002494130568899969 0 0.0031959395179988947 0.00057098415246332589 0 0.0036871688048762015 0.0015515431014167327 0 0.0030183322332675198 -0.0027751820185749356 0 0.0028416485201968873 -0.0024223051413612656 0 0.0026965238548346147 -0.0028574954795476011 0 0.0028725625751142361 -0.0030425202105055795 0 0.0031997677362723782 -0.0030646058727705774 0 0.0030183322332675198 -0.0027751820185749356 0 0.0031997677362723782 -0.0030646058727705774 0 0.003302025469237615 -0.0026394076379668849 0 0.0030183322332675198 -0.0027751820185749356 0 0.0028725625751142361 -0.0030425202105055795 0 0.0030183322332675198 -0.0027751820185749356 0 0.0026965238548346147 -0.0028574954795476011 0 0.0030183322332675198 -0.0027751820185749356 0 0.0028416485201968873 -0.0024223051413612656 0 0.0031516823763267881 -0.0023805614441021299 0 0.003302025469237615 -0.0026394076379668849 0 0.0030183322332675198 -0.0027751820185749356 0 0.0031516823763267881 -0.0023805614441021299 0 0.0030494392229048635 -0.0020575647170776915 0 0.0028416485201968873 -0.0024223051413612656 0 0.0031516823763267881 -0.0023805614441021299 0 0.0028416485201968873 -0.0024223051413612656 0 0.0024779465728618638 -0.0024943675996783113 0 0.0026965238548346147 -0.0028574954795476011 0 0.0026090902436850757 -0.0021520052981821849 0 0.0024779465728618638 -0.0024943675996783113 0 0.0023340100841968158 -0.0022779196392382606 0 0.0026090902436850757 -0.0021520052981821849 0 0.0028416485201968873 -0.0024223051413612656 0 0.0024779465728618638 -0.0024943675996783113 0 0.0025815628417371591 -0.0031629091699342934 0 0.0026965238548346147 -0.0028574954795476011 0 0.0023532502701728007 -0.0029150491586512409 0 0.0026965238548346147 -0.0028574954795476011 0 0.0023532502701728007 -0.0029150491586512409 0 0.0021864443462023633 -0.0026184155917342738 0 0.001279338094960275 -0.0056300029245171237 0 0.0020464600199712685 -0.0036028609513890286 0 0.0024779465728618638 -0.0024943675996783113 0 0.0026965238548346147 -0.0028574954795476011 0 0.0021379439127115455 -0.0025883869862784888 0 0.0024248191394215142 -0.0029849012997459389 0 0.0020464600199712685 -0.0036028609513890286 0 0.002103974882542175 -0.0031648804352594931 0 0.0023532502701728007 -0.0029150491586512409 0 0.0021864443462023633 -0.0026184155917342738 0 0.0007266704167619417 -0.0057289061264953305 0 0.00068351776617069104 -0.0060145496847148405 0 0.00097549467213586848 -0.0059908888612791415 0 0.001279338094960275 -0.0056300029245171237 0 0.00089250662124066096 -0.0070465167096118416 0 0.00079041554770180463 -0.008093082071988715 0 0.00081577826090854604 -0.0080954237883907425 0 0.00079254684887018853 -0.0080668614722111398 0 0.00068351776617069104 -0.0060145496847148405 0 0.00097549467213586848 -0.0059908888612791415 0 0.00097454236755882724 -0.0060638164276747468 0 0.0020464600199712685 -0.0036028609513890286 0 0.0011572930568127307 -0.0044586641517772906 0 0.00068351776617069104 -0.0060145496847148405 0 0.00097454236755882724 -0.0060638164276747468 0 0.00092737999231072468 -0.0061464538088755608 0 0.0019351146923908972 -0.0023151176354880357 0 0.0021373302792178912 -0.0025822511807179838 0 0.0016736373248834307 -0.0023172349693370209 0 0.0019351146923908972 -0.0023151176354880357 0 0.0021607743226103762 -0.0024364161948728954 0 0.0021403991675895853 -0.0022390136645709748 0 0.0021607743226103762 -0.0024364161948728954 0 0.0023340100841968158 -0.0022779196392382606 0 0.0021403991675895853 -0.0022390136645709748 0 0.0024779465728618638 -0.0024943675996783113 0 0.0021607743226103762 -0.0024364161948728954 0 0.0023340100841968158 -0.0022779196392382606 0 0.0024779465728618638 -0.0024943675996783113 0 0.0021607743226103762 -0.0024364161948728954 0 0.0021379439127115455 -0.0025883869862784888 0 0.0019351146923908972 -0.0023151176354880357 0 0.0021607743226103762 -0.0024364161948728954 0 0.0021373302792178912 -0.0025822511807179838 0 0.0020906057643598126 -0.0032680850282028077 0 0.0020464600199712685 -0.0036028609513890286 0 0.00076168735246026555 -0.0080994565623973332 0 0.0007342990396024808 -0.0080839914108092985 0 0.00075851412433494832 -0.0080687099641402974 0 0.00079041554770180463 -0.008093082071988715 0 0.00076168735246026555 -0.0080994565623973332 0 0.00075851412433494832 -0.0080687099641402974 0 0.00079041554770180463 -0.008093082071988715 0 0.00075851412433494832 -0.0080687099641402974 0 0.00079254684887018853 -0.0080668614722111398 0 0.00097454236755882724 -0.0060638164276747468 0 0.00092737999231072468 -0.0061464538088755608 0 0.0011384643117813285 -0.0062548655384324662 0 0.00097549467213586848 -0.0059908888612791415 0 0.00097454236755882724 -0.0060638164276747468 0 0.0012845396397006576 -0.0063309008904141656 0 0.00086132293820406726 -0.0062715026976441672 0 0.00052923457737194209 -0.0068123382779795303 0 0.00072910827166592707 -0.0080606340693562643 0 0.00075851412433494832 -0.0080687099641402974 0 0.0007521690489575146 -0.0080331770509931479 0 0.00089250662124066096 -0.0070465167096118416 0 0.00036778362684157778 -0.0084373470633062921 0 0.00075851412433494832 -0.0080687099641402974 0 0.00079254684887018853 -0.0080668614722111398 0 0.0007521690489575146 -0.0080331770509931479 0 0.00097454236755882724 -0.0060638164276747468 0 0.0012845396397006576 -0.0063309008904141656 0 0.0012108153147779343 -0.006355220692068249 0 0.00052199262388728177 -0.0088658370739792946 0 0.00010546989096651757 -0.0084414518919133149 0 -5.044128804349618e-05 -0.0086344659874447987 0 0.00017946521460549772 -0.009536077517843319 0 0.00036778362684157778 -0.0084373470633062921 0 0.00017946521460549772 -0.009536077517843319 0 0.00061913594080818834 -0.0078517208626738139 0 0.0012845396397006576 -0.0063309008904141656 0 0.0012108153147779343 -0.006355220692068249 0 0.0012393574357597876 -0.0063879528351381189 0 0.00036778362684157778 -0.0084373470633062921 0 0.00061913594080818834 -0.0078517208626738139 0 0.00052923457737194209 -0.0068123382779795303 0 0.00061913594080818834 -0.0078517208626738139 0 0.0015845087911204249 -0.0021886889458707579 0 0.0016121290583924362 -0.0022010347466797546 0 0.0015711063913946381 -0.0021886959277769447 0 0.0011572930568127307 -0.0044586641517772906 0 0.00052923457737194209 -0.0068123382779795303 0 0.0016121290583924362 -0.0022010347466797546 0 0.0015711063913946381 -0.0021886959277769447 0 0.0015696468059740664 -0.0024850781674018024 0 0.0016736373248834307 -0.0023172349693370209 0 0.0015845087911204249 -0.0021886889458707579 0 0.0015711063913946381 -0.0021886959277769447 0 0.0015711063913946381 -0.0021886959277769447 0 0.0017799928266566496 -0.0021300524333422695 0 0.0018480378260399483 -0.0017282456773300269 0 0.0016736373248834307 -0.0023172349693370209 0 0.0015711063913946381 -0.0021886959277769447 0 0.0017799928266566496 -0.0021300524333422695 0 0.0015696468059740664 -0.0024850781674018024 0 0.0011925864324141824 -0.00249108462790376 0 0.0012996736225880058 -0.0029115486938652607 0 0.0015711063913946381 -0.0021886959277769447 0 0.0015696468059740664 -0.0024850781674018024 0 0.0011925864324141824 -0.00249108462790376 0 0.001561829205809341 -0.0021527764599097482 0 0.0015599367201030371 -0.0021486261955483022 0 0.00055857566413295443 -0.011717268638468871 0 0.00091739492407876661 -0.011301792073109386 0 0.00050728751905483366 -0.011278145051948799 0 0.00061913594080818834 -0.0078517208626738139 0 0.0012632805924961848 -0.0068797957471322902 0 8.0647862121226353e-05 -0.011224210864359379 0 0.00055857566413295443 -0.011717268638468871 0 0.00050728751905483366 -0.011278145051948799 0 0.00091739492407876661 -0.011301792073109386 0 0.00050728751905483366 -0.011278145051948799 0 0.00066306946158336709 -0.011045469236711751 0 0.00050728751905483366 -0.011278145051948799 0 0.0003637159084982009 -0.011035413981878068 0 0.00066306946158336709 -0.011045469236711751 0 0.0022921595869640063 -0.0020623975856250282 0 0.0020145051583286694 -0.0020596072679301865 0 0.0021674906757827121 -0.0017976882613614385 0 0.0025067292616932735 -0.0017872851997853233 0 0.0022921595869640063 -0.0020623975856250282 0 0.0021674906757827121 -0.0017976882613614385 0 0.0026090902436850757 -0.0021520052981821849 0 0.0023340100841968158 -0.0022779196392382606 0 0.0022921595869640063 -0.0020623975856250282 0 0.0023340100841968158 -0.0022779196392382606 0 0.0022921595869640063 -0.0020623975856250282 0 0.0021403991675895853 -0.0022390136645709748 0 0.0022921595869640063 -0.0020623975856250282 0 0.0021403991675895853 -0.0022390136645709748 0 0.0020145051583286694 -0.0020596072679301865 0 0.0017799928266566496 -0.0021300524333422695 0 0.0020145051583286694 -0.0020596072679301865 0 0.0018480378260399483 -0.0017282456773300269 0 0.0019351146923908972 -0.0023151176354880357 0 0.0017799928266566496 -0.0021300524333422695 0 0.0020145051583286694 -0.0020596072679301865 0 0.0019351146923908972 -0.0023151176354880357 0 0.0021403991675895853 -0.0022390136645709748 0 0.0020145051583286694 -0.0020596072679301865 0 0.0019351146923908972 -0.0023151176354880357 0 0.0016736373248834307 -0.0023172349693370209 0 0.0017799928266566496 -0.0021300524333422695 0 0.0020145051583286694 -0.0020596072679301865 0 0.0018480378260399483 -0.0017282456773300269 0 0.0021674906757827121 -0.0017976882613614385 0 0.0021576156350516821 -0.0016983357996590085 0 0.0016478453790458711 -0.0023301080691853098 0 0.0018480378260399483 -0.0017282456773300269 0 0.0021674906757827121 -0.0017976882613614385 0 0.0022338940980971933 -0.0013501177836726514 0 0.0025067292616932735 -0.0017872851997853233 0 0.0021674906757827121 -0.0017976882613614385 0 0.0022338940980971933 -0.0013501177836726514 0 0.0016478453790458711 -0.0023301080691853098 0 0.00202753889935308 -0.0021839186926722338 0 0.00074335007305603446 -0.002907079623476843 0 0.0012996736225880058 -0.0029115486938652607 0 0.00097060576011519229 -0.0033462915371439647 0 0.0015599367201030371 -0.0021486261955483022 0 0.0016478453790458711 -0.0023301080691853098 0 0.0011925864324141824 -0.00249108462790376 0 0.00074335007305603446 -0.002907079623476843 0 0.0012996736225880058 -0.0029115486938652607 0 0.0013044912445693815 -0.010852066273002612 0 0.0013193687770155628 -0.010253677649911549 0 0.0016901254494261142 -0.010374490943133762 0 0.0012038017999658676 -0.0068480164864619386 0 0.0013598390886235547 -0.0060975443807555329 0 0.0013193687770155628 -0.010253677649911549 0 0.0016901254494261142 -0.010374490943133762 0 0.001449272442921243 -0.0099265992343426576 0 0.0015223032734623019 -0.0038272374007298424 0 0.0014502158004458508 -0.0037015777994902329 0 0.0016408494998089609 -0.0037186912069470533 0 0.0014502158004458508 -0.0037015777994902329 0 0.0015382278576977972 -0.0035905922779472209 0 0.0016408494998089609 -0.0037186912069470533 0 0.0013598390886235547 -0.0060975443807555329 0 0.0014672137034468355 -0.0052086240712552485 0 0.0016478453790458711 -0.0023301080691853098 0 0.0013598390886235547 -0.0060975443807555329 0 0.00048788259255252964 -0.010775504439084212 0 0.0003637159084982009 -0.011035413981878068 0 0.00066306946158336709 -0.011045469236711751 0 0.00048788259255252964 -0.010775504439084212 0 0.00066306946158336709 -0.011045469236711751 0 0.00091603488434768051 -0.01077545613540238 0 0.0012632805924961848 -0.0068797957471322902 0 0.0012038017999658676 -0.0068480164864619386 0 0.00091739492407876661 -0.011301792073109386 0 0.0013044912445693815 -0.010852066273002612 0 0.00091603488434768051 -0.01077545613540238 0 0.00091739492407876661 -0.011301792073109386 0 0.00066306946158336709 -0.011045469236711751 0 0.00091603488434768051 -0.01077545613540238 0 0.0013044912445693815 -0.010852066273002612 0 0.00091603488434768051 -0.01077545613540238 0 0.0010039263025587006 -0.010408923364803689 0 0.0013044912445693815 -0.010852066273002612 0 0.0013193687770155628 -0.010253677649911549 0 0.0010039263025587006 -0.010408923364803689 0 0.0013193687770155628 -0.010253677649911549 0 0.0010039263025587006 -0.010408923364803689 0 0.0011103704578790975 -0.010115589398491743 0 0.0010039263025587006 -0.010408923364803689 0 0.00065752294147953703 -0.010405764078912713 0 0.00087628688748322633 -0.010023390470580177 0 0.00091603488434768051 -0.01077545613540238 0 0.0010039263025587006 -0.010408923364803689 0 0.00065752294147953703 -0.010405764078912713 0 0.00030451874371154844 -0.010527655762230635 0 0.00065752294147953703 -0.010405764078912713 0 0.00041374019895116409 -0.0099352259814932606 0 0.00048788259255252964 -0.010775504439084212 0 0.00091603488434768051 -0.01077545613540238 0 0.00065752294147953703 -0.010405764078912713 0 0.00030451874371154844 -0.010527655762230635 0 0.00048788259255252964 -0.010775504439084212 0 0.00065752294147953703 -0.010405764078912713 0 0.00041374019895116409 -0.0099352259814932606 0 0.00087628688748322633 -0.010023390470580177 0 0.0010326679778096151 -0.0096332851924190114 0 0.00065752294147953703 -0.010405764078912713 0 0.00041374019895116409 -0.0099352259814932606 0 0.00087628688748322633 -0.010023390470580177 0 0.00087628688748322633 -0.010023390470580177 0 0.0010722516389032322 -0.009920943155253166 0 0.0010326679778096151 -0.0096332851924190114 0 0.0010039263025587006 -0.010408923364803689 0 0.00087628688748322633 -0.010023390470580177 0 0.0011103704578790975 -0.010115589398491743 0 0.0013193687770155628 -0.010253677649911549 0 0.0011103704578790975 -0.010115589398491743 0 0.0012694851597400292 -0.0099090584989822376 0 0.00087628688748322633 -0.010023390470580177 0 0.0011103704578790975 -0.010115589398491743 0 0.0010722516389032322 -0.009920943155253166 0 0.0011103704578790975 -0.010115589398491743 0 0.0010722516389032322 -0.009920943155253166 0 0.0012694851597400292 -0.0099090584989822376 0 0.0010722516389032322 -0.009920943155253166 0 0.0010326679778096151 -0.0096332851924190114 0 0.0012694851597400292 -0.0099090584989822376 0 0.0010326679778096151 -0.0096332851924190114 0 0.0012694851597400292 -0.0099090584989822376 0 0.0014547482745745246 -0.0099273387912912226 0 0.00041374019895116409 -0.0099352259814932606 0 0.0010326679778096151 -0.0096332851924190114 0 0.00099789265919231684 -0.0092619479922144924 0 0.0010326679778096151 -0.0096332851924190114 0 0.0011048507466747347 -0.0092679422485565776 0 0.0014547482745745246 -0.0099273387912912226 0 0.0010326679778096151 -0.0096332851924190114 0 0.0011048507466747347 -0.0092679422485565776 0 0.00099789265919231684 -0.0092619479922144924 0 1.369879493097738e-07 -0.0069640061622059379 0 2.4659711692510282e-05 -0.0070096879887334021 0 -1.3684452177462729e-07 -0.0071451205550226897 0 0.00033735192974646743 -0.0070070147641735281 0 0.00028844648631444855 -0.0073429961111457004 0 3.1978365011928849e-06 -0.0069632529450640293 0 0.00033735192974646743 -0.0070070147641735281 0 -3.1526783184445988e-07 -0.0088535967377931252 0 0.00016944862256026554 -0.0096662744487817781 0 1.0998578020438656e-06 -0.0071483249906877456 0 2.8361675991142997e-05 -0.0097953125280869514 0 0.00028844648631444855 -0.0073429961111457004 0 0.0010876806373727116 -0.0048740111964766242 0 0.0012227246338337716 -0.0048993949588853752 0 0.0011404847407016166 -0.0049497424932947991 0 0.0014672137034468355 -0.0052086240712552485 0 0.0013608854471702631 -0.0072923699806365381 0 0.0010600876613967413 -0.0049032049381073578 0 0.0011404847407016166 -0.0049497424932947991 0 0.0010534033804581082 -0.0049661649019579505 0 0.0010600876613967413 -0.0049032049381073578 0 0.0010876806373727116 -0.0048740111964766242 0 0.0011404847407016166 -0.0049497424932947991 0 0.0014315193774297914 -0.0051814942500792837 0 0.0014672137034468355 -0.0052086240712552485 0 0.0013598390886235547 -0.0060975443807555329 0 0.0013608854471702631 -0.0072923699806365381 0 0.0013171452540007293 -0.0061623182491486513 0 0.0012770992276547538 -0.0062109222685230404 0 0.0013489501236656407 -0.0062233578856407436 0 0.0013193687770155628 -0.010253677649911549 0 0.0012694851597400292 -0.0099090584989822376 0 0.001449272442921243 -0.0099265992343426576 0 0.0014137928557411315 -0.0075284294445126182 0 0.0013608854471702631 -0.0072923699806365381 0 0.0013028863456789317 -0.0050622376190742153 0 0.001137559796538195 -0.0050409717464172978 0 0.0011404847407016166 -0.0049497424932947991 0 9.1845569719168201e-08 -0.0069634686262106411 0 1.4318728993350929e-06 -0.0068765887847517873 0 -8.8790052876176049e-08 -0.0054618135238337466 0 0.00033735192974646743 -0.0070070147641735281 0 0.00038891771051658672 -0.0053068580254989374 0 1.4318728993350929e-06 -0.0068765887847517873 0 -8.8790052876176049e-08 -0.0054618135238337466 0 -3.7542264486394241e-06 -0.0052749039250132614 0 0.0013028863456789317 -0.0050622376190742153 0 0.0012227246338337716 -0.0048993949588853752 0 0.0011404847407016166 -0.0049497424932947991 0 0.00033735192974646743 -0.0070070147641735281 0 0.0013608854471702631 -0.0072923699806365381 0 -8.8790052876176049e-08 -0.0054618135238337466 0 -3.7542264486394241e-06 -0.0052749039250132614 0 9.3154303250213535e-08 -0.0039614165632213824 0 0.00038891771051658672 -0.0053068580254989374 0 0.0004670483689493489 -0.0043017476234429959 0 0.001137559796538195 -0.0050409717464172978 0 0.0010534033804581082 -0.0049661649019579505 0 0.00096708962068461609 -0.0050213573932192728 0 0.001137559796538195 -0.0050409717464172978 0 0.0011404847407016166 -0.0049497424932947991 0 0.0010534033804581082 -0.0049661649019579505 0 -3.7542264486394241e-06 -0.0052749039250132614 0 9.3154303250213535e-08 -0.0039614165632213824 0 8.344641117558983e-06 -0.0038015446049129635 0 0.00096708962068461609 -0.0050213573932192728 0 0.00084154224830406972 -0.0048678113859986502 0 0.00095667159249717575 -0.0049142382361439772 0 8.9679595864837014e-07 -0.0039608618412723907 0 0.0004670483689493489 -0.0043017476234429959 0 -2.8966061405666719e-08 -0.0039596470812709962 0 4.2918642840200489e-08 -0.0037500358469647246 0 -1.7347649086598824e-06 -0.0037126477716313369 0 0.0010534033804581082 -0.0049661649019579505 0 0.00096708962068461609 -0.0050213573932192728 0 0.00095667159249717575 -0.0049142382361439772 0 4.2918642840200489e-08 -0.0037500358469647246 0 -1.7347649086598824e-06 -0.0037126477716313369 0 -0.00018243557621220598 -0.0036135061604443876 0 -1.7347649086598824e-06 -0.0037126477716313369 0 -0.0001130024660586713 -0.0035513333790588289 0 -0.00018243557621220598 -0.0036135061604443876 0 -4.1154772944338387e-07 -0.0037478772173576039 0 0.00056695479728357731 -0.0017998117934896962 0 4.2721312386816157e-07 -0.0037480523281034233 0 0.00019450020719411244 -0.0010713003157520311 0 4.9271746338330453e-07 -0.0017604407013337203 0 0.0004670483689493489 -0.0043017476234429959 0 0.0012720397476759448 -0.0021091419394647357 0 0.0012720397476759448 -0.0021091419394647357 0 0.00056695479728357731 -0.0017998117934896962 0 0.00084154224830406972 -0.0048678113859986502 0 0.00088893625478715405 -0.0048258079649309846 0 0.00095667159249717575 -0.0049142382361439772 0 0.0012720397476759448 -0.0021091419394647357 0 0.0016917014489750287 -0.0021403629736017941 0 0.0017424829283333076 -0.001071868208848381 0 0.001596579554053778 -0.0012078621793626923 0 0.0018942673845149867 -0.0012383653599325551 0 0.0029845782271211946 -0.00073582238420600036 0 0.0030210761775081351 -0.00079066681474707838 0 0.0028827680608729252 -0.00087512840939141538 0 0.0016917014489750287 -0.0021403629736017941 0 0.0020698167682219621 -9.8762547675511307e-05 0 0.0012720397476759448 -0.0021091419394647357 0 0.0020698167682219621 -9.8762547675511307e-05 0 0.0016868285280254539 -0.00011663080849951999 0 0.0014698490116989819 0.00013069802215595716 0 0.0014153365834197395 -0.00011274506137680767 0 0.0010600876613967413 -0.0049032049381073578 0 0.0010909071036292242 -0.0048660601095367462 0 0.00088893625478715405 -0.0048258079649309846 0 0.0010600876613967413 -0.0049032049381073578 0 0.00088893625478715405 -0.0048258079649309846 0 0.00095667159249717575 -0.0049142382361439772 0 0.0014672137034468355 -0.0052086240712552485 0 0.0016917014489750287 -0.0021403629736017941 0 0.0010600876613967413 -0.0049032049381073578 0 0.0010534033804581082 -0.0049661649019579505 0 0.00095667159249717575 -0.0049142382361439772 0 0.0015382278576977972 -0.0035905922779472209 0 0.0017598176937465835 -0.0036049282189599486 0 0.0016408494998089609 -0.0037186912069470533 0 0.0026314838820448556 -0.0008492575903769824 0 0.0028768938949417042 -0.00088240257849390947 0 0.0026029437223954901 -0.0011883980570856427 0 0.0029845782271211946 -0.00073582238420600036 0 0.0026314838820448556 -0.0008492575903769824 0 0.0028768938949417042 -0.00088240257849390947 0 0.0016917014489750287 -0.0021403629736017941 0 0.00202753889935308 -0.0021839186926722338 0 0.003628053235106502 -0.00036572698984545726 0 0.0040920682338927436 0.00059982863891732329 0 0.0030210761775081351 -0.00079066681474707838 0 0.0030609705362747526 -0.00094604213405318058 0 0.0029591757739167984 -0.00087786424986400775 0 0.0030210761775081351 -0.00079066681474707838 0 0.0028277994144033443 -6.255572886100268e-05 0 0.0028146958492842877 -0.0006243691899699232 0 0.0029845782271211946 -0.00073582238420600036 0 0.0030210761775081351 -0.00079066681474707838 0 0.0028768938949417042 -0.00088240257849390947 0 0.0030210761775081351 -0.00079066681474707838 0 0.0028146958492842877 -0.0006243691899699232 0 0.0028827680608729252 -0.00087512840939141538 0 0.0030210761775081351 -0.00079066681474707838 0 0.0028768938949417042 -0.00088240257849390947 0 0.0030609705362747526 -0.00094604213405318058 0 0.0031763564990007105 -0.00092063519247865026 0 0.0031154606144593545 -0.00090189292611671538 0 0.0028768938949417042 -0.00088240257849390947 0 0.0030609705362747526 -0.00094604213405318058 0 0.0028701792374948637 -0.0013281857306282644 0 0.0032723231215591227 -0.0016119206465580816 0 0.0030609705362747526 -0.00094604213405318058 0 0.0028701792374948637 -0.0013281857306282644 0 0.0028768938949417042 -0.00088240257849390947 0 0.0028701792374948637 -0.0013281857306282644 0 0.0026029437223954901 -0.0011883980570856427 0 0.0025067292616932735 -0.0017872851997853233 0 0.0022092300581832919 -0.001178903061157628 0 0.0026029437223954901 -0.0011883980570856427 0 0.0022092300581832919 -0.001178903061157628 0 0.0026314838820448556 -0.0008492575903769824 0 0.0026029437223954901 -0.0011883980570856427 0 0.0024012663780285577 0.0049489553326417203 0 0.0018289115435012287 0.0043104441370291867 0 0.0014245643829489912 0.0047859682011338282 0 0.0024012663780285577 0.0049489553326417203 0 0.0028443082071780679 0.004228829515843943 0 0.0023675252963081491 0.0042761672216218762 0 0.0024012663780285577 0.0049489553326417203 0 0.0023675252963081491 0.0042761672216218762 0 0.0018289115435012287 0.0043104441370291867 0 0.0020868745135766173 0.00051906228069315669 0 0.001945570445381228 0.00018516798651138641 0 0.0028277994144033443 -6.255572886100268e-05 0 0.0030921551916945253 -0.00020594362752125947 0 0.0030609705362747526 -0.00094604213405318058 0 0.002862849863725109 -0.00058270556889379458 0 0.001945570445381228 0.00018516798651138641 0 0.0028277994144033443 -6.255572886100268e-05 0 0.0025567613861518521 -0.00065343963184335836 0 0.0035187195752490992 0.0016837565926686026 0 0.0040920682338927436 0.00059982863891732329 0 0.0047560004930683394 0.0027296338820973374 0 0.0059079263598602544 0.0025466586798931069 0 0.0063509459918243043 0.001591175711699378 0 0.0041745946398831675 0.00098116557571721651 0 0.0040920682338927436 0.00059982863891732329 0 0.0030609705362747526 -0.00094604213405318058 0 0.002862849863725109 -0.00058270556889379458 0 0.0029591757739167984 -0.00087786424986400775 0 0.0022141721162001085 0.002590778771098463 0 0.0023498084221682766 0.0016942447667820625 0 0.0031154447833127486 0.0039191883967945561 0 0.0023957685504897575 0.0036193845079624106 0 0.0035005113328463403 0.0034703278300199231 0 0.0024012663780285577 0.0049489553326417203 0 0.0028443082071780679 0.004228829515843943 0 0.003117794993835694 0.0039158987621329628 0 0.0021600244767679684 0.0022989894937899967 0 0.0023498084221682766 0.0016942447667820625 0 0.0028277994144033443 -6.255572886100268e-05 0 0.0028146958492842877 -0.0006243691899699232 0 0.0025567613861518521 -0.00065343963184335836 0 0.0023498084221682766 0.0016942447667820625 0 0.0020698167682219621 -9.8762547675511307e-05 0 0.0028146958492842877 -0.0006243691899699232 0 0.0025567613861518521 -0.00065343963184335836 0 0.0028827680608729252 -0.00087512840939141538 0 0.0028443082071780679 0.004228829515843943 0 0.0031154447833127486 0.0039191883967945561 0 0.0023957685504897575 0.0036193845079624106 0 0.0028443082071780679 0.004228829515843943 0 0.0023957685504897575 0.0036193845079624106 0 0.0023675252963081491 0.0042761672216218762 0 0.0023957685504897575 0.0036193845079624106 0 0.0023675252963081491 0.0042761672216218762 0 0.0018289115435012287 0.0043104441370291867 0 0.00075631889179459777 0.00022334712242506633 0 0.00070284263431624565 -5.0884385231486199e-05 0 3.9716790340733787e-05 0.00031883087627146341 0 0.00075631889179459777 0.00022334712242506633 0 0.00070284263431624565 -5.0884385231486199e-05 0 0.0011409361325620639 -5.0511702564712941e-05 0 0.00022122528481937498 0.00082926860356414764 0 8.7277040139451846e-05 -0.00013580816963817076 0 9.2245341413930624e-05 0.0010656777740884525 0 0.00070284263431624565 -5.0884385231486199e-05 0 0.0011409361325620639 -5.0511702564712941e-05 0 0.0013633676537136619 -0.00041506483131359585 0 0.00025604710790746982 0.00038086679248948272 0 0.00056695479728357731 -0.0017998117934896962 0 0.00075631889179459777 0.00022334712242506633 0 0.0014698490116989819 0.00013069802215595716 0 0.0011409361325620639 -5.0511702564712941e-05 0 0.00022122528481937498 0.00082926860356414764 0 0.00038553899851374461 -0.00080206329284291018 0 0.00019743500245133637 -0.00097076614480774552 0 0.0015537473198577922 0.0015159465564594278 0 0.0020698167682219621 -9.8762547675511307e-05 0 0.0014698490116989819 0.00013069802215595716 0 0.0011409361325620639 -5.0511702564712941e-05 0 0.0014153365834197395 -0.00011274506137680767 0 0.0011409361325620639 -5.0511702564712941e-05 0 0.0014153365834197395 -0.00011274506137680767 0 0.0013633676537136619 -0.00041506483131359585 0 0.0016868285280254539 -0.00011663080849951999 0 0.0014153365834197395 -0.00011274506137680767 0 0.0013633676537136619 -0.00041506483131359585 0 0.00019450020719411244 -0.0010713003157520311 0 0.00019743500245133637 -0.00097076614480774552 0 4.9271746338330453e-07 -0.0017604407013337203 0 0.00056695479728357731 -0.0017998117934896962 0 0.00057767236303808819 -0.0017222509428127598 0 0.00019743500245133637 -0.00097076614480774552 0 4.9271746338330453e-07 -0.0017604407013337203 0 8.7277040139451846e-05 -0.00013580816963817076 0 8.7277040139451846e-05 -0.00013580816963817076 0 -4.9524998490473108e-10 0.00022723653768282813 0 9.2245341413930624e-05 0.0010656777740884525 0 4.9271746338330453e-07 -0.0017604407013337203 0 8.7277040139451846e-05 -0.00013580816963817076 0 -4.9524998490473108e-10 0.00022723653768282813 0 0.00022122528481937498 0.00082926860356414764 0 0.00019743500245133637 -0.00097076614480774552 0 8.7277040139451846e-05 -0.00013580816963817076 0 -4.9524998490473108e-10 0.00022723653768282813 0 -2.1939393411020528e-05 0.0015399918235374172 0 9.2245341413930624e-05 0.0010656777740884525 0 -2.1939393411020528e-05 0.0015399918235374172 0 -6.1403948817561704e-05 0.0024497832806631126 0 -2.5688321377033101e-07 0.0022147955768454168 0 -4.9524998490473108e-10 0.00022723653768282813 0 -2.1939393411020528e-05 0.0015399918235374172 0 -2.5688321377033101e-07 0.0022147955768454168 0 -2.1939393411020528e-05 0.0015399918235374172 0 -6.1403948817561704e-05 0.0024497832806631126 0 7.9260367285623393e-05 0.0019956818806254233 0 -6.1403948817561704e-05 0.0024497832806631126 0 8.0031543331311983e-05 0.0024243201811923391 0 7.9260367285623393e-05 0.0019956818806254233 0 0.00022122528481937498 0.00082926860356414764 0 9.2245341413930624e-05 0.0010656777740884525 0 0.00020056684054558797 0.0022872301662643841 0 7.9260367285623393e-05 0.0019956818806254233 0 9.2245341413930624e-05 0.0010656777740884525 0 0.00020056684054558797 0.0022872301662643841 0 8.0031543331311983e-05 0.0024243201811923391 0 7.9260367285623393e-05 0.0019956818806254233 0 0.00020056684054558797 0.0022872301662643841 0 0.00025604710790746982 0.00038086679248948272 0 0.00042523952256140967 0.0019045240584564026 0 -2.1939393411020528e-05 0.0015399918235374172 0 7.9260367285623393e-05 0.0019956818806254233 0 9.2245341413930624e-05 0.0010656777740884525 0 -1.009845153846993e-06 0.004202028467965027 0 -0.00030095073014758277 0.0032214756361658098 0 -0.00035033948539075804 0.0040169092484202001 0 -6.1403948817561704e-05 0.0024497832806631126 0 -2.5688321377033101e-07 0.0022147955768454168 0 -0.00030095073014758277 0.0032214756361658098 0 -1.009845153846993e-06 0.004202028467965027 0 -2.5688321377033101e-07 0.0022147955768454168 0 -0.00030095073014758277 0.0032214756361658098 0 -6.1403948817561704e-05 0.0024497832806631126 0 -0.00030095073014758277 0.0032214756361658098 0 -0.00019814810608347673 0.0033563523857325873 0 -0.00030095073014758277 0.0032214756361658098 0 -0.00050854931601062973 0.0037620556479884414 0 -0.00035033948539075804 0.0040169092484202001 0 -0.00050854931601062973 0.0037620556479884414 0 -0.0006193503495723104 0.0037504930415264708 0 -0.00035033948539075804 0.0040169092484202001 0 -0.00050854931601062973 0.0037620556479884414 0 -0.00058119360642575979 0.0053261770574851187 0 -0.0006193503495723104 0.0037504930415264708 0 -0.00030095073014758277 0.0032214756361658098 0 -0.00050854931601062973 0.0037620556479884414 0 -0.00019814810608347673 0.0033563523857325873 0 -0.00050854931601062973 0.0037620556479884414 0 -0.00019814810608347673 0.0033563523857325873 0 -0.0001623156356616493 0.0044855940916760529 0 -0.00019814810608347673 0.0033563523857325873 0 -0.0001623156356616493 0.0044855940916760529 0 0.00014214391494082992 0.0032885401362904502 0 -0.00029742637843555508 0.0039329999384156537 0 -3.117993914023153e-06 0.0033917480202584433 0 -0.00050854931601062973 0.0037620556479884414 0 -0.0001623156356616493 0.0044855940916760529 0 -0.00058119360642575979 0.0053261770574851187 0 -0.0001623156356616493 0.0044855940916760529 0 -9.3006284029565702e-06 0.005289756721299871 0 0.00061358414351017588 0.0048848437377979319 0 -0.0001623156356616493 0.0044855940916760529 0 -9.3006284029565702e-06 0.005289756721299871 0 -0.00058119360642575979 0.0053261770574851187 0 -9.3006284029565702e-06 0.005289756721299871 0 -0.00058119360642575979 0.0053261770574851187 0 -0.00038465919073343721 0.0057947941238050658 0 -0.00058119360642575979 0.0053261770574851187 0 -0.00064922550006698036 0.0060802158661139045 0 -0.00078179289970433784 0.0068290207662172345 0 -0.00058119360642575979 0.0053261770574851187 0 -0.00064922550006698036 0.0060802158661139045 0 -0.00059593107248148897 0.0060108637768408833 0 -0.00046157447145965942 0.005487779372660693 0 -0.0005544659468035175 0.0054849029773974128 0 0.0023957685504897575 0.0036193845079624106 0 0.0018289115435012287 0.0043104441370291867 0 0.0012987584704688099 0.0037716333048978647 0 0.0015537473198577922 0.0015159465564594278 0 0.00042523952256140967 0.0019045240584564026 0 0.0010968772020154504 0.0043127201001378832 0 0.0018289115435012287 0.0043104441370291867 0 0.0012987584704688099 0.0037716333048978647 0 8.0031543331311983e-05 0.0024243201811923391 0 0.00020056684054558797 0.0022872301662643841 0 0.00014214391494082992 0.0032885401362904502 0 0.00042523952256140967 0.0019045240584564026 0 -3.117993914023153e-06 0.0033917480202584433 0 -6.1403948817561704e-05 0.0024497832806631126 0 8.0031543331311983e-05 0.0024243201811923391 0 0.00014214391494082992 0.0032885401362904502 0 -6.1403948817561704e-05 0.0024497832806631126 0 -0.00019814810608347673 0.0033563523857325873 0 0.00014214391494082992 0.0032885401362904502 0 0.0010968772020154504 0.0043127201001378832 0 0.0012987584704688099 0.0037716333048978647 0 0.00055204188752223818 0.0041892672686723422 0 0.0010968772020154504 0.0043127201001378832 0 0.00055204188752223818 0.0041892672686723422 0 0.00061358414351017588 0.0048848437377979319 0 -0.0001623156356616493 0.0044855940916760529 0 0.00055204188752223818 0.0041892672686723422 0 0.00061358414351017588 0.0048848437377979319 0 -9.3006284029565702e-06 0.005289756721299871 0 0.00061358414351017588 0.0048848437377979319 0 0.00044734998971610642 0.005478091602345035 0 0.00061358414351017588 0.0048848437377979319 0 0.0012773410498967866 0.0054164285276565357 0 0.00044734998971610642 0.005478091602345035 0 0.0024012663780285577 0.0049489553326417203 0 0.0014245643829489912 0.0047859682011338282 0 0.0012773410498967866 0.0054164285276565357 0 0.00061358414351017588 0.0048848437377979319 0 0.0014245643829489912 0.0047859682011338282 0 0.0012773410498967866 0.0054164285276565357 0 0.0010968772020154504 0.0043127201001378832 0 0.00061358414351017588 0.0048848437377979319 0 0.0014245643829489912 0.0047859682011338282 0 0.0010968772020154504 0.0043127201001378832 0 0.0018289115435012287 0.0043104441370291867 0 0.0014245643829489912 0.0047859682011338282 0 0.0024012663780285577 0.0049489553326417203 0 0.0012773410498967866 0.0054164285276565357 0 0.0016664297578673349 0.0059831101173426502 0 0.0016664297578673349 0.0059831101173426502 0 0.00090382837184196821 0.0065201444649771951 0 0.00074445528334090823 0.0058266162036922208 0 0.0012773410498967866 0.0054164285276565357 0 0.0016664297578673349 0.0059831101173426502 0 0.00074445528334090823 0.0058266162036922208 0 0.0038772970376110554 0.0047066262212113498 0 0.0031706646155622029 0.0038842579917121828 0 0.0031504836776088314 0.0053627170072035098 0 0.0029153975272908487 0.0042180494978096492 0 0.001811163349359062 0.0057834602876857015 0 0.001731666813644278 0.0050846090308772568 0 0.0031706646155622029 0.0038842579917121828 0 0.0019282516886436733 0.0056196697539236257 0 0.0031504836776088314 0.0053627170072035098 0 0.0021093464011006906 0.0038011756643502198 0 0.0017204532175530134 0.0056175630472956595 0 0.0021093464011006906 0.0038011756643502198 0 0.0011309284306142457 0.0055174009940075434 0 0.0019282516886436733 0.0056196697539236257 0 0.0031504836776088314 0.0053627170072035098 0 0.0026013821973386135 0.0062199077944254267 0 0.0038467557494657315 0.0056961007430078436 0 0.0031504836776088314 0.0053627170072035098 0 0.0033510496649784261 0.0062518657987608054 0 0.00017560719604450421 0.0070458972304427315 0 0.00090382837184196821 0.0065201444649771951 0 0.00074445528334090823 0.0058266162036922208 0 0.00034900490080475239 0.0063757208465467915 0 0.00056636785656970971 0.0060423174603005713 0 9.2739233878445237e-05 0.0064782017767023806 0 0.00016499797817749439 0.0061046987527875731 0 0.00074445528334090823 0.0058266162036922208 0 0.001811163349359062 0.0057834602876857015 0 0.00051501869007977588 0.005954796781128811 0 0.001731666813644278 0.0050846090308772568 0 0.00034900490080475239 0.0063757208465467915 0 0.0011309284306142457 0.0055174009940075434 0 0.00016499797817749439 0.0061046987527875731 0 0.0002562169751647078 0.0058211596669266895 0 0.00074445528334090823 0.0058266162036922208 0 0.0012773410498967866 0.0054164285276565357 0 0.00074445528334090823 0.0058266162036922208 0 0.00044734998971610642 0.005478091602345035 0 0.0002562169751647078 0.0058211596669266895 0 0.00074445528334090823 0.0058266162036922208 0 0.00044734998971610642 0.005478091602345035 0 0.0002562169751647078 0.0058211596669266895 0 0.00044734998971610642 0.005478091602345035 0 6.2167695878465016e-05 0.0056676661354943146 0 -9.3006284029565702e-06 0.005289756721299871 0 6.2167695878465016e-05 0.0056676661354943146 0 -0.00038465919073343721 0.0057947941238050658 0 6.2167695878465016e-05 0.0056676661354943146 0 -0.00038465919073343721 0.0057947941238050658 0 -8.0015363225192395e-05 0.0059701940793603133 0 -9.3006284029565702e-06 0.005289756721299871 0 0.00044734998971610642 0.005478091602345035 0 6.2167695878465016e-05 0.0056676661354943146 0 -0.00038465919073343721 0.0057947941238050658 0 -8.0015363225192395e-05 0.0059701940793603133 0 -0.0003313529189765152 0.0061415232709527753 0 0.0002562169751647078 0.0058211596669266895 0 6.2167695878465016e-05 0.0056676661354943146 0 -8.0015363225192395e-05 0.0059701940793603133 0 0.00016499797817749439 0.0061046987527875731 0 0.0002562169751647078 0.0058211596669266895 0 -8.0015363225192395e-05 0.0059701940793603133 0 -0.00038465919073343721 0.0057947941238050658 0 -0.00059593107248148897 0.0060108637768408833 0 -0.00047112510437781382 0.0060462286082311528 0 -0.00058119360642575979 0.0053261770574851187 0 -0.00038465919073343721 0.0057947941238050658 0 -0.00059593107248148897 0.0060108637768408833 0 -0.00038465919073343721 0.0057947941238050658 0 -0.00047112510437781382 0.0060462286082311528 0 -0.0003313529189765152 0.0061415232709527753 0 -0.00059593107248148897 0.0060108637768408833 0 -0.00050996869867243606 0.0062002886142408517 0 -0.00057899753407888543 0.0062090120817111577 0 -0.00059593107248148897 0.0060108637768408833 0 -0.00047112510437781382 0.0060462286082311528 0 -0.00050996869867243606 0.0062002886142408517 0 -0.00050996869867243606 0.0062002886142408517 0 -0.0003171685723380455 0.0063549956903705069 0 -0.00042877428361911375 0.0064231727121463137 0 -0.00047112510437781382 0.0060462286082311528 0 -0.00050996869867243606 0.0062002886142408517 0 -0.0003313529189765152 0.0061415232709527753 0 -0.00050996869867243606 0.0062002886142408517 0 -0.0003171685723380455 0.0063549956903705069 0 -0.0003313529189765152 0.0061415232709527753 0 0.00016499797817749439 0.0061046987527875731 0 -8.0015363225192395e-05 0.0059701940793603133 0 -0.00011038905044346663 0.0063163921032549824 0 -8.0015363225192395e-05 0.0059701940793603133 0 -0.0003313529189765152 0.0061415232709527753 0 -0.00011038905044346663 0.0063163921032549824 0 -0.0003171685723380455 0.0063549956903705069 0 -0.00011038905044346663 0.0063163921032549824 0 -0.0001888715166998234 0.0064104238004344585 0 -0.0003171685723380455 0.0063549956903705069 0 -0.0003313529189765152 0.0061415232709527753 0 -0.00011038905044346663 0.0063163921032549824 0 -0.00011038905044346663 0.0063163921032549824 0 -8.2031351868283453e-05 0.0064821237399728593 0 -0.0001888715166998234 0.0064104238004344585 0 9.2739233878445237e-05 0.0064782017767023806 0 -0.00011038905044346663 0.0063163921032549824 0 -8.2031351868283453e-05 0.0064821237399728593 0 9.2739233878445237e-05 0.0064782017767023806 0 0.00016499797817749439 0.0061046987527875731 0 -0.00011038905044346663 0.0063163921032549824 0 0.00034900490080475239 0.0063757208465467915 0 0.00024498252570662643 0.0064324236856102765 0 0.00034900490080475239 0.0063757208465467915 0 8.0908767408508151e-05 0.0071933832771607052 0 0.00051501869007977588 0.005954796781128811 0 -0.00031475384545878287 0.0076701101119945212 0 0.00067860442381013409 0.0074023174187911054 0 -2.0426331260471782e-05 0.0064585186036242486 0 -8.2031351868283453e-05 0.0064821237399728593 0 -0.00016999049992132663 0.0065720322713233676 0 -8.2031351868283453e-05 0.0064821237399728593 0 -0.0001888715166998234 0.0064104238004344585 0 -0.00024145178643009203 0.0064894206270832899 0 -0.0003171685723380455 0.0063549956903705069 0 -0.0001888715166998234 0.0064104238004344585 0 -0.00024145178643009203 0.0064894206270832899 0 -8.2031351868283453e-05 0.0064821237399728593 0 -0.00024145178643009203 0.0064894206270832899 0 -0.00016999049992132663 0.0065720322713233676 0 -0.0003171685723380455 0.0063549956903705069 0 -0.00024145178643009203 0.0064894206270832899 0 -0.00042877428361911375 0.0064231727121463137 0 -0.00024145178643009203 0.0064894206270832899 0 -0.00042877428361911375 0.0064231727121463137 0 -0.00031766409394858567 0.0065841801941805157 0 -0.00042877428361911375 0.0064231727121463137 0 -0.00031766409394858567 0.0065841801941805157 0 -0.00043275022604598816 0.0065497689185206442 0 -0.00031766409394858567 0.0065841801941805157 0 -0.00026167228383906652 0.0067165799710139423 0 -0.00036090680132483052 0.0067090307207726746 0 -0.00031766409394858567 0.0065841801941805157 0 -0.00043275022604598816 0.0065497689185206442 0 -0.00036090680132483052 0.0067090307207726746 0 -0.00031475384545878287 0.0076701101119945212 0 -0.00026157648157957116 0.0086563661709450918 0 -0.0011784653251739562 0.0094824541729101024 0 8.0908767408508151e-05 0.0071933832771607052 0 -0.00010125984584390429 0.010060436589451304 0 -0.00031766409394858567 0.0065841801941805157 0 -0.00016999049992132663 0.0065720322713233676 0 -0.00026167228383906652 0.0067165799710139423 0 -0.00031475384545878287 0.0076701101119945212 0 0.00010041031238697746 0.0082112076196235173 0 0.00067860442381013409 0.0074023174187911054 0 -0.00031475384545878287 0.0076701101119945212 0 0.00010041031238697746 0.0082112076196235173 0 -0.00026157648157957116 0.0086563661709450918 0 -0.00024145178643009203 0.0064894206270832899 0 -0.00031766409394858567 0.0065841801941805157 0 -0.00016999049992132663 0.0065720322713233676 0 -0.00026157648157957116 0.0086563661709450918 0 0.00028265426510892767 0.0088824620248282114 0 -0.0011784653251739562 0.0094824541729101024 0 0.00010041031238697746 0.0082112076196235173 0 0.00028265426510892767 0.0088824620248282114 0 0.00065445325816320852 0.0083737491591900377 0 0.00010041031238697746 0.0082112076196235173 0 -0.00026157648157957116 0.0086563661709450918 0 0.00028265426510892767 0.0088824620248282114 0 0.00028265426510892767 0.0088824620248282114 0 0.00065445325816320852 0.0083737491591900377 0 0.0012604279931126411 0.0085740856508000635 0 0.0012604279931126411 0.0085740856508000635 0 0.0029165116398544243 0.0085545743813986094 0 0.00077655219681649888 0.0094122614836960328 0 0.00028265426510892767 0.0088824620248282114 0 0.0012604279931126411 0.0085740856508000635 0 0.00077655219681649888 0.0094122614836960328 0 0.00065445325816320852 0.0083737491591900377 0 0.0012129610360994722 0.0079964396538196227 0 0.0012604279931126411 0.0085740856508000635 0 0.00065445325816320852 0.0083737491591900377 0 0.0012129610360994722 0.0079964396538196227 0 0.00067860442381013409 0.0074023174187911054 0 0.00010041031238697746 0.0082112076196235173 0 0.00065445325816320852 0.0083737491591900377 0 0.00067860442381013409 0.0074023174187911054 0 0.0016764937414928311 0.0074649194501003662 0 0.0012129610360994722 0.0079964396538196227 0 0.00067860442381013409 0.0074023174187911054 0 0.0012129610360994722 0.0079964396538196227 0 0.001803141159276553 0.0081613062391976479 0 0.0012604279931126411 0.0085740856508000635 0 0.0016764937414928311 0.0074649194501003662 0 0.0012129610360994722 0.0079964396538196227 0 0.001803141159276553 0.0081613062391976479 0 0.001803141159276553 0.0081613062391976479 0 0.0012604279931126411 0.0085740856508000635 0 0.0029165116398544243 0.0085545743813986094 0 0.0029165116398544243 0.0085545743813986094 0 0.0035064083345719499 0.0078184682036840873 0 0.0022190189502701726 0.010635936174970989 0 0.0029165116398544243 0.0085545743813986094 0 0.0035064083345719499 0.0078184682036840873 0 0.0028713504782427119 0.0076071197911229032 0 0.0035064083345719499 0.0078184682036840873 0 0.0028713504782427119 0.0076071197911229032 0 0.0029428902291440354 0.0069925141425474235 0 0.0029165116398544243 0.0085545743813986094 0 0.0028713504782427119 0.0076071197911229032 0 0.0023033704679277386 0.0077763101706158685 0 0.001803141159276553 0.0081613062391976479 0 0.0029165116398544243 0.0085545743813986094 0 0.0023033704679277386 0.0077763101706158685 0 0.0028713504782427119 0.0076071197911229032 0 0.0023033704679277386 0.0077763101706158685 0 0.0023638150804403345 0.0070797634373583399 0 0.0016764937414928311 0.0074649194501003662 0 0.001803141159276553 0.0081613062391976479 0 0.0023033704679277386 0.0077763101706158685 0 0.0016764937414928311 0.0074649194501003662 0 0.0023638150804403345 0.0070797634373583399 0 0.0018501262899232947 0.006757297900456846 0 0.0016764937414928311 0.0074649194501003662 0 0.0023033704679277386 0.0077763101706158685 0 0.0023638150804403345 0.0070797634373583399 0 0.0023638150804403345 0.0070797634373583399 0 0.0029428902291440354 0.0069925141425474235 0 0.0026013821973386135 0.0062199077944254267 0 0.0023638150804403345 0.0070797634373583399 0 0.0026013821973386135 0.0062199077944254267 0 0.0018501262899232947 0.006757297900456846 0 0.0035064083345719499 0.0078184682036840873 0 0.0029428902291440354 0.0069925141425474235 0 0.0033510496649784261 0.0062518657987608054 0 0.0028713504782427119 0.0076071197911229032 0 0.0023638150804403345 0.0070797634373583399 0 0.0029428902291440354 0.0069925141425474235 0 0.0031504836776088314 0.0053627170072035098 0 0.0033510496649784261 0.0062518657987608054 0 0.0026013821973386135 0.0062199077944254267 0 0.0029428902291440354 0.0069925141425474235 0 0.0033510496649784261 0.0062518657987608054 0 0.0026013821973386135 0.0062199077944254267 0 0.0019282516886436733 0.0056196697539236257 0 0.0026013821973386135 0.0062199077944254267 0 0.0018501262899232947 0.006757297900456846 0 0.0017204532175530134 0.0056175630472956595 0 0.00092250786704714408 0.0069359805023475728 0 0.001811163349359062 0.0057834602876857015 0 0.00051501869007977588 0.005954796781128811 0 0.00067860442381013409 0.0074023174187911054 0 0.0019282516886436733 0.0056196697539236257 0 0.00067860442381013409 0.0074023174187911054 0 0.0018501262899232947 0.006757297900456846 0 0.0016764937414928311 0.0074649194501003662 0 0.00067860442381013409 0.0074023174187911054 0 0.0018501262899232947 0.006757297900456846 0 0.0014178007905012728 0.017572640872065927 0 0.001586761098362305 0.01753147244837916 0 0.0014233722921056454 0.017435689619756774 0 0.0014178007905012728 0.017572640872065927 0 0.001523252293557208 0.017640411699978695 0 0.001586761098362305 0.01753147244837916 0 0.0016152531425838498 0.017431933977001778 0 0.0013540614028282115 0.01834100595407636 0 0.001652743242465615 0.018528910974676634 0 0.0011429005101623365 0.018432490872578977 0 0.0012784682490588725 0.018729809464876734 0 0.0015135257090872559 0.018094290012732297 0 0.0018642724369629373 0.018569793908155979 0 0.0011429005101623365 0.018432490872578977 0 0.0015120822766830678 0.017831287104355133 0 0.0016152531425838498 0.017431933977001778 0 0.001523252293557208 0.017640411699978695 0 0.001586761098362305 0.01753147244837916 0 0.0015907244148694248 0.017630577412425137 0 -0.00049792580815147995 0.0064311309815477755 0 -0.00052048759173084556 0.0063430117310257998 0 -0.00056024668350568784 0.0066338557242603133 0 0.0016152531425838498 0.017431933977001778 0 -0.00011593526714226681 0.013552533496684194 0 0.00043393868457215648 0.011829192621025494 0 -0.00011593526714226681 0.013552533496684194 0 -0.00043275022604598816 0.0065497689185206442 0 -0.00036090680132483052 0.0067090307207726746 0 -0.00056024668350568784 0.0066338557242603133 0 -0.00043275022604598816 0.0065497689185206442 0 -0.00049792580815147995 0.0064311309815477755 0 -0.00056024668350568784 0.0066338557242603133 0 -0.00042877428361911375 0.0064231727121463137 0 -0.00049792580815147995 0.0064311309815477755 0 -0.00053130809451652707 0.0062980906464019147 0 -0.00042877428361911375 0.0064231727121463137 0 -0.00043275022604598816 0.0065497689185206442 0 -0.00049792580815147995 0.0064311309815477755 0 -0.00049792580815147995 0.0064311309815477755 0 -0.00052048759173084556 0.0063430117310257998 0 -0.00053130809451652707 0.0062980906464019147 0 -0.00052048759173084556 0.0063430117310257998 0 -0.00053130809451652707 0.0062980906464019147 0 -0.00045161401120189437 0.0063605065308261722 0 -0.00050996869867243606 0.0062002886142408517 0 -0.00053130809451652707 0.0062980906464019147 0 -0.00057899753407888543 0.0062090120817111577 0 -0.00050996869867243606 0.0062002886142408517 0 -0.00042877428361911375 0.0064231727121463137 0 -0.00053130809451652707 0.0062980906464019147 0 -0.00057899753407888543 0.0062090120817111577 0 -0.00045161401120189437 0.0063605065308261722 0 -0.00054697108277719909 0.0064650850452852406 0 -0.00053130809451652707 0.0062980906464019147 0 -0.00057899753407888543 0.0062090120817111577 0 -0.00045161401120189437 0.0063605065308261722 0 -0.00064922550006698036 0.0060802158661139045 0 -0.00059593107248148897 0.0060108637768408833 0 -0.00057899753407888543 0.0062090120817111577 0 -0.00045161401120189437 0.0063605065308261722 0 -0.00021413918100516533 0.0063909092620970335 0 -0.00024128251845211734 0.0067932472890151734 0 0.001586761098362305 0.01753147244837916 0 0.0016091237070170272 0.017233321299809635 0 0.0014233722921056454 0.017435689619756774 0 0.00043393868457215648 0.011829192621025494 0 0.00074983051696413778 0.01191499036636989 0 -0.00052048759173084556 0.0063430117310257998 0 -0.00045161401120189437 0.0063605065308261722 0 -0.00021413918100516533 0.0063909092620970335 0 0.0014178007905012728 0.017572640872065927 0 0.0014233722921056454 0.017435689619756774 0 0.0011513429906661458 0.017502383645034536 0 0.0015120822766830678 0.017831287104355133 0 0.0012162348816939839 0.017525979105479764 0 0.0014233722921056454 0.017435689619756774 0 0.001318042381188611 0.01726314720664808 0 0.0011513429906661458 0.017502383645034536 0 0.0016091237070170272 0.017233321299809635 0 0.0014233722921056454 0.017435689619756774 0 0.001318042381188611 0.01726314720664808 0 0.0016091237070170272 0.017233321299809635 0 0.001318042381188611 0.01726314720664808 0 0.0013279639026297161 0.016973547097716028 0 0.001318042381188611 0.01726314720664808 0 0.0013279639026297161 0.016973547097716028 0 0.0010644733535724842 0.01710815562959846 0 0.0013279639026297161 0.016973547097716028 0 0.0015064665677960725 0.016578483410899635 0 0.0010937874671192729 0.016685954070078991 0 0.0016091237070170272 0.017233321299809635 0 0.0013279639026297161 0.016973547097716028 0 0.0015064665677960725 0.016578483410899635 0 0.00093870842768381882 0.010971281646483555 0 0.001134359017350857 0.011145486720614864 0 -0.00021413918100516533 0.0063909092620970335 0 4.8431085776189629e-05 0.0071917864419916754 0 -0.00024128251845211734 0.0067932472890151734 0 -0.00021413918100516533 0.0063909092620970335 0 4.8431085776189629e-05 0.0071917864419916754 0 0.00014421959390973501 0.0072362983216808013 0 0.00074983051696413778 0.01191499036636989 0 0.001134359017350857 0.011145486720614864 0 -0.00024128251845211734 0.0067932472890151734 0 -0.00023113591630083492 0.0069942300362640817 0 -0.00011942032006934476 0.0071640965316712001 0 -0.00024128251845211734 0.0067932472890151734 0 -0.00023113591630083492 0.0069942300362640817 0 -0.00035044949626354959 0.0067608043973651872 0 4.8431085776189629e-05 0.0071917864419916754 0 -0.00024128251845211734 0.0067932472890151734 0 -0.00011942032006934476 0.0071640965316712001 0 4.8431085776189629e-05 0.0071917864419916754 0 -0.00011942032006934476 0.0071640965316712001 0 -3.4676556141846625e-06 0.0074324724634002078 0 -0.00011942032006934476 0.0071640965316712001 0 -8.758470532148452e-05 0.0074852938288303495 0 -3.4676556141846625e-06 0.0074324724634002078 0 -0.00011942032006934476 0.0071640965316712001 0 -8.758470532148452e-05 0.0074852938288303495 0 -0.00016420437971712153 0.0072821967692362341 0 -8.758470532148452e-05 0.0074852938288303495 0 -2.6432910455430655e-05 0.0077136484610173632 0 -3.4676556141846625e-06 0.0074324724634002078 0 -0.00016420437971712153 0.0072821967692362341 0 -0.00013892534602169332 0.0075343947117972494 0 -0.00026868578052297509 0.0070877139887138849 0 -0.00023113591630083492 0.0069942300362640817 0 -0.00016420437971712153 0.0072821967692362341 0 -0.00026868578052297509 0.0070877139887138849 0 -0.00023113591630083492 0.0069942300362640817 0 -0.00011942032006934476 0.0071640965316712001 0 -0.00016420437971712153 0.0072821967692362341 0 -8.758470532148452e-05 0.0074852938288303495 0 -0.00016420437971712153 0.0072821967692362341 0 -0.00013892534602169332 0.0075343947117972494 0 -8.758470532148452e-05 0.0074852938288303495 0 -0.00013892534602169332 0.0075343947117972494 0 -7.9436871604275804e-05 0.0076947040475011958 0 -8.758470532148452e-05 0.0074852938288303495 0 -7.9436871604275804e-05 0.0076947040475011958 0 -2.6432910455430655e-05 0.0077136484610173632 0 0.001134359017350857 0.011145486720614864 0 0.00037300600222320464 0.012232607483070385 0 -2.6432910455430655e-05 0.0077136484610173632 0 3.3854596463711143e-05 0.0075597088727355991 0 -4.5586710042656805e-05 0.0080453576717901282 0 -7.9436871604275804e-05 0.0076947040475011958 0 -2.6432910455430655e-05 0.0077136484610173632 0 -6.5518190942490299e-05 0.0079070761532998145 0 -2.6432910455430655e-05 0.0077136484610173632 0 -4.5586710042656805e-05 0.0080453576717901282 0 -6.5518190942490299e-05 0.0079070761532998145 0 3.3854596463711143e-05 0.0075597088727355991 0 4.0539581259316157e-05 0.0074697396145345608 0 7.2799239698644782e-05 0.008268330618859605 0 3.3854596463711143e-05 0.0075597088727355991 0 -4.5586710042656805e-05 0.0080453576717901282 0 7.2799239698644782e-05 0.008268330618859605 0 4.8431085776189629e-05 0.0071917864419916754 0 -3.4676556141846625e-06 0.0074324724634002078 0 8.8480428702540772e-05 0.007341125021451715 0 3.3854596463711143e-05 0.0075597088727355991 0 -3.4676556141846625e-06 0.0074324724634002078 0 8.8480428702540772e-05 0.007341125021451715 0 0.0010075646786456354 0.010789317279734627 0 0.001134359017350857 0.011145486720614864 0 -2.6432910455430655e-05 0.0077136484610173632 0 3.3854596463711143e-05 0.0075597088727355991 0 -3.4676556141846625e-06 0.0074324724634002078 0 -0.00064922550006698036 0.0060802158661139045 0 -0.00054697108277719909 0.0064650850452852406 0 -0.00078179289970433784 0.0068290207662172345 0 -0.00064922550006698036 0.0060802158661139045 0 -0.00057899753407888543 0.0062090120817111577 0 -0.00054697108277719909 0.0064650850452852406 0 -0.00045161401120189437 0.0063605065308261722 0 -0.00024128251845211734 0.0067932472890151734 0 -0.00035044949626354959 0.0067608043973651872 0 -0.00045161401120189437 0.0063605065308261722 0 -0.00054697108277719909 0.0064650850452852406 0 -0.00035044949626354959 0.0067608043973651872 0 -0.00054697108277719909 0.0064650850452852406 0 -0.00035044949626354959 0.0067608043973651872 0 -0.00036752833562824898 0.0070782408677221992 0 -0.00023113591630083492 0.0069942300362640817 0 -0.00035044949626354959 0.0067608043973651872 0 -0.00026868578052297509 0.0070877139887138849 0 -0.00035044949626354959 0.0067608043973651872 0 -0.00026868578052297509 0.0070877139887138849 0 -0.00036752833562824898 0.0070782408677221992 0 -0.00013892534602169332 0.0075343947117972494 0 -0.00026868578052297509 0.0070877139887138849 0 -0.00036752833562824898 0.0070782408677221992 0 -0.00036752833562824898 0.0070782408677221992 0 -0.00078179289970433784 0.0068290207662172345 0 -0.00024090484716201389 0.0076921815673860255 0 -0.00054697108277719909 0.0064650850452852406 0 -0.00036752833562824898 0.0070782408677221992 0 -0.00078179289970433784 0.0068290207662172345 0 -0.0006193503495723104 0.0037504930415264708 0 -0.00035033948539075804 0.0040169092484202001 0 8.5685036379190788e-05 0.004564072124004127 0 -0.0005544659468035175 0.0054849029773974128 0 -0.00024000245191596749 0.0060989958776244977 0 -0.00013892534602169332 0.0075343947117972494 0 -0.00036752833562824898 0.0070782408677221992 0 -0.00024090484716201389 0.0076921815673860255 0 -0.00035033948539075804 0.0040169092484202001 0 8.5685036379190788e-05 0.004564072124004127 0 4.6179234817428439e-07 0.0061898254230851671 0 -0.00024000245191596749 0.0060989958776244977 0 -4.6427363468721213e-05 0.0066838068146296385 0 8.5685036379190788e-05 0.004564072124004127 0 4.6179234817428439e-07 0.0061898254230851671 0 4.0618034117877329e-05 0.0071774393407151738 0 -1.009845153846993e-06 0.004202028467965027 0 -0.00035033948539075804 0.0040169092484202001 0 4.6179234817428439e-07 0.0061898254230851671 0 -0.00010409553500638046 0.0081204475803405111 0 -0.00010049211711422718 0.0079430975360326606 0 -0.00010640944342738496 0.0087553060687426253 0 -0.00010409553500638046 0.0081204475803405111 0 -9.2633294865188898e-05 0.0078536160922631024 0 -0.00010049211711422718 0.0079430975360326606 0 -0.00010409553500638046 0.0081204475803405111 0 -4.5586710042656805e-05 0.0080453576717901282 0 -0.00010640944342738496 0.0087553060687426253 0 -0.00010409553500638046 0.0081204475803405111 0 -6.5518190942490299e-05 0.0079070761532998145 0 -9.2633294865188898e-05 0.0078536160922631024 0 -7.9436871604275804e-05 0.0076947040475011958 0 -6.5518190942490299e-05 0.0079070761532998145 0 -9.2633294865188898e-05 0.0078536160922631024 0 -0.00010409553500638046 0.0081204475803405111 0 -4.5586710042656805e-05 0.0080453576717901282 0 -6.5518190942490299e-05 0.0079070761532998145 0 -0.00013892534602169332 0.0075343947117972494 0 -9.2633294865188898e-05 0.0078536160922631024 0 -0.00010530916138734255 0.0077380306749528166 0 -0.00013892534602169332 0.0075343947117972494 0 -0.00024090484716201389 0.0076921815673860255 0 -0.00010530916138734255 0.0077380306749528166 0 -0.00013892534602169332 0.0075343947117972494 0 -7.9436871604275804e-05 0.0076947040475011958 0 -9.2633294865188898e-05 0.0078536160922631024 0 -9.2633294865188898e-05 0.0078536160922631024 0 -0.00010530916138734255 0.0077380306749528166 0 -0.00010049211711422718 0.0079430975360326606 0 -0.00010530916138734255 0.0077380306749528166 0 4.0618034117877329e-05 0.0071774393407151738 0 -0.00010049211711422718 0.0079430975360326606 0 -0.00024090484716201389 0.0076921815673860255 0 -0.00010530916138734255 0.0077380306749528166 0 4.0618034117877329e-05 0.0071774393407151738 0 4.6179234817428439e-07 0.0061898254230851671 0 4.0618034117877329e-05 0.0071774393407151738 0 -2.4973471127921572e-07 0.0081782789260610965 0 4.0618034117877329e-05 0.0071774393407151738 0 -2.4973471127921572e-07 0.0081782789260610965 0 -0.00010049211711422718 0.0079430975360326606 0 -2.4973471127921572e-07 0.0081782789260610965 0 -0.00010049211711422718 0.0079430975360326606 0 -0.00010640944342738496 0.0087553060687426253 0 -2.4973471127921572e-07 0.0081782789260610965 0 -0.00010640944342738496 0.0087553060687426253 0 -5.2363204314699593e-07 0.010166183481805096 0 -4.5586710042656805e-05 0.0080453576717901282 0 -0.00010640944342738496 0.0087553060687426253 0 7.2799239698644782e-05 0.008268330618859605 0 -0.00010640944342738496 0.0087553060687426253 0 0.00035914512270785126 0.0093271438003845689 0 7.2799239698644782e-05 0.008268330618859605 0 0.000192170385176684 0.013743851118416178 0 0.00037300600222320464 0.012232607483070385 0 -0.00010640944342738496 0.0087553060687426253 0 -5.2363204314699593e-07 0.010166183481805096 0 0.00035914512270785126 0.0093271438003845689 0 -5.2363204314699593e-07 0.010166183481805096 0 1.8279807899641295e-06 0.01215062494577235 0 0.00035914512270785126 0.0093271438003845689 0 -3.5346025827612271e-07 0.012152742392029958 0 0.000192170385176684 0.013743851118416178 0 4.9898787605933389e-07 0.012155620710164532 0 -5.3727552549816317e-06 0.012815344435070274 0 0.0014037668343043416 0.014246627232845938 0 0.00065087707205382895 0.015028615399340512 0 0.00050319545043592761 0.014748741713184367 0 -7.3939805721108388e-05 0.012955224148326682 0 4.9898787605933389e-07 0.012155620710164532 0 -4.9576743659001384e-07 0.01349463612504862 0 -7.3939805721108388e-05 0.012955224148326682 0 -5.8847727961130301e-05 0.012850541821644473 0 1.1846513949829709e-06 0.013263039685605009 0 -7.3939805721108388e-05 0.012955224148326682 0 4.9898787605933389e-07 0.012155620710164532 0 -5.3727552549816317e-06 0.012815344435070274 0 0.00067630065442542532 0.014039527756037411 0 0.00065087707205382895 0.015028615399340512 0 -7.3939805721108388e-05 0.012955224148326682 0 -5.3727552549816317e-06 0.012815344435070274 0 -5.8847727961130301e-05 0.012850541821644473 0 0.0024110301376491002 0.016482217111339865 0 0.0019430136777850353 0.017954272943988957 0 0.0014810787229853823 0.017093056028839249 0 0.00065087707205382895 0.015028615399340512 0 0.00071243574447570784 0.017328568116285165 0 -5.3727552549816317e-06 0.012815344435070274 0 -0.00016759410365095606 0.013537855059845724 0 0.0014037668343043416 0.014246627232845938 0 0.00065087707205382895 0.015028615399340512 0 0.000192170385176684 0.013743851118416178 0 -0.00015000493317872233 0.015689254690287615 0 0.00036582834246066617 0.015932577577232095 0 0.00019730184340167076 0.016431752772456211 0 -0.00015000493317872233 0.015689254690287615 0 0.00019730184340167076 0.016431752772456211 0 -0.00032864042673586637 0.016471159713074508 0 -0.00032864042673586637 0.016471159713074508 0 -9.063439961121303e-05 0.016917835569244581 0 -0.00050302338964198048 0.017241464343262854 0 0.00071243574447570784 0.017328568116285165 0 0.0002977268577466401 0.017923260514939195 0 0.00019730184340167076 0.016431752772456211 0 -0.00032864042673586637 0.016471159713074508 0 -9.063439961121303e-05 0.016917835569244581 0 0.00019730184340167076 0.016431752772456211 0 -9.063439961121303e-05 0.016917835569244581 0 0.00032400445727353314 0.016942593301657597 0 0.00032400445727353314 0.016942593301657597 0 0.00071415484218340433 0.016969137800201404 0 0.00072950017785641352 0.016530277017520766 0 0.00019730184340167076 0.016431752772456211 0 0.00032400445727353314 0.016942593301657597 0 0.00072950017785641352 0.016530277017520766 0 0.00091089584000683633 0.016636533479398304 0 0.00098703779185425043 0.016937774494792827 0 0.0013279639026297161 0.016973547097716028 0 0.0010937874671192729 0.016685954070078991 0 0.0010644733535724842 0.01710815562959846 0 0.00071415484218340433 0.016969137800201404 0 0.00072950017785641352 0.016530277017520766 0 0.0010644733535724842 0.01710815562959846 0 0.0010937874671192729 0.016685954070078991 0 0.00064552204718433049 0.016548392320347386 0 0.0010644733535724842 0.01710815562959846 0 0.0015064665677960725 0.016578483410899635 0 0.0010937874671192729 0.016685954070078991 0 0.00092708635191568413 0.016237685227153676 0 0.0010937874671192729 0.016685954070078991 0 0.00092708635191568413 0.016237685227153676 0 0.00064552204718433049 0.016548392320347386 0 0.00036582834246066617 0.015932577577232095 0 0.00019730184340167076 0.016431752772456211 0 0.00072950017785641352 0.016530277017520766 0 0.00023641824042112925 0.01588373743466831 0 0.00092708635191568413 0.016237685227153676 0 0.00064552204718433049 0.016548392320347386 0 0.000192170385176684 0.013743851118416178 0 0.00091089584000683633 0.016636533479398304 0 -0.0004104076743350869 0.017340151019943895 0 -0.0005569120615074787 0.017804870142859381 0 -0.00061481759185142131 0.018115467084696003 0 -0.00040435844872802057 0.017592605120643704 0 -0.0005569120615074787 0.017804870142859381 0 -0.00060508361529224008 0.017970646772615353 0 -0.00040435844872802057 0.017592605120643704 0 -0.0004104076743350869 0.017340151019943895 0 -0.0005569120615074787 0.017804870142859381 0 -0.00012901507605228557 0.017151685842294179 0 -0.00027685473975643313 0.018116855166196193 0 -1.1183312552953815e-06 0.016667024865940419 0 -0.00014234086383024632 0.016420290872658613 0 -8.9041806560598932e-06 0.017908006959044338 0 -0.0004104076743350869 0.017340151019943895 0 -0.00014234086383024632 0.016420290872658613 0 -0.00061481759185142131 0.018115467084696003 0 -1.1183312552953815e-06 0.016667024865940419 0 -0.00014234086383024632 0.016420290872658613 0 1.9355586214007976e-06 0.014839485492925634 0 -0.00014234086383024632 0.016420290872658613 0 -5.1257396807226496e-05 0.017007986886761129 0 0.00024083639412135854 0.016266423357696812 0 -0.0004104076743350869 0.017340151019943895 0 -0.00014234086383024632 0.016420290872658613 0 -5.1257396807226496e-05 0.017007986886761129 0 -0.00040435844872802057 0.017592605120643704 0 -0.0004104076743350869 0.017340151019943895 0 -5.1257396807226496e-05 0.017007986886761129 0 -0.00040435844872802057 0.017592605120643704 0 -5.1257396807226496e-05 0.017007986886761129 0 -7.7030104745212557e-05 0.017564047411728765 0 -5.1257396807226496e-05 0.017007986886761129 0 0.00053895056491254974 0.017138276931654813 0 -7.7030104745212557e-05 0.017564047411728765 0 0.00053895056491254974 0.017138276931654813 0 0.00024083639412135854 0.016266423357696812 0 0.001507546693594807 0.015941826182051085 0 -5.1257396807226496e-05 0.017007986886761129 0 0.00053895056491254974 0.017138276931654813 0 0.00024083639412135854 0.016266423357696812 0 -0.00014234086383024632 0.016420290872658613 0 1.9355586214007976e-06 0.014839485492925634 0 0.00024083639412135854 0.016266423357696812 0 1.9355586214007976e-06 0.014839485492925634 0 0.00024083639412135854 0.016266423357696812 0 0.001507546693594807 0.015941826182051085 0 4.5737578727448062e-08 0.014835883912985756 0 0.00050319545043592761 0.014748741713184367 0 4.9536250990729659e-07 0.014835607550389126 0 -4.9576743659001384e-07 0.01349463612504862 0 1.1846513949829709e-06 0.013263039685605009 0 -7.3939805721108388e-05 0.012955224148326682 0 -4.9576743659001384e-07 0.01349463612504862 0 1.1846513949829709e-06 0.013263039685605009 0 0.0024110301376491002 0.016482217111339865 0 0.001507546693594807 0.015941826182051085 0 0.0014810787229853823 0.017093056028839249 0 0.00053895056491254974 0.017138276931654813 0 0.001507546693594807 0.015941826182051085 0 0.0014810787229853823 0.017093056028839249 0 0.00053895056491254974 0.017138276931654813 0 0.0014810787229853823 0.017093056028839249 0 0.00087405344685688251 0.017846526155516768 0 0.0019430136777850353 0.017954272943988957 0 0.0014810787229853823 0.017093056028839249 0 0.00087405344685688251 0.017846526155516768 0 0.0019430136777850353 0.017954272943988957 0 0.00073557392468961557 0.018892384051915255 0 0.0015801952169940446 0.019232855440113966 0 0.0019430136777850353 0.017954272943988957 0 0.00087405344685688251 0.017846526155516768 0 0.00073557392468961557 0.018892384051915255 0 0.00011943502905587205 0.018451052020083372 0 0.00044611729197402357 0.018504589668422056 0 0.00030096749349340567 0.018172236611124878 0 -3.689539653435611e-05 0.018420337427177164 0 0.00073557392468961557 0.018892384051915255 0 0.00030096749349340567 0.018172236611124878 0 0.00087405344685688251 0.017846526155516768 0 0.00073557392468961557 0.018892384051915255 0 0.00030096749349340567 0.018172236611124878 0 0.0002855616684613004 0.017752868904304882 0 -0.000103583763259984 0.017972150971388556 0 0.00030096749349340567 0.018172236611124878 0 0.00087405344685688251 0.017846526155516768 0 0.0002855616684613004 0.017752868904304882 0 0.00053895056491254974 0.017138276931654813 0 0.00087405344685688251 0.017846526155516768 0 0.0002855616684613004 0.017752868904304882 0 0.00053895056491254974 0.017138276931654813 0 0.0002855616684613004 0.017752868904304882 0 -7.7030104745212557e-05 0.017564047411728765 0 -0.00040435844872802057 0.017592605120643704 0 -7.7030104745212557e-05 0.017564047411728765 0 -0.00046834875272933838 0.017908938984948213 0 -7.7030104745212557e-05 0.017564047411728765 0 -0.000103583763259984 0.017972150971388556 0 -0.00046834875272933838 0.017908938984948213 0 0.0002855616684613004 0.017752868904304882 0 -7.7030104745212557e-05 0.017564047411728765 0 -0.000103583763259984 0.017972150971388556 0 0.00030096749349340567 0.018172236611124878 0 -0.000103583763259984 0.017972150971388556 0 -3.689539653435611e-05 0.018420337427177164 0 -3.689539653435611e-05 0.018420337427177164 0 -0.00026702559228167292 0.018405264379904626 0 -0.00013878884784387384 0.01846459783927042 0 -0.00013125565967151464 0.018004037054946492 0 -0.00031725530546639281 0.018183286252994642 0 -0.000103583763259984 0.017972150971388556 0 -3.689539653435611e-05 0.018420337427177164 0 -0.00026702559228167292 0.018405264379904626 0 -0.00047004287560243181 0.01804879507600576 0 -0.00051053756546901269 0.017975733971633913 0 -0.00050534679271399324 0.0179675797575812 0 -0.00047004287560243181 0.01804879507600576 0 -0.00051053756546901269 0.017975733971633913 0 -0.00046834875272933838 0.017908938984948213 0 -0.000103583763259984 0.017972150971388556 0 -0.00047004287560243181 0.01804879507600576 0 -0.00046834875272933838 0.017908938984948213 0 -0.00051053756546901269 0.017975733971633913 0 -0.00046834875272933838 0.017908938984948213 0 -0.00055876523189848644 0.017954218497168162 0 -0.00046834875272933838 0.017908938984948213 0 -0.00060508361529224008 0.017970646772615353 0 -0.00055876523189848644 0.017954218497168162 0 -0.00040435844872802057 0.017592605120643704 0 -0.00046834875272933838 0.017908938984948213 0 -0.00060508361529224008 0.017970646772615353 0 -0.00019735770556794004 0.018510933165756738 0 -0.00019621534576489159 0.018598472172780912 0 -0.0002898441713555833 0.018585789808711319 0 -0.00019735770556794004 0.018510933165756738 0 -0.00011171356740099943 0.018554299346954222 0 -0.00019621534576489159 0.018598472172780912 0 -0.00026702559228167292 0.018405264379904626 0 -0.00019735770556794004 0.018510933165756738 0 -0.0003067034968442184 0.018478805296308229 0 -0.00026702559228167292 0.018405264379904626 0 -0.00019735770556794004 0.018510933165756738 0 -0.00013878884784387384 0.01846459783927042 0 -0.00019735770556794004 0.018510933165756738 0 -0.00013878884784387384 0.01846459783927042 0 -7.6473604734726065e-05 0.018486521975451847 0 -3.689539653435611e-05 0.018420337427177164 0 -0.00013878884784387384 0.01846459783927042 0 -7.6473604734726065e-05 0.018486521975451847 0 -0.00019735770556794004 0.018510933165756738 0 -7.6473604734726065e-05 0.018486521975451847 0 -0.00011171356740099943 0.018554299346954222 0 -7.6473604734726065e-05 0.018486521975451847 0 -4.0550178155773198e-05 0.018523830199561633 0 -0.00011171356740099943 0.018554299346954222 0 -7.6473604734726065e-05 0.018486521975451847 0 -4.0550178155773198e-05 0.018523830199561633 0 -2.578821807133345e-05 0.018489942094068231 0 -3.689539653435611e-05 0.018420337427177164 0 -7.6473604734726065e-05 0.018486521975451847 0 -2.944856861149854e-05 0.018451852727159899 0 -7.6473604734726065e-05 0.018486521975451847 0 -2.944856861149854e-05 0.018451852727159899 0 -2.578821807133345e-05 0.018489942094068231 0 -2.944856861149854e-05 0.018451852727159899 0 3.9858587818807988e-06 0.018471919670704683 0 -2.578821807133345e-05 0.018489942094068231 0 0.00044611729197402357 0.018504589668422056 0 0.0002977268577466401 0.017923260514939195 0 0.0002977268577466401 0.017923260514939195 0 5.2574283882658898e-05 0.018304835092444335 0 3.9858587818807988e-06 0.018471919670704683 0 -2.578821807133345e-05 0.018489942094068231 0 -1.6180867306388283e-05 0.018513070195954034 0 -4.0550178155773198e-05 0.018523830199561633 0 -2.578821807133345e-05 0.018489942094068231 0 -1.6180867306388283e-05 0.018513070195954034 0 -4.0550178155773198e-05 0.018523830199561633 0 -1.6180867306388283e-05 0.018513070195954034 0 -6.1842322991927131e-06 0.018491861764987905 0 5.2574283882658898e-05 0.018304835092444335 0 7.3037912782892933e-06 0.018427366237730499 0 1.9141921671743065e-05 0.018059522608629638 0 -6.1842322991927131e-06 0.018491861764987905 0 0.0002801895413149271 0.018291955046894327 0 -6.4319625499787496e-05 0.018566499505545796 0 -0.0001296717153866909 0.018660079931978563 0 -4.5257788457232965e-05 0.018751609472182386 0 -6.1842322991927131e-06 0.018491861764987905 0 -6.4319625499787496e-05 0.018566499505545796 0 -4.5257788457232965e-05 0.018751609472182386 0 -4.0550178155773198e-05 0.018523830199561633 0 -6.4319625499787496e-05 0.018566499505545796 0 -0.00011171356740099943 0.018554299346954222 0 -4.0550178155773198e-05 0.018523830199561633 0 -6.1842322991927131e-06 0.018491861764987905 0 -6.4319625499787496e-05 0.018566499505545796 0 -0.00011171356740099943 0.018554299346954222 0 -0.0001296717153866909 0.018660079931978563 0 -0.00019621534576489159 0.018598472172780912 0 -6.4319625499787496e-05 0.018566499505545796 0 -0.00011171356740099943 0.018554299346954222 0 -0.0001296717153866909 0.018660079931978563 0 -0.00018818707368847338 0.018740240004690954 0 -0.00024496097986390135 0.018685196086824722 0 -0.00026794126615007507 0.018863914342259588 0 -0.0001296717153866909 0.018660079931978563 0 -0.00018818707368847338 0.018740240004690954 0 -0.00024496097986390135 0.018685196086824722 0 -0.0001296717153866909 0.018660079931978563 0 -0.00024496097986390135 0.018685196086824722 0 -0.00019621534576489159 0.018598472172780912 0 -0.00024496097986390135 0.018685196086824722 0 -0.00019621534576489159 0.018598472172780912 0 -0.0002898441713555833 0.018585789808711319 0 0.00088234093393727594 0.017828496272647387 0 0.00072452610063538476 0.017292186416621603 0 0.00016263477863182293 0.01750927235905201 0 0.00080629321383019002 0.017832938316191409 0 0.00027445976478577497 0.017671212649284944 0 0.00088234093393727594 0.017828496272647387 0 0.00049234121207954867 0.017843594962474809 0 0.00059127816612781819 0.01812433557156717 0 0.00088234093393727594 0.017828496272647387 0 0.0011513429906661458 0.017502383645034536 0 0.0010951712810364392 0.018044530136934279 0 0.00088234093393727594 0.017828496272647387 0 0.0011513429906661458 0.017502383645034536 0 0.00072452610063538476 0.017292186416621603 0 0.0011513429906661458 0.017502383645034536 0 0.0010644733535724842 0.01710815562959846 0 0.00072452610063538476 0.017292186416621603 0 0.001318042381188611 0.01726314720664808 0 0.0011513429906661458 0.017502383645034536 0 0.0010644733535724842 0.01710815562959846 0 0.00071415484218340433 0.016969137800201404 0 0.0010644733535724842 0.01710815562959846 0 0.00072452610063538476 0.017292186416621603 0 0.00032400445727353314 0.016942593301657597 0 0.00071415484218340433 0.016969137800201404 0 0.00072452610063538476 0.017292186416621603 0 0.00032400445727353314 0.016942593301657597 0 0.00072452610063538476 0.017292186416621603 0 0.00016263477863182293 0.01750927235905201 0 -9.063439961121303e-05 0.016917835569244581 0 0.00032400445727353314 0.016942593301657597 0 0.00016263477863182293 0.01750927235905201 0 0.0002977268577466401 0.017923260514939195 0 0.00027445976478577497 0.017671212649284944 0 -9.063439961121303e-05 0.016917835569244581 0 -0.00050302338964198048 0.017241464343262854 0 0.00016263477863182293 0.01750927235905201 0 1.9141921671743065e-05 0.018059522608629638 0 0.00049234121207954867 0.017843594962474809 0 0.0002801895413149271 0.018291955046894327 0 8.967267973297297e-05 0.017714707115791803 0 1.9141921671743065e-05 0.018059522608629638 0 0.00049234121207954867 0.017843594962474809 0 0.00059127816612781819 0.01812433557156717 0 0.0002801895413149271 0.018291955046894327 0 0.00053062719119598752 0.018423037639260152 0 0.00049234121207954867 0.017843594962474809 0 0.00059127816612781819 0.01812433557156717 0 0.0002801895413149271 0.018291955046894327 0 0.0002801895413149271 0.018291955046894327 0 0.00053062719119598752 0.018423037639260152 0 0.00024164562199522656 0.018757465973098707 0 -6.1842322991927131e-06 0.018491861764987905 0 0.0002801895413149271 0.018291955046894327 0 0.00024164562199522656 0.018757465973098707 0 0.00083631082930876505 0.018241910366521903 0 0.0011429005101623365 0.018432490872578977 0 0.00072713634963427365 0.018757589286088859 0 0.00053062719119598752 0.018423037639260152 0 0.00083631082930876505 0.018241910366521903 0 0.00072713634963427365 0.018757589286088859 0 0.00059127816612781819 0.01812433557156717 0 0.00053062719119598752 0.018423037639260152 0 0.00083631082930876505 0.018241910366521903 0 0.00088234093393727594 0.017828496272647387 0 0.00059127816612781819 0.01812433557156717 0 0.00083631082930876505 0.018241910366521903 0 0.00083631082930876505 0.018241910366521903 0 0.0010951712810364392 0.018044530136934279 0 0.0011429005101623365 0.018432490872578977 0 0.0015135257090872559 0.018094290012732297 0 0.0011513429906661458 0.017502383645034536 0 0.0010951712810364392 0.018044530136934279 0 0.0015135257090872559 0.018094290012732297 0 0.0010951712810364392 0.018044530136934279 0 0.0011429005101623365 0.018432490872578977 0 0.00088234093393727594 0.017828496272647387 0 0.00083631082930876505 0.018241910366521903 0 0.0010951712810364392 0.018044530136934279 0 0.0011429005101623365 0.018432490872578977 0 0.00072713634963427365 0.018757589286088859 0 0.0012784682490588725 0.018729809464876734 0 0.00083674940405984301 0.018685824114640991 0 0.0012924751296837197 0.018602836018789481 0 0.0012449854180554558 0.018700795410428277 0 0.00095599347230997296 0.018617612361674012 0 0.0012657573768732077 0.018629033269384847 0 0.0012104811640305424 0.018730579078843141 0 0.001097974816917087 0.018841458927881877 0 0.0012449854180554558 0.018700795410428277 0 0.0010464234335461461 0.018791500373201899 0 0.0010285429566667685 0.019038652674062306 0 0.0012449854180554558 0.018700795410428277 0 0.001196187110373311 0.018627874803413682 0 0.00125497143091653 0.018658848714055477 0 0.0012449854180554558 0.018700795410428277 0 0.0010464234335461461 0.018791500373201899 0 0.00095599347230997296 0.018617612361674012 0 0.0010464234335461461 0.018791500373201899 0 0.00095599347230997296 0.018617612361674012 0 0.00073697169140426728 0.018941109560699838 0 0.00053062719119598752 0.018423037639260152 0 0.00072713634963427365 0.018757589286088859 0 0.00024164562199522656 0.018757465973098707 0 0.00083674940405984301 0.018685824114640991 0 0.00041642614797955484 0.018713483578995167 0 0.00056004643091209954 0.018665456578829818 0 0.00073697169140426728 0.018941109560699838 0 0.00034756654213023632 0.018930021304241183 0 0.00095599347230997296 0.018617612361674012 0 0.00056004643091209954 0.018665456578829818 0 0.00073697169140426728 0.018941109560699838 0 0.00073697169140426728 0.018941109560699838 0 0.00078433116372985149 0.01932375885221568 0 0.0010285429566667685 0.019038652674062306 0 0.00073697169140426728 0.018941109560699838 0 0.00034756654213023632 0.018930021304241183 0 0.00044531035658946101 0.019208759155252733 0 0.00080214377689033565 0.0191290956742068 0 0.00046608818746867971 0.01919200145781497 0 0.00073697169140426728 0.018941109560699838 0 0.00078433116372985149 0.01932375885221568 0 0.00044531035658946101 0.019208759155252733 0 0.00058145268333817792 0.019318661344313016 0 0.00072237025683828573 0.019300586662067545 0 0.00047581125236583849 0.019203697039470839 0 0.00058145268333817792 0.019318661344313016 0 0.00047581125236583849 0.019203697039470839 0 0.00051986838795208999 0.019341374124415694 0 0.00080214377689033565 0.0191290956742068 0 0.00081196887592335646 0.019119405578418926 0 0.0012966702525722032 0.018790876873660975 0 0.001196187110373311 0.018627874803413682 0 0.0011373567997308956 0.018869561357093938 0 0.00095877009785321952 0.018873764743190451 0 0.001196187110373311 0.018627874803413682 0 0.0011373567997308956 0.018869561357093938 0 0.00090546814017027912 0.01885408427901817 0 0.00095877009785321952 0.018873764743190451 0 0.001196187110373311 0.018627874803413682 0 0.00080214377689033565 0.0191290956742068 0 0.001097974816917087 0.018841458927881877 0 0.0012966702525722032 0.018790876873660975 0 0.0012786353012269071 0.018668266565669982 0 0.001196187110373311 0.018627874803413682 0 0.0012966702525722032 0.018790876873660975 0 0.0012786353012269071 0.018668266565669982 0 0.0012846314849306807 0.018647872817435063 0 0.0012786353012269071 0.018668266565669982 0 0.001196187110373311 0.018627874803413682 0 0.00125497143091653 0.018658848714055477 0 0.0010464234335461461 0.018791500373201899 0 0.00073697169140426728 0.018941109560699838 0 0.0010285429566667685 0.019038652674062306 0 -0.00014517893079442186 0.018816144594821418 0 -0.00014607950840256635 0.019021993713864167 0 -0.00026794126615007507 0.018863914342259588 0 -0.00014607950840256635 0.019021993713864167 0 -0.00026794126615007507 0.018863914342259588 0 -0.00034094944774049117 0.01908520421950459 0 -0.00018818707368847338 0.018740240004690954 0 -0.00014517893079442186 0.018816144594821418 0 -0.00026794126615007507 0.018863914342259588 0 -0.0001296717153866909 0.018660079931978563 0 -0.00018818707368847338 0.018740240004690954 0 -0.00014517893079442186 0.018816144594821418 0 -0.0001296717153866909 0.018660079931978563 0 -0.00014517893079442186 0.018816144594821418 0 -4.5257788457232965e-05 0.018751609472182386 0 -0.00011128891236482651 0.018787474694890956 0 8.1144137496484583e-05 0.018749508320971484 0 -0.00014517893079442186 0.018816144594821418 0 3.0658932496631856e-05 0.018916045155830882 0 -0.00014607950840256635 0.019021993713864167 0 -0.00014517893079442186 0.018816144594821418 0 3.0658932496631856e-05 0.018916045155830882 0 0.00019476397063697767 0.018729881828191641 0 3.0658932496631856e-05 0.018916045155830882 0 0.00019476397063697767 0.018729881828191641 0 0.00034756654213023632 0.018930021304241183 0 0.00041642614797955484 0.018713483578995167 0 8.1144137496484583e-05 0.018749508320971484 0 -6.1842322991927131e-06 0.018491861764987905 0 0.00024164562199522656 0.018757465973098707 0 -4.5257788457232965e-05 0.018751609472182386 0 0.00056004643091209954 0.018665456578829818 0 0.00019476397063697767 0.018729881828191641 0 0.00034756654213023632 0.018930021304241183 0 0.00046608818746867971 0.01919200145781497 0 0.00014735617825812133 0.019103233342839709 0 0.00034756654213023632 0.018930021304241183 0 0.00044531035658946101 0.019208759155252733 0 0.00012645926334590264 0.019104218432471381 0 0.00047581125236583849 0.019203697039470839 0 0.00017752526706084197 0.019102969010517057 0 0.00031855168917923861 0.019352078984128052 0 0.00047581125236583849 0.019203697039470839 0 0.00031855168917923861 0.019352078984128052 0 0.00051986838795208999 0.019341374124415694 0 0.00017752526706084197 0.019102969010517057 0 1.3007961453718419e-05 0.019276847979921793 0 0.00031855168917923861 0.019352078984128052 0 3.0658932496631856e-05 0.018916045155830882 0 0.00034756654213023632 0.018930021304241183 0 0.00012645926334590264 0.019104218432471381 0 3.0658932496631856e-05 0.018916045155830882 0 0.00012645926334590264 0.019104218432471381 0 -0.00014607950840256635 0.019021993713864167 0 0.00014735617825812133 0.019103233342839709 0 -8.9087842407607127e-05 0.019030714868410507 0 0.00017752526706084197 0.019102969010517057 0 1.3007961453718419e-05 0.019276847979921793 0 -0.00014607950840256635 0.019021993713864167 0 1.3007961453718419e-05 0.019276847979921793 0 -0.000249049331114391 0.019239495507297998 0 -0.00014607950840256635 0.019021993713864167 0 1.3007961453718419e-05 0.019276847979921793 0 -0.000249049331114391 0.019239495507297998 0 -0.00011405664124072875 0.019425652937996422 0 -0.000249049331114391 0.019239495507297998 0 -0.00014607950840256635 0.019021993713864167 0 -0.00034094944774049117 0.01908520421950459 0 -0.00015261986521435087 0.019623088353293822 0 -0.00011405664124072875 0.019425652937996422 0 -0.00036581175486222759 0.019437925556084687 0 -0.000249049331114391 0.019239495507297998 0 -0.00011405664124072875 0.019425652937996422 0 -0.00036581175486222759 0.019437925556084687 0 -0.00015261986521435087 0.019623088353293822 0 -0.00011405664124072875 0.019425652937996422 0 0.0001785700667479682 0.019549350565293784 0 1.3007961453718419e-05 0.019276847979921793 0 -0.00011405664124072875 0.019425652937996422 0 0.0001785700667479682 0.019549350565293784 0 -0.00017557668568559995 0.019599246970174317 0 0.00020364875123916177 0.019520963799210349 0 -0.00017317182729266662 0.019578041370856253 0 0.00022709841973471193 0.019493466581138978 0 0.00011926490499737361 0.019836483552873985 0 0.00022709841973471193 0.019493466581138978 0 0.00039485555989707272 0.019551953869215585 0 0.00037274836193217445 0.01974704388411656 0 1.3007961453718419e-05 0.019276847979921793 0 0.0001785700667479682 0.019549350565293784 0 0.00031855168917923861 0.019352078984128052 0 0.00020364875123916177 0.019520963799210349 0 0.00045139803780724452 0.019467715510422118 0 0.0001785700667479682 0.019549350565293784 0 0.00031855168917923861 0.019352078984128052 0 0.00050633168115526896 0.019445882175114164 0 0.00031855168917923861 0.019352078984128052 0 0.00051986838795208999 0.019341374124415694 0 0.00050633168115526896 0.019445882175114164 0 0.00039485555989707272 0.019551953869215585 0 0.00050633168115526896 0.019445882175114164 0 0.0005179096331091686 0.019492793541242288 0 0.00022709841973471193 0.019493466581138978 0 0.00039485555989707272 0.019551953869215585 0 0.00050633168115526896 0.019445882175114164 0 0.00039485555989707272 0.019551953869215585 0 0.00049944378297940724 0.019646012101198915 0 0.0005179096331091686 0.019492793541242288 0 0.00049944378297940724 0.019646012101198915 0 0.00037274836193217445 0.01974704388411656 0 0.00060095757926924135 0.019851579035289755 0 0.00039485555989707272 0.019551953869215585 0 0.00049944378297940724 0.019646012101198915 0 0.00037274836193217445 0.01974704388411656 0 0.00037274836193217445 0.01974704388411656 0 0.00034898895184135942 0.020071175755594799 0 0.00060095757926924135 0.019851579035289755 0 0.00034898895184135942 0.020071175755594799 0 0.00060095757926924135 0.019851579035289755 0 0.00062859398702231825 0.020283214288114904 0 0.00037274836193217445 0.01974704388411656 0 0.00034898895184135942 0.020071175755594799 0 0.00011926490499737361 0.019836483552873985 0 0.00022709841973471193 0.019493466581138978 0 0.00037274836193217445 0.01974704388411656 0 0.00011926490499737361 0.019836483552873985 0 -0.00017317182729266662 0.019578041370856253 0 0.00011926490499737361 0.019836483552873985 0 -0.00013557871779440429 0.019942523935383275 0 0.00011926490499737361 0.019836483552873985 0 9.9190209214046295e-06 0.020195339500469239 0 -0.00013557871779440429 0.019942523935383275 0 0.00034898895184135942 0.020071175755594799 0 0.00011926490499737361 0.019836483552873985 0 9.9190209214046295e-06 0.020195339500469239 0 9.9190209214046295e-06 0.020195339500469239 0 -0.00025962687350671227 0.020177523424088163 0 -0.00013557871779440429 0.019942523935383275 0 -0.00025962687350671227 0.020177523424088163 0 -0.00013557871779440429 0.019942523935383275 0 -0.00038103544008648879 0.019956875792208312 0 -0.00017317182729266662 0.019578041370856253 0 -0.00013557871779440429 0.019942523935383275 0 -0.00038103544008648879 0.019956875792208312 0 0.00095260922848019189 0.019264319999528854 0 0.00083037870555834363 0.019475333289215715 0 0.0011392196967449776 0.019470969526581471 0 0.0011143518473338541 0.019077779012503127 0 0.00095260922848019189 0.019264319999528854 0 0.0011392196967449776 0.019470969526581471 0 0.0013836680350664608 0.01913397253341827 0 0.0011143518473338541 0.019077779012503127 0 0.0011392196967449776 0.019470969526581471 0 0.0013836680350664608 0.01913397253341827 0 0.0011392196967449776 0.019470969526581471 0 0.0016015068619829977 0.019368279379675089 0 0.0012966702525722032 0.018790876873660975 0 0.0013836680350664608 0.01913397253341827 0 0.0011143518473338541 0.019077779012503127 0 0.0012966702525722032 0.018790876873660975 0 0.0011373567997308956 0.018869561357093938 0 0.0011143518473338541 0.019077779012503127 0 0.00095877009785321952 0.018873764743190451 0 0.0011373567997308956 0.018869561357093938 0 0.0011143518473338541 0.019077779012503127 0 0.00087748745225648837 0.018846856831322575 0 0.00095877009785321952 0.018873764743190451 0 0.00085333045534130981 0.019061879299197313 0 0.0011143518473338541 0.019077779012503127 0 0.00085333045534130981 0.019061879299197313 0 0.00095260922848019189 0.019264319999528854 0 0.00095877009785321952 0.018873764743190451 0 0.0011143518473338541 0.019077779012503127 0 0.00085333045534130981 0.019061879299197313 0 0.00080214377689033565 0.0191290956742068 0 0.00066024934000879013 0.019276365889356648 0 0.00058145268333817792 0.019318661344313016 0 0.00072237025683828573 0.019300586662067545 0 0.00060567006595058396 0.019421322757597659 0 0.00087748745225648837 0.018846856831322575 0 0.00085333045534130981 0.019061879299197313 0 0.00066727103231080864 0.019137113547751768 0 0.00085333045534130981 0.019061879299197313 0 0.00066727103231080864 0.019137113547751768 0 0.00080083824521635504 0.019255673800466021 0 0.00085333045534130981 0.019061879299197313 0 0.00095260922848019189 0.019264319999528854 0 0.00080083824521635504 0.019255673800466021 0 0.00058145268333817792 0.019318661344313016 0 0.00051986838795208999 0.019341374124415694 0 0.00060567006595058396 0.019421322757597659 0 0.00060567006595058396 0.019421322757597659 0 0.00050633168115526896 0.019445882175114164 0 0.0005179096331091686 0.019492793541242288 0 0.00051986838795208999 0.019341374124415694 0 0.00060567006595058396 0.019421322757597659 0 0.00050633168115526896 0.019445882175114164 0 0.00066024934000879013 0.019276365889356648 0 0.00056521555994309416 0.019397751243754074 0 0.00066727103231080864 0.019137113547751768 0 0.0005179096331091686 0.019492793541242288 0 0.00069011053993601936 0.019405519999627325 0 0.0005179096331091686 0.019492793541242288 0 0.00069011053993601936 0.019405519999627325 0 0.00064583734854015574 0.019613522416844071 0 0.00069011053993601936 0.019405519999627325 0 0.00083037870555834363 0.019475333289215715 0 0.00064583734854015574 0.019613522416844071 0 0.00049944378297940724 0.019646012101198915 0 0.0005179096331091686 0.019492793541242288 0 0.00064583734854015574 0.019613522416844071 0 0.00095260922848019189 0.019264319999528854 0 0.00080083824521635504 0.019255673800466021 0 0.00083037870555834363 0.019475333289215715 0 0.00066727103231080864 0.019137113547751768 0 0.00069011053993601936 0.019405519999627325 0 0.00080083824521635504 0.019255673800466021 0 0.00069011053993601936 0.019405519999627325 0 0.00080083824521635504 0.019255673800466021 0 0.00083037870555834363 0.019475333289215715 0 0.00083037870555834363 0.019475333289215715 0 0.00086802326353308424 0.019732403914283606 0 0.00064583734854015574 0.019613522416844071 0 0.00083037870555834363 0.019475333289215715 0 0.00086802326353308424 0.019732403914283606 0 0.0011392196967449776 0.019470969526581471 0 0.00086802326353308424 0.019732403914283606 0 0.00064583734854015574 0.019613522416844071 0 0.00060095757926924135 0.019851579035289755 0 0.00049944378297940724 0.019646012101198915 0 0.00064583734854015574 0.019613522416844071 0 0.00060095757926924135 0.019851579035289755 0 0.00086802326353308424 0.019732403914283606 0 0.00060095757926924135 0.019851579035289755 0 0.00089793284548011425 0.020056484073522236 0 0.00086802326353308424 0.019732403914283606 0 0.0011116724578989041 0.019853684766890294 0 0.00089793284548011425 0.020056484073522236 0 0.00086802326353308424 0.019732403914283606 0 0.0011116724578989041 0.019853684766890294 0 0.0011392196967449776 0.019470969526581471 0 0.0011116724578989041 0.019853684766890294 0 0.0011392196967449776 0.019470969526581471 0 0.0014600741285159214 0.019801825276644692 0 0.0011392196967449776 0.019470969526581471 0 0.0014600741285159214 0.019801825276644692 0 0.0016015068619829977 0.019368279379675089 0 0.0011116724578989041 0.019853684766890294 0 0.0014600741285159214 0.019801825276644692 0 0.0012175763028631048 0.020211107415633096 0 0.0014600741285159214 0.019801825276644692 0 0.0017327669678789629 0.019916483112682966 0 0.0018852943456676952 0.019613146504091624 0 0.0017327669678789629 0.019916483112682966 0 0.0018852943456676952 0.019613146504091624 0 0.0019762239138339517 0.020037270863054867 0 0.0018852943456676952 0.019613146504091624 0 0.0019396659996596191 0.019248043136870396 0 0.0022222725111113316 0.019392199651143124 0 0.0018852943456676952 0.019613146504091624 0 0.0016015068619829977 0.019368279379675089 0 0.0019396659996596191 0.019248043136870396 0 0.0014600741285159214 0.019801825276644692 0 0.0018852943456676952 0.019613146504091624 0 0.0016015068619829977 0.019368279379675089 0 0.0013836680350664608 0.01913397253341827 0 0.0016015068619829977 0.019368279379675089 0 0.001795843805529135 0.018950094150479813 0 0.0016015068619829977 0.019368279379675089 0 0.0019396659996596191 0.019248043136870396 0 0.001795843805529135 0.018950094150479813 0 0.0019396659996596191 0.019248043136870396 0 0.001795843805529135 0.018950094150479813 0 0.0022428864807890912 0.01904765876888043 0 0.0015117636714148061 0.018741874553604758 0 0.0016876202283029323 0.018713046374090953 0 0.0012966702525722032 0.018790876873660975 0 0.0013836680350664608 0.01913397253341827 0 0.001795843805529135 0.018950094150479813 0 0.0013252632022604392 0.018747720460118699 0 0.0015117636714148061 0.018741874553604758 0 0.0010477263126781402 0.018356113858881824 0 0.0011072144983428683 0.018436610819833752 0 0.0010590077605052274 0.018445408152594656 0 0.0010477263126781402 0.018356113858881824 0 0.0011072144983428683 0.018436610819833752 0 0.0011684727111216588 0.018373334648682054 0 0.00127476951462327 0.018541930909141632 0 0.0011684727111216588 0.018373334648682054 0 0.0011708089129894772 0.018487161893762757 0 0.0011072144983428683 0.018436610819833752 0 0.0011684727111216588 0.018373334648682054 0 0.0011708089129894772 0.018487161893762757 0 0.0019396659996596191 0.019248043136870396 0 0.0022428864807890912 0.01904765876888043 0 0.0022222725111113316 0.019392199651143124 0 0.0022428864807890912 0.01904765876888043 0 0.0024912807705023301 0.019062586164217438 0 0.002484229241153978 0.019047054427429461 0 0.0016876202283029323 0.018713046374090953 0 0.001732863971142605 0.018652975193078954 0 0.0010477263126781402 0.018356113858881824 0 0.0011684727111216588 0.018373334648682054 0 0.0009180075144537322 0.018281989995495899 0 0.0022428864807890912 0.01904765876888043 0 0.0022222725111113316 0.019392199651143124 0 0.0024912807705023301 0.019062586164217438 0 0.0022222725111113316 0.019392199651143124 0 0.0025111530653942745 0.01963921580443858 0 0.0024912807705023301 0.019062586164217438 0 0.0025492875823298661 0.018950637165165766 0 0.0025211534042326534 0.019072529162161369 0 0.0018852943456676952 0.019613146504091624 0 0.0022520662557540178 0.019851108980775984 0 0.0019762239138339517 0.020037270863054867 0 0.0018852943456676952 0.019613146504091624 0 0.0022222725111113316 0.019392199651143124 0 0.0022520662557540178 0.019851108980775984 0 0.0025492875823298661 0.018950637165165766 0 0.0021597994999905932 0.019230778445872121 0 0.0022520662557540178 0.019851108980775984 0 0.0025111530653942745 0.01963921580443858 0 0.0024357974925299469 0.020134098040980417 0 0.0022222725111113316 0.019392199651143124 0 0.0022520662557540178 0.019851108980775984 0 0.0025111530653942745 0.01963921580443858 0 0.0019774272167460494 0.018153412023307558 0 0.0023275704614240653 0.018605248854532463 0 0.0024990150237516368 0.018022230306150064 0 0.0026862824848542426 0.018359275604356868 0 0.0023275704614240653 0.018605248854532463 0 0.0024990150237516368 0.018022230306150064 0 0.0019774272167460494 0.018153412023307558 0 0.0019922405647934535 0.018470909993602003 0 0.0023275704614240653 0.018605248854532463 0 0.0019922405647934535 0.018470909993602003 0 0.0023275704614240653 0.018605248854532463 0 0.0018195315772723572 0.018530373898316684 0 0.0023275704614240653 0.018605248854532463 0 0.0018195315772723572 0.018530373898316684 0 0.002484229241153978 0.019047054427429461 0 0.0026862824848542426 0.018359275604356868 0 0.0023275704614240653 0.018605248854532463 0 0.0024912807705023301 0.019062586164217438 0 -2.5262843821460903e-05 0.0056646207713159256 0 -2.0991585407106043e-05 0.005731393052545118 0 7.8474202559008732e-05 0.0056856409014728777 0 -2.0991585407106043e-05 0.005731393052545118 0 7.8474202559008732e-05 0.0056856409014728777 0 7.1571089099924023e-05 0.0057508651345937658 0 6.8710651789954038e-05 0.005669257372374858 0 7.8474202559008732e-05 0.0056856409014728777 0 7.1571089099924023e-05 0.0057508651345937658 0 0.0019774272167460494 0.018153412023307558 0 0.0019922405647934535 0.018470909993602003 0 0.0020110577410000388 0.018643098948198281 0 0.0010310808083830144 0.011946487087281677 0 0.0010905284269465607 0.012127543816144407 0 0.0020110577410000388 0.018643098948198281 0 0.0021940546970010649 0.018178987061247459 0 0.0018195315772723572 0.018530373898316684 0 0.0019922405647934535 0.018470909993602003 0 0.0020110577410000388 0.018643098948198281 0 0.0018195315772723572 0.018530373898316684 0 -2.0991585407106043e-05 0.005731393052545118 0 -3.3497609993412676e-05 0.0058345101874783282 0 7.1571089099924023e-05 0.0057508651345937658 0 0.0030849718204302204 0.018050402738968335 0 0.0020110577410000388 0.018643098948198281 0 0.0021940546970010649 0.018178987061247459 0 0.0030849718204302204 0.018050402738968335 0 0.0021940546970010649 0.018178987061247459 0 0.0023285428642951553 0.017659907923791573 0 0.0015549264823422279 0.011811286166514428 0 0.0010905284269465607 0.012127543816144407 0 0.0021940546970010649 0.018178987061247459 0 0.0018650458368609801 0.017857864077372068 0 0.0023285428642951553 0.017659907923791573 0 0.0021940546970010649 0.018178987061247459 0 0.0018195315772723572 0.018530373898316684 0 0.0018650458368609801 0.017857864077372068 0 0.0018195315772723572 0.018530373898316684 0 0.0018650458368609801 0.017857864077372068 0 0.0015553346512708272 0.018036329321018573 0 0.0018650458368609801 0.017857864077372068 0 0.0019463619898194161 0.017181646416805054 0 0.0013480711772272792 0.017469935773230628 0 0.0019463619898194161 0.017181646416805054 0 0.0013480711772272792 0.017469935773230628 0 0.0015995456432316047 0.016833765115794843 0 0.0018650458368609801 0.017857864077372068 0 0.0019463619898194161 0.017181646416805054 0 0.0023285428642951553 0.017659907923791573 0 0.0019463619898194161 0.017181646416805054 0 0.002796633483911893 0.017020964318374535 0 0.0023285428642951553 0.017659907923791573 0 0.0030849718204302204 0.018050402738968335 0 0.002796633483911893 0.017020964318374535 0 0.0023285428642951553 0.017659907923791573 0 0.0023275704614240653 0.018605248854532463 0 0.0024912807705023301 0.019062586164217438 0 0.002484229241153978 0.019047054427429461 0 0.0009180075144537322 0.018281989995495899 0 0.001172391298281448 0.018241855382692816 0 0.0010486518821586522 0.018270520590735338 0 0.0009180075144537322 0.018281989995495899 0 0.0010486518821586522 0.018270520590735338 0 0.0010017311385832762 0.018307084133570579 0 0.0010477263126781402 0.018356113858881824 0 0.0009180075144537322 0.018281989995495899 0 0.0010017311385832762 0.018307084133570579 0 0.0018195315772723572 0.018530373898316684 0 0.0009180075144537322 0.018281989995495899 0 0.001172391298281448 0.018241855382692816 0 0.0018106521535342988 0.018599800970418922 0 0.001732863971142605 0.018652975193078954 0 0.0018195315772723572 0.018530373898316684 0 0.0015553346512708272 0.018036329321018573 0 0.001172391298281448 0.018241855382692816 0 0.0015553346512708272 0.018036329321018573 0 0.001172391298281448 0.018241855382692816 0 0.0013480711772272792 0.017469935773230628 0 0.001172391298281448 0.018241855382692816 0 0.00095966420567886168 0.018331605442931088 0 0.0010486518821586522 0.018270520590735338 0 0.001049556606955728 0.018062868017557278 0 0.0010294146105982328 0.017828472818363864 0 0.0018650458368609801 0.017857864077372068 0 0.0015553346512708272 0.018036329321018573 0 0.0013480711772272792 0.017469935773230628 0 0.00095966420567886168 0.018331605442931088 0 0.0010261254086512456 0.018346521402458123 0 0.00098373066423715783 0.018425915646006694 0 0.0010477263126781402 0.018356113858881824 0 0.0010261254086512456 0.018346521402458123 0 0.0010590077605052274 0.018445408152594656 0 0.00095966420567886168 0.018331605442931088 0 0.0010261254086512456 0.018346521402458123 0 0.0010486518821586522 0.018270520590735338 0 0.0010261254086512456 0.018346521402458123 0 0.0010486518821586522 0.018270520590735338 0 0.0010017311385832762 0.018307084133570579 0 0.0010477263126781402 0.018356113858881824 0 0.0010261254086512456 0.018346521402458123 0 0.0010017311385832762 0.018307084133570579 0 0.001017530748582525 0.018480785787130243 0 0.00098373066423715783 0.018425915646006694 0 0.00097380851273524342 0.018525363648420761 0 0.0010590077605052274 0.018445408152594656 0 0.001017530748582525 0.018480785787130243 0 0.00098373066423715783 0.018425915646006694 0 0.0010261254086512456 0.018346521402458123 0 0.0010590077605052274 0.018445408152594656 0 0.00098373066423715783 0.018425915646006694 0 0.0010590077605052274 0.018445408152594656 0 0.0010535090008864862 0.018505695414833649 0 0.001017530748582525 0.018480785787130243 0 0.00098373066423715783 0.018425915646006694 0 0.00089598070370871304 0.018436376582298266 0 0.00097380851273524342 0.018525363648420761 0 0.00095966420567886168 0.018331605442931088 0 0.00098373066423715783 0.018425915646006694 0 0.00089598070370871304 0.018436376582298266 0 0.0010294146105982328 0.017828472818363864 0 0.001060350311760878 0.016798114939876482 0 0.001060350311760878 0.016798114939876482 0 5.1365687375471613e-05 0.01587602569314963 0 -0.0012019465092710743 0.013570885381955541 0 0.0012278001814595323 0.012879965149087784 0 -0.00040548101859853771 0.011929405687078733 0 0.00019868502904215316 0.015085059579318407 0 -0.0012019465092710743 0.013570885381955541 0 0.0012278001814595323 0.012879965149087784 0 -0.0012019465092710743 0.013570885381955541 0 -0.0014446376077187194 0.012163179417694127 0 -0.00040548101859853771 0.011929405687078733 0 -0.0012019465092710743 0.013570885381955541 0 -0.002589676431855046 0.01206851608558847 0 -0.0014446376077187194 0.012163179417694127 0 5.1365687375471613e-05 0.01587602569314963 0 -0.00018464943408432599 0.014899679973028558 0 0.00097380851273524342 0.018525363648420761 0 0.0010313521519620165 0.018531930443066242 0 0.0010429052659985377 0.018585574631691557 0 0.0010626497637269674 0.018557248782579746 0 0.0010313521519620165 0.018531930443066242 0 0.0010691265572880559 0.018541127519965842 0 0.0010626497637269674 0.018557248782579746 0 0.0010313521519620165 0.018531930443066242 0 0.0010429052659985377 0.018585574631691557 0 0.0010535090008864862 0.018505695414833649 0 0.0010313521519620165 0.018531930443066242 0 0.0010691265572880559 0.018541127519965842 0 0.0010535090008864862 0.018505695414833649 0 0.001017530748582525 0.018480785787130243 0 0.0010313521519620165 0.018531930443066242 0 0.001017530748582525 0.018480785787130243 0 0.00097380851273524342 0.018525363648420761 0 0.0010313521519620165 0.018531930443066242 0 0.0019463619898194161 0.017181646416805054 0 0.002796633483911893 0.017020964318374535 0 0.002342274133624039 0.016232391804723374 0 0.0033414885157930308 0.016072967272370727 0 0.002796633483911893 0.017020964318374535 0 0.002342274133624039 0.016232391804723374 0 0.0019463619898194161 0.017181646416805054 0 0.0013595877702637404 0.016576005320022156 0 0.002342274133624039 0.016232391804723374 0 0.0015341710526394351 0.017108378437716339 0 0.001060350311760878 0.016798114939876482 0 0.001060350311760878 0.016798114939876482 0 0.0012516377722025611 0.014170672794438163 0 0.0013595877702637404 0.016576005320022156 0 0.002342274133624039 0.016232391804723374 0 0.0018705586480443888 0.01540714603310586 0 0.002342274133624039 0.016232391804723374 0 0.0018705586480443888 0.01540714603310586 0 0.0027580278800598593 0.015400310839257289 0 0.0033414885157930308 0.016072967272370727 0 0.002342274133624039 0.016232391804723374 0 0.0027580278800598593 0.015400310839257289 0 0.0018705586480443888 0.01540714603310586 0 0.0027580278800598593 0.015400310839257289 0 0.0023917721707166161 0.014271396329881485 0 0.0038234810977166829 0.015017824784324967 0 0.0027580278800598593 0.015400310839257289 0 0.0023917721707166161 0.014271396329881485 0 0.0012516377722025611 0.014170672794438163 0 0.0014364721015411453 0.0090021538229264533 0 0.0012278001814595323 0.012879965149087784 0 0.00066910097142683302 0.011073647707807849 0 -0.00040548101859853771 0.011929405687078733 0 0.0012278001814595323 0.012879965149087784 0 0.00066910097142683302 0.011073647707807849 0 0.0022513136421457567 0.010665807735976304 0 0.00066910097142683302 0.011073647707807849 0 0.00038567304658985085 0.010569481627454481 0 -0.00021704228743768666 0.010818544892347305 0 0.0029165116398544243 0.0085545743813986094 0 0.00049939527696756176 0.0097921276149274157 0 0.00077655219681649888 0.0094122614836960328 0 0.0029165116398544243 0.0085545743813986094 0 0.00036728256078078891 0.0099448074709508477 0 0.0014115859530457609 0.010235365455479878 0 0.0025274012938209158 0.0088092716020729354 0 0.00053647615485348976 0.010066973003851338 0 0.00072429590425735011 0.010444585024684349 0 0.00036728256078078891 0.0099448074709508477 0 0.0014115859530457609 0.010235365455479878 0 0.00066910097142683302 0.011073647707807849 0 0.00038567304658985085 0.010569481627454481 0 0.00072429590425735011 0.010444585024684349 0 0.00066910097142683302 0.011073647707807849 0 0.00072429590425735011 0.010444585024684349 0 0.0014115859530457609 0.010235365455479878 0 0.00038567304658985085 0.010569481627454481 0 0.00072429590425735011 0.010444585024684349 0 0.00036728256078078891 0.0099448074709508477 0 0.00066910097142683302 0.011073647707807849 0 0.0014115859530457609 0.010235365455479878 0 0.0022513136421457567 0.010665807735976304 0 0.0017242655234715289 0.0093528537757946988 0 0.0014364721015411453 0.0090021538229264533 0 0.0029165116398544243 0.0085545743813986094 0 0.0014115859530457609 0.010235365455479878 0 0.0022190189502701726 0.010635936174970989 0 0.0025718383107270551 0.0049072735243782988 0 0.0014364721015411453 0.0090021538229264533 0 0.0015419883913824815 0.0031043258888641106 0 0.0013884849031195257 0.0022972622028301971 0 0.00053831575096777769 0.0040623596310440189 0 0.0015419883913824815 0.0031043258888641106 0 0.0014379534795054478 0.0038877113430249364 0 0.00053831575096777769 0.0040623596310440189 0 -0.0022476158926188097 0.011338674347815294 0 -0.0014446376077187194 0.012163179417694127 0 -0.0010178611261632095 0.011203645429891405 0 -0.00014341333560185265 0.012917356504537356 0 -9.3712219307878769e-05 0.012893496014043349 0 -9.6992486871545435e-05 0.012974615650865363 0 -0.00037624688658906069 0.013210043566439695 0 4.6791735383709114e-05 0.014715854484917698 0 -0.00050838087806169639 0.014069344951806926 0 -0.00051786367527829338 0.014091672579812991 0 -0.00052700584692845335 0.014081334455269214 0 -0.00037624688658906069 0.013210043566439695 0 -0.00018464943408432599 0.014899679973028558 0 0.0010629972037028443 0.018558209708886674 0 0.0010666409233312001 0.018560936429357654 0 0.0010722469082786392 0.018561829443330145 0 -0.00018464943408432599 0.014899679973028558 0 4.6791735383709114e-05 0.014715854484917698 0 -0.00036727531617721681 0.016216044898011261 0 -0.00018464943408432599 0.014899679973028558 0 0.0010626497637269674 0.018557248782579746 0 0.0010629972037028443 0.018558209708886674 0 0.0010722469082786392 0.018561829443330145 0 -0.0022476158926188097 0.011338674347815294 0 -0.002589676431855046 0.01206851608558847 0 -0.0014446376077187194 0.012163179417694127 0 -0.0014446376077187194 0.012163179417694127 0 -0.00040548101859853771 0.011929405687078733 0 -0.0010178611261632095 0.011203645429891405 0 0.00036728256078078891 0.0099448074709508477 0 -0.0022476158926188097 0.011338674347815294 0 -0.0010178611261632095 0.011203645429891405 0 0.00066910097142683302 0.011073647707807849 0 -0.00040548101859853771 0.011929405687078733 0 -0.00021704228743768666 0.010818544892347305 0 -0.00040548101859853771 0.011929405687078733 0 -0.0010178611261632095 0.011203645429891405 0 -0.00021704228743768666 0.010818544892347305 0 0.00049939527696756176 0.0097921276149274157 0 -0.0017862541074062167 0.011019753611833598 0 -0.00057806610182581679 0.0098635881932458477 0 0.00017583993523120461 0.0096926801209081745 0 -0.00010125984584390429 0.010060436589451304 0 0.00053647615485348976 0.010066973003851338 0 -0.00037624688658906069 0.013210043566439695 0 0.00077655219681649888 0.0094122614836960328 0 -0.00057806610182581679 0.0098635881932458477 0 -0.0010900892069151257 0.0095184472304743716 0 0.00028265426510892767 0.0088824620248282114 0 0.00077655219681649888 0.0094122614836960328 0 -0.0011784653251739562 0.0094824541729101024 0 0.00038567304658985085 0.010569481627454481 0 0.00036728256078078891 0.0099448074709508477 0 -0.00021704228743768666 0.010818544892347305 0 0.00036728256078078891 0.0099448074709508477 0 -0.0010178611261632095 0.011203645429891405 0 -0.00021704228743768666 0.010818544892347305 0 0.00049939527696756176 0.0097921276149274157 0 0.00077655219681649888 0.0094122614836960328 0 -0.00057806610182581679 0.0098635881932458477 0 -0.00057806610182581679 0.0098635881932458477 0 -0.0010900892069151257 0.0095184472304743716 0 -0.0011985754030573773 0.0097498021229642916 0 -0.00048435708019687652 0.010704270760312251 0 -0.00026723079587455211 0.010840125345797287 0 -0.00010125984584390429 0.010060436589451304 0 -0.00030179745304293365 0.011217993399279267 0 -0.00026723079587455211 0.010840125345797287 0 -0.00030179745304293365 0.011217993399279267 0 -0.00064923875523497558 0.010769975817281974 0 -0.00059143987748195128 0.010648265530183255 0 -7.0262690401090816e-05 0.010750909356302685 0 -0.00010125984584390429 0.010060436589451304 0 -0.00026723079587455211 0.010840125345797287 0 -0.00037624688658906069 0.013210043566439695 0 -0.00026723079587455211 0.010840125345797287 0 -0.00014341333560185265 0.012917356504537356 0 -0.00019205931566520254 0.013013361834283579 0 -9.6992486871545435e-05 0.012974615650865363 0 -0.0017862541074062167 0.011019753611833598 0 -0.00057806610182581679 0.0098635881932458477 0 -0.0011960383348734384 0.0097506287991653944 0 -0.00019205931566520254 0.013013361834283579 0 -9.6992486871545435e-05 0.012974615650865363 0 -0.0001112581493337378 0.013032700415961627 0 4.6791735383709114e-05 0.014715854484917698 0 0.00032055101442595709 0.014308267763262347 0 -9.6992486871545435e-05 0.012974615650865363 0 -0.0001112581493337378 0.013032700415961627 0 3.672073471085923e-05 0.013033328497664781 0 -0.00053848553118769941 0.012946755191001056 0 0.00045782236143869108 0.012920557699308007 0 0.00053316369029998689 0.013002403219515634 0 0.00025309110313046168 0.015169675780958156 0 0.00034485706051625667 0.015608309157529244 0 0.00018419596640377193 0.015172649246780034 0 -0.00053848553118769941 0.012946755191001056 0 0.00053316369029998689 0.013002403219515634 0 0.00077001232927815491 0.013212497868827371 0 -9.3712219307878769e-05 0.012893496014043349 0 -9.6992486871545435e-05 0.012974615650865363 0 3.672073471085923e-05 0.013033328497664781 0 -0.00030179745304293365 0.011217993399279267 0 -0.00011593526714226681 0.013552533496684194 0 -0.00030179745304293365 0.011217993399279267 0 0.00032055101442595709 0.014308267763262347 0 0.00032055101442595709 0.014308267763262347 0 0.0003043743236646714 0.014274330984967961 0 0.0011947094507749416 0.018625716898384995 0 0.0011350265004304212 0.018607804898157911 0 0.0011135977426977614 0.018328475398046645 0 0.00038410900275136033 0.017238788093500351 0 0.00046752949584144955 0.015238063692470119 0 0.00055343211396712011 0.015496537249997977 0 0.00025309110313046168 0.015169675780958156 0 0.00034485706051625667 0.015608309157529244 0 0.0011551737954882504 0.018623773972735035 0 0.0011350265004304212 0.018607804898157911 0 0.0011544967024639929 0.018607025491866259 0 0.0011551737954882504 0.018623773972735035 0 0.0011947094507749416 0.018625716898384995 0 0.0011350265004304212 0.018607804898157911 0 0.00040643102452232342 0.017269625380658828 0 0.00038410900275136033 0.017238788093500351 0 0.0010666409233312001 0.018560936429357654 0 0.001081115005484048 0.018562845400083513 0 0.0010722469082786392 0.018561829443330145 0 4.6791735383709114e-05 0.014715854484917698 0 0.00038410900275136033 0.017238788093500351 0 0.0013158711890054512 0.018648850031858229 0 0.0011145345116502713 0.017606201207213828 0 0.0011350265004304212 0.018607804898157911 0 0.0012209376486138604 0.018694615003808739 0 0.0012109193411267579 0.018641221769274595 0 0.0011759132609413983 0.01861410007125586 0 0.0011350265004304212 0.018607804898157911 0 0.0012109193411267579 0.018641221769274595 0 0.0011759132609413983 0.01861410007125586 0 0.0012109193411267579 0.018641221769274595 0 0.0012076086712981937 0.018624208582277025 0 0.0011759132609413983 0.01861410007125586 0 0.0011350265004304212 0.018607804898157911 0 0.0011544967024639929 0.018607025491866259 0 0.0016190918396146216 0.016400577138167137 0 1.0960230640012738e-05 0.01608938302251026 0 0.0010048003943786091 0.015567074857646631 0 0.0011350265004304212 0.018607804898157911 0 0.0011135977426977614 0.018328475398046645 0 0.00093754114303193272 0.018332234515640939 0 0.00045815406360330145 0.012922761384552088 0 0.00053316369029998689 0.013002403219515634 0 0.00065909520898692396 0.012914357868882667 0 0.00032055101442595709 0.014308267763262347 0 0.00046752949584144955 0.015238063692470119 0 0.00046752949584144955 0.015238063692470119 0 -0.00011593526714226681 0.013552533496684194 0 0.00053316369029998689 0.013002403219515634 0 0.00065909520898692396 0.012914357868882667 0 0.00077001232927815491 0.013212497868827371 0 -0.00016967080066071871 0.015609624465160787 0 1.0960230640012738e-05 0.01608938302251026 0 0.0010048003943786091 0.015567074857646631 0 0.00046752949584144955 0.015238063692470119 0 0.0011145345116502713 0.017606201207213828 0 0.0011145345116502713 0.017606201207213828 0 0.0012924751296837197 0.018602836018789481 0 0.0016152531425838498 0.017431933977001778 0 0.0011145345116502713 0.017606201207213828 0 0.0012209376486138604 0.018694615003808739 0 0.001249118478372947 0.018663161802993763 0 0.0012109193411267579 0.018641221769274595 0 0.0012209376486138604 0.018694615003808739 0 0.001249118478372947 0.018663161802993763 0 0.0012657573768732077 0.018629033269384847 0 0.001652743242465615 0.018528910974676634 0 0.0017769521424042193 0.018696840259302308 0 0.0012784682490588725 0.018729809464876734 0 0.001249118478372947 0.018663161802993763 0 0.0012657573768732077 0.018629033269384847 0 0.0012579745762285374 0.018666660857224782 0 0.0012449854180554558 0.018700795410428277 0 0.0012657573768732077 0.018629033269384847 0 0.0012579745762285374 0.018666660857224782 0 0.0012449854180554558 0.018700795410428277 0 0.0012579745762285374 0.018666660857224782 0 0.0012528414365677713 0.018663076693171542 0 0.001249118478372947 0.018663161802993763 0 0.0012579745762285374 0.018666660857224782 0 0.0012528414365677713 0.018663076693171542 0 0.0012528414365677713 0.018663076693171542 0 0.0012381139245814124 0.018641923057611792 0 0.0012607078059668033 0.018641826877914689 0 0.0012449854180554558 0.018700795410428277 0 0.0012528414365677713 0.018663076693171542 0 0.00125497143091653 0.018658848714055477 0 0.001249118478372947 0.018663161802993763 0 0.0012109193411267579 0.018641221769274595 0 0.0012381139245814124 0.018641923057611792 0 0.001249118478372947 0.018663161802993763 0 0.0012528414365677713 0.018663076693171542 0 0.0012381139245814124 0.018641923057611792 0 0.0012109193411267579 0.018641221769274595 0 0.0012381139245814124 0.018641923057611792 0 0.0012076086712981937 0.018624208582277025 0 0.0012381139245814124 0.018641923057611792 0 0.0012076086712981937 0.018624208582277025 0 0.0012229639109173605 0.018611699179932571 0 0.0012381139245814124 0.018641923057611792 0 0.0012229639109173605 0.018611699179932571 0 0.0012607078059668033 0.018641826877914689 0 0.0012229639109173605 0.018611699179932571 0 0.0012607078059668033 0.018641826877914689 0 0.0012515107047654556 0.018608843043868915 0 0.0012528414365677713 0.018663076693171542 0 0.00125497143091653 0.018658848714055477 0 0.0012607078059668033 0.018641826877914689 0 0.0012786353012269071 0.018668266565669982 0 0.0012607078059668033 0.018641826877914689 0 0.0012846314849306807 0.018647872817435063 0 0.0012786353012269071 0.018668266565669982 0 0.00125497143091653 0.018658848714055477 0 0.0012607078059668033 0.018641826877914689 0 0.0012966702525722032 0.018790876873660975 0 0.00127476951462327 0.018541930909141632 0 0.0012846314849306807 0.018647872817435063 0 0.00127476951462327 0.018541930909141632 0 0.0012846314849306807 0.018647872817435063 0 0.0012515107047654556 0.018608843043868915 0 0.0012607078059668033 0.018641826877914689 0 0.0012846314849306807 0.018647872817435063 0 0.0012515107047654556 0.018608843043868915 0 0.00127476951462327 0.018541930909141632 0 0.0012515107047654556 0.018608843043868915 0 0.0011985603806558909 0.018561190275600561 0 0.00127476951462327 0.018541930909141632 0 0.0011985603806558909 0.018561190275600561 0 0.0011708089129894772 0.018487161893762757 0 0.0012229639109173605 0.018611699179932571 0 0.0012515107047654556 0.018608843043868915 0 0.0011985603806558909 0.018561190275600561 0 0.0011985603806558909 0.018561190275600561 0 0.001154549734116709 0.018547890418494604 0 0.0011708089129894772 0.018487161893762757 0 0.001154549734116709 0.018547890418494604 0 0.0011708089129894772 0.018487161893762757 0 0.0011146332936102978 0.018491098572188849 0 0.0011072144983428683 0.018436610819833752 0 0.0011708089129894772 0.018487161893762757 0 0.0011146332936102978 0.018491098572188849 0 0.0011072144983428683 0.018436610819833752 0 0.0010590077605052274 0.018445408152594656 0 0.0011146332936102978 0.018491098572188849 0 0.0010590077605052274 0.018445408152594656 0 0.0011146332936102978 0.018491098572188849 0 0.001097723822078755 0.018527281007236818 0 0.0010590077605052274 0.018445408152594656 0 0.0010535090008864862 0.018505695414833649 0 0.001097723822078755 0.018527281007236818 0 0.001154549734116709 0.018547890418494604 0 0.0011146332936102978 0.018491098572188849 0 0.001097723822078755 0.018527281007236818 0 0.001097723822078755 0.018527281007236818 0 0.0010921971154394458 0.018565681823086901 0 0.0011423595279941906 0.01857752489623787 0 0.001154549734116709 0.018547890418494604 0 0.001097723822078755 0.018527281007236818 0 0.0011423595279941906 0.01857752489623787 0 0.0010691265572880559 0.018541127519965842 0 0.001097723822078755 0.018527281007236818 0 0.0010921971154394458 0.018565681823086901 0 0.0010535090008864862 0.018505695414833649 0 0.0010691265572880559 0.018541127519965842 0 0.001097723822078755 0.018527281007236818 0 0.0010626497637269674 0.018557248782579746 0 0.0010691265572880559 0.018541127519965842 0 0.0010921971154394458 0.018565681823086901 0 0.0010626497637269674 0.018557248782579746 0 0.0010722469082786392 0.018561829443330145 0 0.0010921971154394458 0.018565681823086901 0 0.001081115005484048 0.018562845400083513 0 0.0010722469082786392 0.018561829443330145 0 0.0010921971154394458 0.018565681823086901 0 0.0011551737954882504 0.018623773972735035 0 0.0010921971154394458 0.018565681823086901 0 0.0011423595279941906 0.01857752489623787 0 0.0011551737954882504 0.018623773972735035 0 0.0011265204367945981 0.018637795408347358 0 0.0010921971154394458 0.018565681823086901 0 0.00038410900275136033 0.017238788093500351 0 0.00066341931963953592 0.017894996174067427 0 0.0011551737954882504 0.018623773972735035 0 0.0011423595279941906 0.01857752489623787 0 0.0011544967024639929 0.018607025491866259 0 0.0011423595279941906 0.01857752489623787 0 0.0011544967024639929 0.018607025491866259 0 0.00117847706696447 0.018595153760548169 0 0.0011759132609413983 0.01861410007125586 0 0.0011544967024639929 0.018607025491866259 0 0.00117847706696447 0.018595153760548169 0 0.0011759132609413983 0.01861410007125586 0 0.0012076086712981937 0.018624208582277025 0 0.00117847706696447 0.018595153760548169 0 0.0012076086712981937 0.018624208582277025 0 0.0012229639109173605 0.018611699179932571 0 0.00117847706696447 0.018595153760548169 0 0.0012229639109173605 0.018611699179932571 0 0.0011985603806558909 0.018561190275600561 0 0.00117847706696447 0.018595153760548169 0 0.0011985603806558909 0.018561190275600561 0 0.001154549734116709 0.018547890418494604 0 0.00117847706696447 0.018595153760548169 0 0.001154549734116709 0.018547890418494604 0 0.0011423595279941906 0.01857752489623787 0 0.00117847706696447 0.018595153760548169 0 2.547793629997764e-05 0.034961582322487854 0 1.1770711366236163e-07 0.035000095749746156 0 4.2620944272981686e-09 0.034999896319611666 0 2.547793629997764e-05 0.034961582322487854 0 -2.5335518705553558e-06 0.034844102754379318 0 5.8751541103643604e-06 0.034938193978079596 0 -1.106182946086532e-05 0.034394446453810901 0 -2.4969262232886902e-05 0.034744421561780071 0 2.547793629997764e-05 0.034961582322487854 0 5.1749983112613685e-05 0.034953099039737284 0 -2.5335518705553558e-06 0.034844102754379318 0 0.00028810785832289362 0.034454768724155933 0 -0.00011914156579177488 0.033924390788769868 0 -2.5335518705553558e-06 0.034844102754379318 0 0.00028810785832289362 0.034454768724155933 0 -0.00011914156579177488 0.033924390788769868 0 0.00061712356449386237 0.033600183054062815 0 2.547793629997764e-05 0.034961582322487854 0 5.1749983112613685e-05 0.034953099039737284 0 4.4749853343399586e-05 0.034921481324293763 0 5.1749983112613685e-05 0.034953099039737284 0 0.00016711508627659683 0.034863409150485067 0 4.4749853343399586e-05 0.034921481324293763 0 -6.1528222538675677e-05 0.032851259744337599 0 0.00056437073663145464 0.032749772979105959 0 0.00061712356449386237 0.033600183054062815 0 -1.106182946086532e-05 0.034394446453810901 0 2.1962690795303166e-05 0.033964428056798807 0 -0.00011914156579177488 0.033924390788769868 0 -6.1528222538675677e-05 0.032851259744337599 0 0.00061712356449386237 0.033600183054062815 0 0.00016711508627659683 0.034863409150485067 0 0.00011491828677531954 0.034756077634629942 0 0.00025839993454344586 0.034604990698562717 0 2.1962690795303166e-05 0.033964428056798807 0 7.9139306952720094e-05 0.032067022445602743 0 -6.1528222538675677e-05 0.032851259744337599 0 0.0003436115160853277 0.032300093715127737 0 7.6212162088412741e-05 0.031774572411899647 0 -6.1528222538675677e-05 0.032851259744337599 0 0.0003436115160853277 0.032300093715127737 0 0.00056437073663145464 0.032749772979105959 0 0.00016711508627659683 0.034863409150485067 0 0.00011491828677531954 0.034756077634629942 0 4.4749853343399586e-05 0.034921481324293763 0 4.4749853343399586e-05 0.034921481324293763 0 1.1770711366236163e-07 0.035000095749746156 0 1.974672432561107e-05 0.034738369951727785 0 0.00011491828677531954 0.034756077634629942 0 4.4749853343399586e-05 0.034921481324293763 0 1.974672432561107e-05 0.034738369951727785 0 2.547793629997764e-05 0.034961582322487854 0 4.4749853343399586e-05 0.034921481324293763 0 1.1770711366236163e-07 0.035000095749746156 0 1.1770711366236163e-07 0.035000095749746156 0 1.974672432561107e-05 0.034738369951727785 0 -0.00019675264770647484 0.034261761762720354 0 1.1770711366236163e-07 0.035000095749746156 0 -1.4244460322761552e-06 0.034996407138482441 0 -0.00019675264770647484 0.034261761762720354 0 1.974672432561107e-05 0.034738369951727785 0 -0.00019675264770647484 0.034261761762720354 0 0.00011797456424644342 0.034590535177194848 0 -1.4244460322761552e-06 0.034996407138482441 0 -0.00019675264770647484 0.034261761762720354 0 2.5555742059053038e-06 0.030860902121704378 0 -0.00019675264770647484 0.034261761762720354 0 0.0006020530884305673 0.03353928169602062 0 0.00029408694615881345 0.034177372950853907 0 -0.00019675264770647484 0.034261761762720354 0 2.5555742059053038e-06 0.030860902121704378 0 0.0006020530884305673 0.03353928169602062 0 1.021960942896892e-06 0.030851189558055322 0 0.00033126785145584577 0.029531402724162683 0 -0.0001336878245332489 0.029665817764770303 0 3.1438959847829793e-07 0.030854453771629896 0 0.00030889433155668476 0.031520722136590879 0 0.0006020530884305673 0.03353928169602062 0 0.00029408694615881345 0.034177372950853907 0 0.00058092471275457034 0.034676147319502137 0 0.00030889433155668476 0.031520722136590879 0 7.9139306952720094e-05 0.032067022445602743 0 0.00033126785145584577 0.029531402724162683 0 0.00033618690806598708 0.029091016235405633 0 0.00013182161545355776 0.029342845176605015 0 0.00033618690806598708 0.029091016235405633 0 0.00012488019984933853 0.02908224908872983 0 0.00013182161545355776 0.029342845176605015 0 -0.00019675264770647484 0.034261761762720354 0 0.00029408694615881345 0.034177372950853907 0 0.00011797456424644342 0.034590535177194848 0 0.00029408694615881345 0.034177372950853907 0 0.00011797456424644342 0.034590535177194848 0 0.00058092471275457034 0.034676147319502137 0 0.00021150828808760581 0.033069851843370648 0 7.9139306952720094e-05 0.032067022445602743 0 0.00011491828677531954 0.034756077634629942 0 0.00011797456424644342 0.034590535177194848 0 0.00025839993454344586 0.034604990698562717 0 0.00011491828677531954 0.034756077634629942 0 1.974672432561107e-05 0.034738369951727785 0 0.00011797456424644342 0.034590535177194848 0 7.6212162088412741e-05 0.031774572411899647 0 0.00045287908225416713 0.031931138077209355 0 0.00057827115600374366 0.031770139553534089 0 7.9139306952720094e-05 0.032067022445602743 0 0.00044004160765279815 0.029494727256096871 0 0.0003436115160853277 0.032300093715127737 0 7.6212162088412741e-05 0.031774572411899647 0 0.00045287908225416713 0.031931138077209355 0 0.00084960342609212902 0.031885128563684001 0 0.00061448649371327135 0.031797631206389357 0 0.00098938265918722349 0.031841075465491975 0 0.00044004160765279815 0.029494727256096871 0 0.0010183013870889066 0.028656931705753529 0 0.00066452630530804266 0.032195709308956197 0 0.00084960342609212902 0.031885128563684001 0 0.00061448649371327135 0.031797631206389357 0 0.0003436115160853277 0.032300093715127737 0 0.00045287908225416713 0.031931138077209355 0 0.00066452630530804266 0.032195709308956197 0 0.00045287908225416713 0.031931138077209355 0 0.00066452630530804266 0.032195709308956197 0 0.00061448649371327135 0.031797631206389357 0 0.00028113634329382547 0.02982794175435477 0 0.00044004160765279815 0.029494727256096871 0 0.00084960342609212902 0.031885128563684001 0 0.00098938265918722349 0.031841075465491975 0 0.00094130648407110096 0.031897929058875257 0 0.0010040524776191153 0.025136604273094061 0 0.0012970633756081288 0.025715099682859652 0 0.00054060684753245091 0.025618898909975724 0 0.00044004160765279815 0.029494727256096871 0 0.00083789688213760968 0.027544503061747112 0 0.001725473463274847 0.025162161422186771 0 0.0010040524776191153 0.025136604273094061 0 0.0012970633756081288 0.025715099682859652 0 0.00012488019984933853 0.02908224908872983 0 -0.00012571332248798278 0.029447311334958599 0 0.00013182161545355776 0.029342845176605015 0 0.00033126785145584577 0.029531402724162683 0 0.00013182161545355776 0.029342845176605015 0 -0.0001336878245332489 0.029665817764770303 0 -0.00012571332248798278 0.029447311334958599 0 0.00013182161545355776 0.029342845176605015 0 -0.0001336878245332489 0.029665817764770303 0 0.0012970633756081288 0.025715099682859652 0 0.00089829877015627129 0.026364987032427629 0 0.00054060684753245091 0.025618898909975724 0 0.00083789688213760968 0.027544503061747112 0 0.00031004448069514329 0.027830716419665679 0 -0.00012571332248798278 0.029447311334958599 0 -0.0001336878245332489 0.029665817764770303 0 -7.0304662199320202e-06 0.029333231013598544 0 -7.0304662199320202e-06 0.029333231013598544 0 -1.0371341560619658e-06 0.029253481033315626 0 1.0653815206884151e-06 0.027653890099678211 0 -0.0001336878245332489 0.029665817764770303 0 -7.0304662199320202e-06 0.029333231013598544 0 -1.0371341560619658e-06 0.029253481033315626 0 1.021960942896892e-06 0.030851189558055322 0 -0.0001336878245332489 0.029665817764770303 0 -1.0371341560619658e-06 0.029253481033315626 0 -0.00016796142908173393 0.026126013270300844 0 1.5069963610877598e-06 0.027648815043866834 0 -5.3332452136596043e-05 0.025991934225738901 0 -0.00016796142908173393 0.026126013270300844 0 1.5069963610877598e-06 0.027648815043866834 0 -1.3464910166083697e-06 0.025821903169363041 0 0.00089829877015627129 0.026364987032427629 0 1.5069963610877598e-06 0.027648815043866834 0 -5.3332452136596043e-05 0.025991934225738901 0 0.00031004448069514329 0.027830716419665679 0 1.609773333010702e-07 0.027652425628725115 0 0.00089829877015627129 0.026364987032427629 0 -5.3332452136596043e-05 0.025991934225738901 0 0.00054060684753245091 0.025618898909975724 0 -0.00016796142908173393 0.026126013270300844 0 -5.3332452136596043e-05 0.025991934225738901 0 -0.00032114883298474552 0.025603210808622181 0 -5.3332452136596043e-05 0.025991934225738901 0 -3.4349439270960351e-05 0.025508453712046648 0 0.00054060684753245091 0.025618898909975724 0 -5.3332452136596043e-05 0.025991934225738901 0 -3.4349439270960351e-05 0.025508453712046648 0 -0.00033865717036865155 0.025613557186756085 0 0.0010040524776191153 0.025136604273094061 0 0.00054060684753245091 0.025618898909975724 0 0.00026780373068999673 0.025156452157577936 0 -3.4349439270960351e-05 0.025508453712046648 0 0.00054060684753245091 0.025618898909975724 0 0.00026780373068999673 0.025156452157577936 0 0.00098938265918722349 0.031841075465491975 0 0.00098273408646023467 0.031828831084005964 0 0.000979933031990168 0.031844920279201605 0 0.0010183013870889066 0.028656931705753529 0 0.00060647946491645228 0.028443733704855631 0 0.00098273408646023467 0.031828831084005964 0 0.00096950719147470337 0.031825242462105691 0 0.000979933031990168 0.031844920279201605 0 0.00098273408646023467 0.031828831084005964 0 0.00096950719147470337 0.031825242462105691 0 0.00088003380705436844 0.031777708393376063 0 0.00060647946491645228 0.028443733704855631 0 0.00071117815510314325 0.028046556896119436 0 0.00098273408646023467 0.031828831084005964 0 0.00088003380705436844 0.031777708393376063 0 0.00083791418175849079 0.031777280059308237 0 0.00096950719147470337 0.031825242462105691 0 0.00088003380705436844 0.031777708393376063 0 0.00099914474140138732 0.031858858532380206 0 -3.4349439270960351e-05 0.025508453712046648 0 0.00026780373068999673 0.025156452157577936 0 -0.00030605951603374147 0.025224985208808351 0 0.00088003380705436844 0.031777708393376063 0 0.00084590068752530472 0.03129529073796667 0 0.0011428536563404547 0.031277923175181771 0 0.00089002363413848975 0.031794609618445831 0 0.0011537692840902982 0.031493982536979798 0 0.00084590068752530472 0.03129529073796667 0 0.0010196497281992371 0.031084858446635451 0 0.0009734974252754528 0.03086386012127991 0 0.00081695784439095819 0.030853238436167767 0 0.00093626921156182599 0.030765187880330353 0 0.00084590068752530472 0.03129529073796667 0 0.0010196497281992371 0.031084858446635451 0 0.0011428536563404547 0.031277923175181771 0 0.0010412271006854303 0.030034575420593641 0 0.0009734974252754528 0.03086386012127991 0 0.0010965722596520708 0.030869436461795907 0 0.0010196497281992371 0.031084858446635451 0 0.0011172565032226852 0.031004780454438753 0 0.0010512694036517206 0.030959003782294155 0 0.0010196497281992371 0.031084858446635451 0 0.0009734974252754528 0.03086386012127991 0 0.0010512694036517206 0.030959003782294155 0 0.0011172565032226852 0.031004780454438753 0 0.0011428536563404547 0.031277923175181771 0 0.0012735940412429002 0.030930708748053672 0 0.0011537692840902982 0.031493982536979798 0 0.00090451316304898525 0.032603200365248351 0 0.0010196497281992371 0.031084858446635451 0 0.0011172565032226852 0.031004780454438753 0 0.0011428536563404547 0.031277923175181771 0 0.00099914474140138732 0.031858858532380206 0 0.000979933031990168 0.031844920279201605 0 0.00094130648407110096 0.031897929058875257 0 0.00096950719147470337 0.031825242462105691 0 0.00099914474140138732 0.031858858532380206 0 0.000979933031990168 0.031844920279201605 0 0.00098938265918722349 0.031841075465491975 0 0.000979933031990168 0.031844920279201605 0 0.00094130648407110096 0.031897929058875257 0 0.00090927920999518957 0.031983374700667845 0 0.0010485821443539068 0.032376381994408801 0 0.00066452630530804266 0.032195709308956197 0 0.00084960342609212902 0.031885128563684001 0 0.0012622601375132749 0.032796099152218809 0 0.00066452630530804266 0.032195709308956197 0 0.0012622601375132749 0.032796099152218809 0 0.00056437073663145464 0.032749772979105959 0 0.0003436115160853277 0.032300093715127737 0 0.00066452630530804266 0.032195709308956197 0 0.00056437073663145464 0.032749772979105959 0 0.0012622601375132749 0.032796099152218809 0 0.00056437073663145464 0.032749772979105959 0 0.00061712356449386237 0.033600183054062815 0 0.00099914474140138732 0.031858858532380206 0 0.00094130648407110096 0.031897929058875257 0 0.00096007831621814645 0.031946460977568363 0 0.0012622601375132749 0.032796099152218809 0 0.0015485754788461443 0.03366371587326477 0 0.00061712356449386237 0.033600183054062815 0 0.0010485821443539068 0.032376381994408801 0 0.00090451316304898525 0.032603200365248351 0 0.00090451316304898525 0.032603200365248351 0 0.00042989972987515573 0.034525826659312329 0 0.0015485754788461443 0.03366371587326477 0 0.00061712356449386237 0.033600183054062815 0 0.00082960361188499747 0.03455598499752955 0 0.00028810785832289362 0.034454768724155933 0 0.00061712356449386237 0.033600183054062815 0 0.00082960361188499747 0.03455598499752955 0 0.00029780053631237892 0.034325917498348693 0 0.00028935757001485694 0.034358404615923779 0 0.00029461499295291039 0.034351989790998586 0 0.0011320234455322073 0.030762996799028518 0 0.0010923237525381536 0.03083228457777247 0 0.0010131985588855432 0.03077033137727218 0 0.0012735940412429002 0.030930708748053672 0 0.0011320234455322073 0.030762996799028518 0 0.0010923237525381536 0.03083228457777247 0 0.00090451316304898525 0.032603200365248351 0 0.00075347337995917778 0.032687235761199668 0 0.0010131985588855432 0.03077033137727218 0 0.0010322093182060529 0.030848684912905336 0 0.0010965722596520708 0.030869436461795907 0 0.0010923237525381536 0.03083228457777247 0 0.0010131985588855432 0.03077033137727218 0 0.0010322093182060529 0.030848684912905336 0 -3.8503323310412602e-05 0.028355553302989344 0 6.0352369655438503e-05 0.027884566173788365 0 -0.0015308810791606561 0.026277427630811916 0 -0.0010120441873360726 0.024911954289606641 0 -0.00081378039907933116 0.025511349110934809 0 0.0010322093182060529 0.030848684912905336 0 0.0009734974252754528 0.03086386012127991 0 0.0010815924841718024 0.030898287236995815 0 0.0010923237525381536 0.03083228457777247 0 0.0010322093182060529 0.030848684912905336 0 0.0010815924841718024 0.030898287236995815 0 0.0010322093182060529 0.030848684912905336 0 0.0009734974252754528 0.03086386012127991 0 0.0010965722596520708 0.030869436461795907 0 0.0009734974252754528 0.03086386012127991 0 0.0010512694036517206 0.030959003782294155 0 0.0010815924841718024 0.030898287236995815 0 0.0011172565032226852 0.031004780454438753 0 0.0010512694036517206 0.030959003782294155 0 0.0010815924841718024 0.030898287236995815 0 0.0012735940412429002 0.030930708748053672 0 0.0010923237525381536 0.03083228457777247 0 0.0010815924841718024 0.030898287236995815 0 0.0011172565032226852 0.031004780454438753 0 0.0012735940412429002 0.030930708748053672 0 0.0010815924841718024 0.030898287236995815 0 9.2173236726623276e-05 0.025372088054902722 0 0.00057209528950798215 0.024881226160528291 0 0.00097301551529637136 0.024595001430842284 0 -8.3012133572829783e-05 0.025438782003829246 0 0.00052794670481386781 0.025357393731322161 0 0.00076986103985055964 0.024716867461259066 0 -0.00026013535948957585 0.025148134617403544 0 7.4575896952905866e-05 0.022996515674089179 0 9.2173236726623276e-05 0.025372088054902722 0 -3.0024450707215675e-05 0.024970100916212639 0 -0.00043210361141943009 0.025331702337231664 0 9.2173236726623276e-05 0.025372088054902722 0 0.00057209528950798215 0.024881226160528291 0 -3.0024450707215675e-05 0.024970100916212639 0 -8.3012133572829783e-05 0.025438782003829246 0 0.00052794670481386781 0.025357393731322161 0 0.00028742136604914 0.025820751391147128 0 0.00057209528950798215 0.024881226160528291 0 0.00015453757242890533 0.024658906956409338 0 0.0004185960783073667 0.024457750837474597 0 0.00057209528950798215 0.024881226160528291 0 0.00072214502339939201 0.024499512867028159 0 0.0004185960783073667 0.024457750837474597 0 0.00057209528950798215 0.024881226160528291 0 0.00015453757242890533 0.024658906956409338 0 -3.0024450707215675e-05 0.024970100916212639 0 0.00015453757242890533 0.024658906956409338 0 -3.0024450707215675e-05 0.024970100916212639 0 -0.00017944300114061551 0.024647471249627882 0 -0.00017944300114061551 0.024647471249627882 0 -0.00050595885521380151 0.02465784505667468 0 -0.00041870801258785454 0.024944671666228862 0 -0.00050595885521380151 0.02465784505667468 0 -0.00041870801258785454 0.024944671666228862 0 -0.00066055819563977565 0.025087560865279392 0 -3.0024450707215675e-05 0.024970100916212639 0 -0.00017944300114061551 0.024647471249627882 0 -0.00041870801258785454 0.024944671666228862 0 -0.00050595885521380151 0.02465784505667468 0 -0.0010120441873360726 0.024911954289606641 0 -0.00066055819563977565 0.025087560865279392 0 -0.0010120441873360726 0.024911954289606641 0 -0.00066055819563977565 0.025087560865279392 0 -0.00081378039907933116 0.025511349110934809 0 -0.00066055819563977565 0.025087560865279392 0 -0.00043210361141943009 0.025331702337231664 0 -0.00081378039907933116 0.025511349110934809 0 -3.0024450707215675e-05 0.024970100916212639 0 -0.00041870801258785454 0.024944671666228862 0 -0.00043210361141943009 0.025331702337231664 0 -0.00041870801258785454 0.024944671666228862 0 -0.00066055819563977565 0.025087560865279392 0 -0.00043210361141943009 0.025331702337231664 0 9.2173236726623276e-05 0.025372088054902722 0 -0.00043210361141943009 0.025331702337231664 0 -0.0008948336746520567 0.026135054047211743 0 -0.0008948336746520567 0.026135054047211743 0 -8.0514258994958044e-05 0.02620102707418652 0 -0.00059236561162005199 0.026633638899036798 0 -8.3012133572829783e-05 0.025438782003829246 0 -0.0008948336746520567 0.026135054047211743 0 -8.0514258994958044e-05 0.02620102707418652 0 -0.00026013535948957585 0.025148134617403544 0 -0.00073890355137454353 0.025835431214027163 0 -0.00043210361141943009 0.025331702337231664 0 -0.00081378039907933116 0.025511349110934809 0 -0.0008948336746520567 0.026135054047211743 0 -0.0015308810791606561 0.026277427630811916 0 -0.00081378039907933116 0.025511349110934809 0 -0.0008948336746520567 0.026135054047211743 0 -8.0514258994958044e-05 0.02620102707418652 0 0.00028742136604914 0.025820751391147128 0 0.00077406867994634699 0.026173659657687386 0 -8.3012133572829783e-05 0.025438782003829246 0 -8.0514258994958044e-05 0.02620102707418652 0 0.00028742136604914 0.025820751391147128 0 -0.00074882300662621967 0.019368723211137702 0 -0.00082144748572113996 0.019374864704593195 0 -0.00084794250503761879 0.019498446132978738 0 0.00052794670481386781 0.025357393731322161 0 0.00028742136604914 0.025820751391147128 0 0.00077406867994634699 0.026173659657687386 0 -0.00083259225009395255 0.019389965576390306 0 -0.00083579361995600129 0.019394949226171434 0 -0.00082144748572113996 0.019374864704593195 0 -0.00084794250503761879 0.019498446132978738 0 -0.00085160175777955363 0.019355598787463391 0 -0.00082840439113133471 0.019389272704921003 0 -0.00080670241074468324 0.019401084059321765 0 -0.00085160175777955363 0.019355598787463391 0 -0.00082840439113133471 0.019389272704921003 0 -0.00085160175777955363 0.019355598787463391 0 -0.00085248556534456017 0.019371108544948223 0 -0.00080670241074468324 0.019401084059321765 0 -0.00080369319885078986 0.019402498214590013 0 -0.00080742154639147005 0.019405508661613263 0 -0.00082840439113133471 0.019389272704921003 0 -0.00080565579897874131 0.019402506732524659 0 -0.00080670241074468324 0.019401084059321765 0 -0.00080565579897874131 0.019402506732524659 0 -0.00080670241074468324 0.019401084059321765 0 -0.00080369319885078986 0.019402498214590013 0 -0.00080565579897874131 0.019402506732524659 0 -0.00080369319885078986 0.019402498214590013 0 -0.00079437274184961137 0.019399748808929786 0 -5.9030787984234858e-06 0.022830686089957201 0 0.00014874478861046312 0.022065722561869332 0 -0.00083259225009395255 0.019389965576390306 0 2.4432281603234955e-05 0.021297672126654624 0 -0.00084794250503761879 0.019498446132978738 0 -0.0007352822306292366 0.019688906322330044 0 -0.0007561153095903267 0.019706925240362383 0 -0.00074882300662621967 0.019368723211137702 0 -0.00084794250503761879 0.019498446132978738 0 -0.0007352822306292366 0.019688906322330044 0 0.00052794670481386781 0.025357393731322161 0 0.00077406867994634699 0.026173659657687386 0 0.00089520054401562462 0.024614028882416955 0 0.00052794670481386781 0.025357393731322161 0 0.00076986103985055964 0.024716867461259066 0 0.00089520054401562462 0.024614028882416955 0 5.2001544255461078e-05 0.0233869064168148 0 7.4575896952905866e-05 0.022996515674089179 0 0.00057209528950798215 0.024881226160528291 0 0.00095338512829717286 0.024613045320202226 0 0.00072214502339939201 0.024499512867028159 0 0.00072214502339939201 0.024499512867028159 0 0.0008430496264430795 0.024326909715603307 0 0.00093791532472274782 0.024448441395621332 0 0.00095338512829717286 0.024613045320202226 0 0.00072214502339939201 0.024499512867028159 0 0.00093791532472274782 0.024448441395621332 0 0.00072214502339939201 0.024499512867028159 0 0.0008430496264430795 0.024326909715603307 0 0.00061002413181293559 0.024200615975764828 0 0.0008430496264430795 0.024326909715603307 0 0.0010921392651048747 0.024243006385011475 0 0.00082961789024287567 0.024164294090675931 0 0.0008430496264430795 0.024326909715603307 0 0.00082961789024287567 0.024164294090675931 0 0.00061002413181293559 0.024200615975764828 0 0.0008430496264430795 0.024326909715603307 0 0.0010921392651048747 0.024243006385011475 0 0.00093791532472274782 0.024448441395621332 0 0.00023784744864487287 0.021888946583930344 0 0.00014874478861046312 0.022065722561869332 0 0.0010921392651048747 0.024243006385011475 0 0.00093791532472274782 0.024448441395621332 0 0.0010756047511517686 0.024510303004340941 0 0.00051892634957469359 0.021611539442137295 0 0.00052794220424678799 0.021464796852532053 0 0.00047462452947646022 0.021508590708335027 0 0.00014874478861046312 0.022065722561869332 0 2.4432281603234955e-05 0.021297672126654624 0 0.00095338512829717286 0.024613045320202226 0 0.00093791532472274782 0.024448441395621332 0 0.0010756047511517686 0.024510303004340941 0 7.4575896952905866e-05 0.022996515674089179 0 0.00014874478861046312 0.022065722561869332 0 0.00023784744864487287 0.021888946583930344 0 2.4432281603234955e-05 0.021297672126654624 0 2.4432281603234955e-05 0.021297672126654624 0 -6.3101270708182261e-05 0.020328482188902302 0 0.00025197981572543755 0.019867505189881268 0 0.00017418224611170433 0.020103697385550848 0 -3.099792665117392e-05 0.020090796679927869 0 0.00028163503094334063 0.019938830988674303 0 0.00025197981572543755 0.019867505189881268 0 0.00017418224611170433 0.020103697385550848 0 0.0010921392651048747 0.024243006385011475 0 0.00073812851656233859 0.023874988281809693 0 0.00082961789024287567 0.024164294090675931 0 0.00073812851656233859 0.023874988281809693 0 0.00082961789024287567 0.024164294090675931 0 0.00061002413181293559 0.024200615975764828 0 -0.00080742154639147005 0.019405508661613263 0 -0.0007989155567975462 0.019389721303811319 0 -0.00079802639283990521 0.019386986353861126 0 -0.00080742154639147005 0.019405508661613263 0 -0.0008007690859720679 0.019398053788126958 0 -0.0007989155567975462 0.019389721303811319 0 2.4432281603234955e-05 0.021297672126654624 0 -0.00054756404332552595 0.019830034485980745 0 -0.00039965551631658845 0.020552929425703543 0 -0.00022915083575069704 0.020397547848207548 0 -0.00015124715624530361 0.020379053180388323 0 -0.0008007690859720679 0.019398053788126958 0 -0.00079437274184961137 0.019399748808929786 0 -0.00078769661061861031 0.019391636746739958 0 -0.00080369319885078986 0.019402498214590013 0 -0.0008007690859720679 0.019398053788126958 0 -0.00079437274184961137 0.019399748808929786 0 -0.00080369319885078986 0.019402498214590013 0 -0.00080742154639147005 0.019405508661613263 0 -0.0008007690859720679 0.019398053788126958 0 -0.0008007690859720679 0.019398053788126958 0 -0.0007989155567975462 0.019389721303811319 0 -0.00078769661061861031 0.019391636746739958 0 -0.00054530860120583901 0.019808565550969524 0 -0.00054756404332552595 0.019830034485980745 0 -0.0007989155567975462 0.019389721303811319 0 -0.00079625447725128378 0.019382632581302135 0 -0.00078769661061861031 0.019391636746739958 0 -3.099792665117392e-05 0.020090796679927869 0 -5.9258819453945795e-05 0.02046580065813413 0 -0.00033657673905245714 0.020337180047315131 0 -3.099792665117392e-05 0.020090796679927869 0 8.83754492261855e-05 0.020284541722554623 0 -5.9258819453945795e-05 0.02046580065813413 0 -0.00022915083575069704 0.020397547848207548 0 -0.00015124715624530361 0.020379053180388323 0 -5.8378207699068714e-05 0.020244405041831788 0 -6.3101270708182261e-05 0.020328482188902302 0 -0.0005010257953671595 0.019923937730189484 0 0.00017418224611170433 0.020103697385550848 0 -3.099792665117392e-05 0.020090796679927869 0 8.83754492261855e-05 0.020284541722554623 0 8.83754492261855e-05 0.020284541722554623 0 0.00026878500370580244 0.020442537913449268 0 -5.9258819453945795e-05 0.02046580065813413 0 -5.9258819453945795e-05 0.02046580065813413 0 -0.00023839464891709677 0.020529041465415395 0 -0.00033657673905245714 0.020337180047315131 0 0.00023784744864487287 0.021888946583930344 0 0.00025629791792358155 0.02131539073143647 0 0.00017418224611170433 0.020103697385550848 0 8.83754492261855e-05 0.020284541722554623 0 0.00026878500370580244 0.020442537913449268 0 0.0010921392651048747 0.024243006385011475 0 0.00073812851656233859 0.023874988281809693 0 0.00058735182227106879 0.023162745024464533 0 0.00028163503094334063 0.019938830988674303 0 0.00017418224611170433 0.020103697385550848 0 0.00026878500370580244 0.020442537913449268 0 0.00023784744864487287 0.021888946583930344 0 0.00049662700715471023 0.022868086697920554 0 0.00023138040839447056 0.022260741971274169 0 0.00023059929118339996 0.022344877306810545 0 0.00026211202707697461 0.02233518714124404 0 0.00058735182227106879 0.023162745024464533 0 0.00026269280864930298 0.023357273902598456 0 0.000428496393202485 0.023576905535296233 0 0.00058735182227106879 0.023162745024464533 0 7.1474663066921587e-05 0.02314100563996194 0 9.9214164210174134e-05 0.022897361957175847 0 7.1474663066921587e-05 0.02314100563996194 0 0.00026269280864930298 0.023357273902598456 0 -2.0817197316145361e-05 0.023491518686998628 0 0.00058735182227106879 0.023162745024464533 0 7.1474663066921587e-05 0.02314100563996194 0 0.00026269280864930298 0.023357273902598456 0 0.00026269280864930298 0.023357273902598456 0 0.00015197888369601427 0.023625059382323097 0 0.000428496393202485 0.023576905535296233 0 0.00026269280864930298 0.023357273902598456 0 -2.0817197316145361e-05 0.023491518686998628 0 0.00015197888369601427 0.023625059382323097 0 -2.0817197316145361e-05 0.023491518686998628 0 0.00015197888369601427 0.023625059382323097 0 -0.00013583111966813089 0.023768484396875126 0 0.00073812851656233859 0.023874988281809693 0 0.00058735182227106879 0.023162745024464533 0 0.000428496393202485 0.023576905535296233 0 0.00015197888369601427 0.023625059382323097 0 0.000428496393202485 0.023576905535296233 0 0.00041131655934439128 0.023878877911394064 0 0.00073812851656233859 0.023874988281809693 0 0.000428496393202485 0.023576905535296233 0 0.00041131655934439128 0.023878877911394064 0 0.00073812851656233859 0.023874988281809693 0 0.00041131655934439128 0.023878877911394064 0 0.00061002413181293559 0.024200615975764828 0 0.00041131655934439128 0.023878877911394064 0 0.00061002413181293559 0.024200615975764828 0 0.00034992682172904735 0.024182625727913215 0 0.00015197888369601427 0.023625059382323097 0 0.00041131655934439128 0.023878877911394064 0 3.7622009398614475e-05 0.023998086536119696 0 0.00015197888369601427 0.023625059382323097 0 3.7622009398614475e-05 0.023998086536119696 0 -0.00013583111966813089 0.023768484396875126 0 0.00041131655934439128 0.023878877911394064 0 3.7622009398614475e-05 0.023998086536119696 0 0.00034992682172904735 0.024182625727913215 0 3.7622009398614475e-05 0.023998086536119696 0 0.00010129833444178041 0.024333646092711294 0 0.00034992682172904735 0.024182625727913215 0 0.00010129833444178041 0.024333646092711294 0 0.0004185960783073667 0.024457750837474597 0 0.00034992682172904735 0.024182625727913215 0 3.7622009398614475e-05 0.023998086536119696 0 0.00010129833444178041 0.024333646092711294 0 -0.00024046424048315405 0.024328606541594241 0 -0.00017944300114061551 0.024647471249627882 0 0.00010129833444178041 0.024333646092711294 0 -0.00024046424048315405 0.024328606541594241 0 0.00015453757242890533 0.024658906956409338 0 -0.00017944300114061551 0.024647471249627882 0 0.00010129833444178041 0.024333646092711294 0 0.00015453757242890533 0.024658906956409338 0 0.00010129833444178041 0.024333646092711294 0 0.0004185960783073667 0.024457750837474597 0 0.00072214502339939201 0.024499512867028159 0 0.0004185960783073667 0.024457750837474597 0 0.00061002413181293559 0.024200615975764828 0 0.0004185960783073667 0.024457750837474597 0 0.00061002413181293559 0.024200615975764828 0 0.00034992682172904735 0.024182625727913215 0 0.0010412271006854303 0.030034575420593641 0 0.0010965722596520708 0.030869436461795907 0 0.0014064012859918889 0.030032545235750701 0 6.0352369655438503e-05 0.027884566173788365 0 0.00048733654920881178 0.026781031951135018 0 -0.0010120441873360726 0.024911954289606641 0 -0.00038031536661893843 0.024204058513987162 0 -0.00045086501449874964 0.023609888266661088 0 -0.00050595885521380151 0.02465784505667468 0 -0.0010120441873360726 0.024911954289606641 0 -0.00038031536661893843 0.024204058513987162 0 -0.00050595885521380151 0.02465784505667468 0 -0.00024046424048315405 0.024328606541594241 0 -0.00038031536661893843 0.024204058513987162 0 -0.00017944300114061551 0.024647471249627882 0 -0.00050595885521380151 0.02465784505667468 0 -0.00024046424048315405 0.024328606541594241 0 3.7622009398614475e-05 0.023998086536119696 0 -0.00038031536661893843 0.024204058513987162 0 -0.00013583111966813089 0.023768484396875126 0 -0.00038031536661893843 0.024204058513987162 0 -0.00045086501449874964 0.023609888266661088 0 -0.00013583111966813089 0.023768484396875126 0 3.7622009398614475e-05 0.023998086536119696 0 -0.00024046424048315405 0.024328606541594241 0 -0.00038031536661893843 0.024204058513987162 0 0.00081695784439095819 0.030853238436167767 0 0.00071117815510314325 0.028046556896119436 0 0.0010412271006854303 0.030034575420593641 0 0.0014064012859918889 0.030032545235750701 0 0.001222971083839791 0.029049787703327987 0 0.00048733654920881178 0.026781031951135018 0 0.00065452146163399018 0.026348482243684978 0 7.1474663066921587e-05 0.02314100563996194 0 -0.00045086501449874964 0.023609888266661088 0 9.9214164210174134e-05 0.022897361957175847 0 7.1474663066921587e-05 0.02314100563996194 0 -2.0817197316145361e-05 0.023491518686998628 0 -0.00045086501449874964 0.023609888266661088 0 -2.0817197316145361e-05 0.023491518686998628 0 -0.00045086501449874964 0.023609888266661088 0 -0.00013583111966813089 0.023768484396875126 0 0.0014064012859918889 0.030032545235750701 0 0.001222971083839791 0.029049787703327987 0 0.0017312302843382225 0.029041308466389054 0 0.00088003380705436844 0.031777708393376063 0 0.00084590068752530472 0.03129529073796667 0 0.00083791418175849079 0.031777280059308237 0 -0.00045086501449874964 0.023609888266661088 0 9.9214164210174134e-05 0.022897361957175847 0 8.569340140038058e-05 0.02256713200553297 0 0.00071117815510314325 0.028046556896119436 0 0.00065452146163399018 0.026348482243684978 0 -0.00062387005693210042 0.027164504621877358 0 -6.2586325995719189e-05 0.027161305863797808 0 -0.00034671624314193075 0.026824272845342337 0 0.00026211202707697461 0.02233518714124404 0 0.00024693680513615822 0.022438634358700821 0 0.00024668985337732586 0.022376156117970555 0 0.00049662700715471023 0.022868086697920554 0 0.0002941714875942816 0.022476230473814789 0 0.00058735182227106879 0.023162745024464533 0 0.0001825574632103193 0.022577734898877523 0 0.00024693680513615822 0.022438634358700821 0 0.00058735182227106879 0.023162745024464533 0 9.9214164210174134e-05 0.022897361957175847 0 0.0001825574632103193 0.022577734898877523 0 9.9214164210174134e-05 0.022897361957175847 0 0.0001825574632103193 0.022577734898877523 0 8.569340140038058e-05 0.02256713200553297 0 0.00063740276985529596 0.026308055909784522 0 0.00065452146163399018 0.026348482243684978 0 0.0001825574632103193 0.022577734898877523 0 0.00014976203452672025 0.022499705729097319 0 0.00024693680513615822 0.022438634358700821 0 0.00014976203452672025 0.022499705729097319 0 0.00024693680513615822 0.022438634358700821 0 0.00041559579382447327 0.022404344637308969 0 0.00065452146163399018 0.026348482243684978 0 0.00041233162728956371 0.024253704816323204 0 -6.2586325995719189e-05 0.027161305863797808 0 -0.00034671624314193075 0.026824272845342337 0 0.00028650805938296137 0.026118722828288973 0 0.00028385551276596636 0.022392105448347802 0 0.00024693680513615822 0.022438634358700821 0 0.00041559579382447327 0.022404344637308969 0 0.00028385551276596636 0.022392105448347802 0 0.00024693680513615822 0.022438634358700821 0 0.00024668985337732586 0.022376156117970555 0 -0.0004704696016777217 0.026397126425330417 0 -0.00034671624314193075 0.026824272845342337 0 0.00028650805938296137 0.026118722828288973 0 -3.4349439270960351e-05 0.025508453712046648 0 -0.00030605951603374147 0.025224985208808351 0 -0.00033865717036865155 0.025613557186756085 0 0.00071117815510314325 0.028046556896119436 0 2.8990117909717182e-05 0.026057179991726194 0 -0.00062387005693210042 0.027164504621877358 0 -0.0004704696016777217 0.026397126425330417 0 -0.00034671624314193075 0.026824272845342337 0 -5.3332452136596043e-05 0.025991934225738901 0 -0.00033865717036865155 0.025613557186756085 0 -0.00032114883298474552 0.025603210808622181 0 -0.0004704696016777217 0.026397126425330417 0 -0.00032114883298474552 0.025603210808622181 0 0.00028650805938296137 0.026118722828288973 0 2.8990117909717182e-05 0.026057179991726194 0 -0.0001333861808849762 0.025778925391487292 0 0.00041233162728956371 0.024253704816323204 0 0.0002589605402363115 0.024134619607391321 0 0.00028650805938296137 0.026118722828288973 0 1.9318732964066286e-05 0.025115232802409102 0 0.00016715593649793844 0.023903564966600767 0 -0.00032114883298474552 0.025603210808622181 0 0.00028650805938296137 0.026118722828288973 0 1.9318732964066286e-05 0.025115232802409102 0 -0.00032114883298474552 0.025603210808622181 0 -1.8328914292103007e-05 0.024854771585455338 0 1.9318732964066286e-05 0.025115232802409102 0 -1.8328914292103007e-05 0.024854771585455338 0 -1.3464910166083697e-06 0.025821903169363041 0 1.3773803230145544e-06 0.023989840728739786 0 -1.8328914292103007e-05 0.024854771585455338 0 1.9318732964066286e-05 0.025115232802409102 0 0.00016715593649793844 0.023903564966600767 0 -1.8328914292103007e-05 0.024854771585455338 0 0.00016715593649793844 0.023903564966600767 0 1.3773803230145544e-06 0.023989840728739786 0 -0.00016796142908173393 0.026126013270300844 0 -0.00032114883298474552 0.025603210808622181 0 -1.3464910166083697e-06 0.025821903169363041 0 -0.00032114883298474552 0.025603210808622181 0 -1.8328914292103007e-05 0.024854771585455338 0 -1.3464910166083697e-06 0.025821903169363041 0 -0.00011591041857167022 0.021936353070057785 0 -8.594266129186525e-07 0.022159367704386004 0 8.5642029449841174e-06 0.022607435188624191 0 -0.00011591041857167022 0.021936353070057785 0 -8.594266129186525e-07 0.022159367704386004 0 -0.00025845709330379413 0.02140616660705617 0 -8.594266129186525e-07 0.022159367704386004 0 1.3773803230145544e-06 0.023989840728739786 0 8.5642029449841174e-06 0.022607435188624191 0 0.00016715593649793844 0.023903564966600767 0 1.3773803230145544e-06 0.023989840728739786 0 8.5642029449841174e-06 0.022607435188624191 0 0.00010218917204533603 0.022395546804741841 0 0.00020329324981570665 0.021772747283850646 0 0.00041559579382447327 0.022404344637308969 0 0.00016715593649793844 0.023903564966600767 0 8.5642029449841174e-06 0.022607435188624191 0 0.00041559579382447327 0.022404344637308969 0 8.5642029449841174e-06 0.022607435188624191 0 0.00018896117791197931 0.022368170000963628 0 8.5642029449841174e-06 0.022607435188624191 0 -0.00022157730912590877 0.021457599895592559 0 0.00030942529058246504 0.020976485909854202 0 -0.00011591041857167022 0.021936353070057785 0 8.5642029449841174e-06 0.022607435188624191 0 -0.00022157730912590877 0.021457599895592559 0 -0.00011591041857167022 0.021936353070057785 0 -0.00022157730912590877 0.021457599895592559 0 -0.00025845709330379413 0.02140616660705617 0 -0.00022157730912590877 0.021457599895592559 0 -0.00030575871891295943 0.021013980523847422 0 0.00030942529058246504 0.020976485909854202 0 -0.00030575871891295943 0.021013980523847422 0 0.00030942529058246504 0.020976485909854202 0 -0.00020070859174707456 0.020747705737036916 0 0.00028385551276596636 0.022392105448347802 0 0.00041559579382447327 0.022404344637308969 0 0.00018896117791197931 0.022368170000963628 0 0.00028385551276596636 0.022392105448347802 0 0.00018896117791197931 0.022368170000963628 0 0.00024668985337732586 0.022376156117970555 0 0.00025629791792358155 0.02131539073143647 0 0.00020329324981570665 0.021772747283850646 0 0.00023059929118339996 0.022344877306810545 0 0.00018896117791197931 0.022368170000963628 0 0.00024668985337732586 0.022376156117970555 0 0.00026878500370580244 0.020442537913449268 0 0.00030942529058246504 0.020976485909854202 0 -5.9258819453945795e-05 0.02046580065813413 0 0.00023059929118339996 0.022344877306810545 0 0.00026211202707697461 0.02233518714124404 0 0.00024668985337732586 0.022376156117970555 0 0.00030942529058246504 0.020976485909854202 0 -0.00020070859174707456 0.020747705737036916 0 -5.9258819453945795e-05 0.02046580065813413 0 -0.00020070859174707456 0.020747705737036916 0 -5.9258819453945795e-05 0.02046580065813413 0 -0.00023839464891709677 0.020529041465415395 0 -0.00061856998860143099 0.019578596778107814 0 -0.0005010257953671595 0.019923937730189484 0 -0.00061096309643654653 0.020017761963573001 0 -0.0005010257953671595 0.019923937730189484 0 -0.00036069735855019837 0.020614845105999577 0 -0.00051850894995989622 0.020749239241243854 0 -0.00033657673905245714 0.020337180047315131 0 -0.00023839464891709677 0.020529041465415395 0 -0.00036069735855019837 0.020614845105999577 0 -0.00033657673905245714 0.020337180047315131 0 -0.00071639556515653332 0.019397126244983388 0 -0.00074432575794896878 0.019371373137977137 0 -0.00083843739239472406 0.019507576878469501 0 -0.00020070859174707456 0.020747705737036916 0 -0.00023839464891709677 0.020529041465415395 0 -0.00036069735855019837 0.020614845105999577 0 -0.00036069735855019837 0.020614845105999577 0 -0.00044548504723249512 0.020736393754914522 0 -0.00041842021765843947 0.020813845691547764 0 -0.00036069735855019837 0.020614845105999577 0 -0.00044548504723249512 0.020736393754914522 0 -0.00051850894995989622 0.020749239241243854 0 -0.00046933437197916629 0.020765248598354422 0 -0.00044548504723249512 0.020736393754914522 0 -0.00051850894995989622 0.020749239241243854 0 -0.00046933437197916629 0.020765248598354422 0 -0.00044548504723249512 0.020736393754914522 0 -0.00041842021765843947 0.020813845691547764 0 -0.00020070859174707456 0.020747705737036916 0 -0.00036069735855019837 0.020614845105999577 0 -0.00041842021765843947 0.020813845691547764 0 -0.0006417308612684554 0.01938994763254278 0 -0.00070412642784008521 0.01947840397287819 0 -0.00071639556515653332 0.019397126244983388 0 -0.00061204193594651941 0.019361493736234612 0 -0.0007430984779993611 0.0194744333544291 0 -0.00061204193594651941 0.019361493736234612 0 -0.00068336387085343568 0.019371534676635362 0 -0.00073558469509479494 0.019354799600996429 0 -0.00074432575794896878 0.019371373137977137 0 -0.00069461138411383995 0.01935910088967167 0 -0.000668775532618026 0.019324820469561677 0 -0.00071639556515653332 0.019397126244983388 0 -0.00074432575794896878 0.019371373137977137 0 -0.00069461138411383995 0.01935910088967167 0 -0.00071639556515653332 0.019397126244983388 0 -0.00069461138411383995 0.01935910088967167 0 -0.00061204193594651941 0.019361493736234612 0 -0.00069461138411383995 0.01935910088967167 0 -0.000668775532618026 0.019324820469561677 0 -0.00061204193594651941 0.019361493736234612 0 -0.00074432575794896878 0.019371373137977137 0 -0.000668775532618026 0.019324820469561677 0 -0.0006495700830546836 0.019224242013974963 0 -0.00051850894995989622 0.020749239241243854 0 -0.00047852671957263775 0.020755790103085973 0 -0.00037007734849219762 0.020673479311585991 0 -0.00061096309643654653 0.020017761963573001 0 -0.00057327475390818049 0.019877745418741429 0 -0.00046933437197916629 0.020765248598354422 0 -0.00051850894995989622 0.020749239241243854 0 -0.00047852671957263775 0.020755790103085973 0 -0.00047852671957263775 0.020755790103085973 0 -0.00048503000709239786 0.020720472960326457 0 -0.00037007734849219762 0.020673479311585991 0 -0.00030575871891295943 0.021013980523847422 0 -0.00020070859174707456 0.020747705737036916 0 -0.00041842021765843947 0.020813845691547764 0 -0.00046933437197916629 0.020765248598354422 0 -0.00047852671957263775 0.020755790103085973 0 -0.00041842021765843947 0.020813845691547764 0 -0.00047852671957263775 0.020755790103085973 0 -0.00041842021765843947 0.020813845691547764 0 -0.00042950696715947481 0.020909297211077198 0 -0.00047852671957263775 0.020755790103085973 0 -0.00048503000709239786 0.020720472960326457 0 -0.00042950696715947481 0.020909297211077198 0 -0.00022157730912590877 0.021457599895592559 0 -0.00030575871891295943 0.021013980523847422 0 -0.00042950696715947481 0.020909297211077198 0 -0.00030575871891295943 0.021013980523847422 0 -0.00041842021765843947 0.020813845691547764 0 -0.00042950696715947481 0.020909297211077198 0 -0.00040183770200675334 0.020969997529952222 0 -0.00047585253206700772 0.020469448498630242 0 -0.00025845709330379413 0.02140616660705617 0 -0.00022157730912590877 0.021457599895592559 0 -0.00042950696715947481 0.020909297211077198 0 -0.00040183770200675334 0.020969997529952222 0 -0.00022157730912590877 0.021457599895592559 0 -0.00040183770200675334 0.020969997529952222 0 -0.00025845709330379413 0.02140616660705617 0 -0.00048503000709239786 0.020720472960326457 0 -0.00042950696715947481 0.020909297211077198 0 -0.00040183770200675334 0.020969997529952222 0 -0.00048503000709239786 0.020720472960326457 0 -0.00037007734849219762 0.020673479311585991 0 -0.00047585253206700772 0.020469448498630242 0 -0.00047585253206700772 0.020469448498630242 0 -0.00042316601291076631 0.019816627944836282 0 -0.00025845709330379413 0.02140616660705617 0 -0.00048503000709239786 0.020720472960326457 0 -0.00040183770200675334 0.020969997529952222 0 -0.00047585253206700772 0.020469448498630242 0 -0.00037007734849219762 0.020673479311585991 0 -0.0004264802776582817 0.019978387046859447 0 -0.00047585253206700772 0.020469448498630242 0 -0.0004264802776582817 0.019978387046859447 0 -0.00047585253206700772 0.020469448498630242 0 -0.00042316601291076631 0.019816627944836282 0 -2.0453085857125425e-07 0.020328690278049701 0 4.0269449532080341e-06 0.019815310731407069 0 -0.00025845709330379413 0.02140616660705617 0 -0.00024552114656288418 0.019712270646216255 0 -0.0002698919489081597 0.020671932732579404 0 -8.594266129186525e-07 0.022159367704386004 0 -2.0453085857125425e-07 0.020328690278049701 0 -0.00025845709330379413 0.02140616660705617 0 -1.1183312552953815e-06 0.016667024865940419 0 3.1619730809147978e-07 0.018498126522593829 0 -8.9041806560598932e-06 0.017908006959044338 0 -0.00042316601291076631 0.019816627944836282 0 -0.00061481759185142131 0.018115467084696003 0 -0.00045813921756287645 0.018892180625453718 0 4.0269449532080341e-06 0.019815310731407069 0 3.1619730809147978e-07 0.018498126522593829 0 -8.9041806560598932e-06 0.017908006959044338 0 -0.00024552114656288418 0.019712270646216255 0 -0.00027685473975643313 0.018116855166196193 0 -2.0453085857125425e-07 0.020328690278049701 0 4.0269449532080341e-06 0.019815310731407069 0 3.1619730809147978e-07 0.018498126522593829 0 -0.00057327475390818049 0.019877745418741429 0 -0.00045079975571096293 0.019516105471550495 0 -0.00037007734849219762 0.020673479311585991 0 -0.0004264802776582817 0.019978387046859447 0 -0.00042091218666583482 0.019131065486350265 0 -0.00047647922675889896 0.018834459907269414 0 -0.00049108535429630024 0.018655623542511178 0 -0.00042316601291076631 0.019816627944836282 0 -0.00045813921756287645 0.018892180625453718 0 -0.00042091218666583482 0.019131065486350265 0 -0.00045813921756287645 0.018892180625453718 0 -0.00042091218666583482 0.019131065486350265 0 -0.00052182863391747212 0.019149709354646823 0 -0.0006495700830546836 0.019224242013974963 0 -0.00042091218666583482 0.019131065486350265 0 -0.00052182863391747212 0.019149709354646823 0 -0.00045813921756287645 0.018892180625453718 0 -0.00059748726306240536 0.018129739536200645 0 -0.00041479189843803932 0.017887654597613815 0 -0.00045813921756287645 0.018892180625453718 0 -0.00052182863391747212 0.019149709354646823 0 -0.00052049455562061195 0.019339547852678864 0 -0.0004264802776582817 0.019978387046859447 0 -0.00042316601291076631 0.019816627944836282 0 -0.00042091218666583482 0.019131065486350265 0 -0.00061481759185142131 0.018115467084696003 0 -0.00045813921756287645 0.018892180625453718 0 -0.00062049731647945106 0.018195896962591097 0 -0.00045813921756287645 0.018892180625453718 0 -0.00059748726306240536 0.018129739536200645 0 -0.00062049731647945106 0.018195896962591097 0 -0.0005569120615074787 0.017804870142859381 0 -0.00061481759185142131 0.018115467084696003 0 -0.00062049731647945106 0.018195896962591097 0 -0.0005569120615074787 0.017804870142859381 0 -0.00062049731647945106 0.018195896962591097 0 -0.00060508361529224008 0.017970646772615353 0 -0.00059748726306240536 0.018129739536200645 0 -0.00062049731647945106 0.018195896962591097 0 -0.00060508361529224008 0.017970646772615353 0 -0.00059748726306240536 0.018129739536200645 0 -0.00060508361529224008 0.017970646772615353 0 -0.00055876523189848644 0.017954218497168162 0 -0.00059748726306240536 0.018129739536200645 0 -0.00055876523189848644 0.017954218497168162 0 -0.00041479189843803932 0.017887654597613815 0 -0.00055876523189848644 0.017954218497168162 0 -0.00041479189843803932 0.017887654597613815 0 -0.00050534679271399324 0.0179675797575812 0 -0.000668775532618026 0.019324820469561677 0 -0.0006495700830546836 0.019224242013974963 0 -0.00052049455562061195 0.019339547852678864 0 -0.000668775532618026 0.019324820469561677 0 -0.00052049455562061195 0.019339547852678864 0 -0.00061204193594651941 0.019361493736234612 0 -0.0006495700830546836 0.019224242013974963 0 -0.00052182863391747212 0.019149709354646823 0 -0.00052049455562061195 0.019339547852678864 0 -0.00049108535429630024 0.018655623542511178 0 -0.00056719363583071134 0.018683177966266687 0 -0.00041479189843803932 0.017887654597613815 0 -0.00050534679271399324 0.0179675797575812 0 -0.00053762763419607981 0.017996296827686917 0 -0.00052049455562061195 0.019339547852678864 0 -0.00061204193594651941 0.019361493736234612 0 -0.00065117255015969037 0.019375332978271095 0 -0.00061204193594651941 0.019361493736234612 0 -0.00065117255015969037 0.019375332978271095 0 -0.00068336387085343568 0.019371534676635362 0 -0.00051053756546901269 0.017975733971633913 0 -0.00055876523189848644 0.017954218497168162 0 -0.00050534679271399324 0.0179675797575812 0 -0.00047004287560243181 0.01804879507600576 0 -0.00050534679271399324 0.0179675797575812 0 -0.00050047467143231675 0.018028103586975826 0 -0.00031725530546639281 0.018183286252994642 0 -0.00036733783094629525 0.018266432236229018 0 -0.00050534679271399324 0.0179675797575812 0 -0.00050047467143231675 0.018028103586975826 0 -0.00053762763419607981 0.017996296827686917 0 -0.0003067034968442184 0.018478805296308229 0 -0.00041198984540586606 0.018568388843378976 0 -0.0002898441713555833 0.018585789808711319 0 -0.00019735770556794004 0.018510933165756738 0 -0.0003067034968442184 0.018478805296308229 0 -0.0002898441713555833 0.018585789808711319 0 -0.00057102598118605327 0.018705864978556832 0 -0.00056719363583071134 0.018683177966266687 0 -0.00036733783094629525 0.018266432236229018 0 -0.00057102598118605327 0.018705864978556832 0 -0.00050047467143231675 0.018028103586975826 0 -0.000552755663536956 0.018082477632367009 0 -0.00053762763419607981 0.017996296827686917 0 -0.00069749450156227023 0.019405085449368951 0 -0.00065117255015969037 0.019375332978271095 0 -0.00069970120734025299 0.019385549550013401 0 -0.00065117255015969037 0.019375332978271095 0 -0.00068336387085343568 0.019371534676635362 0 -0.00069970120734025299 0.019385549550013401 0 -0.00068336387085343568 0.019371534676635362 0 -0.00073558469509479494 0.019354799600996429 0 -0.00072694878303731006 0.019379594878887241 0 -0.00068336387085343568 0.019371534676635362 0 -0.00072694878303731006 0.019379594878887241 0 -0.00069970120734025299 0.019385549550013401 0 -0.00054756404332552595 0.019830034485980745 0 -0.00070412642784008521 0.01947840397287819 0 -0.00079625447725128378 0.019382632581302135 0 -0.00073558469509479494 0.019354799600996429 0 -0.00075920890877425337 0.019381697901867209 0 -0.00071639556515653332 0.019397126244983388 0 -0.0007430984779993611 0.0194744333544291 0 -0.00082769256392187772 0.019498790232401638 0 -0.00087824617297322597 0.019571344273464002 0 -0.0007430984779993611 0.0194744333544291 0 -0.00082769256392187772 0.019498790232401638 0 -0.00073558469509479494 0.019354799600996429 0 -0.00072694878303731006 0.019379594878887241 0 -0.00075920890877425337 0.019381697901867209 0 -0.00054756404332552595 0.019830034485980745 0 -0.0005010257953671595 0.019923937730189484 0 -0.00075920890877425337 0.019381697901867209 0 -0.00078769661061861031 0.019391636746739958 0 -0.00077510339235550482 0.019400667286396719 0 -0.00079625447725128378 0.019382632581302135 0 -0.00075920890877425337 0.019381697901867209 0 -0.00078769661061861031 0.019391636746739958 0 -0.00075920890877425337 0.019381697901867209 0 -0.00077510339235550482 0.019400667286396719 0 -0.00073677211024514657 0.019398013726031831 0 -0.00079437274184961137 0.019399748808929786 0 -0.00078769661061861031 0.019391636746739958 0 -0.00077510339235550482 0.019400667286396719 0 -0.00069749450156227023 0.019405085449368951 0 -0.00069970120734025299 0.019385549550013401 0 -0.00073677211024514657 0.019398013726031831 0 -0.00072694878303731006 0.019379594878887241 0 -0.00069970120734025299 0.019385549550013401 0 -0.00073677211024514657 0.019398013726031831 0 -0.00072694878303731006 0.019379594878887241 0 -0.00075920890877425337 0.019381697901867209 0 -0.00073677211024514657 0.019398013726031831 0 -0.00041751290074821379 0.018573229380586139 0 -0.00055539082733519461 0.018718323405426878 0 -0.00043034174400101839 0.018690869057782621 0 -0.00057102598118605327 0.018705864978556832 0 -0.00069102654130270293 0.019057636964937005 0 -0.00077510339235550482 0.019400667286396719 0 -0.00073677211024514657 0.019398013726031831 0 -0.00077451674958773839 0.019417215213489113 0 -0.00069749450156227023 0.019405085449368951 0 -0.00073677211024514657 0.019398013726031831 0 -0.00077451674958773839 0.019417215213489113 0 -0.00082840439113133471 0.019389272704921003 0 -0.00080565579897874131 0.019402506732524659 0 -0.00077451674958773839 0.019417215213489113 0 -0.00080565579897874131 0.019402506732524659 0 -0.00077510339235550482 0.019400667286396719 0 -0.00077451674958773839 0.019417215213489113 0 -0.00080565579897874131 0.019402506732524659 0 -0.00079437274184961137 0.019399748808929786 0 -0.00077510339235550482 0.019400667286396719 0 -0.00055539082733519461 0.018718323405426878 0 -0.00058465872024906281 0.018848732547945668 0 -0.00070443351822766095 0.018898246964135931 0 -0.00082840439113133471 0.019389272704921003 0 -0.00077451674958773839 0.019417215213489113 0 -0.00085248556534456017 0.019371108544948223 0 -0.00069102654130270293 0.019057636964937005 0 -0.0007639129056522812 0.019123374541451514 0 -0.00055539082733519461 0.018718323405426878 0 -0.00058465872024906281 0.018848732547945668 0 -0.00046002250096550891 0.018818054328631376 0 -0.00055539082733519461 0.018718323405426878 0 -0.00046002250096550891 0.018818054328631376 0 -0.00043034174400101839 0.018690869057782621 0 -0.00046002250096550891 0.018818054328631376 0 -0.00035780386240298427 0.018802933604241054 0 -0.00043034174400101839 0.018690869057782621 0 -0.00035780386240298427 0.018802933604241054 0 -0.00033475578802808739 0.018673185251932383 0 -0.00043034174400101839 0.018690869057782621 0 -0.00024496097986390135 0.018685196086824722 0 -0.00035780386240298427 0.018802933604241054 0 -0.00033475578802808739 0.018673185251932383 0 -0.00024496097986390135 0.018685196086824722 0 -0.00035780386240298427 0.018802933604241054 0 -0.00026794126615007507 0.018863914342259588 0 -0.00041198984540586606 0.018568388843378976 0 -0.0002898441713555833 0.018585789808711319 0 -0.00033475578802808739 0.018673185251932383 0 -0.00024496097986390135 0.018685196086824722 0 -0.0002898441713555833 0.018585789808711319 0 -0.00033475578802808739 0.018673185251932383 0 -0.00041198984540586606 0.018568388843378976 0 -0.00033475578802808739 0.018673185251932383 0 -0.00043034174400101839 0.018690869057782621 0 -0.00057102598118605327 0.018705864978556832 0 -0.00050119798841188478 0.018646411592186322 0 -0.00043186392518388116 0.018995426538244816 0 -0.00026794126615007507 0.018863914342259588 0 -0.00034094944774049117 0.01908520421950459 0 -0.00035780386240298427 0.018802933604241054 0 -0.00043186392518388116 0.018995426538244816 0 -0.00026794126615007507 0.018863914342259588 0 -0.00046002250096550891 0.018818054328631376 0 -0.00035780386240298427 0.018802933604241054 0 -0.00043186392518388116 0.018995426538244816 0 -0.00058465872024906281 0.018848732547945668 0 -0.00046002250096550891 0.018818054328631376 0 -0.00053296137285023559 0.018939032370967505 0 -0.00046002250096550891 0.018818054328631376 0 -0.00043186392518388116 0.018995426538244816 0 -0.00053296137285023559 0.018939032370967505 0 -0.00058465872024906281 0.018848732547945668 0 -0.00061863637604962676 0.018948949343487446 0 -0.00070443351822766095 0.018898246964135931 0 -0.00061863637604962676 0.018948949343487446 0 -0.0007016715668756216 0.019045824207520635 0 -0.00070443351822766095 0.018898246964135931 0 -0.00058465872024906281 0.018848732547945668 0 -0.00053296137285023559 0.018939032370967505 0 -0.00061863637604962676 0.018948949343487446 0 -0.00053296137285023559 0.018939032370967505 0 -0.00061863637604962676 0.018948949343487446 0 -0.00060844278930071859 0.019052105376800278 0 -0.00053296137285023559 0.018939032370967505 0 -0.00060844278930071859 0.019052105376800278 0 -0.00053886574363472251 0.019080949158557257 0 -0.00061863637604962676 0.018948949343487446 0 -0.00060844278930071859 0.019052105376800278 0 -0.0007016715668756216 0.019045824207520635 0 -0.00060844278930071859 0.019052105376800278 0 -0.00053886574363472251 0.019080949158557257 0 -0.00058455988431659121 0.019209707312091533 0 -0.00060844278930071859 0.019052105376800278 0 -0.00058455988431659121 0.019209707312091533 0 -0.00072013135279094895 0.019136984342875515 0 -0.00060844278930071859 0.019052105376800278 0 -0.00072013135279094895 0.019136984342875515 0 -0.0007016715668756216 0.019045824207520635 0 -0.00043186392518388116 0.018995426538244816 0 -0.00053296137285023559 0.018939032370967505 0 -0.00053886574363472251 0.019080949158557257 0 -0.00043186392518388116 0.018995426538244816 0 -0.00053886574363472251 0.019080949158557257 0 -0.00052926219900994531 0.019176150066946382 0 -0.00053886574363472251 0.019080949158557257 0 -0.00052926219900994531 0.019176150066946382 0 -0.00058455988431659121 0.019209707312091533 0 -0.00052926219900994531 0.019176150066946382 0 -0.00050383029927370091 0.019240478092940834 0 -0.00045152971063510289 0.019160292717621114 0 -0.00056067863573788269 0.019301239670476023 0 -0.00054167328673677907 0.019384848513351188 0 -0.00058455988431659121 0.019209707312091533 0 -0.00046034444449693829 0.019730172039464065 0 -0.00075442224428471239 0.019396933147729466 0 -0.00052926219900994531 0.019176150066946382 0 -0.00058455988431659121 0.019209707312091533 0 -0.00059369429041932311 0.019255982260706312 0 -0.00052926219900994531 0.019176150066946382 0 -0.00059369429041932311 0.019255982260706312 0 -0.00050383029927370091 0.019240478092940834 0 -0.00059369429041932311 0.019255982260706312 0 -0.00050383029927370091 0.019240478092940834 0 -0.00051667887061323452 0.01930282532435278 0 -0.00050383029927370091 0.019240478092940834 0 -0.00044862343662527331 0.019251629012804378 0 -0.00045152971063510289 0.019160292717621114 0 -0.00050383029927370091 0.019240478092940834 0 -0.00044862343662527331 0.019251629012804378 0 -0.00051667887061323452 0.01930282532435278 0 -0.00043186392518388116 0.018995426538244816 0 -0.00052926219900994531 0.019176150066946382 0 -0.00045152971063510289 0.019160292717621114 0 -0.00043186392518388116 0.018995426538244816 0 -0.00045152971063510289 0.019160292717621114 0 -0.00034094944774049117 0.01908520421950459 0 -0.00044862343662527331 0.019251629012804378 0 -0.00045152971063510289 0.019160292717621114 0 -0.00034094944774049117 0.01908520421950459 0 -0.000249049331114391 0.019239495507297998 0 -0.00044862343662527331 0.019251629012804378 0 -0.00034094944774049117 0.01908520421950459 0 -0.000249049331114391 0.019239495507297998 0 -0.00044862343662527331 0.019251629012804378 0 -0.00036581175486222759 0.019437925556084687 0 -0.00044862343662527331 0.019251629012804378 0 -0.00036581175486222759 0.019437925556084687 0 -0.00062723891829003333 0.019576234038867626 0 -0.00044862343662527331 0.019251629012804378 0 -0.00062723891829003333 0.019576234038867626 0 -0.00092519321080673095 0.019499744026731099 0 -0.00050063559666252747 0.019310451806103593 0 -0.00060060534629032838 0.019501646043926291 0 -0.00062723891829003333 0.019576234038867626 0 -0.00079425072281695606 0.019755593108997944 0 -0.00092519321080673095 0.019499744026731099 0 -0.00062723891829003333 0.019576234038867626 0 -0.00079425072281695606 0.019755593108997944 0 -0.00061384336601929049 0.020007258503263611 0 -0.00036581175486222759 0.019437925556084687 0 -0.00062723891829003333 0.019576234038867626 0 -0.00061384336601929049 0.020007258503263611 0 -0.00036581175486222759 0.019437925556084687 0 -0.00068046737565177914 0.019747682702655166 0 -0.00058886126985300538 0.01967691285292722 0 -0.00068046737565177914 0.019747682702655166 0 -0.00058886126985300538 0.01967691285292722 0 -0.00049143042334554357 0.019796075827056211 0 -0.00079425072281695606 0.019755593108997944 0 -0.00061384336601929049 0.020007258503263611 0 -0.00084386930387020723 0.019957584721456742 0 -0.00042540126399049402 0.019519309135663535 0 -0.00065340902341348294 0.019877997662745242 0 -0.00015261986521435087 0.019623088353293822 0 -0.00036581175486222759 0.019437925556084687 0 -0.00058886126985300538 0.01967691285292722 0 -0.00017317182729266662 0.019578041370856253 0 -0.00058886126985300538 0.01967691285292722 0 -0.00049143042334554357 0.019796075827056211 0 -0.00017557668568559995 0.019599246970174317 0 -0.00051019496363644077 0.019658604849432756 0 -0.00017317182729266662 0.019578041370856253 0 -0.00038103544008648879 0.019956875792208312 0 -0.00049143042334554357 0.019796075827056211 0 -0.00038103544008648879 0.019956875792208312 0 -0.00049143042334554357 0.019796075827056211 0 -0.00066751500485908539 0.020052966510906753 0 -0.00065340902341348294 0.019877997662745242 0 -0.00098284962155951159 0.020382672803860361 0 -0.00068046737565177914 0.019747682702655166 0 -0.00066751500485908539 0.020052966510906753 0 -0.0010090581565222049 0.020230942392491371 0 -0.00068046737565177914 0.019747682702655166 0 -0.00049143042334554357 0.019796075827056211 0 -0.00066751500485908539 0.020052966510906753 0 -0.00061384336601929049 0.020007258503263611 0 -0.00094703804883601551 0.020160946126597166 0 -0.00084386930387020723 0.019957584721456742 0 -0.00066751500485908539 0.020052966510906753 0 -0.00052446066619301159 0.020281423058119429 0 -0.0010090581565222049 0.020230942392491371 0 -0.00038103544008648879 0.019956875792208312 0 -0.00066751500485908539 0.020052966510906753 0 -0.00052446066619301159 0.020281423058119429 0 -0.00025962687350671227 0.020177523424088163 0 -0.00038103544008648879 0.019956875792208312 0 -0.00052446066619301159 0.020281423058119429 0 -0.001273802362041264 0.02055063527421774 0 -0.0011371276919933579 0.020341717101632378 0 -0.0013597365212913838 0.020352084526117614 0 -0.001273802362041264 0.02055063527421774 0 -0.0013597365212913838 0.020352084526117614 0 -0.0014264263560558061 0.020487775248188091 0 -0.0013597365212913838 0.020352084526117614 0 -0.0014264263560558061 0.020487775248188091 0 -0.001441851337532656 0.020392269710914984 0 -0.001273802362041264 0.02055063527421774 0 -0.0014264263560558061 0.020487775248188091 0 -0.0014706186905604659 0.020660420672682624 0 -0.001273802362041264 0.02055063527421774 0 -0.000976768986781378 0.020530685687365581 0 -0.0011371276919933579 0.020341717101632378 0 -0.0011371276919933579 0.020341717101632378 0 -0.0010992886627821778 0.020147732273815236 0 -0.0012180785369201408 0.0202079305221784 0 -0.00061384336601929049 0.020007258503263611 0 -0.000976768986781378 0.020530685687365581 0 -0.00094703804883601551 0.020160946126597166 0 -0.0011371276919933579 0.020341717101632378 0 -0.00094703804883601551 0.020160946126597166 0 -0.0010992886627821778 0.020147732273815236 0 -0.000976768986781378 0.020530685687365581 0 -0.0011371276919933579 0.020341717101632378 0 -0.00094703804883601551 0.020160946126597166 0 -0.00094703804883601551 0.020160946126597166 0 -0.00084386930387020723 0.019957584721456742 0 -0.0010190461143451928 0.019982833119681246 0 -0.00094703804883601551 0.020160946126597166 0 -0.0010992886627821778 0.020147732273815236 0 -0.0010190461143451928 0.019982833119681246 0 -0.0010992886627821778 0.020147732273815236 0 -0.0011751730424347886 0.020037775143368276 0 -0.0010190461143451928 0.019982833119681246 0 -0.0011751730424347886 0.020037775143368276 0 -0.0012838902574981953 0.020114877793693437 0 -0.0012760225662094174 0.019998353440746797 0 -0.0012838902574981953 0.020114877793693437 0 -0.0013813636068378233 0.020169226830825893 0 -0.0012760225662094174 0.019998353440746797 0 -0.0012838902574981953 0.020114877793693437 0 -0.0012180785369201408 0.0202079305221784 0 -0.001348725041472349 0.020208033080844436 0 -0.0011751730424347886 0.020037775143368276 0 -0.0012838902574981953 0.020114877793693437 0 -0.0012180785369201408 0.0202079305221784 0 -0.0010992886627821778 0.020147732273815236 0 -0.0011751730424347886 0.020037775143368276 0 -0.0012180785369201408 0.0202079305221784 0 -0.0011371276919933579 0.020341717101632378 0 -0.0012180785369201408 0.0202079305221784 0 -0.0013597365212913838 0.020352084526117614 0 -0.0013597365212913838 0.020352084526117614 0 -0.0013714656757559342 0.020284945380912443 0 -0.0014556252625846202 0.020324358594447922 0 -0.0013597365212913838 0.020352084526117614 0 -0.001348725041472349 0.020208033080844436 0 -0.0013811120459187825 0.020170285284038966 0 -0.0013484773464643132 0.020693933675904028 0 -0.0013474384046193635 0.021001992337263194 0 -0.0012180785369201408 0.0202079305221784 0 -0.0013597365212913838 0.020352084526117614 0 -0.001348725041472349 0.020208033080844436 0 -0.0013474384046193635 0.021001992337263194 0 -0.00078250997560499222 0.023446770539453942 0 -0.0012838902574981953 0.020114877793693437 0 -0.001348725041472349 0.020208033080844436 0 -0.0013813636068378233 0.020169226830825893 0 -0.0013600490332346493 0.020976834546903834 0 -0.0013474384046193635 0.021001992337263194 0 -0.0013474384046193635 0.021001992337263194 0 -0.00060438813811331568 0.020826608231490573 0 -0.0011672849145034699 0.021763506650132925 0 -0.0011661858881464829 0.022182714224448525 0 -0.00095653673189622843 0.022038949990418166 0 -0.0011507151761848246 0.019842891231663246 0 -0.0013877632569831149 0.019824946901458699 0 -0.00092519321080673095 0.019499744026731099 0 -0.0013813636068378233 0.020169226830825893 0 -0.0012760225662094174 0.019998353440746797 0 -0.0013877632569831149 0.019824946901458699 0 -0.00060438813811331568 0.020826608231490573 0 -0.00078250997560499222 0.023446770539453942 0 -0.0012760225662094174 0.019998353440746797 0 -0.0011507151761848246 0.019842891231663246 0 -0.0013877632569831149 0.019824946901458699 0 -0.0011751730424347886 0.020037775143368276 0 -0.0012760225662094174 0.019998353440746797 0 -0.0011507151761848246 0.019842891231663246 0 -0.00084386930387020723 0.019957584721456742 0 -0.0010190461143451928 0.019982833119681246 0 -0.00094657338342038456 0.019807354687735146 0 -0.0011751730424347886 0.020037775143368276 0 -0.0011507151761848246 0.019842891231663246 0 -0.0010190461143451928 0.019982833119681246 0 -0.0011507151761848246 0.019842891231663246 0 -0.0010190461143451928 0.019982833119681246 0 -0.00094657338342038456 0.019807354687735146 0 -0.0011507151761848246 0.019842891231663246 0 -0.00094657338342038456 0.019807354687735146 0 -0.00092519321080673095 0.019499744026731099 0 -0.00079425072281695606 0.019755593108997944 0 -0.00094657338342038456 0.019807354687735146 0 -0.00092519321080673095 0.019499744026731099 0 -0.00079425072281695606 0.019755593108997944 0 -0.00084386930387020723 0.019957584721456742 0 -0.00094657338342038456 0.019807354687735146 0 -0.00046034444449693829 0.019730172039464065 0 -0.00042334826344862027 0.020332471519973382 0 -0.00065413889686422966 0.019985470179674052 0 -0.00054167328673677907 0.019384848513351188 0 -0.00060438813811331568 0.020826608231490573 0 -0.00060438813811331568 0.020826608231490573 0 -0.00060060534629032838 0.019501646043926291 0 -0.00059369429041932311 0.019255982260706312 0 -0.00059868248391772882 0.019370503358546867 0 -0.00051667887061323452 0.01930282532435278 0 -0.00019430097128063871 0.025254176821030615 0 -6.1928757986898841e-05 0.025080728079792971 0 -0.00065413889686422966 0.019985470179674052 0 -0.00091331946043347813 0.019986384330421669 0 -0.00079298913803382853 0.019717935502630065 0 -0.00065413889686422966 0.019985470179674052 0 -0.00091331946043347813 0.019986384330421669 0 -0.00062243256161150244 0.020260805069621166 0 0.00082296459058608896 0.030395118402497305 0 0.00014579550259622481 0.030583652016380795 0 0.00020640019620439318 0.02954508349945761 0 0.00082296459058608896 0.030395118402497305 0 0.00054602856305704971 0.03112495602226301 0 0.00014579550259622481 0.030583652016380795 0 0.00082296459058608896 0.030395118402497305 0 0.00054602856305704971 0.03112495602226301 0 0.00092007134198773344 0.031217574058574445 0 0.00054602856305704971 0.03112495602226301 0 0.00019955432982210838 0.031568645121087924 0 0.00014579550259622481 0.030583652016380795 0 0.00092007134198773344 0.031217574058574445 0 0.00060867737501172151 0.031552365404469165 0 0.0010883422498815078 0.031656512876822231 0 0.00054602856305704971 0.03112495602226301 0 0.00092007134198773344 0.031217574058574445 0 0.00060867737501172151 0.031552365404469165 0 0.00054602856305704971 0.03112495602226301 0 0.00060867737501172151 0.031552365404469165 0 0.00019955432982210838 0.031568645121087924 0 0.00082296459058608896 0.030395118402497305 0 0.00092007134198773344 0.031217574058574445 0 0.0013681191754217619 0.031165887582385754 0 -0.00091331946043347813 0.019986384330421669 0 -0.00067477778451481487 0.020363088883303595 0 -0.00062243256161150244 0.020260805069621166 0 -0.00068320961046098498 0.020371229650159032 0 -0.00062243256161150244 0.020260805069621166 0 -0.00060581774053618037 0.020473095491927953 0 -0.00042334826344862027 0.020332471519973382 0 -0.00065413889686422966 0.019985470179674052 0 -0.00062243256161150244 0.020260805069621166 0 -0.00042334826344862027 0.020332471519973382 0 -0.00062243256161150244 0.020260805069621166 0 -0.00060581774053618037 0.020473095491927953 0 -6.1928757986898841e-05 0.025080728079792971 0 0.00018883604879223691 0.024274834231142451 0 0.00092007134198773344 0.031217574058574445 0 0.0013681191754217619 0.031165887582385754 0 0.0010883422498815078 0.031656512876822231 0 -6.1928757986898841e-05 0.025080728079792971 0 -0.00037638656732200837 0.026680366006599645 0 -0.00078250997560499222 0.023446770539453942 0 -0.00037638656732200837 0.026680366006599645 0 0.00014881469384199155 0.02413008121256786 0 0.00064901743140548436 0.024786498394963906 0 -0.00072788988356794527 0.02574234997869438 0 -6.1928757986898841e-05 0.025080728079792971 0 -0.00078250997560499222 0.023446770539453942 0 -0.0013714656757559342 0.020284945380912443 0 -0.0014521697112246609 0.020196924889274961 0 -0.0014627765581691947 0.020270989320946391 0 -0.0014521697112246609 0.020196924889274961 0 -0.0014627765581691947 0.020270989320946391 0 -0.0015450432614609209 0.020257421979536595 0 -0.0013714656757559342 0.020284945380912443 0 -0.0014627765581691947 0.020270989320946391 0 -0.0014556252625846202 0.020324358594447922 0 -0.0015394042589487443 0.020337958768779009 0 -0.0015450432614609209 0.020257421979536595 0 -0.0017270455583448892 0.020419987637880346 0 -0.0013597365212913838 0.020352084526117614 0 -0.0014556252625846202 0.020324358594447922 0 -0.001441851337532656 0.020392269710914984 0 -0.0014627765581691947 0.020270989320946391 0 -0.0014556252625846202 0.020324358594447922 0 -0.0015394042589487443 0.020337958768779009 0 -0.0014556252625846202 0.020324358594447922 0 -0.001441851337532656 0.020392269710914984 0 -0.0015227507148723029 0.020413292202450733 0 -0.0014556252625846202 0.020324358594447922 0 -0.0015394042589487443 0.020337958768779009 0 -0.0015227507148723029 0.020413292202450733 0 -0.0014627765581691947 0.020270989320946391 0 -0.0015394042589487443 0.020337958768779009 0 -0.0015450432614609209 0.020257421979536595 0 -0.00037638656732200837 0.026680366006599645 0 -0.00064688887556792836 0.026342365911290532 0 -0.00037638656732200837 0.026680366006599645 0 -0.0008428247858849765 0.030314557819239536 0 0.00060867737501172151 0.031552365404469165 0 0.0010883422498815078 0.031656512876822231 0 0.00028455319056428738 0.032088325536048741 0 0.00051707158527159553 0.03188883804531735 0 0.00028455319056428738 0.032088325536048741 0 0.00028033909344843692 0.032226278922287306 0 0.00060867737501172151 0.031552365404469165 0 0.00028455319056428738 0.032088325536048741 0 0.00019955432982210838 0.031568645121087924 0 0.00028033909344843692 0.032226278922287306 0 3.9777979189930781e-05 0.032257236971809163 0 -5.6862862120021655e-06 0.032212187581240503 0 0.00028033909344843692 0.032226278922287306 0 3.9777979189930781e-05 0.032257236971809163 0 0.00012643866956552933 0.032210703132333138 0 0.00028455319056428738 0.032088325536048741 0 0.00028033909344843692 0.032226278922287306 0 0.00012643866956552933 0.032210703132333138 0 -0.0017270455583448892 0.020419987637880346 0 -0.0015756629290669766 0.020563909028433646 0 -0.0018166616734997818 0.020812699952296357 0 -0.0015756629290669766 0.020563909028433646 0 -0.0014264263560558061 0.020487775248188091 0 -0.0014706186905604659 0.020660420672682624 0 -0.0015756629290669766 0.020563909028433646 0 -0.0014264263560558061 0.020487775248188091 0 -0.0015227507148723029 0.020413292202450733 0 -0.0014264263560558061 0.020487775248188091 0 -0.001441851337532656 0.020392269710914984 0 -0.0015227507148723029 0.020413292202450733 0 -0.0015394042589487443 0.020337958768779009 0 -0.0017270455583448892 0.020419987637880346 0 -0.0015227507148723029 0.020413292202450733 0 -0.0017270455583448892 0.020419987637880346 0 -0.0015756629290669766 0.020563909028433646 0 -0.0015227507148723029 0.020413292202450733 0 9.0865479447765497e-05 0.032407917281699387 0 -1.4444469359066659e-05 0.032265781210856118 0 -0.00016185706779142447 0.032282851943071185 0 9.0865479447765497e-05 0.032407917281699387 0 0.00014196444120993722 0.032268501712580638 0 -1.4444469359066659e-05 0.032265781210856118 0 0.00014196444120993722 0.032268501712580638 0 -1.4444469359066659e-05 0.032265781210856118 0 2.7581736190090652e-05 0.032201752649430794 0 -1.4444469359066659e-05 0.032265781210856118 0 3.9777979189930781e-05 0.032257236971809163 0 2.7581736190090652e-05 0.032201752649430794 0 3.9777979189930781e-05 0.032257236971809163 0 0.00012643866956552933 0.032210703132333138 0 -0.00016185706779142447 0.032282851943071185 0 -1.4444469359066659e-05 0.032265781210856118 0 3.9777979189930781e-05 0.032257236971809163 0 -0.00016185706779142447 0.032282851943071185 0 -0.00016185706779142447 0.032282851943071185 0 1.4286951988807379e-05 0.031841667576831746 0 -0.00069017713442607394 0.031287944900095094 0 0.00012643866956552933 0.032210703132333138 0 -0.00016185706779142447 0.032282851943071185 0 1.4286951988807379e-05 0.031841667576831746 0 0.00028455319056428738 0.032088325536048741 0 0.00012643866956552933 0.032210703132333138 0 1.4286951988807379e-05 0.031841667576831746 0 0.00028455319056428738 0.032088325536048741 0 1.4286951988807379e-05 0.031841667576831746 0 0.00019955432982210838 0.031568645121087924 0 -0.0002563573064949481 0.032292123419133144 0 -0.00036675675440695274 0.032172680777910946 0 -0.00016185706779142447 0.032282851943071185 0 -0.00012272647753860361 0.033093942123870956 0 0.0001557479927810964 0.032736408149014753 0 9.0865479447765497e-05 0.032407917281699387 0 -0.00016185706779142447 0.032282851943071185 0 0.0001557479927810964 0.032736408149014753 0 -0.00012272647753860361 0.033093942123870956 0 0.00013161120993841324 0.033041319251815394 0 0.0001557479927810964 0.032736408149014753 0 -0.00069017713442607394 0.031287944900095094 0 -6.7810396547956936e-05 0.031220752936341949 0 -0.00038564830315346668 0.030525676564562954 0 -0.00012272647753860361 0.033093942123870956 0 0.00013059725759354592 0.033432439415222899 0 0.00013161120993841324 0.033041319251815394 0 0.00016676010242107876 0.031242626918766364 0 0.00011915444779064688 0.030671315392226218 0 0.00019955432982210838 0.031568645121087924 0 -6.7810396547956936e-05 0.031220752936341949 0 0.00043005794901546725 0.030593030492815147 0 1.4286951988807379e-05 0.031841667576831746 0 0.00019955432982210838 0.031568645121087924 0 -6.7810396547956936e-05 0.031220752936341949 0 1.4286951988807379e-05 0.031841667576831746 0 -0.00069017713442607394 0.031287944900095094 0 -6.7810396547956936e-05 0.031220752936341949 0 0.00043005794901546725 0.030593030492815147 0 -2.3632657629859257e-05 0.030031105184849877 0 -0.00038564830315346668 0.030525676564562954 0 -6.7810396547956936e-05 0.031220752936341949 0 0.00043005794901546725 0.030593030492815147 0 -0.00038564830315346668 0.030525676564562954 0 0.00011915444779064688 0.030671315392226218 0 -0.00013569986425099811 0.026469839907285905 0 0.00043005794901546725 0.030593030492815147 0 -2.3632657629859257e-05 0.030031105184849877 0 0.00056975495660848427 0.029502553403485659 0 -2.3632657629859257e-05 0.030031105184849877 0 -0.00038564830315346668 0.030525676564562954 0 -0.00056394119525536232 0.029949730537350436 0 -0.00069017713442607394 0.031287944900095094 0 -0.00038564830315346668 0.030525676564562954 0 -0.0011376888997780754 0.030152306199414631 0 -0.00036675675440695274 0.032172680777910946 0 -0.0004915967195374103 0.031871100384012425 0 -0.00012272647753860361 0.033093942123870956 0 0.00012408681278325501 0.033692539093584807 0 0.00013059725759354592 0.033432439415222899 0 -0.00038564830315346668 0.030525676564562954 0 -0.0011376888997780754 0.030152306199414631 0 -0.00056394119525536232 0.029949730537350436 0 -0.0011376888997780754 0.030152306199414631 0 -0.00056394119525536232 0.029949730537350436 0 -0.00087883375861530705 0.029484186803712731 0 -0.00056394119525536232 0.029949730537350436 0 -0.00031961013166674425 0.029440679756375085 0 -0.00087883375861530705 0.029484186803712731 0 -0.00031961013166674425 0.029440679756375085 0 -0.00087883375861530705 0.029484186803712731 0 -0.00080074262098902855 0.028932346359366118 0 -0.00087883375861530705 0.029484186803712731 0 -0.00080074262098902855 0.028932346359366118 0 -0.0015885805925812517 0.028933699864588023 0 -0.00031961013166674425 0.029440679756375085 0 -0.00080074262098902855 0.028932346359366118 0 -0.00015478645313868911 0.028444851232407684 0 -0.00080074262098902855 0.028932346359366118 0 -0.00099877273920063667 0.02824104228200703 0 -0.0015885805925812517 0.028933699864588023 0 -0.00080074262098902855 0.028932346359366118 0 -0.00099877273920063667 0.02824104228200703 0 -0.00015478645313868911 0.028444851232407684 0 8.5208540614786839e-05 0.028333882137719837 0 -0.00013569986425099811 0.026469839907285905 0 -0.00016025611364723965 0.028126411069783194 0 0.00049117404093269759 0.02896156098598485 0 0.00061626722230457588 0.027644246863438967 0 -0.00031961013166674425 0.029440679756375085 0 -0.00015478645313868911 0.028444851232407684 0 0.00056975495660848427 0.029502553403485659 0 -2.3632657629859257e-05 0.030031105184849877 0 -0.00031961013166674425 0.029440679756375085 0 0.00056975495660848427 0.029502553403485659 0 -2.3632657629859257e-05 0.030031105184849877 0 -0.00056394119525536232 0.029949730537350436 0 -0.00031961013166674425 0.029440679756375085 0 -0.00019430097128063871 0.025254176821030615 0 -0.00013569986425099811 0.026469839907285905 0 -0.00091331946043347813 0.019986384330421669 0 -0.0010860159705734188 0.019655209719371083 0 -0.00079298913803382853 0.019717935502630065 0 -0.0010860159705734188 0.019655209719371083 0 -0.00079298913803382853 0.019717935502630065 0 -0.00075442224428471239 0.019396933147729466 0 -0.00046034444449693829 0.019730172039464065 0 -0.00065413889686422966 0.019985470179674052 0 -0.00079298913803382853 0.019717935502630065 0 -0.00046034444449693829 0.019730172039464065 0 -0.00079298913803382853 0.019717935502630065 0 -0.00075442224428471239 0.019396933147729466 0 -0.0010860159705734188 0.019655209719371083 0 -0.00085792659097449629 0.01929143004946253 0 -0.00091954207422685098 0.019210254448841012 0 -0.0010860159705734188 0.019655209719371083 0 -0.00075442224428471239 0.019396933147729466 0 -0.00085792659097449629 0.01929143004946253 0 -0.00013569986425099811 0.026469839907285905 0 -0.00010613213138781605 0.023162357774998438 0 -0.00091954207422685098 0.019210254448841012 0 -0.00087554046131390728 0.019206672523632083 0 -0.00083120214206673486 0.019293853168665057 0 -0.00085792659097449629 0.01929143004946253 0 -0.00091954207422685098 0.019210254448841012 0 -0.00087554046131390728 0.019206672523632083 0 -0.00075442224428471239 0.019396933147729466 0 -0.00085792659097449629 0.01929143004946253 0 -0.00072013135279094895 0.019136984342875515 0 -0.00058455988431659121 0.019209707312091533 0 -0.00075442224428471239 0.019396933147729466 0 -0.00072013135279094895 0.019136984342875515 0 -0.00087554046131390728 0.019206672523632083 0 -0.00072013135279094895 0.019136984342875515 0 -0.0007016715668756216 0.019045824207520635 0 -0.00085792659097449629 0.01929143004946253 0 -0.00087554046131390728 0.019206672523632083 0 -0.00072013135279094895 0.019136984342875515 0 -0.00087554046131390728 0.019206672523632083 0 -0.0007016715668756216 0.019045824207520635 0 -0.00070443351822766095 0.018898246964135931 0 -0.00083681316269546306 0.019179671318179641 0 -0.0007639129056522812 0.019123374541451514 0 -0.00087554046131390728 0.019206672523632083 0 -0.00085160175777955363 0.019355598787463391 0 -0.00085248556534456017 0.019371108544948223 0 -0.00082144748572113996 0.019374864704593195 0 -0.00085160175777955363 0.019355598787463391 0 -0.00083120214206673486 0.019293853168665057 0 -0.00074882300662621967 0.019368723211137702 0 -0.00091954207422685098 0.019210254448841012 0 -0.00083120214206673486 0.019293853168665057 0 -0.00087554046131390728 0.019206672523632083 0 -0.00085160175777955363 0.019355598787463391 0 -0.00083120214206673486 0.019293853168665057 0 -5.9030787984234858e-06 0.022830686089957201 0 -0.00010613213138781605 0.023162357774998438 0 -0.00074882300662621967 0.019368723211137702 0 -0.00082144748572113996 0.019374864704593195 0 -0.00083120214206673486 0.019293853168665057 0 0.00077406867994634699 0.026173659657687386 0 0.00061626722230457588 0.027644246863438967 0 1.0659672025983783e-05 0.026895968667901071 0 -8.0514258994958044e-05 0.02620102707418652 0 0.00077406867994634699 0.026173659657687386 0 1.0659672025983783e-05 0.026895968667901071 0 -8.0514258994958044e-05 0.02620102707418652 0 1.0659672025983783e-05 0.026895968667901071 0 -0.00059236561162005199 0.026633638899036798 0 1.0659672025983783e-05 0.026895968667901071 0 -0.00059236561162005199 0.026633638899036798 0 -0.00091055930299477892 0.027297537240591994 0 -0.0008948336746520567 0.026135054047211743 0 -0.00059236561162005199 0.026633638899036798 0 -0.0011831823612074518 0.026794014225606001 0 -0.00059236561162005199 0.026633638899036798 0 -0.00091055930299477892 0.027297537240591994 0 -0.0011831823612074518 0.026794014225606001 0 1.0659672025983783e-05 0.026895968667901071 0 -0.00091055930299477892 0.027297537240591994 0 -0.00010603078156837585 0.027495129367041547 0 -0.00099877273920063667 0.02824104228200703 0 -0.00015478645313868911 0.028444851232407684 0 -0.00091055930299477892 0.027297537240591994 0 -0.00016025611364723965 0.028126411069783194 0 -0.00091055930299477892 0.027297537240591994 0 -0.00010603078156837585 0.027495129367041547 0 8.5208540614786839e-05 0.028333882137719837 0 -0.0007447843160836643 0.027437733943252982 0 -0.00016025611364723965 0.028126411069783194 0 0.00061626722230457588 0.027644246863438967 0 -0.00010603078156837585 0.027495129367041547 0 0.00061626722230457588 0.027644246863438967 0 1.0659672025983783e-05 0.026895968667901071 0 -0.00010603078156837585 0.027495129367041547 0 0.00027135384582923733 0.034363378842494581 0 0.00028480967512837081 0.034364858068509418 0 0.00026623786124709546 0.034370993730959476 0 -0.00099877273920063667 0.02824104228200703 0 -0.00091055930299477892 0.027297537240591994 0 -0.0020335169287418872 0.027656907138012603 0 -3.8503323310412602e-05 0.028355553302989344 0 2.9771325352757261e-05 0.031518966883140598 0 -0.0015308810791606561 0.026277427630811916 0 -0.0020335169287418872 0.027656907138012603 0 -0.0011831823612074518 0.026794014225606001 0 -0.00091055930299477892 0.027297537240591994 0 -0.0020335169287418872 0.027656907138012603 0 -0.0011831823612074518 0.026794014225606001 0 -0.0015308810791606561 0.026277427630811916 0 -0.0008948336746520567 0.026135054047211743 0 -0.0011831823612074518 0.026794014225606001 0 0.00075347337995917778 0.032687235761199668 0 2.9771325352757261e-05 0.031518966883140598 0 0.0011320234455322073 0.030762996799028518 0 0.0010131985588855432 0.03077033137727218 0 0.0010558112825381069 0.030614572250273687 0 0.00029461499295291039 0.034351989790998586 0 0.00027135384582923733 0.034363378842494581 0 0.00028480967512837081 0.034364858068509418 0 0.00028935757001485694 0.034358404615923779 0 0.00029461499295291039 0.034351989790998586 0 0.00028480967512837081 0.034364858068509418 0 0.00028935757001485694 0.034358404615923779 0 0.00028480967512837081 0.034364858068509418 0 0.000297130972198255 0.034359991563400576 0 0.00028935757001485694 0.034358404615923779 0 0.000297130972198255 0.034359991563400576 0 0.00030898253868495826 0.034350462955682531 0 0.00042989972987515573 0.034525826659312329 0 0.00028612271900894568 0.034649354581646634 0 0.00030350578851548454 0.034371908091386898 0 0.00034677281718841304 0.03438406789471056 0 0.00030898253868495826 0.034350462955682531 0 0.000297130972198255 0.034359991563400576 0 0.00030350578851548454 0.034371908091386898 0 0.00030898253868495826 0.034350462955682531 0 0.00028480967512837081 0.034364858068509418 0 0.00030350578851548454 0.034371908091386898 0 0.00026623786124709546 0.034370993730959476 0 0.00028480967512837081 0.034364858068509418 0 0.000297130972198255 0.034359991563400576 0 0.00030350578851548454 0.034371908091386898 0 0.00026623786124709546 0.034370993730959476 0 0.00030165868489460555 0.034355059384022495 0 0.0001930429313961845 0.03435285185447709 0 0.00030350578851548454 0.034371908091386898 0 0.00026623786124709546 0.034370993730959476 0 0.00030165868489460555 0.034355059384022495 0 0.00030350578851548454 0.034371908091386898 0 0.00030165868489460555 0.034355059384022495 0 0.00034677281718841304 0.03438406789471056 0 0.00030165868489460555 0.034355059384022495 0 0.00034677281718841304 0.03438406789471056 0 0.00041662757304082864 0.034337025993802839 0 0.00030165868489460555 0.034355059384022495 0 0.00027099081737420243 0.034244131594765609 0 0.0001930429313961845 0.03435285185447709 0 0.00030165868489460555 0.034355059384022495 0 0.00027099081737420243 0.034244131594765609 0 0.00041662757304082864 0.034337025993802839 0 9.8887555225712063e-05 0.033618661370850185 0 0.00016535512883442398 0.033698533427941116 0 0.0001580290753475533 0.033770185111907255 0 9.8887555225712063e-05 0.033618661370850185 0 0.00016477546400616813 0.033668234818664516 0 0.00016535512883442398 0.033698533427941116 0 0.00014430798992082339 0.033449675346123767 0 9.8887555225712063e-05 0.033618661370850185 0 0.00019008272627104965 0.033594195046081743 0 0.00027135384582923733 0.034363378842494581 0 0.00026623786124709546 0.034370993730959476 0 0.0001930429313961845 0.03435285185447709 0 2.9771325352757261e-05 0.031518966883140598 0 1.1309328303905693e-05 0.034244321440364552 0 2.9771325352757261e-05 0.031518966883140598 0 -0.00066191047075132023 0.031129689265996234 0 -0.00099877273920063667 0.02824104228200703 0 -0.0020335169287418872 0.027656907138012603 0 -0.0015885805925812517 0.028933699864588023 0 -0.0011376888997780754 0.030152306199414631 0 -0.00087883375861530705 0.029484186803712731 0 -0.0015885805925812517 0.028933699864588023 0 -0.0004915967195374103 0.031871100384012425 0 -0.00066191047075132023 0.031129689265996234 0 9.8887555225712063e-05 0.033618661370850185 0 0.00019008272627104965 0.033594195046081743 0 0.00016477546400616813 0.033668234818664516 0 0.00012408681278325501 0.033692539093584807 0 0.00019008272627104965 0.033594195046081743 0 0.00016477546400616813 0.033668234818664516 0 0.00012408681278325501 0.033692539093584807 0 0.00016477546400616813 0.033668234818664516 0 0.00017476161017065191 0.033660696910009051 0 0.00012408681278325501 0.033692539093584807 0 0.00017476161017065191 0.033660696910009051 0 0.00013059725759354592 0.033432439415222899 0 0.00017476161017065191 0.033660696910009051 0 0.00013059725759354592 0.033432439415222899 0 0.00014116479889391372 0.033877472398919611 0 0.00016477546400616813 0.033668234818664516 0 0.00017476161017065191 0.033660696910009051 0 0.00016535512883442398 0.033698533427941116 0 9.8887555225712063e-05 0.033618661370850185 0 0.0001580290753475533 0.033770185111907255 0 0.00016234022824629219 0.033938967371752476 0 1.1309328303905693e-05 0.034244321440364552 0 0.00019010603496542294 0.033835549575300473 0 0.00017476161017065191 0.033660696910009051 0 0.0001580290753475533 0.033770185111907255 0 0.00014116479889391372 0.033877472398919611 0 0.00017476161017065191 0.033660696910009051 0 0.00016535512883442398 0.033698533427941116 0 0.0001580290753475533 0.033770185111907255 0 0.0001580290753475533 0.033770185111907255 0 0.00014116479889391372 0.033877472398919611 0 0.00016234022824629219 0.033938967371752476 0 0.00070255965278313121 0.033019529441367157 0 0.00045321647762988269 0.033020697377982439 0 0.0005934165694043527 0.032793461947612158 0 0.0003475620223996861 0.03291796665813871 0 0.00045321647762988269 0.033020697377982439 0 0.0005934165694043527 0.032793461947612158 0 0.00070255965278313121 0.033019529441367157 0 0.0005934165694043527 0.032793461947612158 0 0.00081496361558705543 0.0327955221582499 0 0.00011973806550892691 0.033472558679007364 0 0.00037351760054440372 0.033445709105021426 0 0.00013059725759354592 0.033432439415222899 0 0.00070255965278313121 0.033019529441367157 0 0.00045321647762988269 0.033020697377982439 0 0.00013059725759354592 0.033432439415222899 0 0.0003475620223996861 0.03291796665813871 0 0.00013161120993841324 0.033041319251815394 0 0.00013059725759354592 0.033432439415222899 0 0.0003475620223996861 0.03291796665813871 0 0.00045321647762988269 0.033020697377982439 0 0.0003475620223996861 0.03291796665813871 0 0.00013161120993841324 0.033041319251815394 0 0.0001557479927810964 0.032736408149014753 0 0.0003475620223996861 0.03291796665813871 0 0.0001557479927810964 0.032736408149014753 0 0.00033374240055897232 0.03253850954571455 0 0.0003475620223996861 0.03291796665813871 0 0.00033374240055897232 0.03253850954571455 0 0.0005934165694043527 0.032793461947612158 0 9.0865479447765497e-05 0.032407917281699387 0 0.0001557479927810964 0.032736408149014753 0 0.00033374240055897232 0.03253850954571455 0 0.0005934165694043527 0.032793461947612158 0 0.00055205497838392049 0.03249527845960077 0 0.00074969974154671275 0.032593562173188484 0 0.00033374240055897232 0.03253850954571455 0 0.0005934165694043527 0.032793461947612158 0 0.00055205497838392049 0.03249527845960077 0 0.00055205497838392049 0.03249527845960077 0 0.00039720536598938618 0.032303153714370515 0 0.00068589854674197558 0.032294003721851545 0 0.00055205497838392049 0.03249527845960077 0 0.00074969974154671275 0.032593562173188484 0 0.00068589854674197558 0.032294003721851545 0 0.00014196444120993722 0.032268501712580638 0 0.00033374240055897232 0.03253850954571455 0 0.00039720536598938618 0.032303153714370515 0 0.00033374240055897232 0.03253850954571455 0 0.00055205497838392049 0.03249527845960077 0 0.00039720536598938618 0.032303153714370515 0 9.0865479447765497e-05 0.032407917281699387 0 0.00014196444120993722 0.032268501712580638 0 0.00033374240055897232 0.03253850954571455 0 0.00092540665506650455 0.03243448315250945 0 0.0011891646340488834 0.032531278463898555 0 0.0010807104205172978 0.032191714126213404 0 0.00092540665506650455 0.03243448315250945 0 0.00094568588779721892 0.032660654090123559 0 0.0011891646340488834 0.032531278463898555 0 0.00092540665506650455 0.03243448315250945 0 0.00074969974154671275 0.032593562173188484 0 0.00068589854674197558 0.032294003721851545 0 0.00092540665506650455 0.03243448315250945 0 0.00074969974154671275 0.032593562173188484 0 0.00094568588779721892 0.032660654090123559 0 0.00081496361558705543 0.0327955221582499 0 0.00094568588779721892 0.032660654090123559 0 0.0010653756538351897 0.032841687189251484 0 0.00074969974154671275 0.032593562173188484 0 0.00081496361558705543 0.0327955221582499 0 0.00094568588779721892 0.032660654090123559 0 0.0005934165694043527 0.032793461947612158 0 0.00074969974154671275 0.032593562173188484 0 0.00081496361558705543 0.0327955221582499 0 0.00094568588779721892 0.032660654090123559 0 0.0010653756538351897 0.032841687189251484 0 0.0011891646340488834 0.032531278463898555 0 0.00041117118120621718 0.033886442063196492 0 0.00035480959087238497 0.03408432406344504 0 0.00059772091647505333 0.033968324896163443 0 0.00037351760054440372 0.033445709105021426 0 0.00078766669873554156 0.033377914248468796 0 0.00070255965278313121 0.033019529441367157 0 0.00081496361558705543 0.0327955221582499 0 0.0010653756538351897 0.032841687189251484 0 0.00041117118120621718 0.033886442063196492 0 0.00016234022824629219 0.033938967371752476 0 0.00035480959087238497 0.03408432406344504 0 0.00014116479889391372 0.033877472398919611 0 0.00041117118120621718 0.033886442063196492 0 0.00016234022824629219 0.033938967371752476 0 0.00027099081737420243 0.034244131594765609 0 0.0001930429313961845 0.03435285185447709 0 0.00016234022824629219 0.033938967371752476 0 0.00027099081737420243 0.034244131594765609 0 0.00016234022824629219 0.033938967371752476 0 0.00035480959087238497 0.03408432406344504 0 0.00027099081737420243 0.034244131594765609 0 0.00035480959087238497 0.03408432406344504 0 0.00041662757304082864 0.034337025993802839 0 0.00035480959087238497 0.03408432406344504 0 0.00041662757304082864 0.034337025993802839 0 0.00059772091647505333 0.033968324896163443 0 0.00041662757304082864 0.034337025993802839 0 0.0002757568077313312 0.034762179362366405 0 0.00030415422932397789 0.034516318817999332 0 0.00041653843243004478 0.03441276334445649 0 0.00046016085324699209 0.034448204132441207 0 0.00041662757304082864 0.034337025993802839 0 0.00072584039085679989 0.034136971236575185 0 0.00059772091647505333 0.033968324896163443 0 0.0002757568077313312 0.034762179362366405 0 5.8573402970430038e-05 0.034975577386928816 0 1.7998583971512632e-05 0.034905538824890808 0 0.0002757568077313312 0.034762179362366405 0 1.7998583971512632e-05 0.034905538824890808 0 0.00030415422932397789 0.034516318817999332 0 0.00078245814832200624 0.033923581753121504 0 0.00086674171118328747 0.033896853744490356 0 0.0009433450638503014 0.033987667856157304 0 0.00046016085324699209 0.034448204132441207 0 0.00053462612394690912 0.034462260791325167 0 0.00072584039085679989 0.034136971236575185 0 0.00078245814832200624 0.033923581753121504 0 0.0009433450638503014 0.033987667856157304 0 0.00078245814832200624 0.033923581753121504 0 0.00086674171118328747 0.033896853744490356 0 0.00079704924153143979 0.033849710398255989 0 0.00041117118120621718 0.033886442063196492 0 0.00059772091647505333 0.033968324896163443 0 0.0007948886363778675 0.033806862516741511 0 0.00072584039085679989 0.034136971236575185 0 0.00078245814832200624 0.033923581753121504 0 0.00059772091647505333 0.033968324896163443 0 0.00078245814832200624 0.033923581753121504 0 0.00059772091647505333 0.033968324896163443 0 0.0007948886363778675 0.033806862516741511 0 0.00078766669873554156 0.033377914248468796 0 0.00090620195731736799 0.033713879615205652 0 0.0010653756538351897 0.032841687189251484 0 0.0014507681732983922 0.032731443767501978 0 0.0011891646340488834 0.032531278463898555 0 0.00088132464036867438 0.033803748726951535 0 0.00090620195731736799 0.033713879615205652 0 0.00086674171118328747 0.033896853744490356 0 0.00079704924153143979 0.033849710398255989 0 0.00094011563288084858 0.033870189046923231 0 0.00090620195731736799 0.033713879615205652 0 0.00077504974194156622 0.033685347179248808 0 6.5402227270557715e-05 0.034891413051854316 0 4.2100397036437087e-05 0.034969275448716593 0 2.1262945733714558e-05 0.034931916452812392 0 4.2100397036437087e-05 0.034969275448716593 0 8.9887630477357664e-06 0.034978803203230352 0 2.1262945733714558e-05 0.034931916452812392 0 0.0014785042025422768 0.032386569763583832 0 0.0011891646340488834 0.032531278463898555 0 0.001315424938331867 0.032201693031361243 0 0.0014507681732983922 0.032731443767501978 0 0.0014785042025422768 0.032386569763583832 0 0.0011891646340488834 0.032531278463898555 0 2.4734651772593076e-06 0.03499576523764128 0 2.6140141741411113e-09 0.034999981860836901 0 1.6325637782303357e-06 0.034997718052485277 0 2.4734651772593076e-06 0.03499576523764128 0 3.7406877365491027e-06 0.034990477568112348 0 1.9634350022159056e-06 0.034995277342605116 0 2.4734651772593076e-06 0.03499576523764128 0 2.6140141741411113e-09 0.034999981860836901 0 3.7406877365491027e-06 0.034990477568112348 0 0.00012254515306576465 0.034893609111202213 0 0.00021299005281369442 0.034797927608776529 0 8.9887630477357664e-06 0.034978803203230352 0 -2.5319756252520187e-05 0.034928465803409157 0 2.1262945733714558e-05 0.034931916452812392 0 3.7406877365491027e-06 0.034990477568112348 0 8.9887630477357664e-06 0.034978803203230352 0 1.9634350022159056e-06 0.034995277342605116 0 6.5402227270557715e-05 0.034891413051854316 0 2.1262945733714558e-05 0.034931916452812392 0 -3.110784124805889e-05 0.034919660551897269 0 0.00090620195731736799 0.033713879615205652 0 0.00025648913460862388 0.034753381339057393 0 0.00079704924153143979 0.033849710398255989 0 0.00094011563288084858 0.033870189046923231 0 0.0010504047264248092 0.033797203619923881 0 -2.5319756252520187e-05 0.034928465803409157 0 2.1262945733714558e-05 0.034931916452812392 0 -3.110784124805889e-05 0.034919660551897269 0 0.00086674171118328747 0.033896853744490356 0 0.00094011563288084858 0.033870189046923231 0 0.00094954064902574473 0.033912928279648771 0 0.00094011563288084858 0.033870189046923231 0 0.0010226761409357849 0.033887097862910533 0 0.00094954064902574473 0.033912928279648771 0 0.00094011563288084858 0.033870189046923231 0 0.0010226761409357849 0.033887097862910533 0 0.0010504047264248092 0.033797203619923881 0 0.00025648913460862388 0.034753381339057393 0 0.0001989609863209137 0.034692057189629248 0 1.7075129383265315e-06 0.034996406534816928 0 1.6325637782303357e-06 0.034997718052485277 0 1.2180832403458374e-06 0.034998756721150777 0 0.0010226761409357849 0.033887097862910533 0 0.0010504047264248092 0.033797203619923881 0 0.0011113705019098431 0.033893591547380197 0 2.6140141741411113e-09 0.034999981860836901 0 1.6325637782303357e-06 0.034997718052485277 0 4.0751455334977999e-09 0.034999996694076552 0 1.9634350022159056e-06 0.034995277342605116 0 1.7075129383265315e-06 0.034996406534816928 0 1.6325637782303357e-06 0.034997718052485277 0 2.4734651772593076e-06 0.03499576523764128 0 1.9634350022159056e-06 0.034995277342605116 0 1.6325637782303357e-06 0.034997718052485277 0 0.00021299005281369442 0.034797927608776529 0 0.00025648913460862388 0.034753381339057393 0 1.6325637782303357e-06 0.034997718052485277 0 1.2180832403458374e-06 0.034998756721150777 0 4.0751455334977999e-09 0.034999996694076552 0 0.0001989609863209137 0.034692057189629248 0 1.03366239280544e-07 0.034999395003251062 0 3.0221957406893546e-07 0.03499954254909006 0 1.5741624695578611e-10 0.034999998791791866 0 2.8229275380381715e-10 0.034999999668150726 0 1.4395253953944169e-05 0.035014064165128547 0 -5.8969449168371022e-09 0.034999672630679983 0 5.8573402970430038e-05 0.034975577386928816 0 0.0001989609863209137 0.034692057189629248 0 3.9393357505045064e-07 0.034999653668238567 0 -5.8969449168371022e-09 0.034999672630679983 0 5.8573402970430038e-05 0.034975577386928816 0 1.7998583971512632e-05 0.034905538824890808 0 0.0001989609863209137 0.034692057189629248 0 0.00053462612394690912 0.034462260791325167 0 0.0010226761409357849 0.033887097862910533 0 0.0011113705019098431 0.033893591547380197 0 0.0009433450638503014 0.033987667856157304 0 0.00086674171118328747 0.033896853744490356 0 0.00094954064902574473 0.033912928279648771 0 0.0009433450638503014 0.033987667856157304 0 0.0010226761409357849 0.033887097862910533 0 0.00094954064902574473 0.033912928279648771 0 0.0009433450638503014 0.033987667856157304 0 -5.8969449168371022e-09 0.034999672630679983 0 1.7998583971512632e-05 0.034905538824890808 0 4.2620944272981686e-09 0.034999896319611666 0 1.7998583971512632e-05 0.034905538824890808 0 5.0640939645746933e-06 0.034978756918343817 0 4.2620944272981686e-09 0.034999896319611666 0 3.6903203443554655e-05 0.034850212264690032 0 0.00013415958815734551 0.034716257976065978 0 1.7998583971512632e-05 0.034905538824890808 0 0.00030415422932397789 0.034516318817999332 0 0.00021929737970566391 0.034394585291025986 0 0.00034677281718841304 0.03438406789471056 0 0.00041662757304082864 0.034337025993802839 0 0.00030415422932397789 0.034516318817999332 0 0.00034677281718841304 0.03438406789471056 0 0.00030415422932397789 0.034516318817999332 0 0.00021929737970566391 0.034394585291025986 0 0.00013415958815734551 0.034716257976065978 0 0.00028612271900894568 0.034649354581646634 0 0.00034677281718841304 0.03438406789471056 0 0.00021929737970566391 0.034394585291025986 0 0.00030898253868495826 0.034350462955682531 0 5.0640939645746933e-06 0.034978756918343817 0 8.4531629334395253e-06 0.034980161442646152 0 0.00019887205893795361 0.03505983439478267 0 0.00028810785832289362 0.034454768724155933 0 0.00019887205893795361 0.03505983439478267 0 -2.5335518705553558e-06 0.034844102754379318 0 0.00028810785832289362 0.034454768724155933 0 0.00082960361188499747 0.03455598499752955 0 0.00019887205893795361 0.03505983439478267 0 8.4531629334395253e-06 0.034980161442646152 0 0.00019887205893795361 0.03505983439478267 0 -2.5335518705553558e-06 0.034844102754379318 0 8.4531629334395253e-06 0.034980161442646152 0 -2.5335518705553558e-06 0.034844102754379318 0 5.8751541103643604e-06 0.034938193978079596 0 5.0640939645746933e-06 0.034978756918343817 0 8.4531629334395253e-06 0.034980161442646152 0 4.2620944272981686e-09 0.034999896319611666 0 2.547793629997764e-05 0.034961582322487854 0 5.8751541103643604e-06 0.034938193978079596 0 4.2620944272981686e-09 0.034999896319611666 0 8.4531629334395253e-06 0.034980161442646152 0 5.8751541103643604e-06 0.034938193978079596 0 4.2620944272981686e-09 0.034999896319611666 0 -4.272384195625596e-05 0.034965754305401532 0 -2.8943629623642273e-05 0.034989385088703771 0 -3.5807349060431944e-05 0.0350036263449999 0 -4.1622124072997125e-05 0.034953188741279728 0 -3.819345964687459e-05 0.034928270895740292 0 -2.4714207030457977e-05 0.034979093878776138 0 -1.5690451832032608e-05 0.034989424548996187 0 -1.4136321302492741e-05 0.034969292801167479 0 -1.5690451832032608e-05 0.034989424548996187 0 -1.0975636111054794e-06 0.034985648739368914 0 -1.4136321302492741e-05 0.034969292801167479 0 -2.4714207030457977e-05 0.034979093878776138 0 -4.272384195625596e-05 0.034965754305401532 0 -2.8943629623642273e-05 0.034989385088703771 0 -2.4714207030457977e-05 0.034979093878776138 0 -4.272384195625596e-05 0.034965754305401532 0 -1.4136321302492741e-05 0.034969292801167479 0 -2.8943629623642273e-05 0.034989385088703771 0 -2.2968676258192549e-05 0.035001097086658536 0 -3.5807349060431944e-05 0.0350036263449999 0 -2.8943629623642273e-05 0.034989385088703771 0 -1.5690451832032608e-05 0.034989424548996187 0 -2.2968676258192549e-05 0.035001097086658536 0 -2.4714207030457977e-05 0.034979093878776138 0 -2.8943629623642273e-05 0.034989385088703771 0 -1.5690451832032608e-05 0.034989424548996187 0 -1.5690451832032608e-05 0.034989424548996187 0 -1.3564644503095589e-05 0.034999466560883478 0 -2.2968676258192549e-05 0.035001097086658536 0 -1.5690451832032608e-05 0.034989424548996187 0 -1.3564644503095589e-05 0.034999466560883478 0 -7.0859263265616212e-06 0.034993381610774123 0 -1.3564644503095589e-05 0.034999466560883478 0 -7.0859263265616212e-06 0.034993381610774123 0 -9.6800772132574795e-07 0.034998700115949646 0 -1.5690451832032608e-05 0.034989424548996187 0 -7.0859263265616212e-06 0.034993381610774123 0 -1.0975636111054794e-06 0.034985648739368914 0 -7.0859263265616212e-06 0.034993381610774123 0 -9.6800772132574795e-07 0.034998700115949646 0 -1.0975636111054794e-06 0.034985648739368914 0 -2.6250110485157581e-10 0.035000008471317193 0 -1.0975636111054794e-06 0.034985648739368914 0 1.141855679994162e-08 0.034999880791624402 0 -2.6250110485157581e-10 0.035000008471317193 0 -9.6800772132574795e-07 0.034998700115949646 0 -1.0975636111054794e-06 0.034985648739368914 0 -1.0975636111054794e-06 0.034985648739368914 0 1.141855679994162e-08 0.034999880791624402 0 -4.1598681221780353e-06 0.03496359698115991 0 -1.0975636111054794e-06 0.034985648739368914 0 -4.1598681221780353e-06 0.03496359698115991 0 -1.4136321302492741e-05 0.034969292801167479 0 -4.1598681221780353e-06 0.03496359698115991 0 -1.8519358946162852e-05 0.034932207440622892 0 -5.1579926126250954e-06 0.034921459853336494 0 -1.8519358946162852e-05 0.034932207440622892 0 -4.3991701333848763e-05 0.0349702012547497 0 -4.3589080381286634e-05 0.034837500059436331 0 -4.1598681221780353e-06 0.03496359698115991 0 -1.4136321302492741e-05 0.034969292801167479 0 -1.8519358946162852e-05 0.034932207440622892 0 -4.272384195625596e-05 0.034965754305401532 0 -1.4136321302492741e-05 0.034969292801167479 0 -1.8519358946162852e-05 0.034932207440622892 0 -4.272384195625596e-05 0.034965754305401532 0 -1.8519358946162852e-05 0.034932207440622892 0 -4.3991701333848763e-05 0.0349702012547497 0 4.7150957428349559e-06 0.034727914097665652 0 -8.1278069660658565e-05 0.034550593492154232 0 -4.3589080381286634e-05 0.034837500059436331 0 -3.1543892762307168e-05 0.034745777243957505 0 -4.5901932987333177e-05 0.03480610517475579 0 4.7150957428349559e-06 0.034727914097665652 0 -4.6412601546691611e-06 0.034601676034634932 0 3.9172784077356241e-05 0.034607393177065286 0 -4.6412601546691611e-06 0.034601676034634932 0 3.9172784077356241e-05 0.034607393177065286 0 1.1669211923233027e-05 0.034528000216878373 0 -4.6412601546691611e-06 0.034601676034634932 0 -8.1278069660658565e-05 0.034550593492154232 0 1.1669211923233027e-05 0.034528000216878373 0 4.7150957428349559e-06 0.034727914097665652 0 -4.6412601546691611e-06 0.034601676034634932 0 -8.1278069660658565e-05 0.034550593492154232 0 4.7150957428349559e-06 0.034727914097665652 0 3.9172784077356241e-05 0.034607393177065286 0 8.9414422818637912e-05 0.034659120385680212 0 3.9172784077356241e-05 0.034607393177065286 0 0.00010400451355358718 0.034532977556886224 0 5.6743687681985848e-05 0.034534513773526627 0 3.9172784077356241e-05 0.034607393177065286 0 5.6743687681985848e-05 0.034534513773526627 0 1.1669211923233027e-05 0.034528000216878373 0 0.00010400451355358718 0.034532977556886224 0 0.00015928697628907142 0.034539565061309521 0 8.9414422818637912e-05 0.034659120385680212 0 3.9172784077356241e-05 0.034607393177065286 0 0.00010400451355358718 0.034532977556886224 0 8.9414422818637912e-05 0.034659120385680212 0 0.00010400451355358718 0.034532977556886224 0 6.6113149369129894e-05 0.034473008544498487 0 0.00011864127887452755 0.034453887341702225 0 6.6113149369129894e-05 0.034473008544498487 0 1.1669211923233027e-05 0.034528000216878373 0 1.082492711117439e-05 0.034447549239745384 0 0.00010400451355358718 0.034532977556886224 0 5.6743687681985848e-05 0.034534513773526627 0 6.6113149369129894e-05 0.034473008544498487 0 5.6743687681985848e-05 0.034534513773526627 0 6.6113149369129894e-05 0.034473008544498487 0 1.1669211923233027e-05 0.034528000216878373 0 6.6113149369129894e-05 0.034473008544498487 0 1.082492711117439e-05 0.034447549239745384 0 7.2209492048974495e-05 0.034402026757871927 0 0.00011864127887452755 0.034453887341702225 0 7.2209492048974495e-05 0.034402026757871927 0 0.00014569695290898881 0.034385774306514558 0 6.6113149369129894e-05 0.034473008544498487 0 0.00011864127887452755 0.034453887341702225 0 7.2209492048974495e-05 0.034402026757871927 0 -4.3991701333848763e-05 0.0349702012547497 0 1.8270149987368704e-06 0.034854919754342496 0 -5.2368919747641598e-05 0.03488005746440144 0 -4.272384195625596e-05 0.034965754305401532 0 -4.3991701333848763e-05 0.0349702012547497 0 -5.2368919747641598e-05 0.03488005746440144 0 -3.1543892762307168e-05 0.034745777243957505 0 4.7778022318104175e-05 0.034688039345330296 0 -8.1278069660658565e-05 0.034550593492154232 0 1.082492711117439e-05 0.034447549239745384 0 -3.9474061354635634e-05 0.034377598227132891 0 -8.1278069660658565e-05 0.034550593492154232 0 1.1669211923233027e-05 0.034528000216878373 0 1.082492711117439e-05 0.034447549239745384 0 -3.9474061354635634e-05 0.034377598227132891 0 6.2948116226303139e-05 0.034323311236029753 0 -6.2969167439257292e-06 0.034242132406837961 0 4.7778022318104175e-05 0.034688039345330296 0 0.00058090991282443139 0.033351756867628 0 1.8270149987368704e-06 0.034854919754342496 0 -4.6795813870035942e-05 0.034732768169455232 0 -5.2368919747641598e-05 0.03488005746440144 0 1.082492711117439e-05 0.034447549239745384 0 -3.9474061354635634e-05 0.034377598227132891 0 2.7216689581877668e-05 0.034386573369405815 0 -3.9474061354635634e-05 0.034377598227132891 0 2.7216689581877668e-05 0.034386573369405815 0 6.2948116226303139e-05 0.034323311236029753 0 7.2209492048974495e-05 0.034402026757871927 0 6.2948116226303139e-05 0.034323311236029753 0 0.00014569695290898881 0.034385774306514558 0 1.082492711117439e-05 0.034447549239745384 0 2.7216689581877668e-05 0.034386573369405815 0 7.2209492048974495e-05 0.034402026757871927 0 2.7216689581877668e-05 0.034386573369405815 0 7.2209492048974495e-05 0.034402026757871927 0 6.2948116226303139e-05 0.034323311236029753 0 0.00078057946904893131 0.032940577736909768 0 0.00059803744131890573 0.032800856703984027 0 0.001410939693994675 0.031342367158852399 0 0.0011891357082698963 0.031506650529107671 0 0.0010623697459810754 0.031318721979223363 0 6.2948116226303139e-05 0.034323311236029753 0 7.296555770337153e-06 0.034232692382387381 0 0.00016635064591257541 0.034248774701099438 0 1.8270149987368704e-06 0.034854919754342496 0 -4.6795813870035942e-05 0.034732768169455232 0 3.8349912390746161e-05 0.034665659034219948 0 1.6144643608233982e-05 0.034462114031179533 0 0.00058090991282443139 0.033351756867628 0 1.6144643608233982e-05 0.034462114031179533 0 0.00020346626782126158 0.033811112308743743 0 6.2948116226303139e-05 0.034323311236029753 0 -6.2969167439257292e-06 0.034242132406837961 0 7.296555770337153e-06 0.034232692382387381 0 0.00058090991282443139 0.033351756867628 0 0.00078057946904893131 0.032940577736909768 0 0.0011957372069754902 0.032440404841567252 0 0.0010816744174591076 0.033188425928674936 0 0.0002386260503889299 0.03317477628440315 0 0.00058090991282443139 0.033351756867628 0 0.00071752896627852013 0.033002515493023729 0 0.00071752896627852013 0.033002515493023729 0 0.00078057946904893131 0.032940577736909768 0 0.00022896593031060823 0.033751140218130783 0 0.00022059108703553795 0.033756019711515775 0 0.00022866866519411671 0.033758725142116724 0 0.00071752896627852013 0.033002515493023729 0 0.00020346626782126158 0.033811112308743743 0 0.00022059108703553795 0.033756019711515775 0 0.00022040582946340108 0.033757523943993124 0 0.00022866866519411671 0.033758725142116724 0 8.6850042083650702e-06 0.034993324392938216 0 5.3095602242113285e-06 0.034997943847203297 0 7.4857918613820902e-06 0.034995417288776733 0 0.00020346626782126158 0.033811112308743743 0 1.0989006256479636e-05 0.03468000720079021 0 2.1896363164095419e-06 0.034991688776508413 0 -1.2967650817790665e-08 0.034995932518141482 0 4.6073693780671041e-07 0.034995962920857701 0 2.081047103926568e-06 0.034994281698046026 0 2.1896363164095419e-06 0.034991688776508413 0 4.6073693780671041e-07 0.034995962920857701 0 1.6144643608233982e-05 0.034462114031179533 0 -3.819345964687459e-05 0.034928270895740292 0 1.6144643608233982e-05 0.034462114031179533 0 -8.4266920518505302e-05 0.034886738154141478 0 -3.6119844199503621e-05 0.03502314156065657 0 -1.8839329005311087e-05 0.035012517897988663 0 -3.5807349060431944e-05 0.0350036263449999 0 2.081047103926568e-06 0.034994281698046026 0 4.6073693780671041e-07 0.034995962920857701 0 4.7861546702439132e-08 0.034997925905961423 0 4.6073693780671041e-07 0.034995962920857701 0 4.7861546702439132e-08 0.034997925905961423 0 -4.2233092047687965e-07 0.03499895674029288 0 -1.3564644503095589e-05 0.034999466560883478 0 -1.8839329005311087e-05 0.035012517897988663 0 -2.2968676258192549e-05 0.035001097086658536 0 -1.8839329005311087e-05 0.035012517897988663 0 -2.2968676258192549e-05 0.035001097086658536 0 -3.5807349060431944e-05 0.0350036263449999 0 -2.6250110485157581e-10 0.035000008471317193 0 -4.2233092047687965e-07 0.03499895674029288 0 -1.5150298546142257e-09 0.034999987839252268 0 -2.6250110485157581e-10 0.035000008471317193 0 -9.6800772132574795e-07 0.034998700115949646 0 -4.2233092047687965e-07 0.03499895674029288 0 -9.6800772132574795e-07 0.034998700115949646 0 4.7861546702439132e-08 0.034997925905961423 0 -4.2233092047687965e-07 0.03499895674029288 0 -5.1446832000013747e-05 0.034938162065373903 0 -8.4266920518505302e-05 0.034886738154141478 0 -1.3564644503095589e-05 0.034999466560883478 0 -9.6800772132574795e-07 0.034998700115949646 0 -1.8839329005311087e-05 0.035012517897988663 0 1.0989006256479636e-05 0.03468000720079021 0 7.0451432556686974e-09 0.034999697836102218 0 -1.2967650817790665e-08 0.034995932518141482 0 -4.2233092047687965e-07 0.03499895674029288 0 -1.5150298546142257e-09 0.034999987839252268 0 -1.2967650817790665e-08 0.034995932518141482 0 4.6073693780671041e-07 0.034995962920857701 0 -4.2233092047687965e-07 0.03499895674029288 0 5.3095602242113285e-06 0.034997943847203297 0 2.9981462692498292e-09 0.035000000924027976 0 4.2364499106482019e-06 0.034997620122420713 0 2.9981462692498292e-09 0.035000000924027976 0 4.2364499106482019e-06 0.034997620122420713 0 4.3694776509164311e-09 0.034999994932546123 0 8.6850042083650702e-06 0.034993324392938216 0 7.4857918613820902e-06 0.034995417288776733 0 1.0877785818425123e-05 0.034992318926378572 0 5.3095602242113285e-06 0.034997943847203297 0 4.2364499106482019e-06 0.034997620122420713 0 7.4857918613820902e-06 0.034995417288776733 0 4.2364499106482019e-06 0.034997620122420713 0 7.4857918613820902e-06 0.034995417288776733 0 8.0734310190513341e-06 0.034995569385927079 0 7.4857918613820902e-06 0.034995417288776733 0 8.0734310190513341e-06 0.034995569385927079 0 1.0877785818425123e-05 0.034992318926378572 0 4.2364499106482019e-06 0.034997620122420713 0 8.0734310190513341e-06 0.034995569385927079 0 4.4689338203452396e-06 0.03499739948404168 0 8.0734310190513341e-06 0.034995569385927079 0 1.1424997301368744e-05 0.034994963994671939 0 1.0877785818425123e-05 0.034992318926378572 0 8.0734310190513341e-06 0.034995569385927079 0 1.1424997301368744e-05 0.034994963994671939 0 4.4689338203452396e-06 0.03499739948404168 0 4.3694776509164311e-09 0.034999994932546123 0 4.4689338203452396e-06 0.03499739948404168 0 2.2156563389508864e-09 0.034999993306784945 0 4.2364499106482019e-06 0.034997620122420713 0 4.3694776509164311e-09 0.034999994932546123 0 4.4689338203452396e-06 0.03499739948404168 0 4.4689338203452396e-06 0.03499739948404168 0 2.2156563389508864e-09 0.034999993306784945 0 4.5429285337654969e-06 0.034992960132648333 0 1.1424997301368744e-05 0.034994963994671939 0 4.5429285337654969e-06 0.034992960132648333 0 2.0868871230107217e-05 0.03499227033775875 0 1.1424997301368744e-05 0.034994963994671939 0 4.4689338203452396e-06 0.03499739948404168 0 4.5429285337654969e-06 0.034992960132648333 0 3.7406877365491027e-06 0.034990477568112348 0 8.9887630477357664e-06 0.034978803203230352 0 4.5429285337654969e-06 0.034992960132648333 0 8.9887630477357664e-06 0.034978803203230352 0 4.5429285337654969e-06 0.034992960132648333 0 2.0868871230107217e-05 0.03499227033775875 0 2.6140141741411113e-09 0.034999981860836901 0 2.2156563389508864e-09 0.034999993306784945 0 4.5429285337654969e-06 0.034992960132648333 0 2.6140141741411113e-09 0.034999981860836901 0 3.7406877365491027e-06 0.034990477568112348 0 4.5429285337654969e-06 0.034992960132648333 0 0.0011891646340488834 0.032531278463898555 0 0.001315424938331867 0.032201693031361243 0 0.0010807104205172978 0.032191714126213404 0 0.001315424938331867 0.032201693031361243 0 0.0012112859045177045 0.03195357777020013 0 0.0010807104205172978 0.032191714126213404 0 0.00077504974194156622 0.033685347179248808 0 0.00074555488593174674 0.033521034890682075 0 0.0014785042025422768 0.032386569763583832 0 0.001315424938331867 0.032201693031361243 0 0.001489329810970563 0.032037706157446902 0 4.2100397036437087e-05 0.034969275448716593 0 8.9887630477357664e-06 0.034978803203230352 0 2.0868871230107217e-05 0.03499227033775875 0 0.001315424938331867 0.032201693031361243 0 0.001489329810970563 0.032037706157446902 0 0.0012112859045177045 0.03195357777020013 0 0.001489329810970563 0.032037706157446902 0 0.0012112859045177045 0.03195357777020013 0 0.0013595295482268226 0.03182689826603239 0 0.0012112859045177045 0.03195357777020013 0 0.0012220265148422576 0.031745482709835654 0 0.0013595295482268226 0.03182689826603239 0 0.0012220265148422576 0.031745482709835654 0 0.0013595295482268226 0.03182689826603239 0 0.0013818229372892796 0.031704044697666488 0 0.001489329810970563 0.032037706157446902 0 0.0013595295482268226 0.03182689826603239 0 0.00147054163782526 0.031731407186087558 0 1.1424997301368744e-05 0.034994963994671939 0 2.0868871230107217e-05 0.03499227033775875 0 1.0877785818425123e-05 0.034992318926378572 0 0.00074555488593174674 0.033521034890682075 0 0.00068094669225628212 0.033314760060758938 0 0.0013595295482268226 0.03182689826603239 0 0.0013818229372892796 0.031704044697666488 0 0.00147054163782526 0.031731407186087558 0 0.0014198051671729527 0.031428182870356244 0 0.001397138375799728 0.031427442596062366 0 0.0013818229372892796 0.031704044697666488 0 0.00071752896627852013 0.033002515493023729 0 0.0012610222879461564 0.031425513471313983 0 0.0014611091839093026 0.031572690678161097 0 0.0013818229372892796 0.031704044697666488 0 0.00147054163782526 0.031731407186087558 0 0.0014048395831605981 0.03157250502425097 0 0.0014611091839093026 0.031572690678161097 0 0.0013818229372892796 0.031704044697666488 0 0.00020346626782126158 0.033811112308743743 0 0.00068094669225628212 0.033314760060758938 0 0.00078057946904893131 0.032940577736909768 0 0.0013474216725480161 0.031635831964951372 0 0.001397138375799728 0.031427442596062366 0 0.0013818229372892796 0.031704044697666488 0 0.0011838882923844672 0.031579430868266943 0 0.0012220265148422576 0.031745482709835654 0 0.0013818229372892796 0.031704044697666488 0 0.0011838882923844672 0.031579430868266943 0 0.0013474216725480161 0.031635831964951372 0 0.0010427830086640628 0.03172737174622825 0 0.0011891357082698963 0.031506650529107671 0 0.0009137291891695734 0.031481444759419761 0 0.0010623697459810754 0.031318721979223363 0 0.0011891357082698963 0.031506650529107671 0 0.0009137291891695734 0.031481444759419761 0 0.00095250564383742226 0.031705848002567025 0 0.0009137291891695734 0.031481444759419761 0 0.00095250564383742226 0.031705848002567025 0 0.00066854647891396925 0.031593465994891698 0 0.0009137291891695734 0.031481444759419761 0 0.00066854647891396925 0.031593465994891698 0 0.0006802399343790518 0.031283378172799865 0 0.00095250564383742226 0.031705848002567025 0 0.00067873896917177204 0.031928654820814507 0 0.00066854647891396925 0.031593465994891698 0 0.0012220265148422576 0.031745482709835654 0 0.0011838882923844672 0.031579430868266943 0 0.00095250564383742226 0.031705848002567025 0 0.0012112859045177045 0.03195357777020013 0 0.0012220265148422576 0.031745482709835654 0 0.00095250564383742226 0.031705848002567025 0 0.0012112859045177045 0.03195357777020013 0 0.00095250564383742226 0.031705848002567025 0 0.00096494700846809901 0.031968269326739213 0 0.0012112859045177045 0.03195357777020013 0 0.00096494700846809901 0.031968269326739213 0 0.0010807104205172978 0.032191714126213404 0 0.00095250564383742226 0.031705848002567025 0 0.00096494700846809901 0.031968269326739213 0 0.00067873896917177204 0.031928654820814507 0 0.00096494700846809901 0.031968269326739213 0 0.00067873896917177204 0.031928654820814507 0 0.00085576587156799961 0.032143784889878013 0 0.00092540665506650455 0.03243448315250945 0 0.00085576587156799961 0.032143784889878013 0 0.00068589854674197558 0.032294003721851545 0 0.00067873896917177204 0.031928654820814507 0 0.00085576587156799961 0.032143784889878013 0 0.00068589854674197558 0.032294003721851545 0 0.00092540665506650455 0.03243448315250945 0 0.00085576587156799961 0.032143784889878013 0 0.0010807104205172978 0.032191714126213404 0 0.00096494700846809901 0.031968269326739213 0 0.00085576587156799961 0.032143784889878013 0 0.0010807104205172978 0.032191714126213404 0 0.00022242053857762854 0.032151581796590258 0 0.00047881452738772961 0.032125660685855192 0 0.00035337203377167785 0.031951056989490328 0 0.00039720536598938618 0.032303153714370515 0 0.00022242053857762854 0.032151581796590258 0 0.00047881452738772961 0.032125660685855192 0 0.00014196444120993722 0.032268501712580638 0 0.00039720536598938618 0.032303153714370515 0 0.00022242053857762854 0.032151581796590258 0 0.00039720536598938618 0.032303153714370515 0 0.00068589854674197558 0.032294003721851545 0 0.00047881452738772961 0.032125660685855192 0 0.00067873896917177204 0.031928654820814507 0 0.00068589854674197558 0.032294003721851545 0 0.00047881452738772961 0.032125660685855192 0 0.00067873896917177204 0.031928654820814507 0 0.00035337203377167785 0.031951056989490328 0 0.00040070857604562759 0.031704620772869924 0 0.00067873896917177204 0.031928654820814507 0 0.00047881452738772961 0.032125660685855192 0 0.00035337203377167785 0.031951056989490328 0 0.00035337203377167785 0.031951056989490328 0 0.0002078678586627782 0.031823402921632916 0 9.3427582869446419e-05 0.032058889530217245 0 0.00022242053857762854 0.032151581796590258 0 0.00035337203377167785 0.031951056989490328 0 9.3427582869446419e-05 0.032058889530217245 0 0.00035337203377167785 0.031951056989490328 0 0.0002078678586627782 0.031823402921632916 0 0.00040070857604562759 0.031704620772869924 0 0.0002078678586627782 0.031823402921632916 0 0.00040070857604562759 0.031704620772869924 0 0.00010299331556551986 0.031661922807628758 0 0.00040070857604562759 0.031704620772869924 0 0.00015279681605364555 0.031455570301324218 0 0.00010299331556551986 0.031661922807628758 0 0.00067873896917177204 0.031928654820814507 0 0.00040070857604562759 0.031704620772869924 0 0.00066854647891396925 0.031593465994891698 0 0.00066854647891396925 0.031593465994891698 0 0.00043897786102406868 0.031454630765596875 0 0.0006802399343790518 0.031283378172799865 0 0.00040070857604562759 0.031704620772869924 0 0.00066854647891396925 0.031593465994891698 0 0.00043897786102406868 0.031454630765596875 0 0.00040070857604562759 0.031704620772869924 0 0.00043897786102406868 0.031454630765596875 0 0.00015279681605364555 0.031455570301324218 0 0.00043897786102406868 0.031454630765596875 0 0.00027994617160701521 0.031238287384142381 0 0.00015279681605364555 0.031455570301324218 0 0.00032755402914215438 0.034303381240061159 0 0.0003168167610987959 0.034334831044666406 0 0.00033238606600273409 0.034325319986864923 0 0.0003168167610987959 0.034334831044666406 0 0.00032885321933742354 0.034350809237104547 0 0.0003211230553523562 0.034367079466201496 0 0.0003168167610987959 0.034334831044666406 0 0.00032885321933742354 0.034350809237104547 0 0.00033238606600273409 0.034325319986864923 0 0.0003168167610987959 0.034334831044666406 0 0.00027133757405836223 0.03433525580845375 0 0.00029547212521370889 0.03436946639995303 0 0.0003168167610987959 0.034334831044666406 0 0.00028253386909456434 0.034279452471133634 0 0.00027133757405836223 0.03433525580845375 0 0.0003168167610987959 0.034334831044666406 0 0.0003211230553523562 0.034367079466201496 0 0.00029547212521370889 0.03436946639995303 0 0.00032755402914215438 0.034303381240061159 0 0.0003168167610987959 0.034334831044666406 0 0.00028253386909456434 0.034279452471133634 0 0.00029200591932918637 0.032741231148587881 0 0.00047299089222610383 0.032778088436707507 0 0.00043897786102406868 0.031454630765596875 0 0.00027994617160701521 0.031238287384142381 0 0.0006802399343790518 0.031283378172799865 0 0.00047299089222610383 0.032778088436707507 0 0.00059803744131890573 0.032800856703984027 0 0.00028253386909456434 0.034279452471133634 0 0.0002023470387950872 0.03432215953978885 0 0.00027133757405836223 0.03433525580845375 0 0.0009137291891695734 0.031481444759419761 0 0.0006802399343790518 0.031283378172799865 0 0.0010623697459810754 0.031318721979223363 0 0.00028253386909456434 0.034279452471133634 0 0.00016635064591257541 0.034248774701099438 0 0.0002023470387950872 0.03432215953978885 0 6.2948116226303139e-05 0.034323311236029753 0 0.00016635064591257541 0.034248774701099438 0 0.0002023470387950872 0.03432215953978885 0 6.2948116226303139e-05 0.034323311236029753 0 0.0002023470387950872 0.03432215953978885 0 0.00014569695290898881 0.034385774306514558 0 0.0002023470387950872 0.03432215953978885 0 0.00014569695290898881 0.034385774306514558 0 0.00023542779066093014 0.034385053304176051 0 0.0002023470387950872 0.03432215953978885 0 0.00027133757405836223 0.03433525580845375 0 0.00023542779066093014 0.034385053304176051 0 0.00027133757405836223 0.03433525580845375 0 0.00023542779066093014 0.034385053304176051 0 0.00029547212521370889 0.03436946639995303 0 0.00023542779066093014 0.034385053304176051 0 0.00027412160488364312 0.034406639161948235 0 0.00029547212521370889 0.03436946639995303 0 0.00023542779066093014 0.034385053304176051 0 0.00023667536752234686 0.034434268492450175 0 0.00017779206848927899 0.034459816778505195 0 0.00023542779066093014 0.034385053304176051 0 0.00023667536752234686 0.034434268492450175 0 0.00027412160488364312 0.034406639161948235 0 0.00023667536752234686 0.034434268492450175 0 0.00027412160488364312 0.034406639161948235 0 0.00027224882382420596 0.034446065981735344 0 0.00014569695290898881 0.034385774306514558 0 0.00023542779066093014 0.034385053304176051 0 0.00017779206848927899 0.034459816778505195 0 0.00011864127887452755 0.034453887341702225 0 0.00014569695290898881 0.034385774306514558 0 0.00017779206848927899 0.034459816778505195 0 0.00023667536752234686 0.034434268492450175 0 0.00017779206848927899 0.034459816778505195 0 0.00021588513161643956 0.034499726460266521 0 0.00010400451355358718 0.034532977556886224 0 0.00011864127887452755 0.034453887341702225 0 0.00017779206848927899 0.034459816778505195 0 0.00015928697628907142 0.034539565061309521 0 0.00017885963397801406 0.034597617445073614 0 8.9414422818637912e-05 0.034659120385680212 0 0.00010400451355358718 0.034532977556886224 0 0.00017779206848927899 0.034459816778505195 0 0.00015928697628907142 0.034539565061309521 0 0.00017779206848927899 0.034459816778505195 0 0.00015928697628907142 0.034539565061309521 0 0.00021588513161643956 0.034499726460266521 0 0.00015928697628907142 0.034539565061309521 0 0.00021588513161643956 0.034499726460266521 0 0.00017885963397801406 0.034597617445073614 0 0.00027224882382420596 0.034446065981735344 0 0.00021588513161643956 0.034499726460266521 0 0.00026454607157386478 0.034523837509389359 0 0.00023667536752234686 0.034434268492450175 0 0.00027224882382420596 0.034446065981735344 0 0.00021588513161643956 0.034499726460266521 0 0.00021588513161643956 0.034499726460266521 0 0.00026454607157386478 0.034523837509389359 0 0.00017885963397801406 0.034597617445073614 0 0.00027224882382420596 0.034446065981735344 0 0.00026454607157386478 0.034523837509389359 0 0.00030692715165481574 0.03443061793688372 0 0.000350535029024003 0.034377253537365218 0 0.00032683586472039082 0.034371993039333991 0 0.00032068045232982724 0.034396006177100168 0 0.00026454607157386478 0.034523837509389359 0 0.00030692715165481574 0.03443061793688372 0 0.000350535029024003 0.034377253537365218 0 0.00030692715165481574 0.03443061793688372 0 0.000350535029024003 0.034377253537365218 0 0.00032068045232982724 0.034396006177100168 0 0.00027224882382420596 0.034446065981735344 0 0.00030692715165481574 0.03443061793688372 0 0.00032068045232982724 0.034396006177100168 0 0.000350535029024003 0.034377253537365218 0 0.00032683586472039082 0.034371993039333991 0 0.00030931413705525548 0.034352788356348564 0 0.000350535029024003 0.034377253537365218 0 0.00030931413705525548 0.034352788356348564 0 0.0003413449698083392 0.03429150717375009 0 0.00032683586472039082 0.034371993039333991 0 0.0003211230553523562 0.034367079466201496 0 0.00032068045232982724 0.034396006177100168 0 0.00032683586472039082 0.034371993039333991 0 0.00032885321933742354 0.034350809237104547 0 0.0003211230553523562 0.034367079466201496 0 0.0003211230553523562 0.034367079466201496 0 0.00029547212521370889 0.03436946639995303 0 0.00032068045232982724 0.034396006177100168 0 0.00027412160488364312 0.034406639161948235 0 0.00029547212521370889 0.03436946639995303 0 0.00032068045232982724 0.034396006177100168 0 0.00027412160488364312 0.034406639161948235 0 0.00027224882382420596 0.034446065981735344 0 0.00032068045232982724 0.034396006177100168 0 0.00034221648347427277 0.034339390071906985 0 0.00033596397154405917 0.034332449352167879 0 0.00032571603785508423 0.034349949757171448 0 0.00034221648347427277 0.034339390071906985 0 0.00033596397154405917 0.034332449352167879 0 0.00034612014033266503 0.034326838163674663 0 0.00032683586472039082 0.034371993039333991 0 0.00032885321933742354 0.034350809237104547 0 0.00032571603785508423 0.034349949757171448 0 0.00032885321933742354 0.034350809237104547 0 0.00033596397154405917 0.034332449352167879 0 0.00032571603785508423 0.034349949757171448 0 0.00032571603785508423 0.034349949757171448 0 0.00030931413705525548 0.034352788356348564 0 0.00033682113794805918 0.034354016408727761 0 0.00035855750213490296 0.034196543696457818 0 0.00036403745830421565 0.034061972947434523 0 0.00032683586472039082 0.034371993039333991 0 0.00032571603785508423 0.034349949757171448 0 0.00030931413705525548 0.034352788356348564 0 0.00034221648347427277 0.034339390071906985 0 0.00032571603785508423 0.034349949757171448 0 0.00033682113794805918 0.034354016408727761 0 0.00036403745830421565 0.034061972947434523 0 -5.5826874620728798e-05 0.033600721240403052 0 0.00034221648347427277 0.034339390071906985 0 0.00033682113794805918 0.034354016408727761 0 0.00035806425587269272 0.034345641812091807 0 0.00039298337385320026 0.033946782635292126 0 0.0001500688095249042 0.033872086130123553 0 0.0003714548099807266 0.033835844966168774 0 8.631195630335128e-05 0.033415566493231637 0 -7.9582607711556897e-05 0.033278258754033639 0 7.206940290143226e-05 0.033123782438798016 0 8.631195630335128e-05 0.033415566493231637 0 7.206940290143226e-05 0.033123782438798016 0 0.00021906741226506359 0.033465003711175015 0 8.631195630335128e-05 0.033415566493231637 0 -7.9582607711556897e-05 0.033278258754033639 0 8.896738048102649e-05 0.033659247751589343 0 -5.5826874620728798e-05 0.033600721240403052 0 -1.8276526035152401e-05 0.033603679287709506 0 -0.00073614090386238992 0.033266474697487336 0 7.206940290143226e-05 0.033123782438798016 0 -0.0003998346113944282 0.032641116884743082 0 -5.5826874620728798e-05 0.033600721240403052 0 -2.4946064571312769e-05 0.033451285951667513 0 -0.0003998346113944282 0.032641116884743082 0 -0.00051064629899572414 0.031913106756612873 0 0.00053838034302991424 0.032809239058682861 0 -0.00073614090386238992 0.033266474697487336 0 -0.0003998346113944282 0.032641116884743082 0 -0.00084859538542650143 0.031649254380645066 0 -5.5826874620728798e-05 0.033600721240403052 0 -0.00020077039241147096 0.033210384052690424 0 -0.0003998346113944282 0.032641116884743082 0 -0.00051064629899572414 0.031913106756612873 0 -0.00084859538542650143 0.031649254380645066 0 -0.00051064629899572414 0.031913106756612873 0 -0.00034980222999945326 0.031521809395377673 0 -0.00018820792152512506 0.031549773466855321 0 0.00034221648347427277 0.034339390071906985 0 0.00035806425587269272 0.034345641812091807 0 0.00035082108983172493 0.034333018588250219 0 0.00035806425587269272 0.034345641812091807 0 0.00035082108983172493 0.034333018588250219 0 0.00035705719574440157 0.03432041198677304 0 0.00035082108983172493 0.034333018588250219 0 0.00034612014033266503 0.034326838163674663 0 0.00035705719574440157 0.03432041198677304 0 0.00034221648347427277 0.034339390071906985 0 0.00035082108983172493 0.034333018588250219 0 0.00034612014033266503 0.034326838163674663 0 -0.00020077039241147096 0.033210384052690424 0 -0.0004391027199733042 0.030762622170658515 0 0.00034612014033266503 0.034326838163674663 0 0.00035705719574440157 0.03432041198677304 0 0.00034490912730565908 0.034311595214636469 0 0.00035705719574440157 0.03432041198677304 0 0.00034490912730565908 0.034311595214636469 0 0.00035284359379519968 0.034288464087171018 0 -0.00084859538542650143 0.031649254380645066 0 -0.00058770752179797606 0.031164501298980078 0 -0.00088042440888296274 0.030782194025590653 0 -0.00034980222999945326 0.031521809395377673 0 -0.00039334829969159008 0.031341811359572126 0 -0.00021053942880427181 0.031340368492643614 0 -0.00051064629899572414 0.031913106756612873 0 -0.00034980222999945326 0.031521809395377673 0 -0.00053165910158231165 0.031521550896767087 0 -0.00034980222999945326 0.031521809395377673 0 -0.00053165910158231165 0.031521550896767087 0 -0.00039334829969159008 0.031341811359572126 0 -0.00084859538542650143 0.031649254380645066 0 -0.00053165910158231165 0.031521550896767087 0 -0.00058770752179797606 0.031164501298980078 0 -0.00051064629899572414 0.031913106756612873 0 -0.00084859538542650143 0.031649254380645066 0 -0.00053165910158231165 0.031521550896767087 0 -0.00039334829969159008 0.031341811359572126 0 -0.00022347056956628004 0.031106569491468575 0 -0.00021053942880427181 0.031340368492643614 0 -0.00058770752179797606 0.031164501298980078 0 -0.00039334829969159008 0.031341811359572126 0 -0.00022347056956628004 0.031106569491468575 0 -0.00053165910158231165 0.031521550896767087 0 -0.00058770752179797606 0.031164501298980078 0 -0.00039334829969159008 0.031341811359572126 0 -0.0010807790779993375 0.02838988604657813 0 -0.00015402654037996954 0.029798254839999188 0 -0.00058770752179797606 0.031164501298980078 0 -0.00047335297185240993 0.030810461049062935 0 -0.00022347056956628004 0.031106569491468575 0 -0.00058770752179797606 0.031164501298980078 0 -0.00047335297185240993 0.030810461049062935 0 -0.00088042440888296274 0.030782194025590653 0 -0.0010807790779993375 0.02838988604657813 0 -0.0013137098322537357 0.025661331307764348 0 -0.0010807790779993375 0.02838988604657813 0 -0.0004391027199733042 0.030762622170658515 0 -0.00020017172306256131 0.028379883245413604 0 -0.00075640762219668421 0.028370060854218938 0 -0.00080584756467569373 0.027757502449737827 0 -0.0004391027199733042 0.030762622170658515 0 0.00012944386074334642 0.032520910336933426 0 -0.00061175905663280166 0.031149976532707523 0 -0.00015241566369838524 0.031187141107876477 0 -0.00050927851172884804 0.031358324781085696 0 0.00034490912730565908 0.034311595214636469 0 0.00035284359379519968 0.034288464087171018 0 0.00033769137095975628 0.034302795422326039 0 -0.0004391027199733042 0.030762622170658515 0 -0.0013137098322537357 0.025661331307764348 0 0.00033596397154405917 0.034332449352167879 0 0.00034490912730565908 0.034311595214636469 0 0.00033769137095975628 0.034302795422326039 0 0.00033596397154405917 0.034332449352167879 0 0.00034612014033266503 0.034326838163674663 0 0.00034490912730565908 0.034311595214636469 0 0.00032885321933742354 0.034350809237104547 0 0.00033596397154405917 0.034332449352167879 0 0.00033238606600273409 0.034325319986864923 0 0.00033596397154405917 0.034332449352167879 0 0.00033769137095975628 0.034302795422326039 0 0.00033238606600273409 0.034325319986864923 0 0.00029200591932918637 0.032741231148587881 0 0.00012944386074334642 0.032520910336933426 0 0.00027994617160701521 0.031238287384142381 0 -0.00015241566369838524 0.031187141107876477 0 0.00015279681605364555 0.031455570301324218 0 0.00032755402914215438 0.034303381240061159 0 0.00033769137095975628 0.034302795422326039 0 0.00033238606600273409 0.034325319986864923 0 -0.00015241566369838524 0.031187141107876477 0 0.00015279681605364555 0.031455570301324218 0 -0.00010672105786181469 0.031511769455176322 0 0.00015279681605364555 0.031455570301324218 0 -0.00010672105786181469 0.031511769455176322 0 0.00010299331556551986 0.031661922807628758 0 -0.00015241566369838524 0.031187141107876477 0 -0.00028149034459346511 0.031417765485414487 0 -0.00050927851172884804 0.031358324781085696 0 -0.00015241566369838524 0.031187141107876477 0 -0.00028149034459346511 0.031417765485414487 0 -0.00010672105786181469 0.031511769455176322 0 -0.00028149034459346511 0.031417765485414487 0 -0.00010672105786181469 0.031511769455176322 0 -0.0003591194046825451 0.031614887272322277 0 -0.0003591194046825451 0.031614887272322277 0 -6.5373285750516618e-05 0.031716147719571222 0 -0.00013547944777597584 0.031833172938124911 0 -0.00010672105786181469 0.031511769455176322 0 -0.0003591194046825451 0.031614887272322277 0 -6.5373285750516618e-05 0.031716147719571222 0 -0.001048194152952933 0.029640116660986968 0 -0.00075844038918304558 0.0284162553695585 0 -0.0021311623540954732 0.023340875713095996 0 -0.0029074586803512071 0.022529504309221283 0 -0.0021904532183535251 0.022365524674010061 0 -0.0010790507479629986 0.027342580238640266 0 -0.00075844038918304558 0.0284162553695585 0 -0.00010672105786181469 0.031511769455176322 0 0.00010299331556551986 0.031661922807628758 0 -6.5373285750516618e-05 0.031716147719571222 0 -6.5373285750516618e-05 0.031716147719571222 0 5.2779046450185709e-05 0.03186389767721251 0 -0.00013695435547274497 0.031844135685329948 0 0.00010299331556551986 0.031661922807628758 0 -6.5373285750516618e-05 0.031716147719571222 0 5.2779046450185709e-05 0.03186389767721251 0 0.0002078678586627782 0.031823402921632916 0 0.00010299331556551986 0.031661922807628758 0 5.2779046450185709e-05 0.03186389767721251 0 0.0002078678586627782 0.031823402921632916 0 9.3427582869446419e-05 0.032058889530217245 0 5.2779046450185709e-05 0.03186389767721251 0 9.3427582869446419e-05 0.032058889530217245 0 2.316240605354694e-06 0.031992929983385293 0 2.4690837934119212e-05 0.032118877815291526 0 9.3427582869446419e-05 0.032058889530217245 0 5.2779046450185709e-05 0.03186389767721251 0 -0.00013695435547274497 0.031844135685329948 0 0.00068945013583720453 0.031122409885605662 0 -0.00075844038918304558 0.0284162553695585 0 -0.0029074586803512071 0.022529504309221283 0 -0.0021904532183535251 0.022365524674010061 0 -0.0022066654209023802 0.021274566152104012 0 -0.00075844038918304558 0.0284162553695585 0 -0.00088875506142455834 0.026785498994743442 0 2.316240605354694e-06 0.031992929983385293 0 2.4690837934119212e-05 0.032118877815291526 0 -5.6862862120021655e-06 0.032212187581240503 0 2.4690837934119212e-05 0.032118877815291526 0 -5.6862862120021655e-06 0.032212187581240503 0 2.7581736190090652e-05 0.032201752649430794 0 3.9777979189930781e-05 0.032257236971809163 0 -5.6862862120021655e-06 0.032212187581240503 0 2.7581736190090652e-05 0.032201752649430794 0 0.00014196444120993722 0.032268501712580638 0 0.00022242053857762854 0.032151581796590258 0 2.7581736190090652e-05 0.032201752649430794 0 0.00022242053857762854 0.032151581796590258 0 9.3427582869446419e-05 0.032058889530217245 0 2.7581736190090652e-05 0.032201752649430794 0 9.3427582869446419e-05 0.032058889530217245 0 2.4690837934119212e-05 0.032118877815291526 0 2.7581736190090652e-05 0.032201752649430794 0 -0.0016311337051040267 0.020880878344894535 0 -0.0014706186905604659 0.020660420672682624 0 -0.0012589873047622652 0.020839336784344055 0 -0.0016311337051040267 0.020880878344894535 0 -0.0014706186905604659 0.020660420672682624 0 -0.0016292838523820922 0.020749803917071867 0 -0.0015756629290669766 0.020563909028433646 0 -0.0014706186905604659 0.020660420672682624 0 -0.0016292838523820922 0.020749803917071867 0 -0.0017483033337384549 0.021057722836973193 0 -0.0016874890212352058 0.021335581715639231 0 -0.0015756629290669766 0.020563909028433646 0 -0.0016292838523820922 0.020749803917071867 0 -0.0018166616734997818 0.020812699952296357 0 -0.00064688887556792836 0.026342365911290532 0 -0.00088875506142455834 0.026785498994743442 0 -0.0016311337051040267 0.020880878344894535 0 -0.0016292838523820922 0.020749803917071867 0 -0.0018166616734997818 0.020812699952296357 0 -0.0017270455583448892 0.020419987637880346 0 -0.0022066654209023802 0.021274566152104012 0 -0.0018166616734997818 0.020812699952296357 0 -0.0016311337051040267 0.020880878344894535 0 -0.0018166616734997818 0.020812699952296357 0 -0.0017189071070392674 0.021037678364034834 0 -0.0022066654209023802 0.021274566152104012 0 -0.0018166616734997818 0.020812699952296357 0 -0.0015131672079368565 0.022359086664717476 0 -0.0021904532183535251 0.022365524674010061 0 -0.0022066654209023802 0.021274566152104012 0 -0.0015131672079368565 0.022359086664717476 0 -0.0016311337051040267 0.020880878344894535 0 -0.0015095506214410511 0.021056171565075558 0 -0.0012589873047622652 0.020839336784344055 0 -0.0016311337051040267 0.020880878344894535 0 -0.0017189071070392674 0.021037678364034834 0 -0.0015095506214410511 0.021056171565075558 0 -0.0015095506214410511 0.021056171565075558 0 -0.0015664379683559557 0.021273442411846501 0 -0.0013494625700833957 0.021335959929116743 0 -0.0017189071070392674 0.021037678364034834 0 -0.0015095506214410511 0.021056171565075558 0 -0.0015664379683559557 0.021273442411846501 0 -0.0017189071070392674 0.021037678364034834 0 -0.0015664379683559557 0.021273442411846501 0 -0.0016949527144847849 0.021441598151441855 0 -0.0016874890212352058 0.021335581715639231 0 -0.0013137098322537357 0.025661331307764348 0 -0.0021311623540954732 0.023340875713095996 0 -0.0015131672079368565 0.022359086664717476 0 -0.0012830715707212532 0.024206242051243252 0 -0.0021311623540954732 0.023340875713095996 0 -0.0021904532183535251 0.022365524674010061 0 -0.0015131672079368565 0.022359086664717476 0 -0.0003591194046825451 0.031614887272322277 0 -0.00059350998943230159 0.03137581848940043 0 -0.00050927851172884804 0.031358324781085696 0 -0.0010790507479629986 0.027342580238640266 0 -0.0013137098322537357 0.025661331307764348 0 -0.00028149034459346511 0.031417765485414487 0 -0.0003591194046825451 0.031614887272322277 0 -0.00050927851172884804 0.031358324781085696 0 -0.00061175905663280166 0.031149976532707523 0 -0.00059377298512604661 0.031376849855472684 0 -0.00050927851172884804 0.031358324781085696 0 -0.0013137098322537357 0.025661331307764348 0 -0.0013790514670320693 0.026001586087893474 0 -0.001796647717669841 0.021939807889409114 0 -0.0020633636195911834 0.021675990782522855 0 -0.0015712577798422218 0.021499089525308487 0 -0.0015664379683559557 0.021273442411846501 0 -0.0016949527144847849 0.021441598151441855 0 -0.0013494625700833957 0.021335959929116743 0 -0.0013137098322537357 0.025661331307764348 0 -0.0012681404717733477 0.021865588669033965 0 -0.0013494625700833957 0.021335959929116743 0 -0.00096351637652727939 0.02121458672527481 0 -0.0012589873047622652 0.020839336784344055 0 -0.0015095506214410511 0.021056171565075558 0 -0.0013494625700833957 0.021335959929116743 0 -0.0012589873047622652 0.020839336784344055 0 -0.0015712577798422218 0.021499089525308487 0 -0.0010622335095546742 0.021304196198792237 0 -0.0012377318250676147 0.021924195429455604 0 -0.0010622335095546742 0.021304196198792237 0 -0.00082821353048455012 0.021598174989854568 0 -0.0012377318250676147 0.021924195429455604 0 -0.0012681404717733477 0.021865588669033965 0 -0.00098366211942642074 0.021312469219180188 0 -0.00096351637652727939 0.02121458672527481 0 -0.0012589873047622652 0.020839336784344055 0 -0.00080855966706003279 0.020903331815801184 0 -0.0012589873047622652 0.020839336784344055 0 -0.000957839468731274 0.020649751745054606 0 -0.00080855966706003279 0.020903331815801184 0 -0.0010090581565222049 0.020230942392491371 0 -0.0012589873047622652 0.020839336784344055 0 -0.000957839468731274 0.020649751745054606 0 -0.00098284962155951159 0.020382672803860361 0 -0.0012070183906626604 0.02075318155732973 0 -0.001273802362041264 0.02055063527421774 0 -0.000976768986781378 0.020530685687365581 0 -0.0012589873047622652 0.020839336784344055 0 -0.001273802362041264 0.02055063527421774 0 -0.0014706186905604659 0.020660420672682624 0 -0.0012589873047622652 0.020839336784344055 0 -0.00052446066619301159 0.020281423058119429 0 -0.00066844309920457404 0.02058642957370543 0 -0.00028435859970219775 0.020514206305399001 0 -0.00066844309920457404 0.02058642957370543 0 -0.00048912587880112896 0.020781255865750008 0 -0.00028435859970219775 0.020514206305399001 0 -0.00025962687350671227 0.020177523424088163 0 -0.00052446066619301159 0.020281423058119429 0 -0.00028435859970219775 0.020514206305399001 0 -0.0010090581565222049 0.020230942392491371 0 -0.000957839468731274 0.020649751745054606 0 -0.00066844309920457404 0.02058642957370543 0 -0.00052446066619301159 0.020281423058119429 0 -0.0010090581565222049 0.020230942392491371 0 -0.00066844309920457404 0.02058642957370543 0 -0.00066844309920457404 0.02058642957370543 0 -0.00080855966706003279 0.020903331815801184 0 -0.00048912587880112896 0.020781255865750008 0 -0.000957839468731274 0.020649751745054606 0 -0.00066844309920457404 0.02058642957370543 0 -0.00080855966706003279 0.020903331815801184 0 -0.00048912587880112896 0.020781255865750008 0 -0.00025365752229356686 0.020849792624842295 0 -0.00028435859970219775 0.020514206305399001 0 -0.00080855966706003279 0.020903331815801184 0 -0.00048912587880112896 0.020781255865750008 0 -0.00052033577921225692 0.021084290226676242 0 -0.00048912587880112896 0.020781255865750008 0 -0.00052033577921225692 0.021084290226676242 0 -0.00025365752229356686 0.020849792624842295 0 -0.00052033577921225692 0.021084290226676242 0 -0.00048265184674165179 0.021443151501435779 0 -0.00014935148713690263 0.02124072558877917 0 -0.00052033577921225692 0.021084290226676242 0 -0.00067252451269733812 0.021400910773246944 0 -0.00048265184674165179 0.021443151501435779 0 -0.00098366211942642074 0.021312469219180188 0 -0.0006046427508252896 0.021140455546381071 0 -0.00096351637652727939 0.02121458672527481 0 -0.00080855966706003279 0.020903331815801184 0 -0.00052033577921225692 0.021084290226676242 0 -0.0010622335095546742 0.021304196198792237 0 -0.00052033577921225692 0.021084290226676242 0 -0.00067252451269733812 0.021400910773246944 0 -0.0010622335095546742 0.021304196198792237 0 -0.00067252451269733812 0.021400910773246944 0 -0.00082821353048455012 0.021598174989854568 0 -0.00067252451269733812 0.021400910773246944 0 -0.00082821353048455012 0.021598174989854568 0 -0.0006316949039344165 0.021638211785144353 0 -0.00082821353048455012 0.021598174989854568 0 -0.0006316949039344165 0.021638211785144353 0 -0.00064145551112660434 0.021916400475860864 0 -0.00048265184674165179 0.021443151501435779 0 -0.00054153431245944621 0.021852878766477263 0 -0.00014935148713690263 0.02124072558877917 0 -0.00018933364121759595 0.023013477015587338 0 -0.00025354754093786749 0.021331102345760408 0 -0.00048265184674165179 0.021443151501435779 0 -0.0006316949039344165 0.021638211785144353 0 -0.00054153431245944621 0.021852878766477263 0 -0.00018933364121759595 0.023013477015587338 0 -5.4507133458661614e-05 0.020900640748512753 0 -0.00067252451269733812 0.021400910773246944 0 -0.00048265184674165179 0.021443151501435779 0 -0.0006316949039344165 0.021638211785144353 0 -0.00057193318363161973 0.025047786341364991 0 -0.00010491579410768626 0.026044144741706087 0 0.00027960406056621603 0.031012982060670054 0 0.00029374745675280134 0.031055983216933619 0 0.00035607878411014174 0.030962800959767191 0 -0.0010384721423598554 0.02134521398140234 0 -0.0011216282877791678 0.021405603161650976 0 -0.00061115417836258526 0.021385120079839753 0 -0.0006316949039344165 0.021638211785144353 0 -0.00054153431245944621 0.021852878766477263 0 -0.00064145551112660434 0.021916400475860864 0 -0.00018933364121759595 0.023013477015587338 0 -0.00057193318363161973 0.025047786341364991 0 0.00027960406056621603 0.031012982060670054 0 0.00029374745675280134 0.031055983216933619 0 0.00026726550422717871 0.031027877251402693 0 0.00029374745675280134 0.031055983216933619 0 0.00025501980516365254 0.031133714151821801 0 0.0003172177326713419 0.031113797885163202 0 0.00029374745675280134 0.031055983216933619 0 0.0003172177326713419 0.031113797885163202 0 0.00035607878411014174 0.030962800959767191 0 0.00025501980516365254 0.031133714151821801 0 0.00016965080059498826 0.031201407623445154 0 0.00022856022026754332 0.031222656034349799 0 0.00029374745675280134 0.031055983216933619 0 0.00025501980516365254 0.031133714151821801 0 0.00026064897956308959 0.031080809184202661 0 0.00025501980516365254 0.031133714151821801 0 0.00026064897956308959 0.031080809184202661 0 0.00022036979461189537 0.031110458772648262 0 0.00025501980516365254 0.031133714151821801 0 0.00022036979461189537 0.031110458772648262 0 0.00016965080059498826 0.031201407623445154 0 0.00022036979461189537 0.031110458772648262 0 0.00015068377664912116 0.0311095727816601 0 0.00016965080059498826 0.031201407623445154 0 -0.00057193318363161973 0.025047786341364991 0 -0.00054274865132057995 0.026507272226329738 0 0.00030310685985661135 0.030999840827391555 0 0.00026726550422717871 0.031027877251402693 0 7.7471014324701653e-05 0.030998555578827938 0 0.00022036979461189537 0.031110458772648262 0 0.00026726550422717871 0.031027877251402693 0 0.00015068377664912116 0.0311095727816601 0 -0.00082821353048455012 0.021598174989854568 0 -0.00064145551112660434 0.021916400475860864 0 -0.0012377318250676147 0.021924195429455604 0 0.00029374745675280134 0.031055983216933619 0 0.00026064897956308959 0.031080809184202661 0 0.00026726550422717871 0.031027877251402693 0 0.00026064897956308959 0.031080809184202661 0 0.00022036979461189537 0.031110458772648262 0 0.00026726550422717871 0.031027877251402693 0 -0.00057193318363161973 0.025047786341364991 0 -0.00085633567772857525 0.025637756753993001 0 0.00026726550422717871 0.031027877251402693 0 7.7471014324701653e-05 0.030998555578827938 0 0.00015068377664912116 0.0311095727816601 0 7.7471014324701653e-05 0.030998555578827938 0 3.3519577546787098e-06 0.031242562865436335 0 0.00015068377664912116 0.0311095727816601 0 -0.0010807790779993375 0.02838988604657813 0 -0.00054274865132057995 0.026507272226329738 0 -0.00035143574650633059 0.030968351871226932 0 7.7471014324701653e-05 0.030998555578827938 0 -0.00022347056956628004 0.031106569491468575 0 7.7471014324701653e-05 0.030998555578827938 0 -0.00022347056956628004 0.031106569491468575 0 3.3519577546787098e-06 0.031242562865436335 0 -0.001796647717669841 0.021939807889409114 0 -0.0015712577798422218 0.021499089525308487 0 -0.0012377318250676147 0.021924195429455604 0 3.3519577546787098e-06 0.031242562865436335 0 0.00011281734878940776 0.031335756956162981 0 -0.00018820792152512506 0.031549773466855321 0 -0.00022347056956628004 0.031106569491468575 0 3.3519577546787098e-06 0.031242562865436335 0 -0.00021053942880427181 0.031340368492643614 0 3.3519577546787098e-06 0.031242562865436335 0 -0.00021053942880427181 0.031340368492643614 0 -0.00018820792152512506 0.031549773466855321 0 -0.00034980222999945326 0.031521809395377673 0 -0.00021053942880427181 0.031340368492643614 0 -0.00018820792152512506 0.031549773466855321 0 3.3519577546787098e-06 0.031242562865436335 0 0.00015068377664912116 0.0311095727816601 0 0.00016965080059498826 0.031201407623445154 0 3.3519577546787098e-06 0.031242562865436335 0 0.00016965080059498826 0.031201407623445154 0 0.00011281734878940776 0.031335756956162981 0 0.00012896245244560124 0.032092570093600857 0 0.00046804588723394299 0.032158617883059827 0 0.00016965080059498826 0.031201407623445154 0 0.00011281734878940776 0.031335756956162981 0 0.00022856022026754332 0.031222656034349799 0 0.00011281734878940776 0.031335756956162981 0 2.0259187549198482e-05 0.031474286928617895 0 0.0002385674003072997 0.03126973352411045 0 0.00011281734878940776 0.031335756956162981 0 2.0259187549198482e-05 0.031474286928617895 0 -0.00018820792152512506 0.031549773466855321 0 -0.00046036779970722312 0.031929059405596656 0 0.00012896245244560124 0.032092570093600857 0 7.206940290143226e-05 0.033123782438798016 0 -0.0003998346113944282 0.032641116884743082 0 0.00053838034302991424 0.032809239058682861 0 -0.00051064629899572414 0.031913106756612873 0 2.0259187549198482e-05 0.031474286928617895 0 -0.00018820792152512506 0.031549773466855321 0 7.206940290143226e-05 0.033123782438798016 0 0.00049082774781566106 0.033296870843253841 0 0.00021906741226506359 0.033465003711175015 0 7.206940290143226e-05 0.033123782438798016 0 0.00053838034302991424 0.032809239058682861 0 0.00049082774781566106 0.033296870843253841 0 0.00053838034302991424 0.032809239058682861 0 0.00049082774781566106 0.033296870843253841 0 0.00074551545704559915 0.033111015790007595 0 0.00049082774781566106 0.033296870843253841 0 0.00074551545704559915 0.033111015790007595 0 0.00064618114365818508 0.033363111698423528 0 0.00046804588723394299 0.032158617883059827 0 0.00062135916895581953 0.03203254165133166 0 0.00074551545704559915 0.033111015790007595 0 0.0008357490869208221 0.033359564881054411 0 0.00089813102320591878 0.033232101339200314 0 0.0002385674003072997 0.03126973352411045 0 0.0003172177326713419 0.031113797885163202 0 0.00033228905335288823 0.031141627870109476 0 0.00025501980516365254 0.031133714151821801 0 0.0003172177326713419 0.031113797885163202 0 0.00022856022026754332 0.031222656034349799 0 0.0002385674003072997 0.03126973352411045 0 0.0003172177326713419 0.031113797885163202 0 0.00022856022026754332 0.031222656034349799 0 0.00011281734878940776 0.031335756956162981 0 0.0002385674003072997 0.03126973352411045 0 0.00022856022026754332 0.031222656034349799 0 0.00072687173840604575 0.033468489625314908 0 0.00058352942687642012 0.033557749703597033 0 0.00064618114365818508 0.033363111698423528 0 0.00072687173840604575 0.033468489625314908 0 0.00058352942687642012 0.033557749703597033 0 0.00070689278441120156 0.033598349111037713 0 0.00072687173840604575 0.033468489625314908 0 0.00082498619661160665 0.033499767206592909 0 0.0008357490869208221 0.033359564881054411 0 0.00072687173840604575 0.033468489625314908 0 0.00082498619661160665 0.033499767206592909 0 0.00070689278441120156 0.033598349111037713 0 0.00082498619661160665 0.033499767206592909 0 0.0008357490869208221 0.033359564881054411 0 0.0009171565189418176 0.033439384973997441 0 0.00074551545704559915 0.033111015790007595 0 0.0008357490869208221 0.033359564881054411 0 0.00064618114365818508 0.033363111698423528 0 0.00072687173840604575 0.033468489625314908 0 0.0008357490869208221 0.033359564881054411 0 0.00064618114365818508 0.033363111698423528 0 0.00049082774781566106 0.033296870843253841 0 0.00033493242647113149 0.033517831690992296 0 0.00047102180800997123 0.033508182513381599 0 0.00049082774781566106 0.033296870843253841 0 0.00064618114365818508 0.033363111698423528 0 0.00047102180800997123 0.033508182513381599 0 0.00049082774781566106 0.033296870843253841 0 0.00021906741226506359 0.033465003711175015 0 0.00033493242647113149 0.033517831690992296 0 0.00021906741226506359 0.033465003711175015 0 0.00033493242647113149 0.033517831690992296 0 0.0002060190888406899 0.033621904713156667 0 0.00033493242647113149 0.033517831690992296 0 0.0002060190888406899 0.033621904713156667 0 0.00032530297681111986 0.033622438828770466 0 0.00033493242647113149 0.033517831690992296 0 0.00032530297681111986 0.033622438828770466 0 0.00047102180800997123 0.033508182513381599 0 0.00032530297681111986 0.033622438828770466 0 0.0004292805263083227 0.033642710213841999 0 0.00031716705399490114 0.033702846390999665 0 0.0002060190888406899 0.033621904713156667 0 0.00032530297681111986 0.033622438828770466 0 0.00023761710674165978 0.033694347361268764 0 0.00058352942687642012 0.033557749703597033 0 0.00064618114365818508 0.033363111698423528 0 0.00047102180800997123 0.033508182513381599 0 0.00032530297681111986 0.033622438828770466 0 0.00047102180800997123 0.033508182513381599 0 0.0004292805263083227 0.033642710213841999 0 0.00058352942687642012 0.033557749703597033 0 0.00047102180800997123 0.033508182513381599 0 0.0004292805263083227 0.033642710213841999 0 0.00058352942687642012 0.033557749703597033 0 0.0004292805263083227 0.033642710213841999 0 0.00053563046161213756 0.033696070315139416 0 0.0004292805263083227 0.033642710213841999 0 0.00053563046161213756 0.033696070315139416 0 0.00036027095628094618 0.033761244913049819 0 0.0004292805263083227 0.033642710213841999 0 0.00036027095628094618 0.033761244913049819 0 0.00031716705399490114 0.033702846390999665 0 0.00053563046161213756 0.033696070315139416 0 0.00036027095628094618 0.033761244913049819 0 0.00038993658025649315 0.033877901552939162 0 0.00023761710674165978 0.033694347361268764 0 0.00025450421812068348 0.033795903283917475 0 0.00021228094070909425 0.033836713710958914 0 0.00023761710674165978 0.033694347361268764 0 0.00031716705399490114 0.033702846390999665 0 0.00025450421812068348 0.033795903283917475 0 0.00032530297681111986 0.033622438828770466 0 0.00023761710674165978 0.033694347361268764 0 0.00031716705399490114 0.033702846390999665 0 0.00036027095628094618 0.033761244913049819 0 0.00031716705399490114 0.033702846390999665 0 0.00025450421812068348 0.033795903283917475 0 0.0001891645707549282 0.033786629846041666 0 0.00032297128570932509 0.033975741005965933 0 0.00025450421812068348 0.033795903283917475 0 0.00022269433420993816 0.033882611859667601 0 0.00021228094070909425 0.033836713710958914 0 0.00022269433420993816 0.033882611859667601 0 0.00022394797560085062 0.033768258171937043 0 0.00021228094070909425 0.033836713710958914 0 0.00036027095628094618 0.033761244913049819 0 0.00025450421812068348 0.033795903283917475 0 0.00022269433420993816 0.033882611859667601 0 3.4294440135943636e-05 0.033987794976236309 0 -0.00038326865474969769 0.03397376140240823 0 -0.00011751927899062261 0.033706040546874309 0 0.00036027095628094618 0.033761244913049819 0 0.00022269433420993816 0.033882611859667601 0 0.00038993658025649315 0.033877901552939162 0 5.8665177959865778e-05 0.03272922368105402 0 0.00013896110947181104 0.032452844796316362 0 0.00022269433420993816 0.033882611859667601 0 3.4294440135943636e-05 0.033987794976236309 0 6.1869905180072485e-05 0.033806926976950515 0 0.00053563046161213756 0.033696070315139416 0 0.00038993658025649315 0.033877901552939162 0 0.00070913120289054052 0.033766122127417572 0 0.00013896110947181104 0.032452844796316362 0 -0.0002616888025660524 0.03225161389033615 0 0.00013896110947181104 0.032452844796316362 0 0.00023210680374222446 0.032226095323044913 0 0.00024868903166272069 0.030677447239903535 0 -0.00012398829909386508 0.030599624090516066 0 -0.00018522461037987333 0.030765894266748188 0 0.00053563046161213756 0.033696070315139416 0 0.00070913120289054052 0.033766122127417572 0 0.00070689278441120156 0.033598349111037713 0 0.00058352942687642012 0.033557749703597033 0 0.00053563046161213756 0.033696070315139416 0 0.00070689278441120156 0.033598349111037713 0 0.00070913120289054052 0.033766122127417572 0 0.00083878383592508551 0.03362528789256463 0 0.00098286713431935632 0.03363112801780279 0 0.00023210680374222446 0.032226095323044913 0 0.0003689539316214493 0.031633952529887654 0 0.00082498619661160665 0.033499767206592909 0 0.00083878383592508551 0.03362528789256463 0 0.00090056541970265629 0.033520594831723018 0 0.00082498619661160665 0.033499767206592909 0 0.00070689278441120156 0.033598349111037713 0 0.00083878383592508551 0.03362528789256463 0 0.00070913120289054052 0.033766122127417572 0 0.00070689278441120156 0.033598349111037713 0 0.00083878383592508551 0.03362528789256463 0 -0.00018522461037987333 0.030765894266748188 0 -0.00050597252306401001 0.030519345470808982 0 -0.00063131470019289922 0.030859137735782107 0 -0.00012398829909386508 0.030599624090516066 0 -0.00018522461037987333 0.030765894266748188 0 -0.00050597252306401001 0.030519345470808982 0 -0.0002616888025660524 0.03225161389033615 0 -0.0005534517060301078 0.031940596062732834 0 -0.00038326865474969769 0.03397376140240823 0 -0.00046430062404611416 0.033598204366586136 0 -0.00080165615588606478 0.033930617559351214 0 -0.00046430062404611416 0.033598204366586136 0 -0.00080165615588606478 0.033930617559351214 0 -0.00089725661025881714 0.033604436336232779 0 -0.00038326865474969769 0.03397376140240823 0 -0.00046430062404611416 0.033598204366586136 0 -0.00011751927899062261 0.033706040546874309 0 -0.00046430062404611416 0.033598204366586136 0 -2.5298629713881036e-05 0.033421443206835856 0 -0.00011751927899062261 0.033706040546874309 0 -0.00046430062404611416 0.033598204366586136 0 -0.0003917683801247886 0.033193124224142133 0 -2.5298629713881036e-05 0.033421443206835856 0 -0.00046430062404611416 0.033598204366586136 0 -0.00072467360401466132 0.033312232018081173 0 -0.0003917683801247886 0.033193124224142133 0 -0.00046430062404611416 0.033598204366586136 0 -0.00072467360401466132 0.033312232018081173 0 -0.00089725661025881714 0.033604436336232779 0 -0.00072467360401466132 0.033312232018081173 0 -0.0003917683801247886 0.033193124224142133 0 -0.00070389472574315421 0.032955010678919448 0 -0.0003917683801247886 0.033193124224142133 0 -3.6707882310024147e-05 0.033080798382858469 0 -0.00039258281773767531 0.032805019661407912 0 -0.0003917683801247886 0.033193124224142133 0 -0.00070389472574315421 0.032955010678919448 0 -0.00039258281773767531 0.032805019661407912 0 -0.00070389472574315421 0.032955010678919448 0 -0.00069991252601446735 0.032678729213406123 0 -0.00039258281773767531 0.032805019661407912 0 0.00029977782355618639 0.032976359144977055 0 -3.6707882310024147e-05 0.033080798382858469 0 -1.7725390353284189e-05 0.032666421890403544 0 -3.6707882310024147e-05 0.033080798382858469 0 -1.7725390353284189e-05 0.032666421890403544 0 -0.00039258281773767531 0.032805019661407912 0 -0.0003917683801247886 0.033193124224142133 0 -3.6707882310024147e-05 0.033080798382858469 0 -2.5298629713881036e-05 0.033421443206835856 0 0.00029977782355618639 0.032976359144977055 0 -3.6707882310024147e-05 0.033080798382858469 0 0.00033148871804453714 0.033467669561760942 0 -3.6707882310024147e-05 0.033080798382858469 0 -2.5298629713881036e-05 0.033421443206835856 0 0.00033148871804453714 0.033467669561760942 0 2.9216304648567023e-05 0.03351880111797715 0 0.0001891645707549282 0.033786629846041666 0 -2.5298629713881036e-05 0.033421443206835856 0 0.00017466113252752701 0.033857561605576812 0 0.00033148871804453714 0.033467669561760942 0 -2.5298629713881036e-05 0.033421443206835856 0 -0.00011751927899062261 0.033706040546874309 0 0.00022394797560085062 0.033768258171937043 0 -0.00011751927899062261 0.033706040546874309 0 6.1869905180072485e-05 0.033806926976950515 0 0.00022394797560085062 0.033768258171937043 0 3.4294440135943636e-05 0.033987794976236309 0 -0.00011751927899062261 0.033706040546874309 0 6.1869905180072485e-05 0.033806926976950515 0 0.00022269433420993816 0.033882611859667601 0 6.1869905180072485e-05 0.033806926976950515 0 0.00022394797560085062 0.033768258171937043 0 0.0004625191074237177 0.033950908562974683 0 0.00067810577178548613 0.033698245286157807 0 0.00055800184441398711 0.034229531029228238 0 0.00017466113252752701 0.033857561605576812 0 0.0004625191074237177 0.033950908562974683 0 0.00033148871804453714 0.033467669561760942 0 0.00044487112981278271 0.03436670398571303 0 0.00049160739244234416 0.034305178947794696 0 0.00055800184441398711 0.034229531029228238 0 0.00054184303797792698 0.034003895386002632 0 0.00055683571503411036 0.03417592161542686 0 0.00054184303797792698 0.034003895386002632 0 0.00047635877782913332 0.033616084488536431 0 0.00067810577178548613 0.033698245286157807 0 0.00033148871804453714 0.033467669561760942 0 0.00067000064239802813 0.033159596320884083 0 0.0004625191074237177 0.033950908562974683 0 0.00067810577178548613 0.033698245286157807 0 0.00033148871804453714 0.033467669561760942 0 0.00029977782355618639 0.032976359144977055 0 0.00033148871804453714 0.033467669561760942 0 0.00067000064239802813 0.033159596320884083 0 0.00028112135469290543 0.034130232820314792 0 0.00048400267094936235 0.033860828291962616 0 0.00053585994428142288 0.034288954137223229 0 0.00044487112981278271 0.03436670398571303 0 0.00028112135469290543 0.034130232820314792 0 0.00053585994428142288 0.034288954137223229 0 0.00028112135469290543 0.034130232820314792 0 0.00048400267094936235 0.033860828291962616 0 0.00030319318761989043 0.033586600080818561 0 0.00047635877782913332 0.033616084488536431 0 0.00034980059426825092 0.033155276943916297 0 0.00028112135469290543 0.034130232820314792 0 0.00030319318761989043 0.033586600080818561 0 0.00020844451996248863 0.033537509709201198 0 0.00067000064239802813 0.033159596320884083 0 0.00049451909233935688 0.032877746936478595 0 0.00065386364870825549 0.032660030069965693 0 0.00029977782355618639 0.032976359144977055 0 0.00067000064239802813 0.033159596320884083 0 0.00049451909233935688 0.032877746936478595 0 0.00029977782355618639 0.032976359144977055 0 0.00049451909233935688 0.032877746936478595 0 0.00035634908092804725 0.032716774562111882 0 0.00081648465516233381 0.033988747919101052 0 0.00080485131126140249 0.034345602033607911 0 0.00068547573289823522 0.033894695236643749 0 0.00070139575175274008 0.034369009050983293 0 0.0010439330661075657 0.033950000511393137 0 0.00068547573289823522 0.033894695236643749 0 0.0011860406411691785 0.033753922298080566 0 0.00096711512749241024 0.033532339604215304 0 0.00068547573289823522 0.033894695236643749 0 0.00048400267094936235 0.033860828291962616 0 0.00063479039280943687 0.033596045589870199 0 0.00068547573289823522 0.033894695236643749 0 0.00048400267094936235 0.033860828291962616 0 0.00053585994428142288 0.034288954137223229 0 0.00053585994428142288 0.034288954137223229 0 0.00070139575175274008 0.034369009050983293 0 0.00057323611558424332 0.034395478409419783 0 0.00068547573289823522 0.033894695236643749 0 0.00053585994428142288 0.034288954137223229 0 0.00070139575175274008 0.034369009050983293 0 0.00053585994428142288 0.034288954137223229 0 0.00057323611558424332 0.034395478409419783 0 0.00051200409301478157 0.034369209865267016 0 0.00044487112981278271 0.03436670398571303 0 0.00053585994428142288 0.034288954137223229 0 0.00051200409301478157 0.034369209865267016 0 0.00044487112981278271 0.03436670398571303 0 0.00051200409301478157 0.034369209865267016 0 0.00049160739244234416 0.034305178947794696 0 0.00057323611558424332 0.034395478409419783 0 0.00051200409301478157 0.034369209865267016 0 0.00049074530422857842 0.034382731846645906 0 0.00051200409301478157 0.034369209865267016 0 0.00046397824738775637 0.03432035477208794 0 0.00049074530422857842 0.034382731846645906 0 0.00046397824738775637 0.03432035477208794 0 0.00041444507156986147 0.03426067954276571 0 0.00043369267365464515 0.03433960142222512 0 0.00046397824738775637 0.03432035477208794 0 0.00043369267365464515 0.03433960142222512 0 0.00049074530422857842 0.034382731846645906 0 0.00046397824738775637 0.03432035477208794 0 0.00041444507156986147 0.03426067954276571 0 0.00044586322540328502 0.034232493144525977 0 0.00041444507156986147 0.03426067954276571 0 0.00044586322540328502 0.034232493144525977 0 0.0003964071887807568 0.034137947817522343 0 0.00044586322540328502 0.034232493144525977 0 0.00049160739244234416 0.034305178947794696 0 0.00050483445491120453 0.034207122513151757 0 0.00044586322540328502 0.034232493144525977 0 0.00050483445491120453 0.034207122513151757 0 0.00041770110177811516 0.03409745938667124 0 0.00046397824738775637 0.03432035477208794 0 0.00044586322540328502 0.034232493144525977 0 0.00049160739244234416 0.034305178947794696 0 0.00051200409301478157 0.034369209865267016 0 0.00046397824738775637 0.03432035477208794 0 0.00049160739244234416 0.034305178947794696 0 0.00049160739244234416 0.034305178947794696 0 0.00055800184441398711 0.034229531029228238 0 0.00050483445491120453 0.034207122513151757 0 0.0004625191074237177 0.033950908562974683 0 0.00055800184441398711 0.034229531029228238 0 0.00043963945381056218 0.034214023952010661 0 0.00017466113252752701 0.033857561605576812 0 0.0004625191074237177 0.033950908562974683 0 0.00043963945381056218 0.034214023952010661 0 0.00055800184441398711 0.034229531029228238 0 0.00043963945381056218 0.034214023952010661 0 0.00057082690935743145 0.034175553874452515 0 0.00023761710674165978 0.033694347361268764 0 0.00021228094070909425 0.033836713710958914 0 0.00014817122805625306 0.033628661339949489 0 0.00032297128570932509 0.033975741005965933 0 0.00035168677267976537 0.033914096938640927 0 0.00055800184441398711 0.034229531029228238 0 0.00050483445491120453 0.034207122513151757 0 0.00057082690935743145 0.034175553874452515 0 0.00050483445491120453 0.034207122513151757 0 0.00057082690935743145 0.034175553874452515 0 0.00041770110177811516 0.03409745938667124 0 0.00035168677267976537 0.033914096938640927 0 0.00035882225739196409 0.033866324128615871 0 0.00014817122805625306 0.033628661339949489 0 0.00014944807175540012 0.033662356797340101 0 0.0003714548099807266 0.033835844966168774 0 0.00057082690935743145 0.034175553874452515 0 0.0003714548099807266 0.033835844966168774 0 0.00041770110177811516 0.03409745938667124 0 0.0002060190888406899 0.033621904713156667 0 0.00023761710674165978 0.033694347361268764 0 0.00014817122805625306 0.033628661339949489 0 0.0002060190888406899 0.033621904713156667 0 0.00014817122805625306 0.033628661339949489 0 0.00014944807175540012 0.033662356797340101 0 0.0002060190888406899 0.033621904713156667 0 0.00015020279736291405 0.033600264288162714 0 0.00014944807175540012 0.033662356797340101 0 0.00021906741226506359 0.033465003711175015 0 0.0002060190888406899 0.033621904713156667 0 0.00015020279736291405 0.033600264288162714 0 0.00015020279736291405 0.033600264288162714 0 0.00014944807175540012 0.033662356797340101 0 8.896738048102649e-05 0.033659247751589343 0 8.631195630335128e-05 0.033415566493231637 0 0.00015020279736291405 0.033600264288162714 0 8.896738048102649e-05 0.033659247751589343 0 8.631195630335128e-05 0.033415566493231637 0 0.00021906741226506359 0.033465003711175015 0 0.00015020279736291405 0.033600264288162714 0 0.00014944807175540012 0.033662356797340101 0 8.896738048102649e-05 0.033659247751589343 0 0.0003714548099807266 0.033835844966168774 0 0.0001500688095249042 0.033872086130123553 0 8.896738048102649e-05 0.033659247751589343 0 0.0003714548099807266 0.033835844966168774 0 0.00036608199656712118 0.03408158874622317 0 0.00039298337385320026 0.033946782635292126 0 0.00038588999521348827 0.033996604201515908 0 0.0003714548099807266 0.033835844966168774 0 0.00038588999521348827 0.033996604201515908 0 0.00041770110177811516 0.03409745938667124 0 0.00039298337385320026 0.033946782635292126 0 0.0003714548099807266 0.033835844966168774 0 0.00038588999521348827 0.033996604201515908 0 0.00036608199656712118 0.03408158874622317 0 0.00038588999521348827 0.033996604201515908 0 0.00037048746116919768 0.03411648262065075 0 0.00036608199656712118 0.03408158874622317 0 0.00037048746116919768 0.03411648262065075 0 0.00035132364503513485 0.034190745669225621 0 0.00037048746116919768 0.03411648262065075 0 0.0003964071887807568 0.034137947817522343 0 0.00037560954632484257 0.034206760987945499 0 0.00038588999521348827 0.033996604201515908 0 0.00037048746116919768 0.03411648262065075 0 0.0003964071887807568 0.034137947817522343 0 0.00041444507156986147 0.03426067954276571 0 0.0003964071887807568 0.034137947817522343 0 0.00037560954632484257 0.034206760987945499 0 0.00044586322540328502 0.034232493144525977 0 0.0003964071887807568 0.034137947817522343 0 0.00041770110177811516 0.03409745938667124 0 0.00038588999521348827 0.033996604201515908 0 0.0003964071887807568 0.034137947817522343 0 0.00041770110177811516 0.03409745938667124 0 0.00035665430163624856 0.034242749727644219 0 0.00033780577690251058 0.034237269068745219 0 0.00033107035684490496 0.034315527074151149 0 0.00035665430163624856 0.034242749727644219 0 0.00037560954632484257 0.034206760987945499 0 0.00035132364503513485 0.034190745669225621 0 0.00035665430163624856 0.034242749727644219 0 0.00037560954632484257 0.034206760987945499 0 0.00038485544051287718 0.034312149125116397 0 0.00037048746116919768 0.03411648262065075 0 0.00037560954632484257 0.034206760987945499 0 0.00035132364503513485 0.034190745669225621 0 0.00036608199656712118 0.03408158874622317 0 0.00035132364503513485 0.034190745669225621 0 0.0003413449698083392 0.03429150717375009 0 0.00035665430163624856 0.034242749727644219 0 0.00035132364503513485 0.034190745669225621 0 0.0003413449698083392 0.03429150717375009 0 0.00035855750213490296 0.034196543696457818 0 0.00036357221623574849 0.034242095346838079 0 0.00035665430163624856 0.034242749727644219 0 0.0003413449698083392 0.03429150717375009 0 0.00033780577690251058 0.034237269068745219 0 0.00032731673258908783 0.034414145725298037 0 0.00027587088461162749 0.034474601246589402 0 0.000350535029024003 0.034377253537365218 0 0.0003413449698083392 0.03429150717375009 0 0.00033780577690251058 0.034237269068745219 0 0.00026454607157386478 0.034523837509389359 0 0.00025224084496409439 0.034700485513970508 0 0.00017885963397801406 0.034597617445073614 0 0.00026454607157386478 0.034523837509389359 0 0.000350535029024003 0.034377253537365218 0 0.00025224084496409439 0.034700485513970508 0 0.00025224084496409439 0.034700485513970508 0 0.00011767852169206984 0.034726722226642789 0 0.00017885963397801406 0.034597617445073614 0 0.00011767852169206984 0.034726722226642789 0 0.00017885963397801406 0.034597617445073614 0 8.9414422818637912e-05 0.034659120385680212 0 0.00027587088461162749 0.034474601246589402 0 0.00015317156807306712 0.034593235108422035 0 0.00025224084496409439 0.034700485513970508 0 0.00011767852169206984 0.034726722226642789 0 7.8833835882438402e-05 0.034813321320593574 0 0.00033780577690251058 0.034237269068745219 0 0.00033107035684490496 0.034315527074151149 0 0.00018785771008840899 0.034374357909166701 0 0.00033107035684490496 0.034315527074151149 0 0.00018785771008840899 0.034374357909166701 0 0.00031499934699880767 0.034440635818210628 0 0.00018785771008840899 0.034374357909166701 0 0.00020608338958440838 0.034583462208361233 0 0.00031499934699880767 0.034440635818210628 0 0.00020608338958440838 0.034583462208361233 0 0.00031499934699880767 0.034440635818210628 0 0.0003163319358666692 0.034554768166789783 0 0.00031499934699880767 0.034440635818210628 0 0.00040403239237358672 0.03441811834615003 0 0.00038485544051287718 0.034312149125116397 0 0.00033107035684490496 0.034315527074151149 0 0.00031499934699880767 0.034440635818210628 0 0.00038485544051287718 0.034312149125116397 0 0.00035665430163624856 0.034242749727644219 0 0.00033107035684490496 0.034315527074151149 0 0.00038485544051287718 0.034312149125116397 0 0.00041444507156986147 0.03426067954276571 0 0.00037560954632484257 0.034206760987945499 0 0.00038485544051287718 0.034312149125116397 0 0.00041444507156986147 0.03426067954276571 0 0.00038485544051287718 0.034312149125116397 0 0.00043369267365464515 0.03433960142222512 0 0.00040403239237358672 0.03441811834615003 0 0.00038485544051287718 0.034312149125116397 0 0.00043369267365464515 0.03433960142222512 0 0.00040403239237358672 0.03441811834615003 0 0.00043369267365464515 0.03433960142222512 0 0.00049074530422857842 0.034382731846645906 0 0.00057323611558424332 0.034395478409419783 0 0.00049074530422857842 0.034382731846645906 0 0.00048529801233074282 0.034450881854508515 0 0.00040403239237358672 0.03441811834615003 0 0.00049074530422857842 0.034382731846645906 0 0.00048529801233074282 0.034450881854508515 0 0.00040403239237358672 0.03441811834615003 0 0.00048529801233074282 0.034450881854508515 0 0.0003163319358666692 0.034554768166789783 0 0.00048529801233074282 0.034450881854508515 0 0.00040698556421269778 0.034597669629986144 0 0.0003163319358666692 0.034554768166789783 0 0.00070139575175274008 0.034369009050983293 0 0.00057323611558424332 0.034395478409419783 0 0.00048529801233074282 0.034450881854508515 0 0.00070139575175274008 0.034369009050983293 0 0.00048529801233074282 0.034450881854508515 0 0.00040698556421269778 0.034597669629986144 0 0.00070139575175274008 0.034369009050983293 0 0.00040698556421269778 0.034597669629986144 0 0.00054470676549099074 0.034759446727147342 0 0.00040698556421269778 0.034597669629986144 0 0.00054470676549099074 0.034759446727147342 0 0.00031227086762525817 0.034819230174044813 0 0.00080485131126140249 0.034345602033607911 0 0.00035556575491331303 0.034802935472236167 0 0.0007329900718236759 0.034386045043607219 0 0.00080485131126140249 0.034345602033607911 0 0.00016527361241200326 0.034886254186756345 0 0.00031227086762525817 0.034819230174044813 0 0.00021022512131899719 0.034735632163013404 0 0.00023659541250327148 0.034888732759425466 0 0.00035556575491331303 0.034802935472236167 0 0.00040698556421269778 0.034597669629986144 0 0.00031227086762525817 0.034819230174044813 0 0.00021022512131899719 0.034735632163013404 0 0.00021022512131899719 0.034735632163013404 0 0.0003163319358666692 0.034554768166789783 0 0.00017045606376324919 0.034679666828279068 0 0.00040698556421269778 0.034597669629986144 0 0.00021022512131899719 0.034735632163013404 0 0.0003163319358666692 0.034554768166789783 0 0.00031499934699880767 0.034440635818210628 0 0.00040403239237358672 0.03441811834615003 0 0.0003163319358666692 0.034554768166789783 0 0.00020608338958440838 0.034583462208361233 0 0.0003163319358666692 0.034554768166789783 0 0.00017045606376324919 0.034679666828279068 0 0.00020608338958440838 0.034583462208361233 0 0.00017045606376324919 0.034679666828279068 0 5.1912184488098633e-05 0.034740214750045885 0 9.2938315605775953e-05 0.034789119287160941 0 2.5611143059666282e-05 0.034876403334772876 0 5.1912184488098633e-05 0.034740214750045885 0 0.00017045606376324919 0.034679666828279068 0 9.2938315605775953e-05 0.034789119287160941 0 5.1912184488098633e-05 0.034740214750045885 0 9.2938315605775953e-05 0.034789119287160941 0 3.2336632275216297e-05 0.034899562732688891 0 2.5611143059666282e-05 0.034876403334772876 0 0.00021022512131899719 0.034735632163013404 0 0.00017045606376324919 0.034679666828279068 0 9.2938315605775953e-05 0.034789119287160941 0 0.00016527361241200326 0.034886254186756345 0 0.00021022512131899719 0.034735632163013404 0 8.8213026006524154e-05 0.034861649474367019 0 0.00021022512131899719 0.034735632163013404 0 9.2938315605775953e-05 0.034789119287160941 0 8.8213026006524154e-05 0.034861649474367019 0 9.2938315605775953e-05 0.034789119287160941 0 8.8213026006524154e-05 0.034861649474367019 0 3.2336632275216297e-05 0.034899562732688891 0 8.8213026006524154e-05 0.034861649474367019 0 3.6052786436068706e-05 0.034928756748693904 0 3.2336632275216297e-05 0.034899562732688891 0 8.8213026006524154e-05 0.034861649474367019 0 6.063128207072898e-05 0.034938933512904793 0 3.6052786436068706e-05 0.034928756748693904 0 0.00016527361241200326 0.034886254186756345 0 8.8213026006524154e-05 0.034861649474367019 0 6.063128207072898e-05 0.034938933512904793 0 0.00023659541250327148 0.034888732759425466 0 0.00010462077465067596 0.034931311888782964 0 6.4972138693751248e-09 0.034999935766126151 0 7.2791442560890011e-06 0.034978707942164261 0 9.8097678560806028e-06 0.034961666269104526 0 7.2791442560890011e-06 0.034978707942164261 0 3.6052786436068706e-05 0.034928756748693904 0 9.8097678560806028e-06 0.034961666269104526 0 6.063128207072898e-05 0.034938933512904793 0 7.2791442560890011e-06 0.034978707942164261 0 3.6052786436068706e-05 0.034928756748693904 0 0.00010462077465067596 0.034931311888782964 0 2.7150992045491822e-05 0.034956401330515204 0 0.00014849342367303896 0.034924510989067604 0 7.2791442560890011e-06 0.034978707942164261 0 7.2959842952057064e-05 0.034977288021892303 0 3.6052786436068706e-05 0.034928756748693904 0 3.2336632275216297e-05 0.034899562732688891 0 9.8097678560806028e-06 0.034961666269104526 0 3.2336632275216297e-05 0.034899562732688891 0 9.8097678560806028e-06 0.034961666269104526 0 -2.146166928944621e-09 0.034999881631542287 0 6.4972138693751248e-09 0.034999935766126151 0 9.8097678560806028e-06 0.034961666269104526 0 -2.146166928944621e-09 0.034999881631542287 0 3.2336632275216297e-05 0.034899562732688891 0 -2.146166928944621e-09 0.034999881631542287 0 2.5611143059666282e-05 0.034876403334772876 0 -2.146166928944621e-09 0.034999881631542287 0 2.5611143059666282e-05 0.034876403334772876 0 1.7556037941594363e-08 0.034999844697524325 0 2.5611143059666282e-05 0.034876403334772876 0 1.7556037941594363e-08 0.034999844697524325 0 1.8606731244540933e-05 0.034893056804113726 0 1.7556037941594363e-08 0.034999844697524325 0 1.8606731244540933e-05 0.034893056804113726 0 -1.6576583049832177e-10 0.034999856674679523 0 1.8606731244540933e-05 0.034893056804113726 0 -1.6576583049832177e-10 0.034999856674679523 0 1.4871030805233878e-05 0.034876452370751057 0 2.5611143059666282e-05 0.034876403334772876 0 1.8606731244540933e-05 0.034893056804113726 0 5.1912184488098633e-05 0.034740214750045885 0 5.1912184488098633e-05 0.034740214750045885 0 2.7610401075521537e-05 0.034825681862953366 0 1.4871030805233878e-05 0.034876452370751057 0 7.8833835882438402e-05 0.034813321320593574 0 5.1912184488098633e-05 0.034740214750045885 0 2.7610401075521537e-05 0.034825681862953366 0 0.00018785771008840899 0.034374357909166701 0 0.00020608338958440838 0.034583462208361233 0 5.1912184488098633e-05 0.034740214750045885 0 0.00015317156807306712 0.034593235108422035 0 7.3783743391095055e-05 0.034693083664566207 0 1.8606731244540933e-05 0.034893056804113726 0 5.1912184488098633e-05 0.034740214750045885 0 1.4871030805233878e-05 0.034876452370751057 0 2.7610401075521537e-05 0.034825681862953366 0 -4.3589080381286634e-05 0.034837500059436331 0 1.4871030805233878e-05 0.034876452370751057 0 0.00011767852169206984 0.034726722226642789 0 7.8833835882438402e-05 0.034813321320593574 0 2.7610401075521537e-05 0.034825681862953366 0 4.7150957428349559e-06 0.034727914097665652 0 2.7610401075521537e-05 0.034825681862953366 0 8.9414422818637912e-05 0.034659120385680212 0 0.00011767852169206984 0.034726722226642789 0 2.7610401075521537e-05 0.034825681862953366 0 8.9414422818637912e-05 0.034659120385680212 0 4.7150957428349559e-06 0.034727914097665652 0 2.7610401075521537e-05 0.034825681862953366 0 -4.3589080381286634e-05 0.034837500059436331 0 -1.8519358946162852e-05 0.034932207440622892 0 -4.3589080381286634e-05 0.034837500059436331 0 -5.1579926126250954e-06 0.034921459853336494 0 -4.3589080381286634e-05 0.034837500059436331 0 -5.1579926126250954e-06 0.034921459853336494 0 1.4871030805233878e-05 0.034876452370751057 0 1.141855679994162e-08 0.034999880791624402 0 -5.1579926126250954e-06 0.034921459853336494 0 -1.6576583049832177e-10 0.034999856674679523 0 1.141855679994162e-08 0.034999880791624402 0 -4.1598681221780353e-06 0.03496359698115991 0 -5.1579926126250954e-06 0.034921459853336494 0 -5.1579926126250954e-06 0.034921459853336494 0 -1.6576583049832177e-10 0.034999856674679523 0 1.4871030805233878e-05 0.034876452370751057 0 -0.0027242292915166974 0.017726818319946543 0 -0.0027436024169509572 0.017723057374548025 0 -0.0027239628846667846 0.017750430915102422 0 -0.0027436024169509572 0.017723057374548025 0 -0.0027239628846667846 0.017750430915102422 0 -0.0027545520949692763 0.017752560954125782 0 -0.0027239628846667846 0.017750430915102422 0 -0.0027545520949692763 0.017752560954125782 0 -0.0027242562415443219 0.017803987729321319 0 -0.0027239628846667846 0.017750430915102422 0 -0.0027176434329164059 0.017734132813911459 0 -0.0027221532440726243 0.017761382887401714 0 -0.0027176434329164059 0.017734132813911459 0 -0.0027221532440726243 0.017761382887401714 0 -0.0027133905857645402 0.01773348137829606 0 -0.0027176434329164059 0.017734132813911459 0 -0.0027082689192268836 0.01771497865292572 0 -0.0027133905857645402 0.01773348137829606 0 -0.0027187657710965973 0.017721141970127533 0 -0.0027176434329164059 0.017734132813911459 0 -0.0027082689192268836 0.01771497865292572 0 -0.0027242292915166974 0.017726818319946543 0 -0.0027187657710965973 0.017721141970127533 0 -0.0027176434329164059 0.017734132813911459 0 -0.0027242292915166974 0.017726818319946543 0 -0.0027239628846667846 0.017750430915102422 0 -0.0027176434329164059 0.017734132813911459 0 -0.0027082689192268836 0.01771497865292572 0 -0.0027245202562294784 0.017708568164686397 0 -0.0026955627320791125 0.017706298967102938 0 -0.0013507119200938471 0.012176569827128766 0 -0.0031503065199581406 0.012672211180374249 0 0.00044968362442959211 0.012868962277703325 0 -0.0032123705337168498 0.015425985183444254 0 -0.0014966616489659587 0.013951556649169663 0 -0.0027187657710965973 0.017721141970127533 0 -0.0027082689192268836 0.01771497865292572 0 -0.0027245202562294784 0.017708568164686397 0 -0.0013507119200938471 0.012176569827128766 0 -0.00029769868840790939 0.011744164154272686 0 -0.0010241014171386833 0.011284450745400193 0 -0.0013507119200938471 0.012176569827128766 0 -0.0019999770738362613 0.011103788270838563 0 -0.0010241014171386833 0.011284450745400193 0 -0.0013507119200938471 0.012176569827128766 0 -0.0023310227504426497 0.012229082696863108 0 -0.0031503065199581406 0.012672211180374249 0 -0.0013507119200938471 0.012176569827128766 0 -0.0023310227504426497 0.012229082696863108 0 -0.0019999770738362613 0.011103788270838563 0 -0.0023310227504426497 0.012229082696863108 0 -0.0026418120085990072 0.011619192210999416 0 -0.0019999770738362613 0.011103788270838563 0 -0.0023310227504426497 0.012229082696863108 0 -0.0026418120085990072 0.011619192210999416 0 -0.0028383512486940161 0.012219646469118136 0 -0.003204346796157922 0.012243644649240971 0 -0.0031503065199581406 0.012672211180374249 0 -0.0048705237175262605 0.012630437176401206 0 -0.0026418120085990072 0.011619192210999416 0 -0.003204346796157922 0.012243644649240971 0 -0.0028383512486940161 0.012219646469118136 0 -0.0023310227504426497 0.012229082696863108 0 -0.0028383512486940161 0.012219646469118136 0 -0.0031503065199581406 0.012672211180374249 0 -0.003204346796157922 0.012243644649240971 0 -0.0028383512486940161 0.012219646469118136 0 -0.0031503065199581406 0.012672211180374249 0 -0.0027242292915166974 0.017726818319946543 0 -0.0027436024169509572 0.017723057374548025 0 -0.0027245202562294784 0.017708568164686397 0 -0.0027242292915166974 0.017726818319946543 0 -0.0027187657710965973 0.017721141970127533 0 -0.0027245202562294784 0.017708568164686397 0 -0.0032123705337168498 0.015425985183444254 0 -0.0010507187097989971 0.020491668608845461 0 -0.0027436024169509572 0.017723057374548025 0 -0.0027245202562294784 0.017708568164686397 0 -0.0028234506585737618 0.017649638237904074 0 -0.0010507187097989971 0.020491668608845461 0 -0.00063192155422860552 0.016366453873002538 0 -0.003204346796157922 0.012243644649240971 0 -0.0048705237175262605 0.012630437176401206 0 -0.0038202259614581531 0.011570498664742952 0 0.0017150706084000399 0.021260158746600595 0 0.0014911676360404415 0.02101988586340724 0 0.0012751327660262648 0.021279893297323542 0 -0.0010507187097989971 0.020491668608845461 0 0.0012686139602798637 0.025374450267735583 0 -0.0010507187097989971 0.020491668608845461 0 -0.001584215596133656 0.024099902516690419 0 -0.0028234506585737618 0.017649638237904074 0 -0.0027935652935368212 0.01780989090937991 0 -0.0029859313838242769 0.017695351435000582 0 -0.0028234506585737618 0.017649638237904074 0 -0.0027545520949692763 0.017752560954125782 0 -0.0027935652935368212 0.01780989090937991 0 -0.0027436024169509572 0.017723057374548025 0 -0.0028234506585737618 0.017649638237904074 0 -0.0027545520949692763 0.017752560954125782 0 -0.0027545520949692763 0.017752560954125782 0 -0.0027935652935368212 0.01780989090937991 0 -0.0027242562415443219 0.017803987729321319 0 -0.0027935652935368212 0.01780989090937991 0 -0.0027310378281678541 0.017880778079070448 0 -0.0027242562415443219 0.017803987729321319 0 -0.0027935652935368212 0.01780989090937991 0 -0.0027164524209452143 0.018008763002476044 0 -0.0029749364987255132 0.017903566987754079 0 -0.0027935652935368212 0.01780989090937991 0 -0.0029859313838242769 0.017695351435000582 0 -0.0029749364987255132 0.017903566987754079 0 -0.0027164524209452143 0.018008763002476044 0 -0.0029749364987255132 0.017903566987754079 0 -0.0031448202693109138 0.018310893500380308 0 -0.0027164524209452143 0.018008763002476044 0 -0.0027310378281678541 0.017880778079070448 0 -0.0027388892975573321 0.017837117588847134 0 -0.0027935652935368212 0.01780989090937991 0 -0.0027164524209452143 0.018008763002476044 0 -0.0027310378281678541 0.017880778079070448 0 -0.0027310378281678541 0.017880778079070448 0 -0.0027404922910907953 0.017799209029477896 0 -0.0027388892975573321 0.017837117588847134 0 -0.0027310378281678541 0.017880778079070448 0 -0.0027404922910907953 0.017799209029477896 0 -0.0027242562415443219 0.017803987729321319 0 -0.0027239628846667846 0.017750430915102422 0 -0.0027242562415443219 0.017803987729321319 0 -0.0027221532440726243 0.017761382887401714 0 -0.0027242562415443219 0.017803987729321319 0 -0.0027221532440726243 0.017761382887401714 0 -0.0027369874000956872 0.017776846109579744 0 -0.0027404922910907953 0.017799209029477896 0 -0.0027242562415443219 0.017803987729321319 0 -0.0027369874000956872 0.017776846109579744 0 -0.0027404922910907953 0.017799209029477896 0 -0.0027369874000956872 0.017776846109579744 0 -0.0027570857329492103 0.017763639432805345 0 -0.0027369874000956872 0.017776846109579744 0 -0.0027445298318459288 0.017768349035166327 0 -0.0027570857329492103 0.017763639432805345 0 -0.0025311652070970506 0.015464457582677959 0 -0.0017520507793020463 0.015527823447831981 0 -0.0020502889094264607 0.016211863440407856 0 -0.0025311652070970506 0.015464457582677959 0 -0.0017520507793020463 0.015527823447831981 0 -0.0023287065414464136 0.014586139384822594 0 -0.0027445298318459288 0.017768349035166327 0 -0.0027224568141349785 0.017752742883444757 0 -0.0026992894059933862 0.017733723375334305 0 -0.0026082145046844125 0.016740109081770843 0 -0.001866823317773991 0.01501616532749913 0 -0.0027369874000956872 0.017776846109579744 0 -0.0027445298318459288 0.017768349035166327 0 -0.0027224568141349785 0.017752742883444757 0 -0.0027221532440726243 0.017761382887401714 0 -0.0027369874000956872 0.017776846109579744 0 -0.0027224568141349785 0.017752742883444757 0 -0.00032135764811111087 0.0085911497584089634 0 -0.00027159197580185225 0.0084006614022712998 0 -0.00096840327951014653 0.015819081663017247 0 -0.0017520507793020463 0.015527823447831981 0 -0.0014484546942483648 0.01456305289663757 0 -0.00096840327951014653 0.015819081663017247 0 -0.0017520507793020463 0.015527823447831981 0 -0.0015149455588870538 0.016190159844354981 0 -0.0017520507793020463 0.015527823447831981 0 -0.0014484546942483648 0.01456305289663757 0 -0.0026100676953132477 0.014104741210882156 0 -0.0019709284131315809 0.015134618755070764 0 -0.001866823317773991 0.01501616532749913 0 0.00033884217426891614 0.0013896893073071094 0 0.00085536312965015784 0.0023196676168166365 0 0.00033535543840587141 0.002161473400627863 0 0.00085536312965015784 0.0023196676168166365 0 0.00033535543840587141 0.002161473400627863 0 0.00047801362325751863 0.0026958501616345261 0 9.3048931898135761e-05 0.0025224064943444317 0 0.00033535543840587141 0.002161473400627863 0 0.00047801362325751863 0.0026958501616345261 0 0.00085536312965015784 0.0023196676168166365 0 0.00047801362325751863 0.0026958501616345261 0 0.0008274050595843222 0.0029224769272323901 0 0.00011385736542374492 0.0028839105725086043 0 0.00047801362325751863 0.0026958501616345261 0 0.00049775298687601208 0.0032231128468701922 0 0.00047801362325751863 0.0026958501616345261 0 0.0008274050595843222 0.0029224769272323901 0 0.00049775298687601208 0.0032231128468701922 0 -0.00027159197580185225 0.0084006614022712998 0 0.00023729367273091985 0.0079351604382019124 0 -0.0014484546942483648 0.01456305289663757 0 -0.0021261826321999915 0.013138650339452914 0 -0.0026100676953132477 0.014104741210882156 0 0.00085536312965015784 0.0023196676168166365 0 0.0008274050595843222 0.0029224769272323901 0 0.0013340389264003233 0.0032670729706160847 0 0.0016103913232030267 0.0033393738318126922 0 0.0010168887178715403 0.0037086302594534363 0 0.00066585302715806345 0.0032898337499439119 0 0.00023729367273091985 0.0079351604382019124 0 0.00063519331421258156 0.0040646343472662549 0 0.0008274050595843222 0.0029224769272323901 0 0.0013340389264003233 0.0032670729706160847 0 0.00049775298687601208 0.0032231128468701922 0 0.0016103913232030267 0.0033393738318126922 0 0.0020387330295485997 0.0041803186052578271 0 0.0013923496371588265 0.0039366721448216352 0 0.0016103913232030267 0.0033393738318126922 0 0.0010168887178715403 0.0037086302594534363 0 0.0013923496371588265 0.0039366721448216352 0 0.0010168887178715403 0.0037086302594534363 0 0.00062746186122445173 0.0037853003260776676 0 0.00066585302715806345 0.0032898337499439119 0 0.00018786916132611893 0.0035122435384119621 0 0.00062746186122445173 0.0037853003260776676 0 0.00066585302715806345 0.0032898337499439119 0 -0.0027224568141349785 0.017752742883444757 0 -0.0027099239046503324 0.017725716202859051 0 -0.0026992894059933862 0.017733723375334305 0 -0.0027099239046503324 0.017725716202859051 0 -0.0027133905857645402 0.01773348137829606 0 -0.0027092905084465176 0.017703503576808794 0 -0.0027082689192268836 0.01771497865292572 0 -0.0027133905857645402 0.01773348137829606 0 -0.0026955627320791125 0.017706298967102938 0 -0.0030375815893657881 0.01696451637928291 0 -0.0014966616489659587 0.013951556649169663 0 -0.0027224568141349785 0.017752742883444757 0 -0.0027099239046503324 0.017725716202859051 0 -0.0027133905857645402 0.01773348137829606 0 -0.0027221532440726243 0.017761382887401714 0 -0.0027224568141349785 0.017752742883444757 0 -0.0027133905857645402 0.01773348137829606 0 -0.001866823317773991 0.01501616532749913 0 -0.00076388262207696905 0.010257738461770553 0 -0.0027099239046503324 0.017725716202859051 0 -0.0026992894059933862 0.017733723375334305 0 -0.0027017090754338051 0.017701963459447839 0 -0.0021261826321999915 0.013138650339452914 0 -0.0026100676953132477 0.014104741210882156 0 -0.0023935183743419393 0.013133994208246428 0 -0.001866823317773991 0.01501616532749913 0 -0.0010469948049386486 0.013008977348372929 0 -0.0014581423032626812 0.013387989410431841 0 -0.0012650258708962791 0.012534361990713509 0 -0.0019615673444548592 0.012525966139831144 0 0.00023729367273091985 0.0079351604382019124 0 0.00079117205434670144 0.0075974256772144968 0 7.3677990331424688e-05 0.0096501571340269383 0 -0.00021994131359703566 0.0096792633284075932 0 -0.00014310396572699778 0.0098097277823472606 0 0.0004468555878301581 0.0098101014959304407 0 0.00029760793153852381 0.0098095187520635136 0 0.00012713422414843939 0.0091801611590960255 0 0.00029760793153852381 0.0098095187520635136 0 7.3677990331424688e-05 0.0096501571340269383 0 0.00012713422414843939 0.0091801611590960255 0 0.00029760793153852381 0.0098095187520635136 0 7.3677990331424688e-05 0.0096501571340269383 0 -0.00014310396572699778 0.0098097277823472606 0 -0.00076388262207696905 0.010257738461770553 0 -0.0010469948049386486 0.013008977348372929 0 0.00023729367273091985 0.0079351604382019124 0 -0.00076388262207696905 0.010257738461770553 0 7.3677990331424688e-05 0.0096501571340269383 0 -0.00021994131359703566 0.0096792633284075932 0 0.00012713422414843939 0.0091801611590960255 0 0.00081243636768626678 0.012367182482200402 0 0.00044968362442959211 0.012868962277703325 0 -0.00029769868840790939 0.011744164154272686 0 -0.00081953676035118018 0.012074848703692926 0 -0.0010469948049386486 0.013008977348372929 0 -0.0010469948049386486 0.013008977348372929 0 -0.0014966616489659587 0.013951556649169663 0 -0.0027099239046503324 0.017725716202859051 0 -0.0027017090754338051 0.017701963459447839 0 -0.0027092905084465176 0.017703503576808794 0 -0.00079442689098225801 0.014253225311024886 0 -0.0014997395018839358 0.013064655353513708 0 1.9924058437174114e-05 0.013089716764162851 0 -0.00081953676035118018 0.012074848703692926 0 -0.0014966616489659587 0.013951556649169663 0 -0.0013507119200938471 0.012176569827128766 0 0.00044968362442959211 0.012868962277703325 0 -0.00029769868840790939 0.011744164154272686 0 -0.00029769868840790939 0.011744164154272686 0 -0.00043872475544690488 0.010086449386911165 0 -0.0010241014171386833 0.011284450745400193 0 -1.1283755563284334e-05 0.010752791112237169 0 -0.0009201169008307711 0.0092101534139769747 0 -2.2365723055254173e-05 0.0092300431287277735 0 0.00081243636768626678 0.012367182482200402 0 -0.00029769868840790939 0.011744164154272686 0 -0.00043872475544690488 0.010086449386911165 0 -0.00081953676035118018 0.012074848703692926 0 -0.00095927568407545947 0.0097716937100558749 0 -0.0009201169008307711 0.0092101534139769747 0 -2.2365723055254173e-05 0.0092300431287277735 0 -0.00044472875602963086 0.0084592604866833131 0 -1.1283755563284334e-05 0.010752791112237169 0 -2.2365723055254173e-05 0.0092300431287277735 0 0.00093293509746266497 0.0094083665260776481 0 -0.00081953676035118018 0.012074848703692926 0 0.00079117205434670144 0.0075974256772144968 0 0.00079117205434670144 0.0075974256772144968 0 0.0015206375655068183 0.0063119650930064516 0 -2.2365723055254173e-05 0.0092300431287277735 0 0.00093293509746266497 0.0094083665260776481 0 0.00041014509135254 0.0083755651894903901 0 0.00079117205434670144 0.0075974256772144968 0 0.00091604897437759828 0.0083435832971328443 0 0.00041014509135254 0.0083755651894903901 0 0.00099683011967833645 0.0074841103590918574 0 0.0018503244449668112 0.0081392327133437466 0 0.00095215622453697919 0.0094160615629435163 0 0.00041014509135254 0.0083755651894903901 0 0.0018503244449668112 0.0081392327133437466 0 0.00099683011967833645 0.0074841103590918574 0 0.0018503244449668112 0.0081392327133437466 0 0.0013335346062867855 0.0064343047775706503 0 0.00041014509135254 0.0083755651894903901 0 0.00099683011967833645 0.0074841103590918574 0 0.00039395156438697809 0.0069809504695632352 0 0.00041014509135254 0.0083755651894903901 0 -0.00052419130429858516 0.007443183340918434 0 0.00039395156438697809 0.0069809504695632352 0 -0.00052419130429858516 0.007443183340918434 0 -0.00094939382736392822 0.0082249807138181311 0 -0.00044472875602963086 0.0084592604866833131 0 -0.00052419130429858516 0.007443183340918434 0 -0.00094939382736392822 0.0082249807138181311 0 -0.0018925099140286855 0.0077493471641993704 0 -0.0009201169008307711 0.0092101534139769747 0 -0.00094939382736392822 0.0082249807138181311 0 -0.00044472875602963086 0.0084592604866833131 0 -2.2365723055254173e-05 0.0092300431287277735 0 0.00041014509135254 0.0083755651894903901 0 -0.00044472875602963086 0.0084592604866833131 0 0.00041014509135254 0.0083755651894903901 0 -0.00052419130429858516 0.007443183340918434 0 -0.00044472875602963086 0.0084592604866833131 0 1.4462642762584595e-05 0.0043010723130380794 0 0.000781806516493733 0.0041975914198904198 0 0.00036039607772055761 0.0046543649869601684 0 0.00017495893029963435 0.0039359718998195703 0 0.00062746186122445173 0.0037853003260776676 0 0.000781806516493733 0.0041975914198904198 0 0.0010168887178715403 0.0037086302594534363 0 0.00062746186122445173 0.0037853003260776676 0 0.000781806516493733 0.0041975914198904198 0 0.000781806516493733 0.0041975914198904198 0 0.0013137301330935392 0.0044019332254308314 0 0.00084640766227851521 0.0048126613729241605 0 0.0020387330295485997 0.0041803186052578271 0 0.0013137301330935392 0.0044019332254308314 0 0.0016176925604061863 0.004776963089485377 0 0.0020387330295485997 0.0041803186052578271 0 0.0013137301330935392 0.0044019332254308314 0 0.0013923496371588265 0.0039366721448216352 0 0.000781806516493733 0.0041975914198904198 0 0.0013137301330935392 0.0044019332254308314 0 0.0013923496371588265 0.0039366721448216352 0 0.0010168887178715403 0.0037086302594534363 0 0.000781806516493733 0.0041975914198904198 0 0.0013923496371588265 0.0039366721448216352 0 0.0016176925604061863 0.004776963089485377 0 0.00084640766227851521 0.0048126613729241605 0 0.001194661494003497 0.0053781551733306787 0 0.0013137301330935392 0.0044019332254308314 0 0.0016176925604061863 0.004776963089485377 0 0.00084640766227851521 0.0048126613729241605 0 0.0015206375655068183 0.0063119650930064516 0 0.00092844328839590811 0.0060323397751589989 0 0.00016902631882703703 0.0050731618712299992 0 0.00084640766227851521 0.0048126613729241605 0 0.00036039607772055761 0.0046543649869601684 0 0.00016902631882703703 0.0050731618712299992 0 0.00084640766227851521 0.0048126613729241605 0 0.001194661494003497 0.0053781551733306787 0 0.000781806516493733 0.0041975914198904198 0 0.00084640766227851521 0.0048126613729241605 0 0.00036039607772055761 0.0046543649869601684 0 5.5338526238234796e-05 0.0055029518183725553 0 0.00030996353160467571 0.0054511551179005158 0 0.00014469702710936833 0.0056498606738224618 0 -4.6914049023908717e-05 0.0051774881841329754 0 0.00092844328839590811 0.0060323397751589989 0 -4.6031578371202223e-05 0.0052043915985664655 0 5.5338526238234796e-05 0.0055029518183725553 0 0.00030996353160467571 0.0054511551179005158 0 0.00012309750010261906 0.0058138971446168603 0 9.6468440500672694e-05 0.0057214345715418244 0 0.00014469702710936833 0.0056498606738224618 0 0.0018503244449668112 0.0081392327133437466 0 0.0027495204713817653 0.006845083552490216 0 0.0013335346062867855 0.0064343047775706503 0 0.00012309750010261906 0.0058138971446168603 0 9.6468440500672694e-05 0.0057214345715418244 0 1.5439034539525864e-05 0.0059035633359268268 0 0.00092844328839590811 0.0060323397751589989 0 0.00064609163575350215 0.0059577807104196226 0 0.00092844328839590811 0.0060323397751589989 0 0.00064344594826025382 0.0061084351690870904 0 6.8710651789954038e-05 0.005669257372374858 0 7.8474202559008732e-05 0.0056856409014728777 0 9.6468440500672694e-05 0.0057214345715418244 0 7.8474202559008732e-05 0.0056856409014728777 0 9.6468440500672694e-05 0.0057214345715418244 0 0.00014469702710936833 0.0056498606738224618 0 -2.5262843821460903e-05 0.0056646207713159256 0 7.8474202559008732e-05 0.0056856409014728777 0 1.2702790964848836e-05 0.005625168055614623 0 7.8474202559008732e-05 0.0056856409014728777 0 0.00014469702710936833 0.0056498606738224618 0 1.2702790964848836e-05 0.005625168055614623 0 5.5338526238234796e-05 0.0055029518183725553 0 0.00014469702710936833 0.0056498606738224618 0 1.2702790964848836e-05 0.005625168055614623 0 -0.00052419130429858516 0.007443183340918434 0 -0.00045881526097133336 0.0060191706527239911 0 -0.0018925099140286855 0.0077493471641993704 0 -0.00021242077949519035 0.0060232881790167423 0 -0.0002094137389734019 0.0065942277916980607 0 0.00039395156438697809 0.0069809504695632352 0 -0.00021242077949519035 0.0060232881790167423 0 -0.00045881526097133336 0.0060191706527239911 0 -0.0002094137389734019 0.0065942277916980607 0 -0.00052419130429858516 0.007443183340918434 0 -0.00045881526097133336 0.0060191706527239911 0 -0.0002094137389734019 0.0065942277916980607 0 -0.00052419130429858516 0.007443183340918434 0 -0.0002094137389734019 0.0065942277916980607 0 0.00039395156438697809 0.0069809504695632352 0 0.00099683011967833645 0.0074841103590918574 0 0.00039395156438697809 0.0069809504695632352 0 0.0013335346062867855 0.0064343047775706503 0 -0.00021242077949519035 0.0060232881790167423 0 0.00039395156438697809 0.0069809504695632352 0 0.0013335346062867855 0.0064343047775706503 0 0.00010423749746838545 0.0060101975602547611 0 0.00064344594826025382 0.0061084351690870904 0 6.8710651789954038e-05 0.005669257372374858 0 9.6468440500672694e-05 0.0057214345715418244 0 1.5439034539525864e-05 0.0059035633359268268 0 6.8710651789954038e-05 0.005669257372374858 0 -0.00021242077949519035 0.0060232881790167423 0 1.5439034539525864e-05 0.0059035633359268268 0 6.8710651789954038e-05 0.005669257372374858 0 -0.00021242077949519035 0.0060232881790167423 0 -0.00045881526097133336 0.0060191706527239911 0 0.0010310808083830144 0.011946487087281677 0 0.0011463481551934342 0.011791358000459638 0 0.0019774272167460494 0.018153412023307558 0 0.0024371695264029996 0.017556329090162248 0 0.0024990150237516368 0.018022230306150064 0 0.0024371695264029996 0.017556329090162248 0 0.0024990150237516368 0.018022230306150064 0 0.002835501575475967 0.017708192665463647 0 0.0026862824848542426 0.018359275604356868 0 0.0024990150237516368 0.018022230306150064 0 0.002835501575475967 0.017708192665463647 0 0.0022520662557540178 0.019851108980775984 0 0.0024357974925299469 0.020134098040980417 0 0.0021760515002240653 0.020254440851361737 0 0.0022520662557540178 0.019851108980775984 0 0.0021760515002240653 0.020254440851361737 0 0.0019762239138339517 0.020037270863054867 0 0.0021760515002240653 0.020254440851361737 0 0.0023402732170071986 0.020584650256334543 0 0.0019567131237972586 0.020450835405717193 0 0.0021760515002240653 0.020254440851361737 0 0.0019567131237972586 0.020450835405717193 0 0.0019762239138339517 0.020037270863054867 0 0.0011463481551934342 0.011791358000459638 0 1.6629290840020293e-05 0.014438645685078879 0 0.0024357974925299469 0.020134098040980417 0 0.0021760515002240653 0.020254440851361737 0 0.0023402732170071986 0.020584650256334543 0 0.0024371695264029996 0.017556329090162248 0 0.002835501575475967 0.017708192665463647 0 0.0029647789618626429 0.016954880938458483 0 -0.00045881526097133336 0.0060191706527239911 0 -0.0024909541167815455 0.008048724169448641 0 -0.0018925099140286855 0.0077493471641993704 0 0.0021597994999905932 0.019230778445872121 0 1.6629290840020293e-05 0.014438645685078879 0 -0.0009201169008307711 0.0092101534139769747 0 -0.00094939382736392822 0.0082249807138181311 0 -0.0018925099140286855 0.0077493471641993704 0 -0.00043872475544690488 0.010086449386911165 0 -0.001803757059214978 0.0093553251134544154 0 -0.0018925099140286855 0.0077493471641993704 0 -0.00095927568407545947 0.0097716937100558749 0 -0.0016507097540192973 0.0083004164235048351 0 1.6629290840020293e-05 0.014438645685078879 0 -0.0017716159959044275 0.01118630427812789 0 -0.001803757059214978 0.0093553251134544154 0 -0.0024909541167815455 0.008048724169448641 0 -0.0029573975460663181 0.010135712357682791 0 -0.001803757059214978 0.0093553251134544154 0 -0.0024909541167815455 0.008048724169448641 0 -0.0018925099140286855 0.0077493471641993704 0 0.0023402732170071986 0.020584650256334543 0 0.00202576889513731 0.020922166567896555 0 0.0019567131237972586 0.020450835405717193 0 1.6629290840020293e-05 0.014438645685078879 0 -0.00063192155422860552 0.016366453873002538 0 -0.0028534951830805171 0.010674957194147809 0 -0.0030455216588493178 0.011449295098306634 0 -0.0038202259614581531 0.011570498664742952 0 -0.003204346796157922 0.012243644649240971 0 -0.0030455216588493178 0.011449295098306634 0 -0.0038202259614581531 0.011570498664742952 0 -0.0026418120085990072 0.011619192210999416 0 -0.003204346796157922 0.012243644649240971 0 -0.0029573975460663181 0.010135712357682791 0 -0.0024387777615482351 0.011814096590730546 0 -0.0017716159959044275 0.01118630427812789 0 -0.0026418120085990072 0.011619192210999416 0 -0.0029573975460663181 0.010135712357682791 0 -0.0019999770738362613 0.011103788270838563 0 -0.00043872475544690488 0.010086449386911165 0 -0.0019999770738362613 0.011103788270838563 0 -0.0010241014171386833 0.011284450745400193 0 -0.00043872475544690488 0.010086449386911165 0 -0.001803757059214978 0.0093553251134544154 0 -0.0019999770738362613 0.011103788270838563 0 -0.001803757059214978 0.0093553251134544154 0 -0.0029573975460663181 0.010135712357682791 0 -0.0019999770738362613 0.011103788270838563 0 0.0017150706084000399 0.021260158746600595 0 0.0014911676360404415 0.02101988586340724 0 0.00202576889513731 0.020922166567896555 0 0.0014911676360404415 0.02101988586340724 0 0.00202576889513731 0.020922166567896555 0 0.0015991560523495763 0.020677598684044278 0 0.00202576889513731 0.020922166567896555 0 0.0015991560523495763 0.020677598684044278 0 0.0019567131237972586 0.020450835405717193 0 0.0015991560523495763 0.020677598684044278 0 0.0016270518427110746 0.02022284045492543 0 0.0014018885823624326 0.020441533987156049 0 0.0015991560523495763 0.020677598684044278 0 0.0019567131237972586 0.020450835405717193 0 0.0016270518427110746 0.02022284045492543 0 0.0019567131237972586 0.020450835405717193 0 0.0019762239138339517 0.020037270863054867 0 0.0016270518427110746 0.02022284045492543 0 0.0017327669678789629 0.019916483112682966 0 0.0019762239138339517 0.020037270863054867 0 0.0016270518427110746 0.02022284045492543 0 0.0014600741285159214 0.019801825276644692 0 0.0017327669678789629 0.019916483112682966 0 0.0016270518427110746 0.02022284045492543 0 0.0014600741285159214 0.019801825276644692 0 0.0016270518427110746 0.02022284045492543 0 0.0012175763028631048 0.020211107415633096 0 0.0012175763028631048 0.020211107415633096 0 0.0014018885823624326 0.020441533987156049 0 0.0011652168096996363 0.020655917612854884 0 0.0016270518427110746 0.02022284045492543 0 0.0012175763028631048 0.020211107415633096 0 0.0014018885823624326 0.020441533987156049 0 0.0012175763028631048 0.020211107415633096 0 0.00087003064193514885 0.02040825344754741 0 0.0011652168096996363 0.020655917612854884 0 0.0012175763028631048 0.020211107415633096 0 0.00089793284548011425 0.020056484073522236 0 0.00087003064193514885 0.02040825344754741 0 0.0011116724578989041 0.019853684766890294 0 0.0012175763028631048 0.020211107415633096 0 0.00089793284548011425 0.020056484073522236 0 0.0008284352953725723 0.020110290713914535 0 0.00057172283807614037 0.02028582256236312 0 0.00089793284548011425 0.020056484073522236 0 0.00050182665738433959 0.020290290627800845 0 0.00087003064193514885 0.02040825344754741 0 0.00060095757926924135 0.019851579035289755 0 0.00089793284548011425 0.020056484073522236 0 0.00062859398702231825 0.020283214288114904 0 0.00050182665738433959 0.020290290627800845 0 0.00062962493376850193 0.020817756207772899 0 0.00010841068726555888 0.020549565607548063 0 0.00050182665738433959 0.020290290627800845 0 0.00087003064193514885 0.02040825344754741 0 0.00062962493376850193 0.020817756207772899 0 0.00087003064193514885 0.02040825344754741 0 0.00062962493376850193 0.020817756207772899 0 0.0011652168096996363 0.020655917612854884 0 0.00062962493376850193 0.020817756207772899 0 0.0010821391816417125 0.021022851860136617 0 0.00082938882720263605 0.021308518340960682 0 0.0014911676360404415 0.02101988586340724 0 0.0010821391816417125 0.021022851860136617 0 0.0011652168096996363 0.020655917612854884 0 0.0015991560523495763 0.020677598684044278 0 0.0014018885823624326 0.020441533987156049 0 0.0011652168096996363 0.020655917612854884 0 0.0014911676360404415 0.02101988586340724 0 0.0015991560523495763 0.020677598684044278 0 0.0011652168096996363 0.020655917612854884 0 0.00062962493376850193 0.020817756207772899 0 0.0010821391816417125 0.021022851860136617 0 0.0011652168096996363 0.020655917612854884 0 -0.00025365752229356686 0.020849792624842295 0 0.00015552545636517384 0.020652765587582188 0 -0.00014935148713690263 0.02124072558877917 0 -0.00025365752229356686 0.020849792624842295 0 -0.00028435859970219775 0.020514206305399001 0 0.00015552545636517384 0.020652765587582188 0 9.9190209214046295e-06 0.020195339500469239 0 -0.00025962687350671227 0.020177523424088163 0 -0.00028435859970219775 0.020514206305399001 0 0.00034898895184135942 0.020071175755594799 0 9.9190209214046295e-06 0.020195339500469239 0 0.00015552545636517384 0.020652765587582188 0 9.9190209214046295e-06 0.020195339500469239 0 -0.00028435859970219775 0.020514206305399001 0 0.00015552545636517384 0.020652765587582188 0 0.00034898895184135942 0.020071175755594799 0 0.00062859398702231825 0.020283214288114904 0 0.00038705591266945816 0.020474272567438338 0 0.00034898895184135942 0.020071175755594799 0 9.8778502984404366e-05 0.020350322815675254 0 0.00038705591266945816 0.020474272567438338 0 9.8778502984404366e-05 0.020350322815675254 0 0.00038705591266945816 0.020474272567438338 0 0.00010665885236062354 0.020697605002749996 0 0.00032627318468533129 0.020159403720942839 0 0.00010371819534249592 0.020525789736926914 0 0.00057172283807614037 0.02028582256236312 0 0.00024642415116691012 0.020521019686543435 0 0.00062962493376850193 0.020817756207772899 0 0.00010841068726555888 0.020549565607548063 0 6.1590511483125031e-05 0.021002615174293197 0 0.00062962493376850193 0.020817756207772899 0 6.1590511483125031e-05 0.021002615174293197 0 0.00036700206163631482 0.021336739236496396 0 6.1590511483125031e-05 0.021002615174293197 0 -0.00029365679689969147 0.02081925358883108 0 -0.00035367128134827514 0.021133274880003338 0 6.1590511483125031e-05 0.021002615174293197 0 -0.00035367128134827514 0.021133274880003338 0 -0.00011397820427262827 0.021363068728931057 0 0.00010841068726555888 0.020549565607548063 0 6.1590511483125031e-05 0.021002615174293197 0 -0.00029365679689969147 0.02081925358883108 0 0.00024642415116691012 0.020521019686543435 0 -7.5380674940648293e-05 0.020800463710778448 0 0.00010371819534249592 0.020525789736926914 0 -5.4507133458661614e-05 0.020900640748512753 0 9.8778502984404366e-05 0.020350322815675254 0 0.00010665885236062354 0.020697605002749996 0 -0.0002066281144133489 0.02070898619224527 0 -7.5380674940648293e-05 0.020800463710778448 0 -0.00025354754093786749 0.021331102345760408 0 -0.00029365679689969147 0.02081925358883108 0 -0.00035367128134827514 0.021133274880003338 0 -0.000704305135641912 0.0211042088889263 0 -0.00035367128134827514 0.021133274880003338 0 -0.000704305135641912 0.0211042088889263 0 -0.00061115417836258526 0.021385120079839753 0 0.00010665885236062354 0.020697605002749996 0 -0.00023162999340435564 0.020950583741693427 0 -0.0002066281144133489 0.02070898619224527 0 -0.00053423446732444398 0.021156394905890087 0 -0.00023162999340435564 0.020950583741693427 0 -0.0002066281144133489 0.02070898619224527 0 -0.00052033577921225692 0.021084290226676242 0 -0.00025365752229356686 0.020849792624842295 0 -0.00014935148713690263 0.02124072558877917 0 0.0003172177326713419 0.031113797885163202 0 0.00035607878411014174 0.030962800959767191 0 0.00037694589604958181 0.031027090000920195 0 -0.0010384721423598554 0.02134521398140234 0 -0.000704305135641912 0.0211042088889263 0 -0.00061115417836258526 0.021385120079839753 0 0.00035607878411014174 0.030962800959767191 0 0.00040168642936587814 0.030954947993266185 0 0.00040753474244575844 0.03089134634033942 0 -0.00035367128134827514 0.021133274880003338 0 -0.00061115417836258526 0.021385120079839753 0 -0.00011397820427262827 0.021363068728931057 0 -0.00010491579410768626 0.026044144741706087 0 0.00014877648272392253 0.026110570461583556 0 0.00035607878411014174 0.030962800959767191 0 0.00040168642936587814 0.030954947993266185 0 0.00037694589604958181 0.031027090000920195 0 0.00040168642936587814 0.030954947993266185 0 0.00040753474244575844 0.03089134634033942 0 0.0004673087560694765 0.030811501308649149 0 6.1590511483125031e-05 0.021002615174293197 0 -0.00011397820427262827 0.021363068728931057 0 0.00036700206163631482 0.021336739236496396 0 0.00014877648272392253 0.026110570461583556 0 0.00042579523083403849 0.026064554329641977 0 0.00040168642936587814 0.030954947993266185 0 0.0004673087560694765 0.030811501308649149 0 0.00046750106192435962 0.030888324618149884 0 0.0004229048090842887 0.03096755139152562 0 0.00046750106192435962 0.030888324618149884 0 0.00047836271720108793 0.030939864961915944 0 0.00040168642936587814 0.030954947993266185 0 0.0004229048090842887 0.03096755139152562 0 0.00046750106192435962 0.030888324618149884 0 0.00047836271720108793 0.030939864961915944 0 0.00048516316591772557 0.030973687795649362 0 0.00043116300835821465 0.031013794229568611 0 0.0004229048090842887 0.03096755139152562 0 0.00047836271720108793 0.030939864961915944 0 0.00043116300835821465 0.031013794229568611 0 0.0004229048090842887 0.03096755139152562 0 0.00039588949840142345 0.031029290311430612 0 0.00043116300835821465 0.031013794229568611 0 0.00039588949840142345 0.031029290311430612 0 0.00038631536150659742 0.03105398667755942 0 0.00043116300835821465 0.031013794229568611 0 0.00040168642936587814 0.030954947993266185 0 0.0004229048090842887 0.03096755139152562 0 0.00037694589604958181 0.031027090000920195 0 0.0004229048090842887 0.03096755139152562 0 0.00037694589604958181 0.031027090000920195 0 0.00039588949840142345 0.031029290311430612 0 0.00037694589604958181 0.031027090000920195 0 0.00039588949840142345 0.031029290311430612 0 0.00037925682800462381 0.031051213486669522 0 0.00037694589604958181 0.031027090000920195 0 0.00037925682800462381 0.031051213486669522 0 0.00036170957294585861 0.031080553216911375 0 0.00039588949840142345 0.031029290311430612 0 0.00038631536150659742 0.03105398667755942 0 0.00037925682800462381 0.031051213486669522 0 0.00038631536150659742 0.03105398667755942 0 0.00037925682800462381 0.031051213486669522 0 0.00036170957294585861 0.031080553216911375 0 0.00038631536150659742 0.03105398667755942 0 0.00036170957294585861 0.031080553216911375 0 0.00033228905335288823 0.031141627870109476 0 0.0011882066718383075 0.030938592310621457 0 0.00062135916895581953 0.03203254165133166 0 0.0003172177326713419 0.031113797885163202 0 0.00037694589604958181 0.031027090000920195 0 0.00036170957294585861 0.031080553216911375 0 0.0003172177326713419 0.031113797885163202 0 0.00036170957294585861 0.031080553216911375 0 0.00033228905335288823 0.031141627870109476 0 0.00061675750727963291 0.030767148572029692 0 0.00074965924318203382 0.030737285089723915 0 0.00064262768803371821 0.030861062695056285 0 0.00061675750727963291 0.030767148572029692 0 0.00074965924318203382 0.030737285089723915 0 0.00068606668703495241 0.030635478717574369 0 0.00086625644051425738 0.030560440707385075 0 0.00074965924318203382 0.030737285089723915 0 0.00068606668703495241 0.030635478717574369 0 0.0014911676360404415 0.02101988586340724 0 0.0010821391816417125 0.021022851860136617 0 0.0012751327660262648 0.021279893297323542 0 0.00061675750727963291 0.030767148572029692 0 0.00068606668703495241 0.030635478717574369 0 0.00055202970348071118 0.030727321230807618 0 0.0012686139602798637 0.025374450267735583 0 0.00066803266603985396 0.025951736062049403 0 0.0010821391816417125 0.021022851860136617 0 0.0012751327660262648 0.021279893297323542 0 0.00082938882720263605 0.021308518340960682 0 0.00062962493376850193 0.020817756207772899 0 0.00036700206163631482 0.021336739236496396 0 0.00082938882720263605 0.021308518340960682 0 0.00042579523083403849 0.026064554329641977 0 0.00066803266603985396 0.025951736062049403 0 0.0004673087560694765 0.030811501308649149 0 0.00055202970348071118 0.030727321230807618 0 0.00046750106192435962 0.030888324618149884 0 0.00055202970348071118 0.030727321230807618 0 0.00046750106192435962 0.030888324618149884 0 0.0005424734686655517 0.030856334917824614 0 0.00061675750727963291 0.030767148572029692 0 0.00055202970348071118 0.030727321230807618 0 0.0005424734686655517 0.030856334917824614 0 0.00046750106192435962 0.030888324618149884 0 0.0005424734686655517 0.030856334917824614 0 0.00047836271720108793 0.030939864961915944 0 0.00047836271720108793 0.030939864961915944 0 0.0005555330004311423 0.030945706187898644 0 0.00048516316591772557 0.030973687795649362 0 0.0005424734686655517 0.030856334917824614 0 0.00047836271720108793 0.030939864961915944 0 0.0005555330004311423 0.030945706187898644 0 -0.0018427650423902364 0.024581525035956803 0 -0.0014446046433693 0.024324256042944244 0 -0.0040156010060296765 0.018362258976389049 0 -0.0034204315913377698 0.01786707010305651 0 -0.0035915730245206319 0.018590167466797616 0 0.00061675750727963291 0.030767148572029692 0 0.0005424734686655517 0.030856334917824614 0 0.00064262768803371821 0.030861062695056285 0 0.0005424734686655517 0.030856334917824614 0 0.0005555330004311423 0.030945706187898644 0 0.00064262768803371821 0.030861062695056285 0 -0.0029859313838242769 0.017695351435000582 0 -0.0034204315913377698 0.01786707010305651 0 -0.0029749364987255132 0.017903566987754079 0 -0.001584215596133656 0.024099902516690419 0 -0.0014446046433693 0.024324256042944244 0 -0.0034204315913377698 0.01786707010305651 0 -0.0031448202693109138 0.018310893500380308 0 -0.0035915730245206319 0.018590167466797616 0 -0.0034204315913377698 0.01786707010305651 0 -0.0029749364987255132 0.017903566987754079 0 -0.0031448202693109138 0.018310893500380308 0 -0.0031448202693109138 0.018310893500380308 0 -0.0033033789724883204 0.018829062946408074 0 -0.0028769863985404175 0.019043722043657011 0 -0.0031448202693109138 0.018310893500380308 0 -0.0033033789724883204 0.018829062946408074 0 -0.0035915730245206319 0.018590167466797616 0 -0.0026159887540390622 0.017766864857403929 0 -0.0027725763264313127 0.017894150278651551 0 -0.0026322221713221015 0.017787444178056271 0 -0.0028769863985404175 0.019043722043657011 0 -0.0033519463902602692 0.019334336445627043 0 -0.0033219223949342638 0.020206442962774514 0 -0.0027950726720928775 0.018436606548425816 0 -0.0031052985802153253 0.019008096062532568 0 -0.0033033789724883204 0.018829062946408074 0 -0.0028769863985404175 0.019043722043657011 0 -0.0033519463902602692 0.019334336445627043 0 -0.0033033789724883204 0.018829062946408074 0 -0.0033519463902602692 0.019334336445627043 0 -0.0036219485271658273 0.019036209839049308 0 -0.0040827030758540644 0.019656889683653537 0 -0.0036172591579357836 0.01962893428117702 0 -0.0036219485271658273 0.019036209839049308 0 -0.0033519463902602692 0.019334336445627043 0 -0.0036172591579357836 0.01962893428117702 0 -0.0036219485271658273 0.019036209839049308 0 -0.0040156010060296765 0.018362258976389049 0 -0.0035915730245206319 0.018590167466797616 0 -0.0040029189264763265 0.019087673172223214 0 -0.0036219485271658273 0.019036209839049308 0 -0.0035915730245206319 0.018590167466797616 0 -0.0040029189264763265 0.019087673172223214 0 -0.0033033789724883204 0.018829062946408074 0 -0.0036219485271658273 0.019036209839049308 0 -0.0035915730245206319 0.018590167466797616 0 0.0005555330004311423 0.030945706187898644 0 0.00048516316591772557 0.030973687795649362 0 0.00048983765689928217 0.030993811121330879 0 -0.0024537579211570066 0.024128210903218247 0 -0.0047889826830280549 0.021119456529482297 0 -0.0018427650423902364 0.024581525035956803 0 -0.0024537579211570066 0.024128210903218247 0 -0.0040156010060296765 0.018362258976389049 0 -0.0045734819447675523 0.0189460970812559 0 -0.0040029189264763265 0.019087673172223214 0 0.00048516316591772557 0.030973687795649362 0 0.00048983765689928217 0.030993811121330879 0 0.00043116300835821465 0.031013794229568611 0 -0.0044748490912779491 0.019017823128208038 0 -0.0042805895828369293 0.019276617272951938 0 -0.0049169340392172948 0.019521637544748165 0 -0.004369095475233154 0.020003498183154798 0 -0.0027706940281683021 0.024760369100872075 0 -0.0024537579211570066 0.024128210903218247 0 -0.0027706940281683021 0.024760369100872075 0 -0.0046691341874752013 0.019327930607454916 0 -0.0051579192377775888 0.019733751864126157 0 -0.0057081854338463817 0.019669302929011988 0 -0.0046691341874752013 0.019327930607454916 0 -0.0046390418613701558 0.01986945236764914 0 -0.0051579192377775888 0.019733751864126157 0 -0.0040827030758540644 0.019656889683653537 0 -0.0036219485271658273 0.019036209839049308 0 -0.0046691341874752013 0.019327930607454916 0 -0.0036219485271658273 0.019036209839049308 0 -0.0040029189264763265 0.019087673172223214 0 -0.0042805895828369293 0.019276617272951938 0 -0.0044748490912779491 0.019017823128208038 0 -0.0040029189264763265 0.019087673172223214 0 -0.0042805895828369293 0.019276617272951938 0 -0.0037445410306724452 0.019296056207906784 0 -0.004369095475233154 0.020003498183154798 0 -0.0040827030758540644 0.019656889683653537 0 -0.0046691341874752013 0.019327930607454916 0 -0.0046390418613701558 0.01986945236764914 0 -0.0040827030758540644 0.019656889683653537 0 -0.0046390418613701558 0.01986945236764914 0 -0.0042406261700422545 0.020099282536730489 0 -0.0046390418613701558 0.01986945236764914 0 -0.0045269175159027616 0.020317748880282184 0 -0.0042406261700422545 0.020099282536730489 0 -0.0046390418613701558 0.01986945236764914 0 -0.0045269175159027616 0.020317748880282184 0 -0.0050819645901339777 0.020258048346738371 0 -0.0045269175159027616 0.020317748880282184 0 -0.0042406261700422545 0.020099282536730489 0 -0.0042371289313628598 0.020548129374097005 0 -0.0044513558269449532 0.0210979464791601 0 -0.0042568012850832159 0.021326017302656649 0 -0.0042929954308319734 0.021020055237290683 0 -0.0051243881252888849 0.020791895238659572 0 -0.0027706940281683021 0.024760369100872075 0 -0.0051579192377775888 0.019733751864126157 0 -0.0050819645901339777 0.020258048346738371 0 -0.0057081854338463817 0.019669302929011988 0 -0.0046390418613701558 0.01986945236764914 0 -0.0051579192377775888 0.019733751864126157 0 -0.0050819645901339777 0.020258048346738371 0 -0.0046233790009039188 0.021076009392304116 0 -0.0044674118128187621 0.020981473338012521 0 -0.0047122900967600584 0.021083514873000499 0 -0.0044513558269449532 0.0210979464791601 0 -0.0044674118128187621 0.020981473338012521 0 -0.0042929954308319734 0.021020055237290683 0 -0.0045314494178955705 0.021394914291445608 0 -0.0047374691983019662 0.021942766551264533 0 -0.0046233790009039188 0.021076009392304116 0 -0.0044674118128187621 0.020981473338012521 0 -0.004506800610107475 0.021093811220271024 0 -0.0042406261700422545 0.020099282536730489 0 -0.0042371289313628598 0.020548129374097005 0 -0.0038811816559158989 0.020545898272976582 0 -0.0045269175159027616 0.020317748880282184 0 -0.0042371289313628598 0.020548129374097005 0 -0.0044064516145263643 0.020916570403663251 0 -0.0044513558269449532 0.0210979464791601 0 -0.0044674118128187621 0.020981473338012521 0 -0.0044064516145263643 0.020916570403663251 0 -0.0045269175159027616 0.020317748880282184 0 -0.0050819645901339777 0.020258048346738371 0 -0.0044064516145263643 0.020916570403663251 0 -0.0051243881252888849 0.020791895238659572 0 -0.0045777280444514352 0.020992450142277071 0 -0.0044674118128187621 0.020981473338012521 0 -0.0043957217735825166 0.021056812514652617 0 -0.004506800610107475 0.021093811220271024 0 -0.0044674118128187621 0.020981473338012521 0 -0.0044064516145263643 0.020916570403663251 0 -0.0043957217735825166 0.021056812514652617 0 -0.0044064516145263643 0.020916570403663251 0 -0.0041830484654013268 0.020883729555733262 0 -0.0043957217735825166 0.021056812514652617 0 -0.0042371289313628598 0.020548129374097005 0 -0.0044064516145263643 0.020916570403663251 0 -0.0041830484654013268 0.020883729555733262 0 -0.0031052985802153253 0.019008096062532568 0 -0.0041051184819870211 0.019574433274318726 0 -0.0041830484654013268 0.020883729555733262 0 -0.0038811816559158989 0.020545898272976582 0 -0.0039405837952936739 0.021257881871008695 0 -0.0038811816559158989 0.020545898272976582 0 -0.0033219223949342638 0.020206442962774514 0 -0.0039405837952936739 0.021257881871008695 0 -0.0027725763264313127 0.017894150278651551 0 -0.0027443890884529015 0.018152025226182304 0 -0.0029527139766760196 0.018201530007640715 0 -0.0042371289313628598 0.020548129374097005 0 -0.0041830484654013268 0.020883729555733262 0 -0.0038811816559158989 0.020545898272976582 0 -0.0026691941079443945 0.01801705720850233 0 -0.0027725763264313127 0.017894150278651551 0 -0.0026008156887407418 0.017924057660341726 0 -0.0026691941079443945 0.01801705720850233 0 -0.0027725763264313127 0.017894150278651551 0 -0.0027443890884529015 0.018152025226182304 0 -0.0026691941079443945 0.01801705720850233 0 -0.0027443890884529015 0.018152025226182304 0 -0.0025611839611655832 0.018103840340359768 0 -0.0027725763264313127 0.017894150278651551 0 -0.0026008156887407418 0.017924057660341726 0 -0.0026322221713221015 0.017787444178056271 0 -0.0033519463902602692 0.019334336445627043 0 -0.0036172591579357836 0.01962893428117702 0 -0.0033219223949342638 0.020206442962774514 0 -0.0036172591579357836 0.01962893428117702 0 -0.0033219223949342638 0.020206442962774514 0 -0.0037916445753036574 0.020052944944708953 0 -0.0040827030758540644 0.019656889683653537 0 -0.0042406261700422545 0.020099282536730489 0 -0.0037916445753036574 0.020052944944708953 0 -0.0040827030758540644 0.019656889683653537 0 -0.0036172591579357836 0.01962893428117702 0 -0.0037916445753036574 0.020052944944708953 0 -0.0042406261700422545 0.020099282536730489 0 -0.0038811816559158989 0.020545898272976582 0 -0.0037916445753036574 0.020052944944708953 0 -0.0038811816559158989 0.020545898272976582 0 -0.0033219223949342638 0.020206442962774514 0 -0.0037916445753036574 0.020052944944708953 0 0.0009171565189418176 0.033439384973997441 0 0.0009734092997230972 0.033362291524088435 0 0.0009723071082429213 0.033449748219612642 0 0.00082498619661160665 0.033499767206592909 0 0.00090056541970265629 0.033520594831723018 0 0.0009171565189418176 0.033439384973997441 0 0.00090056541970265629 0.033520594831723018 0 0.0009171565189418176 0.033439384973997441 0 0.0009723071082429213 0.033449748219612642 0 0.0008357490869208221 0.033359564881054411 0 0.0009171565189418176 0.033439384973997441 0 0.0009734092997230972 0.033362291524088435 0 0.0008357490869208221 0.033359564881054411 0 0.00089813102320591878 0.033232101339200314 0 0.0009734092997230972 0.033362291524088435 0 0.0010262161233741225 0.033328707813315157 0 0.00089813102320591878 0.033232101339200314 0 0.0009734092997230972 0.033362291524088435 0 0.0009734092997230972 0.033362291524088435 0 0.0010118849495263538 0.033347804337688886 0 0.0010370517575356616 0.033344183733570593 0 0.0010262161233741225 0.033328707813315157 0 0.0010118849495263538 0.033347804337688886 0 0.00089968826257005852 0.033364403258681924 0 0.0010262161233741225 0.033328707813315157 0 0.0009734092997230972 0.033362291524088435 0 0.0010118849495263538 0.033347804337688886 0 0.0009734092997230972 0.033362291524088435 0 0.0010370517575356616 0.033344183733570593 0 0.0009723071082429213 0.033449748219612642 0 0.0010370517575356616 0.033344183733570593 0 0.0009723071082429213 0.033449748219612642 0 0.0010976889978959628 0.033497421992896827 0 0.00098923520612053425 0.033315234033899313 0 1.6605365563598413e-05 0.030475527958083646 0 0.00090316408381152199 0.033202471890487549 0 0.00054171175330150207 0.033066914602002513 0 0.00099432947425003352 0.03300327668918572 0 0.0010370517575356616 0.033344183733570593 0 0.00090316408381152199 0.033202471890487549 0 0.00099432947425003352 0.03300327668918572 0 0.00090316408381152199 0.033202471890487549 0 0.00089968826257005852 0.033364403258681924 0 0.00054171175330150207 0.033066914602002513 0 0.0010370517575356616 0.033344183733570593 0 0.00090316408381152199 0.033202471890487549 0 0.00089968826257005852 0.033364403258681924 0 0.0011882066718383075 0.030938592310621457 0 0.00045081667359002224 0.029483159185299933 0 0.0024002305702305556 0.029415428321991493 0 0.00064673395056118015 0.027744234303712503 0 -0.00031250411769459416 0.028632246674569296 0 0.0011882066718383075 0.030938592310621457 0 0.0012825656884044346 0.030661563975341154 0 0.0010118849495263538 0.033347804337688886 0 0.0010370517575356616 0.033344183733570593 0 0.00089968826257005852 0.033364403258681924 0 -0.0024537579211570066 0.024128210903218247 0 0.00045081667359002224 0.029483159185299933 0 0.00064673395056118015 0.027744234303712503 0 -0.00031250411769459416 0.028632246674569296 0 -0.0010221874024915012 0.027287528044721458 0 -0.0030176768627983054 0.027848442544987594 0 -0.00031250411769459416 0.028632246674569296 0 -0.0010221874024915012 0.027287528044721458 0 0.0012825656884044346 0.030661563975341154 0 -0.0027706940281683021 0.024760369100872075 0 0.00064673395056118015 0.027744234303712503 0 -0.0010221874024915012 0.027287528044721458 0 -0.0011893475714142795 0.026006982779293981 0 -0.0030176768627983054 0.027848442544987594 0 -0.0010221874024915012 0.027287528044721458 0 -0.0011893475714142795 0.026006982779293981 0 -0.0027706940281683021 0.024760369100872075 0 -0.0024699764854148008 0.025752219225938674 0 -0.0042568012850832159 0.021326017302656649 0 -0.0042929954308319734 0.021020055237290683 0 -0.0040083728336667715 0.021096826678133625 0 -0.0017641903938590392 0.026840968848108184 0 -0.0021193511201919707 0.027214227495443003 0 -0.0020152886865431839 0.027010112522175524 0 -0.0047374691983019662 0.021942766551264533 0 -0.0024699764854148008 0.025752219225938674 0 -0.0047122900967600584 0.021083514873000499 0 -0.0044432805182083026 0.021264475040699369 0 -0.0045463265650838962 0.021116454377826933 0 -0.0046233790009039188 0.021076009392304116 0 -0.0047122900967600584 0.021083514873000499 0 -0.0047254461367870499 0.021050740801984137 0 -0.0047122900967600584 0.021083514873000499 0 -0.0047254461367870499 0.021050740801984137 0 -0.0045463265650838962 0.021116454377826933 0 -0.0047254461367870499 0.021050740801984137 0 -0.0045463265650838962 0.021116454377826933 0 -0.0044483791026919423 0.020910229001199803 0 -0.0045463265650838962 0.021116454377826933 0 -0.0044127433202802626 0.021240126041886055 0 -0.0044483791026919423 0.020910229001199803 0 -0.0021929453206643254 0.027639052470857701 0 -0.0022131876064477325 0.027669946474371952 0 -0.0021872079210843013 0.027664633890370178 0 -0.0022002377452197013 0.026198434293330738 0 -0.0030675971593192518 0.025888808151876191 0 -0.0044432805182083026 0.021264475040699369 0 -0.0045463265650838962 0.021116454377826933 0 -0.0044127433202802626 0.021240126041886055 0 -0.0011588602007692129 0.030692117763222802 0 -0.0011462525148019846 0.030731308039144135 0 -0.00089516932541399297 0.030441513454459435 0 -0.0022002377452197013 0.026198434293330738 0 -0.0017510771224358531 0.026769147889502444 0 -0.0015778563330236647 0.025256912916163728 0 -0.0028914086666916999 0.026585068904558983 0 -0.0034437514694029081 0.024881561937441871 0 -0.0024699764854148008 0.025752219225938674 0 -0.0017510771224358531 0.026769147889502444 0 -0.0024699764854148008 0.025752219225938674 0 -0.0022002377452197013 0.026198434293330738 0 -0.0017510771224358531 0.026769147889502444 0 1.6605365563598413e-05 0.030475527958083646 0 -0.0021690086404374614 0.027204753299334722 0 -0.0020152886865431839 0.027010112522175524 0 -0.0022460030282634605 0.026962412716259036 0 -0.0017641903938590392 0.026840968848108184 0 -0.0020152886865431839 0.027010112522175524 0 -0.0022460030282634605 0.026962412716259036 0 -0.0027706940281683021 0.024760369100872075 0 1.6605365563598413e-05 0.030475527958083646 0 -0.0021193511201919707 0.027214227495443003 0 -0.0021690086404374614 0.027204753299334722 0 -0.0020152886865431839 0.027010112522175524 0 -0.0017510771224358531 0.026769147889502444 0 0.0003689539316214493 0.031633952529887654 0 1.6605365563598413e-05 0.030475527958083646 0 0.0003689539316214493 0.031633952529887654 0 -0.00063918897258795468 0.029581737267054462 0 -0.00051145260503268532 0.029975136500902909 0 0.00028499788789827655 0.029787455454721442 0 0.0009723071082429213 0.033449748219612642 0 0.0010976889978959628 0.033497421992896827 0 0.00092586967517751184 0.033589351854455066 0 -0.0011462525148019846 0.030731308039144135 0 -0.00063131470019289922 0.030859137735782107 0 -0.00089516932541399297 0.030441513454459435 0 -0.0022002377452197013 0.026198434293330738 0 -0.0016186778243629531 0.030296795441662593 0 -0.00050597252306401001 0.030519345470808982 0 -0.00063131470019289922 0.030859137735782107 0 -0.00089516932541399297 0.030441513454459435 0 0.00095022823200714712 0.032397977228154753 0 0.0003689539316214493 0.031633952529887654 0 0.00090056541970265629 0.033520594831723018 0 0.0009723071082429213 0.033449748219612642 0 0.00092586967517751184 0.033589351854455066 0 0.00083878383592508551 0.03362528789256463 0 0.00090056541970265629 0.033520594831723018 0 0.00092586967517751184 0.033589351854455066 0 -0.00072467360401466132 0.033312232018081173 0 -0.0010665480504462982 0.033362660791860885 0 -0.00089725661025881714 0.033604436336232779 0 -0.0010665480504462982 0.033362660791860885 0 -0.00089725661025881714 0.033604436336232779 0 -0.001193470546871176 0.033586703216752563 0 -0.00080165615588606478 0.033930617559351214 0 -0.00089725661025881714 0.033604436336232779 0 -0.0011364674403812774 0.033790427680631847 0 -0.00080165615588606478 0.033930617559351214 0 -0.0011364674403812774 0.033790427680631847 0 -0.0012299997147491232 0.033879802256249987 0 -0.0005534517060301078 0.031940596062732834 0 -0.0016186778243629531 0.030296795441662593 0 -0.00089725661025881714 0.033604436336232779 0 -0.0011364674403812774 0.033790427680631847 0 -0.001193470546871176 0.033586703216752563 0 -0.0011364674403812774 0.033790427680631847 0 -0.0013545132166643214 0.033752967750643098 0 -0.001193470546871176 0.033586703216752563 0 -0.0011364674403812774 0.033790427680631847 0 -0.0012487975386463444 0.033911548747084151 0 -0.0013545132166643214 0.033752967750643098 0 -0.0019569242109246311 0.031076664044661036 0 -0.0016186778243629531 0.030296795441662593 0 -0.0013545132166643214 0.033752967750643098 0 -0.001193470546871176 0.033586703216752563 0 -0.0014598655269415558 0.033624394786944574 0 -0.001193470546871176 0.033586703216752563 0 -0.0013322792696160376 0.033399324818869792 0 -0.0014598655269415558 0.033624394786944574 0 -0.0010665480504462982 0.033362660791860885 0 -0.001193470546871176 0.033586703216752563 0 -0.0013322792696160376 0.033399324818869792 0 -0.0010665480504462982 0.033362660791860885 0 -0.0013322792696160376 0.033399324818869792 0 -0.001334503120611808 0.033140329205730193 0 -0.0013322792696160376 0.033399324818869792 0 -0.0014598655269415558 0.033624394786944574 0 -0.0020129322463331768 0.033296748793113222 0 -0.0014598655269415558 0.033624394786944574 0 -0.0017382608909106252 0.033850891252360599 0 -0.0020129322463331768 0.033296748793113222 0 -0.0012487975386463444 0.033911548747084151 0 -0.0013545132166643214 0.033752967750643098 0 -0.0017382608909106252 0.033850891252360599 0 -0.0016186778243629531 0.030296795441662593 0 -0.0030675971593192518 0.025888808151876191 0 -0.0013545132166643214 0.033752967750643098 0 -0.0014598655269415558 0.033624394786944574 0 -0.0017382608909106252 0.033850891252360599 0 -0.0047254461367870499 0.021050740801984137 0 -0.0044483791026919423 0.020910229001199803 0 -0.0049356338158493395 0.020729777325906574 0 -0.0059655588410748566 0.020639636867865171 0 -0.005884242694961744 0.020628101890635093 0 -0.0059561798080737041 0.020784069304864435 0 -0.0030675971593192518 0.025888808151876191 0 -0.0056065662159663398 0.022157884175603128 0 -0.005884242694961744 0.020628101890635093 0 -0.0059561798080737041 0.020784069304864435 0 -0.0058524370892145692 0.020716994945545641 0 -0.0030675971593192518 0.025888808151876191 0 -0.0038753812962808894 0.027129736326598271 0 -0.0038753812962808894 0.027129736326598271 0 -0.0042716009858267522 0.026759123389552931 0 -0.0059561798080737041 0.020784069304864435 0 -0.0060023411672800757 0.020999062032740316 0 -0.0058299851779438812 0.020802138458092131 0 -0.0020129322463331768 0.033296748793113222 0 -0.002468492839132749 0.032582535551735958 0 -0.0017269860223462464 0.032663305016841546 0 -0.002468492839132749 0.032582535551735958 0 -0.0017269860223462464 0.032663305016841546 0 -0.0015940858995547738 0.031959094909195761 0 -0.0017269860223462464 0.032663305016841546 0 -0.00082003489431739214 0.032193168297805386 0 -0.0015940858995547738 0.031959094909195761 0 -0.0013322792696160376 0.033399324818869792 0 -0.0020129322463331768 0.033296748793113222 0 -0.001334503120611808 0.033140329205730193 0 -0.0020129322463331768 0.033296748793113222 0 -0.0017269860223462464 0.032663305016841546 0 -0.001334503120611808 0.033140329205730193 0 -0.0010665480504462982 0.033362660791860885 0 -0.001334503120611808 0.033140329205730193 0 -0.00097650884221202794 0.033102032261908804 0 -0.0012615842622770842 0.033035542751876083 0 -0.00098881621525653569 0.032513769092865685 0 -0.001334503120611808 0.033140329205730193 0 -0.00097650884221202794 0.033102032261908804 0 -0.0010586582465699924 0.032779993629483126 0 -0.0017269860223462464 0.032663305016841546 0 -0.001334503120611808 0.033140329205730193 0 -0.00082003489431739214 0.032193168297805386 0 -0.00070389472574315421 0.032955010678919448 0 -0.0010586582465699924 0.032779993629483126 0 -0.00069991252601446735 0.032678729213406123 0 -0.00070389472574315421 0.032955010678919448 0 -0.00097650884221202794 0.033102032261908804 0 -0.0010586582465699924 0.032779993629483126 0 -0.00072467360401466132 0.033312232018081173 0 -0.0010665480504462982 0.033362660791860885 0 -0.00097650884221202794 0.033102032261908804 0 -0.00072467360401466132 0.033312232018081173 0 -0.00070389472574315421 0.032955010678919448 0 -0.00097650884221202794 0.033102032261908804 0 -0.0056029501592109419 0.020623257971913805 0 -0.0056740382918956996 0.020664417934191409 0 -0.005575107107063511 0.020685036093668681 0 -0.0056029501592109419 0.020623257971913805 0 -0.0055067581828481694 0.020648144341252925 0 -0.005575107107063511 0.020685036093668681 0 -0.0050155194722396879 0.020269975675833139 0 -0.0055862742179814745 0.020627741691622726 0 -0.0051082263873269669 0.020173121597507063 0 -0.0050155194722396879 0.020269975675833139 0 -0.004551668786730861 0.019663518376561082 0 -0.0042524999324276931 0.019774191697085556 0 -0.0043756085304849212 0.019601180741400295 0 -0.0042524999324276931 0.019774191697085556 0 -0.0043756085304849212 0.019601180741400295 0 -0.0042356181651968736 0.019578731173387823 0 -0.0043756085304849212 0.019601180741400295 0 -0.0043555313771203247 0.019443181579631808 0 -0.0045161098959500025 0.019567146742213045 0 -0.0042356181651968736 0.019578731173387823 0 -0.0043555313771203247 0.019443181579631808 0 -0.004121037828804971 0.019390761806312003 0 -0.0035454620627472914 0.018860318111100945 0 -0.0034134333361346449 0.018351642877116898 0 -0.0043756085304849212 0.019601180741400295 0 -0.0042356181651968736 0.019578731173387823 0 -0.0043555313771203247 0.019443181579631808 0 -0.0043555313771203247 0.019443181579631808 0 -0.0045161098959500025 0.019567146742213045 0 -0.0045890939635177437 0.019496570718297607 0 -0.0035454620627472914 0.018860318111100945 0 -0.0041051184819870211 0.019574433274318726 0 -0.004551668786730861 0.019663518376561082 0 -0.0043756085304849212 0.019601180741400295 0 -0.0045161098959500025 0.019567146742213045 0 -0.004551668786730861 0.019663518376561082 0 -0.0045161098959500025 0.019567146742213045 0 -0.0046169138431897214 0.01955295901218634 0 -0.0045161098959500025 0.019567146742213045 0 -0.0046169138431897214 0.01955295901218634 0 -0.0045890939635177437 0.019496570718297607 0 -0.0041378680022110511 0.019592932279412775 0 -0.0041051184819870211 0.019574433274318726 0 -0.0039405837952936739 0.021257881871008695 0 -0.0043957217735825166 0.021056812514652617 0 -0.0045013387097183871 0.021239924020193431 0 -0.0046169138431897214 0.01955295901218634 0 -0.0045892786747424863 0.019498756738926391 0 -0.004849164346852384 0.01955785353276809 0 -0.004551668786730861 0.019663518376561082 0 -0.0046169138431897214 0.01955295901218634 0 -0.004849164346852384 0.01955785353276809 0 -0.0051082263873269669 0.020173121597507063 0 -0.0050030871142866563 0.020311740333248802 0 -0.0041051184819870211 0.019574433274318726 0 -0.0050030871142866563 0.020311740333248802 0 -0.0041830484654013268 0.020883729555733262 0 -0.0039405837952936739 0.021257881871008695 0 -0.0043957217735825166 0.021056812514652617 0 -0.0043957217735825166 0.021056812514652617 0 -0.0045013387097183871 0.021239924020193431 0 -0.004506800610107475 0.021093811220271024 0 -0.005760611767641961 0.020627202617390726 0 -0.0057547709023606786 0.020645501778131951 0 -0.0056740382918956996 0.020664417934191409 0 -0.0057955335743328455 0.020642515365092248 0 -0.005760611767641961 0.020627202617390726 0 -0.0057547709023606786 0.020645501778131951 0 -0.0050411678940144962 0.020321666965771965 0 -0.0050030871142866563 0.020311740333248802 0 -0.005884242694961744 0.020628101890635093 0 -0.005710797444820807 0.020623466230986768 0 -0.0057856041740987551 0.020667066217180938 0 -0.0047254461367870499 0.021050740801984137 0 -0.0049356338158493395 0.020729777325906574 0 -0.005710797444820807 0.020623466230986768 0 -0.0047254461367870499 0.021050740801984137 0 -0.0057955335743328455 0.020642515365092248 0 -0.005710797444820807 0.020623466230986768 0 -0.0046233790009039188 0.021076009392304116 0 -0.0047254461367870499 0.021050740801984137 0 -0.0045013387097183871 0.021239924020193431 0 -0.0047254461367870499 0.021050740801984137 0 -0.0057955335743328455 0.020642515365092248 0 -0.0058942865757170958 0.020665942193632811 0 -0.0056065662159663398 0.022157884175603128 0 -0.0057185589721553678 0.021432862025349744 0 -0.004756760612312584 0.020948682530156734 0 -0.0050030871142866563 0.020311740333248802 0 -0.0046233790009039188 0.021076009392304116 0 -0.0045013387097183871 0.021239924020193431 0 -0.004506800610107475 0.021093811220271024 0 -0.0057955335743328455 0.020642515365092248 0 -0.0057547709023606786 0.020645501778131951 0 -0.005710797444820807 0.020623466230986768 0 -0.0057547709023606786 0.020645501778131951 0 -0.005710797444820807 0.020623466230986768 0 -0.0057856041740987551 0.020667066217180938 0 -0.005884242694961744 0.020628101890635093 0 -0.0057856041740987551 0.020667066217180938 0 -0.0058524370892145692 0.020716994945545641 0 -0.0059561798080737041 0.020784069304864435 0 -0.0058524370892145692 0.020716994945545641 0 -0.0058299851779438812 0.020802138458092131 0 -0.0057856041740987551 0.020667066217180938 0 -0.0058524370892145692 0.020716994945545641 0 -0.0057775835215951917 0.020697033721606521 0 -0.0057547709023606786 0.020645501778131951 0 -0.0057856041740987551 0.020667066217180938 0 -0.0057775835215951917 0.020697033721606521 0 -0.0057775835215951917 0.020697033721606521 0 -0.0057428820794051521 0.020731589678342981 0 -0.0058299851779438812 0.020802138458092131 0 -0.0058524370892145692 0.020716994945545641 0 -0.0057775835215951917 0.020697033721606521 0 -0.0058299851779438812 0.020802138458092131 0 -0.0056029501592109419 0.020623257971913805 0 -0.005760611767641961 0.020627202617390726 0 -0.0056740382918956996 0.020664417934191409 0 -0.0056740382918956996 0.020664417934191409 0 -0.0057428820794051521 0.020731589678342981 0 -0.0056830124851809521 0.020775448977783561 0 -0.0057547709023606786 0.020645501778131951 0 -0.0057775835215951917 0.020697033721606521 0 -0.0056740382918956996 0.020664417934191409 0 -0.0057775835215951917 0.020697033721606521 0 -0.0056740382918956996 0.020664417934191409 0 -0.0057428820794051521 0.020731589678342981 0 -0.0057428820794051521 0.020731589678342981 0 -0.0056830124851809521 0.020775448977783561 0 -0.0058299851779438812 0.020802138458092131 0 -0.0056830124851809521 0.020775448977783561 0 -0.0058299851779438812 0.020802138458092131 0 -0.0057192046011724767 0.020989341314796926 0 -0.0060023411672800757 0.020999062032740316 0 -0.0058299851779438812 0.020802138458092131 0 -0.0057192046011724767 0.020989341314796926 0 -0.0057192046011724767 0.020989341314796926 0 -0.0055196484169109687 0.020885234195770274 0 -0.0053831037923470276 0.021184733167037593 0 -0.0056830124851809521 0.020775448977783561 0 -0.0057192046011724767 0.020989341314796926 0 -0.0055196484169109687 0.020885234195770274 0 -0.0056740382918956996 0.020664417934191409 0 -0.0056830124851809521 0.020775448977783561 0 -0.005575107107063511 0.020685036093668681 0 -0.0056830124851809521 0.020775448977783561 0 -0.0055196484169109687 0.020885234195770274 0 -0.005575107107063511 0.020685036093668681 0 -0.0052943335836442579 0.020403801660827559 0 -0.0053566664230916021 0.020726407754978023 0 -0.0051877400333101798 0.020548485756468806 0 -0.0055196484169109687 0.020885234195770274 0 -0.005575107107063511 0.020685036093668681 0 -0.0053566664230916021 0.020726407754978023 0 -0.0052943335836442579 0.020403801660827559 0 -0.005575107107063511 0.020685036093668681 0 -0.0053566664230916021 0.020726407754978023 0 -0.0053543631962647865 0.02093367208963309 0 -0.00515395734161825 0.020919107907010244 0 -0.0053831037923470276 0.021184733167037593 0 -0.0055196484169109687 0.020885234195770274 0 -0.0053543631962647865 0.02093367208963309 0 -0.0053831037923470276 0.021184733167037593 0 -0.0053566664230916021 0.020726407754978023 0 -0.0053543631962647865 0.02093367208963309 0 -0.00515395734161825 0.020919107907010244 0 -0.0055196484169109687 0.020885234195770274 0 -0.0053566664230916021 0.020726407754978023 0 -0.0053543631962647865 0.02093367208963309 0 -0.0046207254254665431 0.020593705341335474 0 -0.0041683761349368825 0.020669770615878234 0 -0.0040992750443244212 0.020433828140882574 0 -0.0046207254254665431 0.020593705341335474 0 -0.0041683761349368825 0.020669770615878234 0 -0.0043978486525139571 0.020831493193226559 0 -0.0046207254254665431 0.020593705341335474 0 -0.0040992750443244212 0.020433828140882574 0 -0.0041522511624905662 0.020145766022873986 0 -0.004644494258150454 0.020008570229277333 0 -0.0050410010188704953 0.020499187663070514 0 -0.0046968645816937247 0.019514452359111631 0 -0.004886964051236513 0.020748650083162248 0 -0.0042818534409510391 0.020054808326804369 0 -0.00515395734161825 0.020919107907010244 0 -0.0045152241403710134 0.020304567922033046 0 -0.0047072606845489544 0.020348774998627528 0 -0.0043719418243127412 0.020224585919099827 0 -0.004644494258150454 0.020008570229277333 0 -0.0043517895457166177 0.019635559144207934 0 -0.0043719418243127412 0.020224585919099827 0 -0.004644494258150454 0.020008570229277333 0 -0.0047072606845489544 0.020348774998627528 0 -0.0042818534409510391 0.020054808326804369 0 -0.0043911620918464372 0.020095013031782436 0 -0.004644494258150454 0.020008570229277333 0 -0.0047072606845489544 0.020348774998627528 0 -0.0050410010188704953 0.020499187663070514 0 -0.0051877400333101798 0.020548485756468806 0 -0.0050410010188704953 0.020499187663070514 0 -0.0050913162823718666 0.020434738727223751 0 -0.00515395734161825 0.020919107907010244 0 -0.0047072606845489544 0.020348774998627528 0 -0.0050410010188704953 0.020499187663070514 0 -0.0053566664230916021 0.020726407754978023 0 -0.00515395734161825 0.020919107907010244 0 -0.0051877400333101798 0.020548485756468806 0 -0.00515395734161825 0.020919107907010244 0 -0.0051877400333101798 0.020548485756468806 0 -0.0050410010188704953 0.020499187663070514 0 -0.0041410155784537411 0.020131784941241519 0 -0.0033818602080960196 0.01973751611715702 0 -0.0035879351834828487 0.020189135219012222 0 -0.0037956240370440033 0.020422044811941986 0 -0.0041410155784537411 0.020131784941241519 0 -0.0039882914271798346 0.02079019220874578 0 -0.0037956240370440033 0.020422044811941986 0 -0.0035879351834828487 0.020189135219012222 0 -0.0034542776689238507 0.020577970475897742 0 -0.0037956240370440033 0.020422044811941986 0 -0.0041410155784537411 0.020131784941241519 0 -0.0035879351834828487 0.020189135219012222 0 -0.0041683761349368825 0.020669770615878234 0 -0.0036539078510442451 0.020495510911234829 0 -0.004069124837036091 0.021051751995297099 0 -0.0041683761349368825 0.020669770615878234 0 -0.0040992750443244212 0.020433828140882574 0 -0.0036539078510442451 0.020495510911234829 0 -0.0040992750443244212 0.020433828140882574 0 -0.0036539078510442451 0.020495510911234829 0 -0.0039001542511812562 0.020264462804083339 0 -0.0041522511624905662 0.020145766022873986 0 -0.0039001542511812562 0.020264462804083339 0 -0.0036946253049687026 0.020040226070169666 0 -0.0041809460335043916 0.019770678684303964 0 -0.0036030506658376567 0.019625126584827828 0 -0.0038256677279709817 0.01943302814656428 0 -0.0036539078510442451 0.020495510911234829 0 -0.0039001542511812562 0.020264462804083339 0 -0.0036946253049687026 0.020040226070169666 0 -0.0042818534409510391 0.020054808326804369 0 -0.0036473993021180228 0.019802100136098007 0 -0.0040992750443244212 0.020433828140882574 0 -0.0041522511624905662 0.020145766022873986 0 -0.0039001542511812562 0.020264462804083339 0 -0.0042818534409510391 0.020054808326804369 0 -0.0039739209425775582 0.019696602643057247 0 -0.0038811875717588941 0.020325506617659524 0 -0.0031400095740857946 0.01951597232958523 0 -0.0036539078510442451 0.020495510911234829 0 -0.0036946253049687026 0.020040226070169666 0 -0.0032347761383669936 0.019934813188325969 0 -0.0041410155784537411 0.020131784941241519 0 -0.0034358324909155025 0.019122883188001153 0 -0.0033818602080960196 0.01973751611715702 0 -0.0036473993021180228 0.019802100136098007 0 -0.0031400095740857946 0.01951597232958523 0 -0.0036030506658376567 0.019625126584827828 0 -0.0032004799150741705 0.019295184702133771 0 -0.0029101485670538899 0.019370223117672534 0 -0.0030861643798064308 0.019033368387192297 0 -0.0032004799150741705 0.019295184702133771 0 -0.003417432901349343 0.019270529336385882 0 -0.0030861643798064308 0.019033368387192297 0 -0.003417432901349343 0.019270529336385882 0 -0.0033250884394691476 0.01894567107336087 0 -0.0030861643798064308 0.019033368387192297 0 -0.0032004799150741705 0.019295184702133771 0 -0.0029829298473833419 0.019172512991900328 0 -0.0036030506658376567 0.019625126584827828 0 -0.0032004799150741705 0.019295184702133771 0 -0.003417432901349343 0.019270529336385882 0 -0.003417432901349343 0.019270529336385882 0 -0.0033250884394691476 0.01894567107336087 0 -0.0035838614431872207 0.019087212649410091 0 -0.003417432901349343 0.019270529336385882 0 -0.0035838614431872207 0.019087212649410091 0 -0.0038256677279709817 0.01943302814656428 0 -0.0035838614431872207 0.019087212649410091 0 -0.0038256677279709817 0.01943302814656428 0 -0.0038406649974188642 0.018970314341178442 0 -0.0036030506658376567 0.019625126584827828 0 -0.003417432901349343 0.019270529336385882 0 -0.0038256677279709817 0.01943302814656428 0 -0.0043719418243127412 0.020224585919099827 0 -0.0038256677279709817 0.01943302814656428 0 -0.0043517895457166177 0.019635559144207934 0 -0.0038256677279709817 0.01943302814656428 0 -0.0042690732904468618 0.01915288197672179 0 -0.0043517895457166177 0.019635559144207934 0 -0.0038256677279709817 0.01943302814656428 0 -0.0042690732904468618 0.01915288197672179 0 -0.0038406649974188642 0.018970314341178442 0 -0.0042690732904468618 0.01915288197672179 0 -0.0040010188422869479 0.018513819920680269 0 -0.0038406649974188642 0.018970314341178442 0 -0.0040010188422869479 0.018513819920680269 0 -0.0038406649974188642 0.018970314341178442 0 -0.0035684747573599602 0.018668345888799499 0 -0.0035838614431872207 0.019087212649410091 0 -0.0038406649974188642 0.018970314341178442 0 -0.0035684747573599602 0.018668345888799499 0 -0.0035684747573599602 0.018668345888799499 0 -0.0030156647155910573 0.018013203377338916 0 -0.0030212895522000217 0.018398800331964494 0 -0.0040010188422869479 0.018513819920680269 0 -0.0035684747573599602 0.018668345888799499 0 -0.0030156647155910573 0.018013203377338916 0 -0.0033250884394691476 0.01894567107336087 0 -0.0035838614431872207 0.019087212649410091 0 -0.0035684747573599602 0.018668345888799499 0 -0.0033250884394691476 0.01894567107336087 0 -0.0035684747573599602 0.018668345888799499 0 -0.0032763177698693687 0.0186852036582025 0 -0.0035684747573599602 0.018668345888799499 0 -0.0032763177698693687 0.0186852036582025 0 -0.0030212895522000217 0.018398800331964494 0 -0.0032763177698693687 0.0186852036582025 0 -0.0030390226220203286 0.0186801739732761 0 -0.0030212895522000217 0.018398800331964494 0 -0.0033250884394691476 0.01894567107336087 0 -0.0032763177698693687 0.0186852036582025 0 -0.0030390226220203286 0.0186801739732761 0 -0.0030861643798064308 0.019033368387192297 0 -0.0033250884394691476 0.01894567107336087 0 -0.0030390226220203286 0.0186801739732761 0 -0.0048719800455936466 0.020321028337635029 0 -0.0045250710281386176 0.019484747199029796 0 -0.0050410010188704953 0.020499187663070514 0 -0.0051145516667450014 0.020366024351481875 0 -0.0050913162823718666 0.020434738727223751 0 -0.0042524999324276931 0.019774191697085556 0 -0.0042356181651968736 0.019578731173387823 0 -0.0040727730190122007 0.019683026445372124 0 -0.0050155194722396879 0.020269975675833139 0 -0.0045250710281386176 0.019484747199029796 0 -0.0050155194722396879 0.020269975675833139 0 -0.005084773838524387 0.020319862463281595 0 -0.005179667898762833 0.020404061311541034 0 -0.0051145516667450014 0.020366024351481875 0 -0.0050913162823718666 0.020434738727223751 0 -0.0052943335836442579 0.020403801660827559 0 -0.0051877400333101798 0.020548485756468806 0 -0.0050913162823718666 0.020434738727223751 0 -0.0050410010188704953 0.020499187663070514 0 -0.0053496522350422616 0.019185661666874222 0 -0.0046968645816937247 0.019514452359111631 0 -0.0042690732904468618 0.01915288197672179 0 -0.0053496522350422616 0.019185661666874222 0 -0.0046968645816937247 0.019514452359111631 0 -0.0042690732904468618 0.01915288197672179 0 -0.0046968645816937247 0.019514452359111631 0 -0.0043517895457166177 0.019635559144207934 0 -0.004644494258150454 0.020008570229277333 0 -0.0046968645816937247 0.019514452359111631 0 -0.0043517895457166177 0.019635559144207934 0 -0.0042690732904468618 0.01915288197672179 0 -0.0040010188422869479 0.018513819920680269 0 -0.0053496522350422616 0.019185661666874222 0 -0.0037878966925729441 0.018440820896605817 0 -0.0045250710281386176 0.019484747199029796 0 -0.0036273783603056899 0.018313801935104089 0 -0.0041987602150927398 0.018605052734331134 0 -0.0039745359769932384 0.018335739988496833 0 -0.0039745359769932384 0.018335739988496833 0 -0.0038955226082452899 0.018212357576928469 0 -0.0042752987835551048 0.018164911315899632 0 -0.0036273783603056899 0.018313801935104089 0 -0.0039745359769932384 0.018335739988496833 0 -0.0038955226082452899 0.018212357576928469 0 -0.0045250710281386176 0.019484747199029796 0 -0.0034134333361346449 0.018351642877116898 0 -0.0042356181651968736 0.019578731173387823 0 -0.0040727730190122007 0.019683026445372124 0 -0.004121037828804971 0.019390761806312003 0 -0.0041987602150927398 0.018605052734331134 0 -0.0039745359769932384 0.018335739988496833 0 -0.0042752987835551048 0.018164911315899632 0 -0.0026691941079443945 0.01801705720850233 0 -0.0025611839611655832 0.018103840340359768 0 -0.0026008156887407418 0.017924057660341726 0 -0.0026593226284209177 0.017613166581237967 0 -0.0026419007733689739 0.017677433064247385 0 -0.0027052303506394518 0.017653878962294974 0 -0.0034134333361346449 0.018351642877116898 0 -0.0028879147162792587 0.01786307976846924 0 -0.0028879147162792587 0.01786307976846924 0 -0.0027688526352510905 0.017817376353365853 0 -0.0026419007733689739 0.017677433064247385 0 -0.0026809079214746459 0.017737696773586061 0 -0.0026322221713221015 0.017787444178056271 0 -0.0026419007733689739 0.017677433064247385 0 -0.0026886289890085363 0.017691947969320658 0 -0.0026809079214746459 0.017737696773586061 0 -0.0026419007733689739 0.017677433064247385 0 -0.0026886289890085363 0.017691947969320658 0 -0.0027052303506394518 0.017653878962294974 0 -0.0027203785689105036 0.017699624181904662 0 -0.0027448910091356616 0.017670435330432315 0 -0.0027471805759568231 0.017703467608888079 0 -0.0026886289890085363 0.017691947969320658 0 -0.0026809079214746459 0.017737696773586061 0 -0.0027203785689105036 0.017699624181904662 0 -0.0026886289890085363 0.017691947969320658 0 -0.0027203785689105036 0.017699624181904662 0 -0.0027052303506394518 0.017653878962294974 0 -0.0027203785689105036 0.017699624181904662 0 -0.0027448910091356616 0.017670435330432315 0 -0.0027052303506394518 0.017653878962294974 0 -0.0034134333361346449 0.018351642877116898 0 -0.003219321380746661 0.017874820990680287 0 -0.0027448910091356616 0.017670435330432315 0 -0.0027052303506394518 0.017653878962294974 0 -0.0027582206911330796 0.017629660601539296 0 -0.0026593226284209177 0.017613166581237967 0 -0.0027052303506394518 0.017653878962294974 0 -0.0027582206911330796 0.017629660601539296 0 -0.0038955226082452899 0.018212357576928469 0 -0.0042752987835551048 0.018164911315899632 0 -0.0037038456595481473 0.018036540573135668 0 -0.0036273783603056899 0.018313801935104089 0 -0.0038955226082452899 0.018212357576928469 0 -0.0037038456595481473 0.018036540573135668 0 -0.003219321380746661 0.017874820990680287 0 -0.0029148161363358109 0.01777256642061073 0 -0.0036273783603056899 0.018313801935104089 0 -0.0037038456595481473 0.018036540573135668 0 -0.0033653232627331941 0.018062572537501743 0 -0.0037038456595481473 0.018036540573135668 0 -0.0033653232627331941 0.018062572537501743 0 -0.0031078001484018047 0.017888522717824366 0 -0.0036273783603056899 0.018313801935104089 0 -0.0033653232627331941 0.018062572537501743 0 -0.0030156647155910573 0.018013203377338916 0 -0.0027582206911330796 0.017629660601539296 0 -0.0028363140582197909 0.017670172730565738 0 -0.0028083436397254046 0.01765404574665292 0 -0.0037878966925729441 0.018440820896605817 0 -0.0031331984460392487 0.018076345254614223 0 -0.0033653232627331941 0.018062572537501743 0 -0.0031078001484018047 0.017888522717824366 0 -0.0030156647155910573 0.018013203377338916 0 -0.002778839611090806 0.017614879555761732 0 -0.0027807998801510515 0.017666099358962122 0 -0.0027528019075704368 0.017726390995755396 0 -0.0028083436397254046 0.01765404574665292 0 -0.002778839611090806 0.017614879555761732 0 -0.0027771055334788837 0.017583094846371192 0 -0.0028363140582197909 0.017670172730565738 0 -0.0028083436397254046 0.01765404574665292 0 -0.0027771055334788837 0.017583094846371192 0 -0.0028083436397254046 0.01765404574665292 0 -0.002778839611090806 0.017614879555761732 0 -0.0027807998801510515 0.017666099358962122 0 -0.0027582206911330796 0.017629660601539296 0 -0.0028083436397254046 0.01765404574665292 0 -0.0027807998801510515 0.017666099358962122 0 -0.0027448910091356616 0.017670435330432315 0 -0.0027582206911330796 0.017629660601539296 0 -0.0027807998801510515 0.017666099358962122 0 -0.0027448910091356616 0.017670435330432315 0 -0.0027807998801510515 0.017666099358962122 0 -0.0027471805759568231 0.017703467608888079 0 -0.0027471805759568231 0.017703467608888079 0 -0.0027528019075704368 0.017726390995755396 0 -0.002721813454000709 0.017758754451018238 0 -0.0027807998801510515 0.017666099358962122 0 -0.0027471805759568231 0.017703467608888079 0 -0.0027528019075704368 0.017726390995755396 0 -0.0027528019075704368 0.017726390995755396 0 -0.0027388892975573321 0.017837117588847134 0 -0.002721813454000709 0.017758754451018238 0 -0.002778839611090806 0.017614879555761732 0 -0.0027528019075704368 0.017726390995755396 0 -0.0027524686012663523 0.017694374554367637 0 -0.0027404922910907953 0.017799209029477896 0 -0.0027528019075704368 0.017726390995755396 0 -0.0027524686012663523 0.017694374554367637 0 -0.0027404922910907953 0.017799209029477896 0 -0.0027524686012663523 0.017694374554367637 0 -0.0027570857329492103 0.017763639432805345 0 -0.0027404922910907953 0.017799209029477896 0 -0.0027528019075704368 0.017726390995755396 0 -0.0027388892975573321 0.017837117588847134 0 -0.0027164524209452143 0.018008763002476044 0 -0.0027388892975573321 0.017837117588847134 0 -0.002721813454000709 0.017758754451018238 0 -0.0027164524209452143 0.018008763002476044 0 -0.0031448202693109138 0.018310893500380308 0 -0.0028769863985404175 0.019043722043657011 0 -0.0027164524209452143 0.018008763002476044 0 -0.0026159887540390622 0.017766864857403929 0 -0.0026660854752808016 0.017783159224469283 0 -0.0027164524209452143 0.018008763002476044 0 -0.0026660854752808016 0.017783159224469283 0 -0.002721813454000709 0.017758754451018238 0 -0.002699954261476675 0.018113701326964757 0 -0.0027950726720928775 0.018436606548425816 0 -0.0026159887540390622 0.017766864857403929 0 -0.0026660854752808016 0.017783159224469283 0 -0.0026322221713221015 0.017787444178056271 0 -0.0026809079214746459 0.017737696773586061 0 -0.0026660854752808016 0.017783159224469283 0 -0.0026322221713221015 0.017787444178056271 0 -0.0026809079214746459 0.017737696773586061 0 -0.0026660854752808016 0.017783159224469283 0 -0.002721813454000709 0.017758754451018238 0 -0.0026809079214746459 0.017737696773586061 0 -0.0027203785689105036 0.017699624181904662 0 -0.002721813454000709 0.017758754451018238 0 -0.0027203785689105036 0.017699624181904662 0 -0.0027471805759568231 0.017703467608888079 0 -0.002721813454000709 0.017758754451018238 0 -0.0016327776924869126 0.016774917188094873 0 -0.0022060686343963135 0.017024409067446331 0 -0.0017625288510950273 0.017407065589993578 0 -0.0016327776924869126 0.016774917188094873 0 -0.0017625288510950273 0.017407065589993578 0 -0.0011585908781905621 0.017181715045424806 0 -0.0016327776924869126 0.016774917188094873 0 -0.0020502889094264607 0.016211863440407856 0 -0.0022060686343963135 0.017024409067446331 0 -0.0016327776924869126 0.016774917188094873 0 -0.0011701031988543276 0.016557823618866759 0 -0.0011585908781905621 0.017181715045424806 0 -0.00062140552719271277 0.016759268817641917 0 -0.0011701031988543276 0.016557823618866759 0 -0.0011585908781905621 0.017181715045424806 0 -0.0016327776924869126 0.016774917188094873 0 -0.0011701031988543276 0.016557823618866759 0 -0.0015149455588870538 0.016190159844354981 0 -0.00062140552719271277 0.016759268817641917 0 -0.00096840327951014653 0.015819081663017247 0 -0.0011701031988543276 0.016557823618866759 0 -0.00096840327951014653 0.015819081663017247 0 -0.0011701031988543276 0.016557823618866759 0 -0.0015149455588870538 0.016190159844354981 0 -0.0017520507793020463 0.015527823447831981 0 -0.0015149455588870538 0.016190159844354981 0 -0.0020502889094264607 0.016211863440407856 0 -0.0016327776924869126 0.016774917188094873 0 -0.0015149455588870538 0.016190159844354981 0 -0.0020502889094264607 0.016211863440407856 0 -0.0020502889094264607 0.016211863440407856 0 -0.0027087644550388809 0.016447118387029506 0 -0.0022060686343963135 0.017024409067446331 0 -0.0026082145046844125 0.016740109081770843 0 -0.002721359201895643 0.017061416827426831 0 -0.0025311652070970506 0.015464457582677959 0 -0.0020502889094264607 0.016211863440407856 0 -0.0027087644550388809 0.016447118387029506 0 -0.0027445298318459288 0.017768349035166327 0 -0.002807849608936324 0.017718387786858355 0 -0.0027570857329492103 0.017763639432805345 0 -0.0027524686012663523 0.017694374554367637 0 -0.002807849608936324 0.017718387786858355 0 -0.0027570857329492103 0.017763639432805345 0 -0.002721359201895643 0.017061416827426831 0 -0.0027666930333712916 0.017383847827631273 0 -0.002778839611090806 0.017614879555761732 0 -0.0027524686012663523 0.017694374554367637 0 -0.0027461009030759626 0.017489378857344556 0 -0.0027524686012663523 0.017694374554367637 0 -0.002807849608936324 0.017718387786858355 0 -0.0027461009030759626 0.017489378857344556 0 -0.0027087644550388809 0.016447118387029506 0 -0.0022060686343963135 0.017024409067446331 0 -0.0027461009030759626 0.017489378857344556 0 -0.0022060686343963135 0.017024409067446331 0 -0.002334258485146293 0.017652807513003105 0 -0.0017625288510950273 0.017407065589993578 0 -0.0022060686343963135 0.017024409067446331 0 -0.002334258485146293 0.017652807513003105 0 -0.0027461009030759626 0.017489378857344556 0 -0.002334258485146293 0.017652807513003105 0 -0.0027461009030759626 0.017489378857344556 0 -0.0027771055334788837 0.017583094846371192 0 -0.0028363140582197909 0.017670172730565738 0 -0.002334258485146293 0.017652807513003105 0 -0.0027771055334788837 0.017583094846371192 0 -0.002778839611090806 0.017614879555761732 0 -0.0027461009030759626 0.017489378857344556 0 -0.0027771055334788837 0.017583094846371192 0 -0.0031078001484018047 0.017888522717824366 0 -0.002334258485146293 0.017652807513003105 0 -0.0027537976438183924 0.017980659816173063 0 -0.0029148161363358109 0.01777256642061073 0 -0.002439312761793423 0.017672601699941684 0 -0.0031078001484018047 0.017888522717824366 0 -0.0030156647155910573 0.018013203377338916 0 -0.0027537976438183924 0.017980659816173063 0 -0.0027537976438183924 0.017980659816173063 0 -0.0028029068148209884 0.018203059444610939 0 -0.0024973482822095916 0.018166813445224531 0 -0.0030156647155910573 0.018013203377338916 0 -0.0027537976438183924 0.017980659816173063 0 -0.0028029068148209884 0.018203059444610939 0 -0.0030156647155910573 0.018013203377338916 0 -0.0028029068148209884 0.018203059444610939 0 -0.0030212895522000217 0.018398800331964494 0 -0.002334258485146293 0.017652807513003105 0 -0.0024973482822095916 0.018166813445224531 0 -0.0020316355785096976 0.018212302530613803 0 -0.002334258485146293 0.017652807513003105 0 -0.0020316355785096976 0.018212302530613803 0 -0.0018142054569578194 0.017856379708637668 0 -0.002334258485146293 0.017652807513003105 0 -0.0027537976438183924 0.017980659816173063 0 -0.0024973482822095916 0.018166813445224531 0 -0.0020316355785096976 0.018212302530613803 0 -0.0018142054569578194 0.017856379708637668 0 -0.0015798522578000787 0.01822551425726392 0 -0.0018142054569578194 0.017856379708637668 0 -0.0013512303595174168 0.017709403600151795 0 -0.0015798522578000787 0.01822551425726392 0 -0.002334258485146293 0.017652807513003105 0 -0.0018142054569578194 0.017856379708637668 0 -0.0017625288510950273 0.017407065589993578 0 -0.0018142054569578194 0.017856379708637668 0 -0.0017625288510950273 0.017407065589993578 0 -0.0013512303595174168 0.017709403600151795 0 -0.0017625288510950273 0.017407065589993578 0 -0.0011585908781905621 0.017181715045424806 0 -0.0013512303595174168 0.017709403600151795 0 -0.0011585908781905621 0.017181715045424806 0 -0.00098216180482237677 0.017610760127455233 0 -0.0013512303595174168 0.017709403600151795 0 -0.00074711898525465636 0.017352571713710355 0 -0.0011585908781905621 0.017181715045424806 0 -0.00098216180482237677 0.017610760127455233 0 -0.00098216180482237677 0.017610760127455233 0 -0.0013512303595174168 0.017709403600151795 0 -0.0010558002199152635 0.017962909953068935 0 -0.0010558002199152635 0.017962909953068935 0 -0.0011873976773343789 0.0183086972136891 0 -0.0015798522578000787 0.01822551425726392 0 -0.0013512303595174168 0.017709403600151795 0 -0.0010558002199152635 0.017962909953068935 0 -0.0015798522578000787 0.01822551425726392 0 -0.0011873976773343789 0.0183086972136891 0 -0.0015798522578000787 0.01822551425726392 0 -0.001673424689946885 0.018812263044496826 0 -0.0011873976773343789 0.0183086972136891 0 -0.001673424689946885 0.018812263044496826 0 -0.0011428199668909083 0.018716422363724509 0 -0.0020316355785096976 0.018212302530613803 0 -0.001673424689946885 0.018812263044496826 0 -0.0022929383600857698 0.01860836340349243 0 -0.0020316355785096976 0.018212302530613803 0 -0.0015798522578000787 0.01822551425726392 0 -0.001673424689946885 0.018812263044496826 0 -0.0018902649403712227 0.018903112813329247 0 -0.0024128969325238896 0.019075154361210014 0 -0.001673424689946885 0.018812263044496826 0 -0.0025621785329809849 0.01893539713471629 0 -0.0021651261646750543 0.019392948512124315 0 -0.001673424689946885 0.018812263044496826 0 -0.0016683750608489471 0.019361753370368578 0 -0.0021651261646750543 0.019392948512124315 0 -0.001673424689946885 0.018812263044496826 0 -0.0012939336901190862 0.019157667235419618 0 -0.0016683750608489471 0.019361753370368578 0 -0.0012939336901190862 0.019157667235419618 0 -0.001027337417924247 0.018990187339953047 0 -0.0011428199668909083 0.018716422363724509 0 -0.0009419227483687335 0.019276616115198712 0 -0.0012939336901190862 0.019157667235419618 0 -0.001027337417924247 0.018990187339953047 0 -0.001673424689946885 0.018812263044496826 0 -0.0012939336901190862 0.019157667235419618 0 -0.0011428199668909083 0.018716422363724509 0 -0.0030861643798064308 0.019033368387192297 0 -0.0028428760160614064 0.018812719885543578 0 -0.0030390226220203286 0.0186801739732761 0 -0.0028428760160614064 0.018812719885543578 0 -0.0030390226220203286 0.0186801739732761 0 -0.0026951477557267422 0.018514754871391835 0 -0.0028029068148209884 0.018203059444610939 0 -0.0030212895522000217 0.018398800331964494 0 -0.0026951477557267422 0.018514754871391835 0 -0.0030390226220203286 0.0186801739732761 0 -0.0030212895522000217 0.018398800331964494 0 -0.0026951477557267422 0.018514754871391835 0 -0.0028029068148209884 0.018203059444610939 0 -0.0024973482822095916 0.018166813445224531 0 -0.0026951477557267422 0.018514754871391835 0 -0.0028428760160614064 0.018812719885543578 0 -0.0026951477557267422 0.018514754871391835 0 -0.0026331455332507243 0.018844873346486372 0 -0.0026951477557267422 0.018514754871391835 0 -0.0022929383600857698 0.01860836340349243 0 -0.0026331455332507243 0.018844873346486372 0 -0.0024973482822095916 0.018166813445224531 0 -0.0026951477557267422 0.018514754871391835 0 -0.0022929383600857698 0.01860836340349243 0 -0.0024973482822095916 0.018166813445224531 0 -0.0020316355785096976 0.018212302530613803 0 -0.0022929383600857698 0.01860836340349243 0 -0.001673424689946885 0.018812263044496826 0 -0.0022929383600857698 0.01860836340349243 0 -0.0022795279739115906 0.019065136341639206 0 -0.0022929383600857698 0.01860836340349243 0 -0.0022795279739115906 0.019065136341639206 0 -0.0026331455332507243 0.018844873346486372 0 -0.0024128969325238896 0.019075154361210014 0 -0.0031400095740857946 0.01951597232958523 0 -0.0022795279739115906 0.019065136341639206 0 -0.0027944258905599727 0.019145760082774802 0 -0.0029058389154333472 0.019312460017036882 0 -0.0022795279739115906 0.019065136341639206 0 -0.0026331455332507243 0.018844873346486372 0 -0.0027944258905599727 0.019145760082774802 0 -0.0025621785329809849 0.01893539713471629 0 -0.0034358324909155025 0.019122883188001153 0 -0.00305042633456517 0.019340360802387456 0 -0.0026331455332507243 0.018844873346486372 0 -0.0027944258905599727 0.019145760082774802 0 -0.0028797000584754226 0.01900390774963125 0 -0.0032004799150741705 0.019295184702133771 0 -0.0029101485670538899 0.019370223117672534 0 -0.0029829298473833419 0.019172512991900328 0 -0.0030666822876214846 0.01942657706201463 0 -0.0031400095740857946 0.01951597232958523 0 -0.0027944258905599727 0.019145760082774802 0 -0.0029101485670538899 0.019370223117672534 0 -0.0029829298473833419 0.019172512991900328 0 -0.0030861643798064308 0.019033368387192297 0 -0.0029829298473833419 0.019172512991900328 0 -0.0028797000584754226 0.01900390774963125 0 -0.0027944258905599727 0.019145760082774802 0 -0.0029829298473833419 0.019172512991900328 0 -0.0028797000584754226 0.01900390774963125 0 -0.0028428760160614064 0.018812719885543578 0 -0.0026331455332507243 0.018844873346486372 0 -0.0028797000584754226 0.01900390774963125 0 -0.0030861643798064308 0.019033368387192297 0 -0.0028428760160614064 0.018812719885543578 0 -0.0028797000584754226 0.01900390774963125 0 -0.0034358324909155025 0.019122883188001153 0 -0.0033818602080960196 0.01973751611715702 0 -0.00305042633456517 0.019340360802387456 0 -0.0033818602080960196 0.01973751611715702 0 -0.00305042633456517 0.019340360802387456 0 -0.0028213011029942481 0.019566617608807825 0 -0.0033818602080960196 0.01973751611715702 0 -0.0028213011029942481 0.019566617608807825 0 -0.0030780931271503866 0.020044027684944871 0 -0.0028213011029942481 0.019566617608807825 0 -0.0024437293533231164 0.019928656364055556 0 -0.0030780931271503866 0.020044027684944871 0 -0.0025621785329809849 0.01893539713471629 0 -0.00305042633456517 0.019340360802387456 0 -0.0028213011029942481 0.019566617608807825 0 -0.0025621785329809849 0.01893539713471629 0 -0.0028213011029942481 0.019566617608807825 0 -0.0021651261646750543 0.019392948512124315 0 -0.0028213011029942481 0.019566617608807825 0 -0.0024437293533231164 0.019928656364055556 0 -0.0021651261646750543 0.019392948512124315 0 -0.0024437293533231164 0.019928656364055556 0 -0.0028706657553703779 0.020449993250171935 0 -0.0021449334225130947 0.020586685125707178 0 -0.0024437293533231164 0.019928656364055556 0 -0.0028706657553703779 0.020449993250171935 0 -0.0030780931271503866 0.020044027684944871 0 -0.0028706657553703779 0.020449993250171935 0 -0.0030780931271503866 0.020044027684944871 0 -0.0034542776689238507 0.020577970475897742 0 -0.0030780931271503866 0.020044027684944871 0 -0.0035879351834828487 0.020189135219012222 0 -0.0034542776689238507 0.020577970475897742 0 -0.0033818602080960196 0.01973751611715702 0 -0.0030780931271503866 0.020044027684944871 0 -0.0035879351834828487 0.020189135219012222 0 -0.0013998848143116109 0.019616460195208442 0 -0.0010930342739201438 0.019664967715568287 0 -0.0014525385778767022 0.020134170847986053 0 -0.0013998848143116109 0.019616460195208442 0 -0.0017891007628650626 0.019833772320964144 0 -0.0014525385778767022 0.020134170847986053 0 -0.0013998848143116109 0.019616460195208442 0 -0.0010930342739201438 0.019664967715568287 0 -0.00117732443675526 0.019430258991998423 0 -0.0009419227483687335 0.019276616115198712 0 -0.0010930342739201438 0.019664967715568287 0 -0.00117732443675526 0.019430258991998423 0 -0.0009419227483687335 0.019276616115198712 0 -0.0012939336901190862 0.019157667235419618 0 -0.00117732443675526 0.019430258991998423 0 -0.0012939336901190862 0.019157667235419618 0 -0.0013998848143116109 0.019616460195208442 0 -0.00117732443675526 0.019430258991998423 0 -0.0012939336901190862 0.019157667235419618 0 -0.0013998848143116109 0.019616460195208442 0 -0.0016683750608489471 0.019361753370368578 0 -0.0016683750608489471 0.019361753370368578 0 -0.0021651261646750543 0.019392948512124315 0 -0.0017891007628650626 0.019833772320964144 0 -0.0024437293533231164 0.019928656364055556 0 -0.0021651261646750543 0.019392948512124315 0 -0.0017891007628650626 0.019833772320964144 0 -0.0013998848143116109 0.019616460195208442 0 -0.0016683750608489471 0.019361753370368578 0 -0.0017891007628650626 0.019833772320964144 0 -0.0022950638363632655 0.019978376664344526 0 -0.0021071949900471603 0.018289336069936886 0 -0.0002455440049797583 0.010730116433767683 0 -0.00029584610492752462 0.01135727103601414 0 -0.001073943082276157 0.01111254869427002 0 -0.0024437293533231164 0.019928656364055556 0 -0.0017891007628650626 0.019833772320964144 0 -0.0021449334225130947 0.020586685125707178 0 -0.00072225017456708813 0.015601883684941784 0 -0.0021071949900471603 0.018289336069936886 0 -0.0017891007628650626 0.019833772320964144 0 -0.0014525385778767022 0.020134170847986053 0 -0.0020594603070903765 0.020437826095521253 0 0.00043983464606590287 0.010802945493348648 0 -0.0002455440049797583 0.010730116433767683 0 0.00032052353743765771 0.011131229619566757 0 0.00043983464606590287 0.010802945493348648 0 0.00036293912743093934 0.010560318897187565 0 -0.0002455440049797583 0.010730116433767683 0 -0.00033761736148079838 0.014054271529151993 0 -0.00072225017456708813 0.015601883684941784 0 0.00048851019446158014 0.01042038652881179 0 0.00036293912743093934 0.010560318897187565 0 -0.0002455440049797583 0.010730116433767683 0 -0.0002455440049797583 0.010730116433767683 0 -0.00029584610492752462 0.01135727103601414 0 0.00032052353743765771 0.011131229619566757 0 -0.00078790786174569381 0.019857121735439937 0 -0.0010930342739201438 0.019664967715568287 0 -0.0014525385778767022 0.020134170847986053 0 -0.00029584610492752462 0.01135727103601414 0 0.00032052353743765771 0.011131229619566757 0 0.00075804980580027807 0.011565786677743658 0 -0.00029584610492752462 0.01135727103601414 0 -0.00036880846839418161 0.012030113286429946 0 0.00075804980580027807 0.011565786677743658 0 -0.001073943082276157 0.01111254869427002 0 -0.0008591357565954005 0.011823966250523966 0 -0.0016368619031455773 0.012167127689696874 0 -0.00029584610492752462 0.01135727103601414 0 -0.001073943082276157 0.01111254869427002 0 -0.0008591357565954005 0.011823966250523966 0 -0.00029584610492752462 0.01135727103601414 0 -0.0008591357565954005 0.011823966250523966 0 -0.00036880846839418161 0.012030113286429946 0 -0.0008591357565954005 0.011823966250523966 0 -0.00095198823442375143 0.012500201447716961 0 -0.00036880846839418161 0.012030113286429946 0 -0.0008591357565954005 0.011823966250523966 0 -0.00095198823442375143 0.012500201447716961 0 -0.0016368619031455773 0.012167127689696874 0 -0.00036880846839418161 0.012030113286429946 0 5.3060755033605079e-05 0.012752586779524787 0 0.00075804980580027807 0.011565786677743658 0 -0.00095198823442375143 0.012500201447716961 0 -0.00036880846839418161 0.012030113286429946 0 5.3060755033605079e-05 0.012752586779524787 0 -0.0034542776689238507 0.020577970475897742 0 -0.0032156379229241181 0.021102631189995204 0 -0.0039882914271798346 0.02079019220874578 0 -0.0028706657553703779 0.020449993250171935 0 -0.0034542776689238507 0.020577970475897742 0 -0.0032156379229241181 0.021102631189995204 0 -0.0046821187672810892 0.021862575893193084 0 -0.0043271226286989628 0.021669798226222059 0 -0.0046036016758604897 0.021622629674017509 0 -0.0021071949900471603 0.018289336069936886 0 -0.0029210503293125595 0.016796868450764339 0 -0.0028706657553703779 0.020449993250171935 0 -0.0021449334225130947 0.020586685125707178 0 -0.0032156379229241181 0.021102631189995204 0 -0.0021071949900471603 0.018289336069936886 0 -0.0041620922089648862 0.021368600163039212 0 -0.00095198823442375143 0.012500201447716961 0 -0.0016368619031455773 0.012167127689696874 0 -0.001395669244325097 0.012985495727115349 0 -0.0043271226286989628 0.021669798226222059 0 -0.0046036016758604897 0.021622629674017509 0 -0.0042817953141085444 0.021484065042767824 0 -0.0046036016758604897 0.021622629674017509 0 -0.0042817953141085444 0.021484065042767824 0 -0.0042800506350631519 0.02123820819931475 0 -0.0042817953141085444 0.021484065042767824 0 -0.0042645622261946571 0.021420165846076488 0 -0.004247368319817953 0.02146217005840215 0 -0.0043271226286989628 0.021669798226222059 0 -0.0042817953141085444 0.021484065042767824 0 -0.004247368319817953 0.02146217005840215 0 -0.0042800506350631519 0.02123820819931475 0 -0.0045850506089739037 0.020472548687178804 0 -0.0036067176747218424 0.018899602441411097 0 -0.0042800506350631519 0.02123820819931475 0 -0.0042310969555289443 0.021896881416821997 0 -0.0042984095405851847 0.021565047009977276 0 -0.0042645622261946571 0.021420165846076488 0 -0.0042800506350631519 0.02123820819931475 0 -0.0042984095405851847 0.021565047009977276 0 -0.0042817953141085444 0.021484065042767824 0 -0.0042645622261946571 0.021420165846076488 0 -0.0042800506350631519 0.02123820819931475 0 -0.0029210503293125595 0.016796868450764339 0 -0.0033648401762740275 0.016878546855801386 0 -0.0046036016758604897 0.021622629674017509 0 -0.0042800506350631519 0.02123820819931475 0 -0.0045850506089739037 0.020472548687178804 0 -0.0016368619031455773 0.012167127689696874 0 -0.002277029217934331 0.013382255583346776 0 -0.001395669244325097 0.012985495727115349 0 -0.002277029217934331 0.013382255583346776 0 -0.001395669244325097 0.012985495727115349 0 -0.0014271824242498982 0.013617719392858231 0 -0.0014271824242498982 0.013617719392858231 0 -0.0016509797238271143 0.014411272097142453 0 -0.0019436107970942737 0.013845933713457876 0 -0.0014271824242498982 0.013617719392858231 0 -0.0016509797238271143 0.014411272097142453 0 -0.00079690721042046525 0.014149710487272791 0 -0.0016509797238271143 0.014411272097142453 0 -0.0019436107970942737 0.013845933713457876 0 -0.0022538704147781813 0.014361127249504477 0 -0.002277029217934331 0.013382255583346776 0 -0.0019436107970942737 0.013845933713457876 0 -0.0022538704147781813 0.014361127249504477 0 -0.002277029217934331 0.013382255583346776 0 -0.0014271824242498982 0.013617719392858231 0 -0.0019436107970942737 0.013845933713457876 0 -0.0045850506089739037 0.020472548687178804 0 -0.0040449066720706882 0.018348452384420056 0 -0.0036067176747218424 0.018899602441411097 0 -0.0042653124062967977 0.021147374126820686 0 -0.0040400450439098809 0.020425411413427495 0 -0.0033648401762740275 0.016878546855801386 0 -0.003466349858121341 0.016630719535538577 0 -0.002277029217934331 0.013382255583346776 0 -0.0022538704147781813 0.014361127249504477 0 -0.002997074198858861 0.01482214405993252 0 5.3060755033605079e-05 0.012752586779524787 0 -3.5159851946047305e-05 0.013790902924708203 0 0.00093936281929846079 0.013058827266048827 0 5.3060755033605079e-05 0.012752586779524787 0 -0.00072066367309541748 0.013294975000264945 0 -3.5159851946047305e-05 0.013790902924708203 0 -0.00095198823442375143 0.012500201447716961 0 5.3060755033605079e-05 0.012752586779524787 0 -0.00072066367309541748 0.013294975000264945 0 -0.00095198823442375143 0.012500201447716961 0 -0.001395669244325097 0.012985495727115349 0 -0.00072066367309541748 0.013294975000264945 0 -0.001395669244325097 0.012985495727115349 0 -0.0014271824242498982 0.013617719392858231 0 -0.00072066367309541748 0.013294975000264945 0 -0.00079690721042046525 0.014149710487272791 0 -3.5159851946047305e-05 0.013790902924708203 0 -0.0003712000870336557 0.015005212267982895 0 -0.00072066367309541748 0.013294975000264945 0 -0.00079690721042046525 0.014149710487272791 0 -3.5159851946047305e-05 0.013790902924708203 0 -0.0014271824242498982 0.013617719392858231 0 -0.00072066367309541748 0.013294975000264945 0 -0.00079690721042046525 0.014149710487272791 0 -3.5159851946047305e-05 0.013790902924708203 0 -0.0003712000870336557 0.015005212267982895 0 0.00059023239943775696 0.014594906498980435 0 0.00028007699805248759 0.015705154357854866 0 -0.0003712000870336557 0.015005212267982895 0 0.00059023239943775696 0.014594906498980435 0 0.00028007699805248759 0.015705154357854866 0 0.00055568445417525001 0.01660044030904512 0 -0.00053900157971827891 0.016580023961247015 0 0.00028007699805248759 0.015705154357854866 0 -0.0003712000870336557 0.015005212267982895 0 -0.00053900157971827891 0.016580023961247015 0 -0.0003712000870336557 0.015005212267982895 0 -0.0012778725368875752 0.015316027490043847 0 -0.00053900157971827891 0.016580023961247015 0 -0.0012778725368875752 0.015316027490043847 0 -0.0015833341939197607 0.01625651080649106 0 -0.00053900157971827891 0.016580023961247015 0 -0.00079690721042046525 0.014149710487272791 0 -0.0003712000870336557 0.015005212267982895 0 -0.0012778725368875752 0.015316027490043847 0 -0.0016509797238271143 0.014411272097142453 0 -0.00079690721042046525 0.014149710487272791 0 -0.0012778725368875752 0.015316027490043847 0 -0.0016509797238271143 0.014411272097142453 0 -0.0020728610451494927 0.015024133684128528 0 -0.0012778725368875752 0.015316027490043847 0 -0.0016509797238271143 0.014411272097142453 0 -0.0022538704147781813 0.014361127249504477 0 -0.0020728610451494927 0.015024133684128528 0 -0.0020728610451494927 0.015024133684128528 0 -0.0012778725368875752 0.015316027490043847 0 -0.0020485041986314911 0.01579568976181606 0 -0.0022538704147781813 0.014361127249504477 0 -0.0020728610451494927 0.015024133684128528 0 -0.0024540717351363111 0.014905471305488477 0 -0.0022538704147781813 0.014361127249504477 0 -0.002997074198858861 0.01482214405993252 0 -0.0024540717351363111 0.014905471305488477 0 -0.002997074198858861 0.01482214405993252 0 -0.0024540717351363111 0.014905471305488477 0 -0.0025126570839332212 0.015445726826291296 0 -0.0020728610451494927 0.015024133684128528 0 -0.0024540717351363111 0.014905471305488477 0 -0.0025126570839332212 0.015445726826291296 0 -0.0020728610451494927 0.015024133684128528 0 -0.0025126570839332212 0.015445726826291296 0 -0.0020485041986314911 0.01579568976181606 0 -0.002997074198858861 0.01482214405993252 0 -0.0025126570839332212 0.015445726826291296 0 -0.0029514511141217055 0.016003785461147172 0 -0.002997074198858861 0.01482214405993252 0 -0.0029514511141217055 0.016003785461147172 0 -0.0035889396371449993 0.01678965004165817 0 -0.0029514511141217055 0.016003785461147172 0 -0.0026161188213512996 0.016166514690773525 0 -0.0029255517898104932 0.016763376897278574 0 -0.0025126570839332212 0.015445726826291296 0 -0.0026161188213512996 0.016166514690773525 0 -0.0020485041986314911 0.01579568976181606 0 -0.0026161188213512996 0.016166514690773525 0 -0.0022940691659702568 0.0165810694539325 0 -0.0020485041986314911 0.01579568976181606 0 -0.0025126570839332212 0.015445726826291296 0 -0.0029514511141217055 0.016003785461147172 0 -0.0026161188213512996 0.016166514690773525 0 -0.0026161188213512996 0.016166514690773525 0 -0.0022940691659702568 0.0165810694539325 0 -0.0029255517898104932 0.016763376897278574 0 -0.0022940691659702568 0.0165810694539325 0 -0.0029255517898104932 0.016763376897278574 0 -0.0027274286474883603 0.017359815034957735 0 -0.0029514511141217055 0.016003785461147172 0 -0.0029255517898104932 0.016763376897278574 0 -0.0035889396371449993 0.01678965004165817 0 -0.0015833341939197607 0.01625651080649106 0 -0.0018407801672792152 0.017148475918934095 0 -0.00053900157971827891 0.016580023961247015 0 -0.0012778725368875752 0.015316027490043847 0 -0.0020485041986314911 0.01579568976181606 0 -0.0015833341939197607 0.01625651080649106 0 -0.0022940691659702568 0.0165810694539325 0 -0.0020485041986314911 0.01579568976181606 0 -0.0015833341939197607 0.01625651080649106 0 -0.0022940691659702568 0.0165810694539325 0 -0.0015833341939197607 0.01625651080649106 0 -0.0018407801672792152 0.017148475918934095 0 -0.0012549215210446512 0.017741699405872828 0 -0.0018407801672792152 0.017148475918934095 0 -0.0025980913735504161 0.01854359213818808 0 -0.0012549215210446512 0.017741699405872828 0 -0.0018407801672792152 0.017148475918934095 0 -0.00053900157971827891 0.016580023961247015 0 -0.0018407801672792152 0.017148475918934095 0 -0.0027274286474883603 0.017359815034957735 0 -0.0025980913735504161 0.01854359213818808 0 -0.0027274286474883603 0.017359815034957735 0 -0.0025980913735504161 0.01854359213818808 0 -0.0035586039586364142 0.017924246073409086 0 -0.0029255517898104932 0.016763376897278574 0 -0.0027274286474883603 0.017359815034957735 0 -0.0033558098033576204 0.017197964489034188 0 -0.0022940691659702568 0.0165810694539325 0 -0.0018407801672792152 0.017148475918934095 0 -0.0027274286474883603 0.017359815034957735 0 -0.0012549215210446512 0.017741699405872828 0 -0.0005282747255058272 0.018346319295603288 0 -0.0016312715368198654 0.019419457253219582 0 -0.0012549215210446512 0.017741699405872828 0 -0.0025980913735504161 0.01854359213818808 0 -0.0016312715368198654 0.019419457253219582 0 -0.0005282747255058272 0.018346319295603288 0 0.00060388415533947962 0.017688856762894774 0 -0.00053900157971827891 0.016580023961247015 0 -0.0005282747255058272 0.018346319295603288 0 0.00060388415533947962 0.017688856762894774 0 -0.00032501653727670438 0.020056865973415782 0 0.00060388415533947962 0.017688856762894774 0 0.00055568445417525001 0.01660044030904512 0 -0.00053900157971827891 0.016580023961247015 0 -0.0012549215210446512 0.017741699405872828 0 -0.0005282747255058272 0.018346319295603288 0 -0.00053900157971827891 0.016580023961247015 0 -0.0046913998925069925 0.022218603432266223 0 -0.0046958210919015829 0.022167288760869444 0 -0.0048367079996029603 0.02222563182022497 0 -0.0046621733375950521 0.022210657863969089 0 -0.0046442577785487842 0.022167265000367802 0 -0.0046958210919015829 0.022167288760869444 0 -0.0046913998925069925 0.022218603432266223 0 -0.0046621733375950521 0.022210657863969089 0 -0.0046958210919015829 0.022167288760869444 0 -0.0046913998925069925 0.022218603432266223 0 -0.0046621733375950521 0.022210657863969089 0 -0.0046792310154882433 0.022189442273600164 0 -0.0046621733375950521 0.022210657863969089 0 -0.0046486844986250875 0.022214895297802312 0 -0.0046792310154882433 0.022189442273600164 0 -0.0046621733375950521 0.022210657863969089 0 -0.0046486844986250875 0.022214895297802312 0 -0.0046266120501100971 0.022216676109859737 0 -0.0046486844986250875 0.022214895297802312 0 -0.0046266120501100971 0.022216676109859737 0 -0.0046257653963547108 0.022252243845996555 0 -0.0046621733375950521 0.022210657863969089 0 -0.0046266120501100971 0.022216676109859737 0 -0.0046442577785487842 0.022167265000367802 0 -0.0046266120501100971 0.022216676109859737 0 -0.0046442577785487842 0.022167265000367802 0 -0.0046147730905339666 0.022155070347918606 0 -0.0046442577785487842 0.022167265000367802 0 -0.0046147730905339666 0.022155070347918606 0 -0.0046489176870998022 0.022063455833086911 0 -0.0046266120501100971 0.022216676109859737 0 -0.0046147730905339666 0.022155070347918606 0 -0.0046104295636567646 0.02223864386046312 0 -0.0046147730905339666 0.022155070347918606 0 -0.0046226702389554342 0.022122457193985014 0 -0.0046287333946494107 0.022027945284121771 0 -0.0046147730905339666 0.022155070347918606 0 -0.0046112808271382318 0.022214182036063481 0 -0.0046226702389554342 0.022122457193985014 0 -0.0046147730905339666 0.022155070347918606 0 -0.0046112808271382318 0.022214182036063481 0 -0.0046104295636567646 0.02223864386046312 0 -0.0046147730905339666 0.022155070347918606 0 -0.0046489176870998022 0.022063455833086911 0 -0.0046287333946494107 0.022027945284121771 0 -0.0047107044179105599 0.021970040628838648 0 -0.0046958210919015829 0.022167288760869444 0 -0.0048367079996029603 0.02222563182022497 0 -0.0046489176870998022 0.022063455833086911 0 -0.0047107044179105599 0.021970040628838648 0 -0.0046707939927449239 0.021825881238494504 0 -0.0047107044179105599 0.021970040628838648 0 -0.0048367079996029603 0.02222563182022497 0 -0.0049224065956047884 0.021349383868519759 0 -0.0046489176870998022 0.022063455833086911 0 -0.0047107044179105599 0.021970040628838648 0 -0.0046958210919015829 0.022167288760869444 0 -0.0046442577785487842 0.022167265000367802 0 -0.0046489176870998022 0.022063455833086911 0 -0.0046958210919015829 0.022167288760869444 0 -0.0046757777948646115 0.018437817473171459 0 -0.0037608795969864754 0.019231270856600917 0 -0.0042923496472283065 0.020255317265829343 0 -0.0046169538282234274 0.020316761431999873 0 -0.004887986784464636 0.021033516021091905 0 -0.0046757777948646115 0.018437817473171459 0 -0.0037608795969864754 0.019231270856600917 0 -0.0035586039586364142 0.017924246073409086 0 -0.0025980913735504161 0.01854359213818808 0 -0.0037608795969864754 0.019231270856600917 0 -0.0034280178562722204 0.020067678030560181 0 -0.0025980913735504161 0.01854359213818808 0 -0.0037608795969864754 0.019231270856600917 0 -0.0035586039586364142 0.017924246073409086 0 -0.0046757777948646115 0.018437817473171459 0 -0.0035586039586364142 0.017924246073409086 0 -0.0035534700983118036 0.016757300457350712 0 -0.0035586039586364142 0.017924246073409086 0 -0.0033558098033576204 0.017197964489034188 0 -0.0035534700983118036 0.016757300457350712 0 -0.0027274286474883603 0.017359815034957735 0 -0.0035586039586364142 0.017924246073409086 0 -0.0033558098033576204 0.017197964489034188 0 -0.0046169538282234274 0.020316761431999873 0 -0.0040713007115411592 0.019666023070929791 0 -0.0048367079996029603 0.02222563182022497 0 -0.0046517360483685002 0.022200856645194826 0 -0.0045036706044122637 0.022192456303812169 0 -0.0046913998925069925 0.022218603432266223 0 -0.0048367079996029603 0.02222563182022497 0 -0.0046517360483685002 0.022200856645194826 0 -0.0046913998925069925 0.022218603432266223 0 -0.0046517360483685002 0.022200856645194826 0 -0.0046386873041752092 0.022150183316513267 0 -0.0046517360483685002 0.022200856645194826 0 -0.0045700938689687137 0.02212554186414439 0 -0.0045036706044122637 0.022192456303812169 0 -0.0046517360483685002 0.022200856645194826 0 -0.0045700938689687137 0.02212554186414439 0 -0.0046386873041752092 0.022150183316513267 0 -0.0040449066720706882 0.018348452384420056 0 -0.0035889396371449993 0.01678965004165817 0 -0.0035534700983118036 0.016757300457350712 0 -0.0033558098033576204 0.017197964489034188 0 -0.0035889396371449993 0.01678965004165817 0 -0.0035534700983118036 0.016757300457350712 0 -0.0029255517898104932 0.016763376897278574 0 -0.0033558098033576204 0.017197964489034188 0 -0.0035889396371449993 0.01678965004165817 0 -0.0040449066720706882 0.018348452384420056 0 -0.0035534700983118036 0.016757300457350712 0 -0.0036067176747218424 0.018899602441411097 0 -0.003466349858121341 0.016630719535538577 0 -0.003538353830955179 0.016694401733577578 0 -0.0045036706044122637 0.022192456303812169 0 -0.0044752078331897222 0.022014440398895486 0 -0.0042310969555289443 0.021896881416821997 0 -0.0040713007115411592 0.019666023070929791 0 -0.0040400450439098809 0.020425411413427495 0 -0.0045700938689687137 0.02212554186414439 0 -0.0045036706044122637 0.022192456303812169 0 -0.0044752078331897222 0.022014440398895486 0 -0.0046386873041752092 0.022150183316513267 0 -0.0045712213778893954 0.022048940244182219 0 -0.0046181826923346516 0.022062405677888572 0 -0.0045700938689687137 0.02212554186414439 0 -0.0046386873041752092 0.022150183316513267 0 -0.0045712213778893954 0.022048940244182219 0 -0.0045700938689687137 0.02212554186414439 0 -0.0044752078331897222 0.022014440398895486 0 -0.0045712213778893954 0.022048940244182219 0 -0.0044752078331897222 0.022014440398895486 0 -0.0045712213778893954 0.022048940244182219 0 -0.0045139299659624939 0.021930382888056505 0 -0.0045712213778893954 0.022048940244182219 0 -0.0045975806229313432 0.021987293052038892 0 -0.0045139299659624939 0.021930382888056505 0 -0.0045712213778893954 0.022048940244182219 0 -0.0046181826923346516 0.022062405677888572 0 -0.0045975806229313432 0.021987293052038892 0 -0.0046181826923346516 0.022062405677888572 0 -0.0046566893877984699 0.022109097000886542 0 -0.0046472014882801543 0.022034808340902257 0 -0.0046181826923346516 0.022062405677888572 0 -0.0046472014882801543 0.022034808340902257 0 -0.0045975806229313432 0.021987293052038892 0 -0.0046566893877984699 0.022109097000886542 0 -0.0046831243218631979 0.022139426362754688 0 -0.0046869564335358183 0.022089439354939379 0 -0.0046566893877984699 0.022109097000886542 0 -0.0046869564335358183 0.022089439354939379 0 -0.0046472014882801543 0.022034808340902257 0 -0.0046566893877984699 0.022109097000886542 0 -0.0046792310154882433 0.022189442273600164 0 -0.0046831243218631979 0.022139426362754688 0 -0.0046386873041752092 0.022150183316513267 0 -0.0046181826923346516 0.022062405677888572 0 -0.0046566893877984699 0.022109097000886542 0 -0.0046913998925069925 0.022218603432266223 0 -0.0046386873041752092 0.022150183316513267 0 -0.0046792310154882433 0.022189442273600164 0 -0.0046386873041752092 0.022150183316513267 0 -0.0046566893877984699 0.022109097000886542 0 -0.0046792310154882433 0.022189442273600164 0 -0.0046792310154882433 0.022189442273600164 0 -0.0047057144815644434 0.022175975072052694 0 -0.0046698609279598362 0.022195222745951398 0 -0.0046486844986250875 0.022214895297802312 0 -0.0046792310154882433 0.022189442273600164 0 -0.0046698609279598362 0.022195222745951398 0 -0.0046792310154882433 0.022189442273600164 0 -0.0047057144815644434 0.022175975072052694 0 -0.0046831243218631979 0.022139426362754688 0 -0.0047057144815644434 0.022175975072052694 0 -0.0046831243218631979 0.022139426362754688 0 -0.0046869564335358183 0.022089439354939379 0 -0.0047057144815644434 0.022175975072052694 0 -0.0046869564335358183 0.022089439354939379 0 -0.0047101026111490219 0.022124450886082826 0 -0.0047057144815644434 0.022175975072052694 0 -0.0047101026111490219 0.022124450886082826 0 -0.0047236670682155295 0.022223685659276959 0 -0.0047101026111490219 0.022124450886082826 0 -0.0047427387858685844 0.022046786615363259 0 -0.0046934101892397908 0.022018345823359112 0 -0.0047101026111490219 0.022124450886082826 0 -0.0047427387858685844 0.022046786615363259 0 -0.0047236670682155295 0.022223685659276959 0 -0.0047427387858685844 0.022046786615363259 0 -0.0046934101892397908 0.022018345823359112 0 -0.004687122035351556 0.021896963968174636 0 -0.0046869564335358183 0.022089439354939379 0 -0.0047101026111490219 0.022124450886082826 0 -0.0046934101892397908 0.022018345823359112 0 -0.0046869564335358183 0.022089439354939379 0 -0.0046472014882801543 0.022034808340902257 0 -0.0046490239534760312 0.021949433941744877 0 -0.0046869564335358183 0.022089439354939379 0 -0.0046934101892397908 0.022018345823359112 0 -0.0046490239534760312 0.021949433941744877 0 -0.0045975806229313432 0.021987293052038892 0 -0.0046490239534760312 0.021949433941744877 0 -0.0045557114088193304 0.021855400471895277 0 -0.0046472014882801543 0.022034808340902257 0 -0.0045975806229313432 0.021987293052038892 0 -0.0046490239534760312 0.021949433941744877 0 -0.0046490239534760312 0.021949433941744877 0 -0.0046029838900410822 0.021787267751006169 0 -0.0045557114088193304 0.021855400471895277 0 -0.0046490239534760312 0.021949433941744877 0 -0.004687122035351556 0.021896963968174636 0 -0.0046029838900410822 0.021787267751006169 0 -0.0046934101892397908 0.022018345823359112 0 -0.0046490239534760312 0.021949433941744877 0 -0.004687122035351556 0.021896963968174636 0 -0.004687122035351556 0.021896963968174636 0 -0.0046029838900410822 0.021787267751006169 0 -0.0047199682408713729 0.021738437454577039 0 -0.0046029838900410822 0.021787267751006169 0 -0.0047199682408713729 0.021738437454577039 0 -0.0045228634534287106 0.021585964272669001 0 -0.004656591875426868 0.021611719167527375 0 -0.0044885813153846855 0.021547114935408423 0 -0.0047427387858685844 0.022046786615363259 0 -0.004687122035351556 0.021896963968174636 0 -0.0047199682408713729 0.021738437454577039 0 -0.0044818546692515565 0.021609398062861475 0 -0.004804452226281306 0.021386460840650674 0 -0.0049017137812528786 0.021685168975828725 0 -0.0047427387858685844 0.022046786615363259 0 -0.0044131577805230247 0.021616576994955547 0 -0.0048138979732182926 0.021685762618002955 0 -0.004656591875426868 0.021611719167527375 0 -0.0048677988744740509 0.021676267362717789 0 -0.0047371178935896995 0.021910573428411097 0 -0.004656591875426868 0.021611719167527375 0 -0.0042310969555289443 0.021896881416821997 0 -0.004357596720275499 0.021743841288950388 0 -0.0042984095405851847 0.021565047009977276 0 -0.004357596720275499 0.021743841288950388 0 -0.0043613954165700446 0.021650156708934016 0 -0.0042984095405851847 0.021565047009977276 0 -0.0042310969555289443 0.021896881416821997 0 -0.0044080442138660228 0.02186954597056965 0 -0.004357596720275499 0.021743841288950388 0 -0.0044752078331897222 0.022014440398895486 0 -0.0042310969555289443 0.021896881416821997 0 -0.0044080442138660228 0.02186954597056965 0 -0.004357596720275499 0.021743841288950388 0 -0.00444465804089649 0.021763145254937978 0 -0.0043613954165700446 0.021650156708934016 0 -0.0044080442138660228 0.02186954597056965 0 -0.004357596720275499 0.021743841288950388 0 -0.00444465804089649 0.021763145254937978 0 -0.00444465804089649 0.021763145254937978 0 -0.0045557114088193304 0.021855400471895277 0 -0.0044952714136372593 0.021704868483348641 0 -0.00444465804089649 0.021763145254937978 0 -0.0045139299659624939 0.021930382888056505 0 -0.0045557114088193304 0.021855400471895277 0 -0.0044752078331897222 0.022014440398895486 0 -0.0044080442138660228 0.02186954597056965 0 -0.0045139299659624939 0.021930382888056505 0 -0.0044080442138660228 0.02186954597056965 0 -0.00444465804089649 0.021763145254937978 0 -0.0045139299659624939 0.021930382888056505 0 -0.0045975806229313432 0.021987293052038892 0 -0.0045139299659624939 0.021930382888056505 0 -0.0045557114088193304 0.021855400471895277 0 -0.0046029838900410822 0.021787267751006169 0 -0.0045557114088193304 0.021855400471895277 0 -0.0044952714136372593 0.021704868483348641 0 -0.0046029838900410822 0.021787267751006169 0 -0.0044952714136372593 0.021704868483348641 0 -0.0045228634534287106 0.021585964272669001 0 -0.0044952714136372593 0.021704868483348641 0 -0.0043658663065333711 0.02158404563666488 0 -0.0045228634534287106 0.021585964272669001 0 -0.00444465804089649 0.021763145254937978 0 -0.0044952714136372593 0.021704868483348641 0 -0.0043658663065333711 0.02158404563666488 0 -0.0043658663065333711 0.02158404563666488 0 -0.004247368319817953 0.02146217005840215 0 -0.0045228634534287106 0.021585964272669001 0 -0.00444465804089649 0.021763145254937978 0 -0.0043613954165700446 0.021650156708934016 0 -0.0043658663065333711 0.02158404563666488 0 -0.0043613954165700446 0.021650156708934016 0 -0.0043658663065333711 0.02158404563666488 0 -0.0043085367176430023 0.021523444834171093 0 -0.0042645622261946571 0.021420165846076488 0 -0.0043085367176430023 0.021523444834171093 0 -0.004247368319817953 0.02146217005840215 0 -0.0043658663065333711 0.02158404563666488 0 -0.0043085367176430023 0.021523444834171093 0 -0.004247368319817953 0.02146217005840215 0 -0.0042645622261946571 0.021420165846076488 0 -0.0043085367176430023 0.021523444834171093 0 -0.0042984095405851847 0.021565047009977276 0 -0.0043613954165700446 0.021650156708934016 0 -0.0043085367176430023 0.021523444834171093 0 -0.0042984095405851847 0.021565047009977276 0 -0.0042869708395635179 0.021491637254988268 0 -0.0044885813153846855 0.021547114935408423 0 -0.0041620922089648862 0.021368600163039212 0 -0.0041033897854102514 0.02140819959677542 0 -0.0043271226286989628 0.021669798226222059 0 -0.004247368319817953 0.02146217005840215 0 -0.0042722478409076853 0.021443238901083059 0 -0.004247368319817953 0.02146217005840215 0 -0.0042722478409076853 0.021443238901083059 0 -0.0044218982016216877 0.021486821129406287 0 -0.0032156379229241181 0.021102631189995204 0 -0.0042722478409076853 0.021443238901083059 0 -0.003961465150379412 0.021129356923457628 0 -0.0042722478409076853 0.021443238901083059 0 -0.003961465150379412 0.021129356923457628 0 -0.0042932003875155488 0.021183960916080932 0 -0.0042932003875155488 0.021183960916080932 0 -0.0044218982016216877 0.021486821129406287 0 -0.0046248336832933447 0.020997684136102045 0 -0.0042722478409076853 0.021443238901083059 0 -0.0042932003875155488 0.021183960916080932 0 -0.0044218982016216877 0.021486821129406287 0 -0.0042932003875155488 0.021183960916080932 0 -0.0046248336832933447 0.020997684136102045 0 -0.0039882914271798346 0.02079019220874578 0 -0.0041410155784537411 0.020131784941241519 0 -0.0046248336832933447 0.020997684136102045 0 -0.0039882914271798346 0.02079019220874578 0 -0.0038811875717588941 0.020325506617659524 0 -0.0043373939382859864 0.021010448826726397 0 -0.0032156379229241181 0.021102631189995204 0 -0.003961465150379412 0.021129356923457628 0 -0.0039882914271798346 0.02079019220874578 0 -0.003961465150379412 0.021129356923457628 0 -0.0042932003875155488 0.021183960916080932 0 -0.0039882914271798346 0.02079019220874578 0 -0.0037956240370440033 0.020422044811941986 0 -0.0034542776689238507 0.020577970475897742 0 -0.0039882914271798346 0.02079019220874578 0 -0.0044818546692515565 0.021609398062861475 0 -0.004804452226281306 0.021386460840650674 0 -0.0045735489894469291 0.021099098708592216 0 -0.004804452226281306 0.021386460840650674 0 -0.0045735489894469291 0.021099098708592216 0 -0.0050885752595918963 0.021035030615205598 0 -0.0044818546692515565 0.021609398062861475 0 -0.004069124837036091 0.021051751995297099 0 -0.0045735489894469291 0.021099098708592216 0 -0.004656591875426868 0.021611719167527375 0 -0.0043373939382859864 0.021010448826726397 0 -0.0049895453635318172 0.021585294593057271 0 -0.0044218982016216877 0.021486821129406287 0 -0.0046248336832933447 0.020997684136102045 0 -0.0041683761349368825 0.020669770615878234 0 -0.004069124837036091 0.021051751995297099 0 -0.0043978486525139571 0.020831493193226559 0 -0.004069124837036091 0.021051751995297099 0 -0.0043978486525139571 0.020831493193226559 0 -0.0045735489894469291 0.021099098708592216 0 -0.0046207254254665431 0.020593705341335474 0 -0.0043978486525139571 0.020831493193226559 0 -0.0045735489894469291 0.021099098708592216 0 -0.0046207254254665431 0.020593705341335474 0 -0.0045735489894469291 0.021099098708592216 0 -0.0050885752595918963 0.021035030615205598 0 -0.004886964051236513 0.020748650083162248 0 -0.0052501403243762389 0.021125717913288232 0 -0.004804452226281306 0.021386460840650674 0 -0.0050885752595918963 0.021035030615205598 0 -0.0051207130658794944 0.021478516975797255 0 -0.004804452226281306 0.021386460840650674 0 -0.0051207130658794944 0.021478516975797255 0 -0.0049017137812528786 0.021685168975828725 0 -0.0053831037923470276 0.021184733167037593 0 -0.0055963934114205329 0.021495836080430836 0 -0.0057543520693019304 0.021240575021505278 0 -0.0050885752595918963 0.021035030615205598 0 -0.0051207130658794944 0.021478516975797255 0 -0.0055963934114205329 0.021495836080430836 0 -0.0052501403243762389 0.021125717913288232 0 -0.0055434240486718963 0.02142585908530836 0 -0.0057192046011724767 0.020989341314796926 0 -0.0053831037923470276 0.021184733167037593 0 -0.0057543520693019304 0.021240575021505278 0 -0.0060023411672800757 0.020999062032740316 0 -0.0057192046011724767 0.020989341314796926 0 -0.0057543520693019304 0.021240575021505278 0 -0.0060023411672800757 0.020999062032740316 0 -0.0057543520693019304 0.021240575021505278 0 -0.0060311178610715803 0.021357997708087544 0 -0.0042716009858267522 0.026759123389552931 0 -0.0046919461443809965 0.026383474450074204 0 -0.0055963934114205329 0.021495836080430836 0 -0.0057543520693019304 0.021240575021505278 0 -0.0060311178610715803 0.021357997708087544 0 -0.0055963934114205329 0.021495836080430836 0 -0.0060455786963907699 0.021902517613242831 0 -0.005587853221923028 0.02198366496245497 0 -0.0055963934114205329 0.021495836080430836 0 -0.0060311178610715803 0.021357997708087544 0 -0.0060455786963907699 0.021902517613242831 0 -0.0046919461443809965 0.026383474450074204 0 -0.0052539855361108563 0.025592807674714873 0 -0.0032833666225961042 0.031541902194635728 0 -0.00456485430803106 0.029380395416065744 0 -0.0026404656106940754 0.029873172937789457 0 -0.00456485430803106 0.029380395416065744 0 -0.0039894559296420112 0.027656850434812402 0 -0.0026404656106940754 0.029873172937789457 0 -0.0052539855361108563 0.025592807674714873 0 -0.0056697137131365627 0.024593866225884463 0 -0.00456485430803106 0.029380395416065744 0 -0.0039894559296420112 0.027656850434812402 0 -0.0055613042240618867 0.02619189433730788 0 -0.0060455786963907699 0.021902517613242831 0 -0.0057376575963531198 0.022370173586812109 0 -0.005587853221923028 0.02198366496245497 0 -0.0060455786963907699 0.021902517613242831 0 -0.0057376575963531198 0.022370173586812109 0 -0.0060159475985017844 0.022835012459560503 0 -0.0057376575963531198 0.022370173586812109 0 -0.005587853221923028 0.02198366496245497 0 -0.0053804854366616677 0.022370423970977733 0 -0.005587853221923028 0.02198366496245497 0 -0.0053376937358020626 0.022038282340734114 0 -0.0053804854366616677 0.022370423970977733 0 -0.0053376937358020626 0.022038282340734114 0 -0.0053804854366616677 0.022370423970977733 0 -0.0050773234454521508 0.022068434426043376 0 -0.0053376937358020626 0.022038282340734114 0 -0.0050773234454521508 0.022068434426043376 0 -0.0053106349238203499 0.021764768749875908 0 -0.0053804854366616677 0.022370423970977733 0 -0.0050522828213156665 0.022370896162418618 0 -0.0050773234454521508 0.022068434426043376 0 -0.0050522828213156665 0.022370896162418618 0 -0.0048686400676389921 0.022107014363269825 0 -0.0050773234454521508 0.022068434426043376 0 -0.0047427387858685844 0.022046786615363259 0 -0.0048686400676389921 0.022107014363269825 0 -0.0047236670682155295 0.022223685659276959 0 -0.0050522828213156665 0.022370896162418618 0 -0.0048686400676389921 0.022107014363269825 0 -0.0047236670682155295 0.022223685659276959 0 -0.0047427387858685844 0.022046786615363259 0 -0.0048686400676389921 0.022107014363269825 0 -0.0049140864515422522 0.02191318269379959 0 -0.0048686400676389921 0.022107014363269825 0 -0.0050773234454521508 0.022068434426043376 0 -0.0049140864515422522 0.02191318269379959 0 -0.0048677988744740509 0.021676267362717789 0 -0.0051645533819848679 0.021733399001540771 0 -0.0049140864515422522 0.02191318269379959 0 -0.0048138979732182926 0.021685762618002955 0 -0.0053106349238203499 0.021764768749875908 0 -0.0051207130658794944 0.021478516975797255 0 -0.0049017137812528786 0.021685168975828725 0 -0.0053106349238203499 0.021764768749875908 0 -0.0050773234454521508 0.022068434426043376 0 -0.0049140864515422522 0.02191318269379959 0 -0.0053106349238203499 0.021764768749875908 0 -0.0047427387858685844 0.022046786615363259 0 -0.0049140864515422522 0.02191318269379959 0 -0.0048138979732182926 0.021685762618002955 0 -0.0051207130658794944 0.021478516975797255 0 -0.0055963934114205329 0.021495836080430836 0 -0.0053106349238203499 0.021764768749875908 0 -0.0055963934114205329 0.021495836080430836 0 -0.005587853221923028 0.02198366496245497 0 -0.0053106349238203499 0.021764768749875908 0 -0.005587853221923028 0.02198366496245497 0 -0.0053376937358020626 0.022038282340734114 0 -0.0053106349238203499 0.021764768749875908 0 -0.00070977845850235706 0.03147906415978536 0 -0.00082003489431739214 0.032193168297805386 0 -0.0010273228079561054 0.031493089550375442 0 -0.00076451438567348912 0.031973054829702183 0 -0.00098881621525653569 0.032513769092865685 0 -0.000855593898229893 0.032402980463926687 0 -0.0010586582465699924 0.032779993629483126 0 -0.00069991252601446735 0.032678729213406123 0 -0.00082003489431739214 0.032193168297805386 0 -0.0010273228079561054 0.031493089550375442 0 -0.0015940858995547738 0.031959094909195761 0 -0.00070977845850235706 0.03147906415978536 0 -0.0010273228079561054 0.031493089550375442 0 -0.0010033294628620463 0.031250293637119231 0 -0.0010273228079561054 0.031493089550375442 0 -0.0015940858995547738 0.031959094909195761 0 -0.0012333341907541115 0.030897419774344837 0 -0.0015940858995547738 0.031959094909195761 0 -0.0021097599395371101 0.031464237826785195 0 -0.0012333341907541115 0.030897419774344837 0 -0.002468492839132749 0.032582535551735958 0 -0.0015940858995547738 0.031959094909195761 0 -0.0021097599395371101 0.031464237826785195 0 -0.002468492839132749 0.032582535551735958 0 -0.0032833666225961042 0.031541902194635728 0 -0.0021097599395371101 0.031464237826785195 0 -0.0032833666225961042 0.031541902194635728 0 -0.0021097599395371101 0.031464237826785195 0 -0.0026404656106940754 0.029873172937789457 0 -0.0021097599395371101 0.031464237826785195 0 -0.0026404656106940754 0.029873172937789457 0 -0.0012333341907541115 0.030897419774344837 0 -0.0026404656106940754 0.029873172937789457 0 -0.0021594036152421179 0.028034270655863641 0 -0.00093292115161295382 0.028961322451730415 0 -0.0039894559296420112 0.027656850434812402 0 -0.0026404656106940754 0.029873172937789457 0 -0.0021594036152421179 0.028034270655863641 0 -0.0014348543431749925 0.030002184414547613 0 -0.0022048661211289938 0.029098691169195202 0 -0.0021594036152421179 0.028034270655863641 0 -0.00093292115161295382 0.028961322451730415 0 -0.00086791189277975558 0.027141349023245186 0 -0.0011297396327129595 0.031123526491350476 0 -0.00097899434188909143 0.03117810226397412 0 -0.0011226055571373305 0.031068857716066128 0 -0.0011297396327129595 0.031123526491350476 0 -0.0012333341907541115 0.030897419774344837 0 -0.0010033294628620463 0.031250293637119231 0 -0.0014348543431749925 0.030002184414547613 0 -0.0013055500506863786 0.030551736853727855 0 -0.0026404656106940754 0.029873172937789457 0 -0.00093292115161295382 0.028961322451730415 0 -0.0012333341907541115 0.030897419774344837 0 -0.0010273228079561054 0.031493089550375442 0 -0.0012333341907541115 0.030897419774344837 0 -0.0010033294628620463 0.031250293637119231 0 -0.0010033294628620463 0.031250293637119231 0 -0.00097899434188909143 0.03117810226397412 0 -0.00081083866263666866 0.03146356663131656 0 -0.0011297396327129595 0.031123526491350476 0 -0.0010033294628620463 0.031250293637119231 0 -0.00097899434188909143 0.03117810226397412 0 -0.001657194011648833 0.031452428106690564 0 -0.0010629279226961543 0.031945603388339565 0 -0.0025070102596185129 0.032531730230123214 0 -0.0011892966839256683 0.032557160763675638 0 -0.0011729731117068769 0.03204244799750041 0 -0.00097899434188909143 0.03117810226397412 0 -0.00081083866263666866 0.03146356663131656 0 -0.00075523782583242346 0.031476217062573031 0 -0.00070977845850235706 0.03147906415978536 0 -0.0010033294628620463 0.031250293637119231 0 -0.00081083866263666866 0.03146356663131656 0 -0.0018902788424722042 0.03078726306054656 0 -0.001559432930670433 0.03157422750358084 0 -0.00092033618087853004 0.030898296608357988 0 -0.0018902788424722042 0.03078726306054656 0 -0.001559432930670433 0.03157422750358084 0 -0.0028988074489790928 0.031382981454502176 0 -0.0025070102596185129 0.032531730230123214 0 -0.001559432930670433 0.03157422750358084 0 -0.0011729731117068769 0.03204244799750041 0 -0.0025070102596185129 0.032531730230123214 0 -0.001559432930670433 0.03157422750358084 0 -0.0028988074489790928 0.031382981454502176 0 -0.0025070102596185129 0.032531730230123214 0 -0.0028988074489790928 0.031382981454502176 0 -0.0039341223993426813 0.032281255303413726 0 -0.001657194011648833 0.031452428106690564 0 -0.0022048661211289938 0.029098691169195202 0 -0.0028988074489790928 0.031382981454502176 0 -0.0041147186705370346 0.030715765902238464 0 -0.0039341223993426813 0.032281255303413726 0 -0.0035768471643310455 0.02769294542033093 0 -0.0022048661211289938 0.029098691169195202 0 -0.0032704940987849512 0.024702359430817628 0 -0.0031636764309124817 0.025922101331633748 0 -0.0039512074202586551 0.025727056966552014 0 -0.0039894559296420112 0.027656850434812402 0 -0.0021594036152421179 0.028034270655863641 0 -0.0027136582676920034 0.026544539653539121 0 -0.0022048661211289938 0.029098691169195202 0 -0.0035630261785329228 0.026769088285657598 0 -0.0021594036152421179 0.028034270655863641 0 -0.00086791189277975558 0.027141349023245186 0 -0.0027136582676920034 0.026544539653539121 0 -0.0032704940987849512 0.024702359430817628 0 -0.0039512074202586551 0.025727056966552014 0 -0.0041518004862869324 0.025006113966562951 0 -0.0032704940987849512 0.024702359430817628 0 -0.0041518004862869324 0.025006113966562951 0 -0.0041653061004244454 0.024203639701866377 0 -0.0032704940987849512 0.024702359430817628 0 -0.0036007648961674352 0.023593267150182021 0 -0.0041653061004244454 0.024203639701866377 0 -0.0036007648961674352 0.023593267150182021 0 -0.0041653061004244454 0.024203639701866377 0 -0.0042169064123666732 0.023291278912556914 0 -0.0035768471643310455 0.02769294542033093 0 -0.0039593860790922116 0.02628215935575379 0 -0.0041147186705370346 0.030715765902238464 0 -0.0043855592391259376 0.028899580130859037 0 -0.0027060255600031427 0.029650289387150461 0 -0.0018902788424722042 0.03078726306054656 0 -0.0028988074489790928 0.031382981454502176 0 -0.0027060255600031427 0.029650289387150461 0 -0.0028988074489790928 0.031382981454502176 0 -0.0041147186705370346 0.030715765902238464 0 -0.0027060255600031427 0.029650289387150461 0 -0.0043855592391259376 0.028899580130859037 0 -0.0027060255600031427 0.029650289387150461 0 -0.0028988976599024822 0.027187192557787471 0 -0.0027060255600031427 0.029650289387150461 0 -0.0016910264926929118 0.028202738805794034 0 -0.0011594606223608525 0.029833699834401133 0 -0.0018902788424722042 0.03078726306054656 0 -0.0027060255600031427 0.029650289387150461 0 -0.0011594606223608525 0.029833699834401133 0 -0.0055657421315684179 0.02329751068304034 0 -0.005084814393539974 0.02345905298469602 0 -0.0056173250340122872 0.02405562520781894 0 -0.0055657421315684179 0.02329751068304034 0 -0.005084814393539974 0.02345905298469602 0 -0.0055476905844481393 0.022833037773096004 0 -0.0047057144815644434 0.022175975072052694 0 -0.0046698609279598362 0.022195222745951398 0 -0.0046704426067396476 0.022183336908092467 0 -0.0046698609279598362 0.022195222745951398 0 -0.0046704426067396476 0.022183336908092467 0 -0.0046478279876657419 0.022233691115473339 0 -0.0050522828213156665 0.022370896162418618 0 -0.0047236670682155295 0.022223685659276959 0 -0.005084814393539974 0.02345905298469602 0 -0.0047057144815644434 0.022175975072052694 0 -0.0047236670682155295 0.022223685659276959 0 -0.0046704426067396476 0.022183336908092467 0 -0.004733728803689676 0.022379609638228732 0 -0.0049095459234738438 0.022795693674044024 0 -0.0050522828213156665 0.022370896162418618 0 -0.005084814393539974 0.02345905298469602 0 -0.0052747004110388664 0.022742092021925089 0 -0.0053804854366616677 0.022370423970977733 0 -0.0050522828213156665 0.022370896162418618 0 -0.0052747004110388664 0.022742092021925089 0 -0.0053804854366616677 0.022370423970977733 0 -0.0052747004110388664 0.022742092021925089 0 -0.0055476905844481393 0.022833037773096004 0 -0.005084814393539974 0.02345905298469602 0 -0.0052747004110388664 0.022742092021925089 0 -0.0055476905844481393 0.022833037773096004 0 -0.0057376575963531198 0.022370173586812109 0 -0.0053804854366616677 0.022370423970977733 0 -0.0055476905844481393 0.022833037773096004 0 -0.0057376575963531198 0.022370173586812109 0 -0.0055476905844481393 0.022833037773096004 0 -0.0060159475985017844 0.022835012459560503 0 -0.0055657421315684179 0.02329751068304034 0 -0.0055476905844481393 0.022833037773096004 0 -0.0060159475985017844 0.022835012459560503 0 -0.0039512074202586551 0.025727056966552014 0 -0.0047249474344351894 0.025784156351150139 0 -0.0041518004862869324 0.025006113966562951 0 -0.0039894559296420112 0.027656850434812402 0 -0.0027136582676920034 0.026544539653539121 0 -0.0047249474344351894 0.025784156351150139 0 -0.0035630261785329228 0.026769088285657598 0 -0.0044380790131976714 0.026174390019638054 0 -0.0039894559296420112 0.027656850434812402 0 -0.0055613042240618867 0.02619189433730788 0 -0.0047249474344351894 0.025784156351150139 0 -0.0041518004862869324 0.025006113966562951 0 -0.0048235311372212195 0.02472020983144255 0 -0.0041653061004244454 0.024203639701866377 0 -0.0047249474344351894 0.025784156351150139 0 -0.0041518004862869324 0.025006113966562951 0 -0.0048235311372212195 0.02472020983144255 0 -0.0055657421315684179 0.02329751068304034 0 -0.0060159475985017844 0.022835012459560503 0 -0.0056173250340122872 0.02405562520781894 0 -0.0055613042240618867 0.02619189433730788 0 -0.0048235311372212195 0.02472020983144255 0 -0.0056173250340122872 0.02405562520781894 0 -0.0055613042240618867 0.02619189433730788 0 -0.0047249474344351894 0.025784156351150139 0 -0.0048235311372212195 0.02472020983144255 0 -0.0056697137131365627 0.024593866225884463 0 -0.0056998911905626467 0.024193809214748199 0 -0.0048235311372212195 0.02472020983144255 0 -0.0049211797434604984 0.023979447589687633 0 -0.0056173250340122872 0.02405562520781894 0 -0.0049211797434604984 0.023979447589687633 0 -0.0055929686214530117 0.024091345269297827 0 -0.0056173250340122872 0.02405562520781894 0 -0.0048235311372212195 0.02472020983144255 0 -0.0049211797434604984 0.023979447589687633 0 -0.0041653061004244454 0.024203639701866377 0 -0.0049211797434604984 0.023979447589687633 0 -0.0047267482186396518 0.022981382068979483 0 -0.0042169064123666732 0.023291278912556914 0 -0.0049211797434604984 0.023979447589687633 0 -0.0041653061004244454 0.024203639701866377 0 -0.0042169064123666732 0.023291278912556914 0 -0.0049211797434604984 0.023979447589687633 0 -0.0055929686214530117 0.024091345269297827 0 -0.0047267482186396518 0.022981382068979483 0 -0.0047392297947253933 0.022293074248347575 0 -0.0046684018653738203 0.022685191013602932 0 -0.0047267482186396518 0.022981382068979483 0 -0.0050607344985959613 0.023135868249188479 0 -0.0048635810554839322 0.022989143653996583 0 -0.0046651034595928727 0.022414543754280224 0 -0.0047392297947253933 0.022293074248347575 0 -0.0046684018653738203 0.022685191013602932 0 -0.0046341572354172819 0.022406731063697873 0 -0.0046651034595928727 0.022414543754280224 0 -0.0046684018653738203 0.022685191013602932 0 -0.0046341572354172819 0.022406731063697873 0 -0.0046342538727043381 0.022432613994378243 0 -0.0046684018653738203 0.022685191013602932 0 -0.0046651034595928727 0.022414543754280224 0 -0.0047392297947253933 0.022293074248347575 0 -0.0046562970985453058 0.022305182711148223 0 -0.0046341572354172819 0.022406731063697873 0 -0.0046651034595928727 0.022414543754280224 0 -0.0046562970985453058 0.022305182711148223 0 -0.0049095459234738438 0.022795693674044024 0 -0.0050607344985959613 0.023135868249188479 0 -0.0047392297947253933 0.022293074248347575 0 -0.0046562970985453058 0.022305182711148223 0 -0.0046478279876657419 0.022233691115473339 0 -0.0046704426067396476 0.022183336908092467 0 -0.0047392297947253933 0.022293074248347575 0 -0.0046478279876657419 0.022233691115473339 0 -0.005084814393539974 0.02345905298469602 0 -0.0055929686214530117 0.024091345269297827 0 -0.0056173250340122872 0.02405562520781894 0 -0.0046486844986250875 0.022214895297802312 0 -0.0046478279876657419 0.022233691115473339 0 -0.0046257653963547108 0.022252243845996555 0 -0.0046486844986250875 0.022214895297802312 0 -0.0046698609279598362 0.022195222745951398 0 -0.0046478279876657419 0.022233691115473339 0 -0.0046562970985453058 0.022305182711148223 0 -0.0046478279876657419 0.022233691115473339 0 -0.0046257653963547108 0.022252243845996555 0 -0.0046562970985453058 0.022305182711148223 0 -0.0046257653963547108 0.022252243845996555 0 -0.0046224437153155728 0.022306926052223341 0 -0.0046266120501100971 0.022216676109859737 0 -0.0046257653963547108 0.022252243845996555 0 -0.0046104295636567646 0.02223864386046312 0 -0.0046257653963547108 0.022252243845996555 0 -0.0046104295636567646 0.02223864386046312 0 -0.0046224437153155728 0.022306926052223341 0 -0.0046104295636567646 0.02223864386046312 0 -0.0046224437153155728 0.022306926052223341 0 -0.0046157668295620548 0.022314583501858092 0 -0.0046341572354172819 0.022406731063697873 0 -0.0046562970985453058 0.022305182711148223 0 -0.0046224437153155728 0.022306926052223341 0 -0.0046341572354172819 0.022406731063697873 0 -0.0046157668295620548 0.022314583501858092 0 -0.0046342538727043381 0.022432613994378243 0 -0.0046341572354172819 0.022406731063697873 0 -0.0046224437153155728 0.022306926052223341 0 -0.0046157668295620548 0.022314583501858092 0 -0.0046112808271382318 0.022214182036063481 0 -0.0046104295636567646 0.02223864386046312 0 -0.0046157668295620548 0.022314583501858092 0 -0.0046112808271382318 0.022214182036063481 0 -0.0046157668295620548 0.022314583501858092 0 -0.0046237507698582226 0.022273388227342761 0 -0.0046237507698582226 0.022273388227342761 0 -0.0046414594720468553 0.022216908959201708 0 -0.0046226702389554342 0.022122457193985014 0 -0.0046237507698582226 0.022273388227342761 0 -0.0046452313162358176 0.022354989403666096 0 -0.0046414594720468553 0.022216908959201708 0 -0.0046237507698582226 0.022273388227342761 0 -0.0046342538727043381 0.022432613994378243 0 -0.0046452313162358176 0.022354989403666096 0 -0.0046157668295620548 0.022314583501858092 0 -0.0046237507698582226 0.022273388227342761 0 -0.0046342538727043381 0.022432613994378243 0 -0.0046452313162358176 0.022354989403666096 0 -0.0046787526173271334 0.022302603359844419 0 -0.0046531577518002035 0.022541047843856507 0 -0.0046342538727043381 0.022432613994378243 0 -0.0046452313162358176 0.022354989403666096 0 -0.0046531577518002035 0.022541047843856507 0 -0.0046452313162358176 0.022354989403666096 0 -0.0046414594720468553 0.022216908959201708 0 -0.0046787526173271334 0.022302603359844419 0 -0.0046787526173271334 0.022302603359844419 0 -0.0046784691929097882 0.022599835627340276 0 -0.0047159638353150143 0.022326355260058595 0 -0.0046787526173271334 0.022302603359844419 0 -0.0046531577518002035 0.022541047843856507 0 -0.0046784691929097882 0.022599835627340276 0 -0.0046531577518002035 0.022541047843856507 0 -0.0046354692445584149 0.022823534537315993 0 -0.0046784691929097882 0.022599835627340276 0 -0.0046354692445584149 0.022823534537315993 0 -0.004529274394100476 0.022824650685535252 0 -0.0046784691929097882 0.022599835627340276 0 -0.0046531577518002035 0.022541047843856507 0 -0.0046684018653738203 0.022685191013602932 0 -0.0046354692445584149 0.022823534537315993 0 -0.0046342538727043381 0.022432613994378243 0 -0.0046531577518002035 0.022541047843856507 0 -0.0046684018653738203 0.022685191013602932 0 -0.0046684018653738203 0.022685191013602932 0 -0.0047267482186396518 0.022981382068979483 0 -0.0046354692445584149 0.022823534537315993 0 -0.0047267482186396518 0.022981382068979483 0 -0.0042169064123666732 0.023291278912556914 0 -0.0042463963188421883 0.023097877132149842 0 -0.0047267482186396518 0.022981382068979483 0 -0.0042463963188421883 0.023097877132149842 0 -0.0046354692445584149 0.022823534537315993 0 -0.0042463963188421883 0.023097877132149842 0 -0.0046354692445584149 0.022823534537315993 0 -0.004529274394100476 0.022824650685535252 0 -0.004529274394100476 0.022824650685535252 0 -0.0043388860290239171 0.022897932563691759 0 -0.0046205457256734478 0.022680926266870381 0 -0.0042463963188421883 0.023097877132149842 0 -0.004529274394100476 0.022824650685535252 0 -0.0043388860290239171 0.022897932563691759 0 -0.0042463963188421883 0.023097877132149842 0 -0.0043388860290239171 0.022897932563691759 0 -0.0041016334227260767 0.023049957019195315 0 -0.0043388860290239171 0.022897932563691759 0 -0.0041016334227260767 0.023049957019195315 0 -0.0043694059792313755 0.022673586988092125 0 -0.0043388860290239171 0.022897932563691759 0 -0.0046205457256734478 0.022680926266870381 0 -0.0043694059792313755 0.022673586988092125 0 -0.0046205457256734478 0.022680926266870381 0 -0.0046403240060636621 0.022543588122304652 0 -0.0043694059792313755 0.022673586988092125 0 -0.0046205457256734478 0.022680926266870381 0 -0.0047381742462613858 0.022565786937730894 0 -0.0046403240060636621 0.022543588122304652 0 -0.0046205457256734478 0.022680926266870381 0 -0.0047381742462613858 0.022565786937730894 0 -0.0047271841059218622 0.022505981655295982 0 -0.0046784691929097882 0.022599835627340276 0 -0.0047271841059218622 0.022505981655295982 0 -0.0047159638353150143 0.022326355260058595 0 -0.0046205457256734478 0.022680926266870381 0 -0.0046784691929097882 0.022599835627340276 0 -0.0047271841059218622 0.022505981655295982 0 -0.004529274394100476 0.022824650685535252 0 -0.0046205457256734478 0.022680926266870381 0 -0.0046784691929097882 0.022599835627340276 0 -0.0014323788893601352 0.026541635126478787 0 -0.0028988976599024822 0.027187192557787471 0 -0.0026074224733404314 0.025314136052838814 0 -0.0014323788893601352 0.026541635126478787 0 -0.0016910264926929118 0.028202738805794034 0 -0.0028988976599024822 0.027187192557787471 0 -0.0027060255600031427 0.029650289387150461 0 -0.0016910264926929118 0.028202738805794034 0 -0.0028988976599024822 0.027187192557787471 0 -0.0028988976599024822 0.027187192557787471 0 -0.0044884356745086016 0.026638082539832308 0 -0.0026074224733404314 0.025314136052838814 0 -0.0041511261865490199 0.024959104820618153 0 -0.0041380490605228719 0.024056326354830754 0 -0.0043855592391259376 0.028899580130859037 0 -0.0028988976599024822 0.027187192557787471 0 -0.0044884356745086016 0.026638082539832308 0 -0.0039593860790922116 0.02628215935575379 0 -0.0041511261865490199 0.024959104820618153 0 -0.0036007648961674352 0.023593267150182021 0 -0.0042169064123666732 0.023291278912556914 0 -0.0040222919859743064 0.023205494422371218 0 -0.0042463963188421883 0.023097877132149842 0 -0.0040222919859743064 0.023205494422371218 0 -0.0040608642353810948 0.023783702475399491 0 -0.0042169064123666732 0.023291278912556914 0 -0.0042463963188421883 0.023097877132149842 0 -0.0040222919859743064 0.023205494422371218 0 -0.0042463963188421883 0.023097877132149842 0 -0.0041016334227260767 0.023049957019195315 0 -0.0040608642353810948 0.023783702475399491 0 -0.0041016334227260767 0.023049957019195315 0 -0.0040608642353810948 0.023783702475399491 0 -0.0036820303343056389 0.023099849647489654 0 -0.0040608642353810948 0.023783702475399491 0 -0.0026058729727518612 0.023868071890042284 0 -0.0036820303343056389 0.023099849647489654 0 -0.0044884356745086016 0.026638082539832308 0 -0.0040608642353810948 0.023783702475399491 0 -0.0026074224733404314 0.025314136052838814 0 -0.0040608642353810948 0.023783702475399491 0 -0.0026074224733404314 0.025314136052838814 0 -0.0026058729727518612 0.023868071890042284 0 -0.0026058729727518612 0.023868071890042284 0 -0.0029266949067313784 0.022991357962409 0 -0.0036820303343056389 0.023099849647489654 0 -0.0026058729727518612 0.023868071890042284 0 -0.0016582906870239397 0.023483059683972417 0 -0.0023406859716194957 0.023038658381641451 0 -0.0026058729727518612 0.023868071890042284 0 -0.0016582906870239397 0.023483059683972417 0 -0.0015409372016804816 0.024819978702739078 0 -0.0026074224733404314 0.025314136052838814 0 -0.0026058729727518612 0.023868071890042284 0 -0.0015409372016804816 0.024819978702739078 0 -0.0014323788893601352 0.026541635126478787 0 -0.0026074224733404314 0.025314136052838814 0 -0.0015409372016804816 0.024819978702739078 0 -0.0018084980707081103 0.021971032270386125 0 -0.0019300653899044543 0.022615636234835153 0 -0.0023861342425479507 0.021242328345664061 0 -0.0020606977720739614 0.022158779547551161 0 -0.0015155896425993541 0.022397603432540176 0 -0.0018084980707081103 0.021971032270386125 0 -0.0019300653899044543 0.022615636234835153 0 -0.0011629249365188881 0.022716607158374012 0 -0.0016582906870239397 0.023483059683972417 0 -0.0019300653899044543 0.022615636234835153 0 -0.0011629249365188881 0.022716607158374012 0 -0.0016582906870239397 0.023483059683972417 0 -0.0023406859716194957 0.023038658381641451 0 -0.0019300653899044543 0.022615636234835153 0 -0.0026058729727518612 0.023868071890042284 0 -0.0023406859716194957 0.023038658381641451 0 -0.0029266949067313784 0.022991357962409 0 -0.0023406859716194957 0.023038658381641451 0 -0.0019300653899044543 0.022615636234835153 0 -0.00275531114817805 0.022388365002816855 0 -0.0023406859716194957 0.023038658381641451 0 -0.0029266949067313784 0.022991357962409 0 -0.00275531114817805 0.022388365002816855 0 -0.0019300653899044543 0.022615636234835153 0 -0.00275531114817805 0.022388365002816855 0 -0.00250428758145775 0.02173106360867998 0 -0.0029266949067313784 0.022991357962409 0 -0.00275531114817805 0.022388365002816855 0 -0.0034296212025324599 0.022443780736660902 0 -0.00275531114817805 0.022388365002816855 0 -0.0034296212025324599 0.022443780736660902 0 -0.0031937250344169902 0.021833181353350654 0 -0.0029266949067313784 0.022991357962409 0 -0.0034296212025324599 0.022443780736660902 0 -0.0036820303343056389 0.023099849647489654 0 -0.0041016334227260767 0.023049957019195315 0 -0.0036820303343056389 0.023099849647489654 0 -0.003917770461968219 0.022537133713303761 0 -0.0034296212025324599 0.022443780736660902 0 -0.0036820303343056389 0.023099849647489654 0 -0.003917770461968219 0.022537133713303761 0 -0.0034296212025324599 0.022443780736660902 0 -0.003917770461968219 0.022537133713303761 0 -0.0037618189890227436 0.022037398756579989 0 -0.0034296212025324599 0.022443780736660902 0 -0.0031937250344169902 0.021833181353350654 0 -0.0037618189890227436 0.022037398756579989 0 -0.0034512309269939512 0.021448450617966314 0 -0.0031937250344169902 0.021833181353350654 0 -0.0037618189890227436 0.022037398756579989 0 -0.0033153796349617375 0.021463772986775338 0 -0.0026738275511024021 0.021490795966133323 0 -0.0034512309269939512 0.021448450617966314 0 -0.0031937250344169902 0.021833181353350654 0 -0.0030223375036484285 0.021263884329982913 0 -0.00275531114817805 0.022388365002816855 0 -0.0031937250344169902 0.021833181353350654 0 -0.00250428758145775 0.02173106360867998 0 -0.0015155896425993541 0.022397603432540176 0 -0.0026738275511024021 0.021490795966133323 0 -0.0016947734227450316 0.022347673971437054 0 -0.0019153606042111204 0.021725521211373805 0 -0.0021465787228318964 0.021791789122296939 0 -0.0015155896425993541 0.022397603432540176 0 -0.0018590207332036444 0.02199515852235609 0 0.00058639761048909082 0.023566592606019458 0 0.0006330987577347311 0.023469588207116705 0 0.00052269209283477118 0.023404128923403239 0 -0.0031937250344169902 0.021833181353350654 0 -0.00250428758145775 0.02173106360867998 0 -0.0030223375036484285 0.021263884329982913 0 0.0006330987577347311 0.023469588207116705 0 0.00073853788512335812 0.023532257474322856 0 0.00068966416254796043 0.02336979112203828 0 0.00058639761048909082 0.023566592606019458 0 0.0006330987577347311 0.023469588207116705 0 0.00073853788512335812 0.023532257474322856 0 0.00066418374244098569 0.023655566180989782 0 0.00058639761048909082 0.023566592606019458 0 0.00073853788512335812 0.023532257474322856 0 -0.00062349895443836406 0.022880352932794057 0 -0.0015155896425993541 0.022397603432540176 0 -0.0045340968408609855 0.02228963905332659 0 -0.0048735898548042623 0.021997176554854652 0 -0.0048770584647445528 0.02241865617093378 0 -0.0047381742462613858 0.022565786937730894 0 -0.0046403240060636621 0.022543588122304652 0 -0.0048770584647445528 0.02241865617093378 0 -0.0045340968408609855 0.02228963905332659 0 -0.0046403240060636621 0.022543588122304652 0 -0.0048770584647445528 0.02241865617093378 0 -0.0045340968408609855 0.02228963905332659 0 -0.0046403240060636621 0.022543588122304652 0 -0.0043694059792313755 0.022673586988092125 0 -0.0041016334227260767 0.023049957019195315 0 -0.003917770461968219 0.022537133713303761 0 -0.0043694059792313755 0.022673586988092125 0 -0.003917770461968219 0.022537133713303761 0 -0.0043694059792313755 0.022673586988092125 0 -0.0041606846976927894 0.022335551810416649 0 -0.003917770461968219 0.022537133713303761 0 -0.0041606846976927894 0.022335551810416649 0 -0.0037618189890227436 0.022037398756579989 0 -0.0045340968408609855 0.02228963905332659 0 -0.0041606846976927894 0.022335551810416649 0 -0.004173841982781693 0.021974531386561091 0 -0.0045340968408609855 0.02228963905332659 0 -0.0043694059792313755 0.022673586988092125 0 -0.0041606846976927894 0.022335551810416649 0 -0.0041606846976927894 0.022335551810416649 0 -0.004173841982781693 0.021974531386561091 0 -0.0037618189890227436 0.022037398756579989 0 -0.004173841982781693 0.021974531386561091 0 -0.0037618189890227436 0.022037398756579989 0 -0.0038464516796068737 0.021673742061962611 0 -0.0034512309269939512 0.021448450617966314 0 -0.0037618189890227436 0.022037398756579989 0 -0.0038464516796068737 0.021673742061962611 0 -0.0034512309269939512 0.021448450617966314 0 -0.0038464516796068737 0.021673742061962611 0 -0.003695065407759786 0.021241190556414734 0 -0.004173841982781693 0.021974531386561091 0 -0.004071605930915166 0.021451978653183452 0 -0.0044899963682634306 0.021722056809215722 0 -0.0038464516796068737 0.021673742061962611 0 -0.004071605930915166 0.021451978653183452 0 -0.003695065407759786 0.021241190556414734 0 -0.004173841982781693 0.021974531386561091 0 -0.0038464516796068737 0.021673742061962611 0 -0.004071605930915166 0.021451978653183452 0 -0.004071605930915166 0.021451978653183452 0 -0.0043360060244653862 0.021386821471656516 0 -0.0044899963682634306 0.021722056809215722 0 -0.0043360060244653862 0.021386821471656516 0 -0.0044899963682634306 0.021722056809215722 0 -0.0046015198252503759 0.021393667893060481 0 -0.0045340968408609855 0.02228963905332659 0 -0.004173841982781693 0.021974531386561091 0 -0.0044899963682634306 0.021722056809215722 0 -0.0045340968408609855 0.02228963905332659 0 -0.0044899963682634306 0.021722056809215722 0 -0.0048735898548042623 0.021997176554854652 0 -0.004161084021497871 0.020327714592053469 0 -0.0049128338068816753 0.021035863504234018 0 -0.0044899963682634306 0.021722056809215722 0 -0.0048735898548042623 0.021997176554854652 0 -0.0047646151496301276 0.02140185563850348 0 -0.0044899963682634306 0.021722056809215722 0 -0.0046015198252503759 0.021393667893060481 0 -0.0047646151496301276 0.02140185563850348 0 -0.0034306747730985469 0.018890933855800117 0 -0.0033045797548356269 0.019025099357252506 0 -0.0035376616615239403 0.019194344585265331 0 -0.0033045797548356269 0.019025099357252506 0 -0.0033280423441195816 0.019193536140133603 0 -0.0035376616615239403 0.019194344585265331 0 -0.0033045797548356269 0.019025099357252506 0 -0.0031279515630800465 0.019187860981822978 0 -0.0033280423441195816 0.019193536140133603 0 -0.0033045797548356269 0.019025099357252506 0 -0.003127189983643306 0.018945799476464159 0 -0.0031279515630800465 0.019187860981822978 0 -0.003127189983643306 0.018945799476464159 0 -0.0032272265215402894 0.018801918580284408 0 -0.0030462732118000089 0.018792871249856735 0 -0.0033045797548356269 0.019025099357252506 0 -0.003127189983643306 0.018945799476464159 0 -0.0032272265215402894 0.018801918580284408 0 -0.0034306747730985469 0.018890933855800117 0 -0.0033045797548356269 0.019025099357252506 0 -0.0032272265215402894 0.018801918580284408 0 -0.0032272265215402894 0.018801918580284408 0 -0.0031428418131490402 0.018575492569693656 0 -0.0033107462191814879 0.018612999874730776 0 -0.0034306747730985469 0.018890933855800117 0 -0.0032272265215402894 0.018801918580284408 0 -0.0033107462191814879 0.018612999874730776 0 -0.004161084021497871 0.020327714592053469 0 -0.00404647832350492 0.020404644682888034 0 -0.0031428418131490402 0.018575492569693656 0 -0.0030738783797533129 0.0185695817437109 0 -0.0030566687038769092 0.018574311499916531 0 -0.0029854084545082593 0.018479657827726266 0 -0.0024776583179711973 0.018710183452917441 0 -0.0032272265215402894 0.018801918580284408 0 -0.0031428418131490402 0.018575492569693656 0 -0.0030462732118000089 0.018792871249856735 0 -0.0031428418131490402 0.018575492569693656 0 -0.0030597280641067692 0.018541460109079862 0 -0.0032174199951386187 0.01842258606043877 0 -0.00404647832350492 0.020404644682888034 0 -0.0041259873209249631 0.021480692870327486 0 -0.0031428418131490402 0.018575492569693656 0 -0.0033107462191814879 0.018612999874730776 0 -0.0032174199951386187 0.01842258606043877 0 -0.0036421301476258472 0.020787296274608187 0 -0.0022439980142408612 0.019212185030774782 0 -0.0032179042373367047 0.023247746267959103 0 -0.0043389703726650205 0.02325141211250728 0 -0.0032458745588186547 0.02408707841842677 0 -0.0030597280641067692 0.018541460109079862 0 -0.0030387262131715159 0.01857043814511676 0 -0.0030738783797533129 0.0185695817437109 0 -0.0031428418131490402 0.018575492569693656 0 -0.0030597280641067692 0.018541460109079862 0 -0.0030738783797533129 0.0185695817437109 0 -0.0030597280641067692 0.018541460109079862 0 -0.0030387262131715159 0.01857043814511676 0 -0.0030180886336373001 0.018569785915870544 0 -0.0030387262131715159 0.01857043814511676 0 -0.0030738783797533129 0.0185695817437109 0 -0.0030566687038769092 0.018574311499916531 0 -0.0030387262131715159 0.01857043814511676 0 -0.0030566687038769092 0.018574311499916531 0 -0.0030112375141608735 0.018567931469762426 0 -0.0030387262131715159 0.01857043814511676 0 -0.0030180886336373001 0.018569785915870544 0 -0.0030112375141608735 0.018567931469762426 0 -0.0022439980142408612 0.019212185030774782 0 -0.0026733788565872301 0.018689356398048362 0 -0.0028367795766999692 0.018270403147761901 0 -0.0029156776489122709 0.018562140193170672 0 -0.0026867929163318862 0.018370397744251241 0 0.00026909576005771247 0.013521840914052107 0 -0.00059991170203720166 0.016170987145268028 0 -0.0028367795766999692 0.018270403147761901 0 -0.0029156776489122709 0.018562140193170672 0 -0.0030112375141608735 0.018567931469762426 0 0.0030979884813782006 0.0079902935961847117 0 0.0017921992345781884 0.0081757679946316327 0 0.0011791235356343732 0.0098260938264166289 0 -0.0029156776489122709 0.018562140193170672 0 -0.0030112375141608735 0.018567931469762426 0 -0.003044123102682567 0.018611071123162969 0 0.0030979884813782006 0.0079902935961847117 0 0.0048546795509781335 0.0063242010219299967 0 0.0030471825202147604 0.0062241825309116627 0 0.00026909576005771247 0.013521840914052107 0 -0.0017609302678097637 0.014278484239709777 0 0.0030979884813782006 0.0079902935961847117 0 0.0022376422735763644 0.0069347513997421225 0 0.0017921992345781884 0.0081757679946316327 0 0.0030979884813782006 0.0079902935961847117 0 0.0022376422735763644 0.0069347513997421225 0 0.0030471825202147604 0.0062241825309116627 0 -0.003127189983643306 0.018945799476464159 0 -0.0030462732118000089 0.018792871249856735 0 -0.0029400859716840152 0.019007833885128854 0 -0.0030566687038769092 0.018574311499916531 0 -0.0030112375141608735 0.018567931469762426 0 -0.003044123102682567 0.018611071123162969 0 -0.0024776583179711973 0.018710183452917441 0 -0.0017609302678097637 0.014278484239709777 0 -0.0017609302678097637 0.014278484239709777 0 -0.0060719747669715531 0.019259211961288117 0 -0.0029054109880748444 0.014591340721668799 0 -0.0021792424541398929 0.016134072787917342 0 -0.0045316005393943029 0.016064578143861308 0 -0.003127189983643306 0.018945799476464159 0 -0.0029400859716840152 0.019007833885128854 0 -0.0031279515630800465 0.019187860981822978 0 -0.0017609302678097637 0.014278484239709777 0 -0.002227635740443443 0.012853236256756087 0 0.0022721372017024547 0.0060043070771727729 0 0.0030471825202147604 0.0062241825309116627 0 0.0024713955121483827 0.0051993060268391575 0 0.0022376422735763644 0.0069347513997421225 0 0.0022721372017024547 0.0060043070771727729 0 0.0016061926967620864 0.006252935098322138 0 0.0022376422735763644 0.0069347513997421225 0 0.0022721372017024547 0.0060043070771727729 0 0.0030471825202147604 0.0062241825309116627 0 0.0048546795509781335 0.0063242010219299967 0 0.0030471825202147604 0.0062241825309116627 0 0.00338565114289005 0.0053318739657845296 0 0.00338565114289005 0.0053318739657845296 0 0.0028689904476002369 0.0047492426473238923 0 0.0038259480300430978 0.0042010067949874337 0 0.0048546795509781335 0.0063242010219299967 0 0.00338565114289005 0.0053318739657845296 0 0.0038259480300430978 0.0042010067949874337 0 0.0028689904476002369 0.0047492426473238923 0 0.0021633468885008888 0.0047073861134090669 0 0.0026315142087558006 0.0041802538260345716 0 0.0030471825202147604 0.0062241825309116627 0 0.00338565114289005 0.0053318739657845296 0 0.0024713955121483827 0.0051993060268391575 0 0.00338565114289005 0.0053318739657845296 0 0.0028689904476002369 0.0047492426473238923 0 0.0024713955121483827 0.0051993060268391575 0 0.0022721372017024547 0.0060043070771727729 0 0.0024713955121483827 0.0051993060268391575 0 0.0019773078169675854 0.0054386213502136075 0 0.0024713955121483827 0.0051993060268391575 0 0.0020624810940107052 0.0050202245876813257 0 0.0019773078169675854 0.0054386213502136075 0 0.0024713955121483827 0.0051993060268391575 0 0.0020624810940107052 0.0050202245876813257 0 0.0021633468885008888 0.0047073861134090669 0 0.0028689904476002369 0.0047492426473238923 0 0.0024713955121483827 0.0051993060268391575 0 0.0021633468885008888 0.0047073861134090669 0 0.001642684459085597 0.0047489846467723825 0 0.0019773078169675854 0.0054386213502136075 0 0.0016061926967620864 0.006252935098322138 0 0.001642684459085597 0.0047489846467723825 0 0.0011081847234929662 0.0048389123011733015 0 0.0012637719276572805 0.0055341631554413958 0 0.001642684459085597 0.0047489846467723825 0 0.0016061926967620864 0.006252935098322138 0 0.00053149601132972016 0.0072517474915600993 0 0.0013715204385552795 0.0052762818129152783 0 0.00089907781702110233 0.0063883670831859883 0 0.0021633468885008888 0.0047073861134090669 0 0.001642684459085597 0.0047489846467723825 0 0.0017198129090864854 0.0042719605992942505 0 0.0020624810940107052 0.0050202245876813257 0 0.0021633468885008888 0.0047073861134090669 0 0.001642684459085597 0.0047489846467723825 0 0.0020624810940107052 0.0050202245876813257 0 0.001642684459085597 0.0047489846467723825 0 0.0019773078169675854 0.0054386213502136075 0 0.0022721372017024547 0.0060043070771727729 0 0.0019773078169675854 0.0054386213502136075 0 0.0016061926967620864 0.006252935098322138 0 0.0011081847234929662 0.0048389123011733015 0 0.0005548275012258793 0.0050781612985535433 0 0.0012637719276572805 0.0055341631554413958 0 0.001642684459085597 0.0047489846467723825 0 0.0011081847234929662 0.0048389123011733015 0 0.0012915811286739541 0.0044404490941094103 0 0.0011081847234929662 0.0048389123011733015 0 0.00080269525410367698 0.0043724731205319698 0 0.0012915811286739541 0.0044404490941094103 0 0.0005548275012258793 0.0050781612985535433 0 -0.00052351627060872631 0.0054626323842115942 0 0.00015051242948390292 0.0044252134570074292 0 0.0005548275012258793 0.0050781612985535433 0 0.00015051242948390292 0.0044252134570074292 0 0.00080269525410367698 0.0043724731205319698 0 0.0011081847234929662 0.0048389123011733015 0 0.0005548275012258793 0.0050781612985535433 0 0.00080269525410367698 0.0043724731205319698 0 0.00048140982820116409 0.0057975775700358344 0 -0.00052351627060872631 0.0054626323842115942 0 0.00049904265949891175 0.0067149906765869996 0 0.0005548275012258793 0.0050781612985535433 0 0.00048140982820116409 0.0057975775700358344 0 -0.00052351627060872631 0.0054626323842115942 0 0.00048140982820116409 0.0057975775700358344 0 0.0012637719276572805 0.0055341631554413958 0 0.0008972328282068632 0.0064438564188200294 0 0.0005548275012258793 0.0050781612985535433 0 0.00048140982820116409 0.0057975775700358344 0 0.0012637719276572805 0.0055341631554413958 0 0.00089907781702110233 0.0063883670831859883 0 6.040750049972577e-05 0.0083406093560792344 0 0.0017921992345781884 0.0081757679946316327 0 0.00053149601132972016 0.0072517474915600993 0 -0.0004256703627988416 0.0096861455380902965 0 0.00082764772387031919 0.0083628902064273695 0 6.040750049972577e-05 0.0083406093560792344 0 0.0022376422735763644 0.0069347513997421225 0 0.0017921992345781884 0.0081757679946316327 0 0.0015003266468630353 0.0071758169780585419 0 0.0017921992345781884 0.0081757679946316327 0 0.0015003266468630353 0.0071758169780585419 0 0.00053149601132972016 0.0072517474915600993 0 0.0022376422735763644 0.0069347513997421225 0 0.0016061926967620864 0.006252935098322138 0 0.0015003266468630353 0.0071758169780585419 0 0.0016061926967620864 0.006252935098322138 0 0.0015003266468630353 0.0071758169780585419 0 0.00053149601132972016 0.0072517474915600993 0 -0.0077212357384100179 -0.0030111441655246173 0 -0.0061801091779594723 -0.003203505964821894 0 -0.0060755334160842176 -0.00098906938211528687 0 -0.00052351627060872631 0.0054626323842115942 0 -0.00059750215136166406 0.0038500774894432671 0 -0.0015696176971136116 0.0041652386966146001 0 -0.0061801091779594723 -0.003203505964821894 0 -0.0060755334160842176 -0.00098906938211528687 0 -0.0052736820646006478 -0.0021744870532580179 0 -0.0047413141074668487 0.00040628037084829014 0 -0.0015141364486229215 0.0012984733726660695 0 -0.00052351627060872631 0.0054626323842115942 0 -0.00059750215136166406 0.0038500774894432671 0 0.00015051242948390292 0.0044252134570074292 0 -0.0047413141074668487 0.00040628037084829014 0 -0.0014897004850037308 0.0066809596376588643 0 -0.0061801091779594723 -0.003203505964821894 0 -0.0067173545955871126 -0.004691886170257272 0 -0.0056727954866398617 -0.0047027085870000283 0 -0.0077212357384100179 -0.0030111441655246173 0 -0.0061801091779594723 -0.003203505964821894 0 -0.0067173545955871126 -0.004691886170257272 0 -0.0067173545955871126 -0.004691886170257272 0 -0.0061766714277890133 -0.0059384367811686732 0 -0.0056727954866398617 -0.0047027085870000283 0 -0.0067173545955871126 -0.004691886170257272 0 -0.0070023794375066945 -0.0055556556938337366 0 -0.0078388341576448549 -0.0051237533544911378 0 -0.0067173545955871126 -0.004691886170257272 0 -0.0070023794375066945 -0.0055556556938337366 0 -0.0061766714277890133 -0.0059384367811686732 0 -0.0077212357384100179 -0.0030111441655246173 0 -0.0078388341576448549 -0.0051237533544911378 0 -0.0093028454199637102 -0.0049586757920440285 0 -0.0077212357384100179 -0.0030111441655246173 0 -0.0067173545955871126 -0.004691886170257272 0 -0.0078388341576448549 -0.0051237533544911378 0 -0.0078388341576448549 -0.0051237533544911378 0 -0.0072700679872385772 -0.0064645101812238325 0 -0.0093028454199637102 -0.0049586757920440285 0 0.00065735195961896212 0.019030897224624536 0 0.00054752220123436093 0.018972692840274186 0 0.0006155948005244588 0.018949642471827541 0 -0.00024154819807200019 0.016760846127804117 0 0.00014400558906954499 0.018884973911944474 0 -0.0035043131159318815 0.0065406293851895062 0 -0.0014897004850037308 0.0066809596376588643 0 -0.0070023794375066945 -0.0055556556938337366 0 -0.0078388341576448549 -0.0051237533544911378 0 -0.0072700679872385772 -0.0064645101812238325 0 -0.0072700679872385772 -0.0064645101812238325 0 -0.0061766714277890133 -0.0059384367811686732 0 -0.0052091788292467425 -0.0080677168553165233 0 -0.0070023794375066945 -0.0055556556938337366 0 -0.0072700679872385772 -0.0064645101812238325 0 -0.0061766714277890133 -0.0059384367811686732 0 -0.00059991170203720166 0.016170987145268028 0 0.00047167861084407037 0.015045807559323955 0 -2.0724268518987485e-06 0.019186181294916203 0 0.00011544966855521633 0.01909106922117506 0 3.8693133854668808e-05 0.019087092902689576 0 0.0011791235356343732 0.0098260938264166289 0 -0.00056119913140346847 0.0098264816181222944 0 -0.00083074376672065354 0.011682961884333173 0 -7.6531204090184507e-05 0.019137778089688261 0 -2.0724268518987485e-06 0.019186181294916203 0 3.8693133854668808e-05 0.019087092902689576 0 0.0017921992345781884 0.0081757679946316327 0 0.0011791235356343732 0.0098260938264166289 0 -0.00056119913140346847 0.0098264816181222944 0 -0.0022439980142408612 0.019212185030774782 0 -0.00059991170203720166 0.016170987145268028 0 0.00048140982820116409 0.0057975775700358344 0 0.0008972328282068632 0.0064438564188200294 0 0.00049904265949891175 0.0067149906765869996 0 6.040750049972577e-05 0.0083406093560792344 0 -0.0014897004850037308 0.0066809596376588643 0 -0.00056119913140346847 0.0098264816181222944 0 -0.0011355391326600798 0.011307488849793171 0 -0.00083074376672065354 0.011682961884333173 0 0.00054196678404544593 0.018965247292598759 0 0.00054105453251022647 0.018965291761914329 0 0.00054752220123436093 0.018972692840274186 0 6.040750049972577e-05 0.0083406093560792344 0 0.00012197014151912591 0.012924785225116683 0 -0.00099337593705734785 0.0093335657819227837 0 0.00082868105371313122 0.0080865315025618265 0 -6.2991098478822896e-05 0.0069939884453527222 0 -0.0014897004850037308 0.0066809596376588643 0 0.00012197014151912591 0.012924785225116683 0 0.00012197014151912591 0.012924785225116683 0 0.00047167861084407037 0.015045807559323955 0 -0.00024154819807200019 0.016760846127804117 0 0.0001122533075913983 0.018944457109071996 0 0.00012257731744090932 0.019101190785150182 0 0.00016772253914583757 0.019070033593852342 0 9.49975084866693e-05 0.019069445721805297 0 0.00016772253914583757 0.019070033593852342 0 0.00012321901909063675 0.018997458564724429 0 9.49975084866693e-05 0.019069445721805297 0 0.00047167861084407037 0.015045807559323955 0 0.00066429728494250264 0.015472563601377994 0 0.00065735195961896212 0.019030897224624536 0 0.00054196678404544593 0.018965247292598759 0 0.00054752220123436093 0.018972692840274186 0 0.00016772253914583757 0.019070033593852342 0 0.00012321901909063675 0.018997458564724429 0 0.00018144438673213664 0.018915374577461851 0 0.00026769433454569336 0.016357521883554806 0 -0.00017609805821435927 0.015813832205915455 0 0.00084909977169006631 0.014891970132668473 0 0.00012197014151912591 0.012924785225116683 0 -0.00024154819807200019 0.016760846127804117 0 0.00047167861084407037 0.015045807559323955 0 -0.00024154819807200019 0.016760846127804117 0 -0.0022439980142408612 0.019212185030774782 0 -0.0014268629246374483 0.021063820073204349 0 3.8693133854668808e-05 0.019087092902689576 0 9.49975084866693e-05 0.019069445721805297 0 5.7103112576819637e-05 0.018943396292117554 0 -7.6531204090184507e-05 0.019137778089688261 0 3.8693133854668808e-05 0.019087092902689576 0 5.7103112576819637e-05 0.018943396292117554 0 -0.0032179042373367047 0.023247746267959103 0 -0.0032458745588186547 0.02408707841842677 0 -0.0024695150830764839 0.023010501165996216 0 0.00012321901909063675 0.018997458564724429 0 9.49975084866693e-05 0.019069445721805297 0 5.7103112576819637e-05 0.018943396292117554 0 0.00011544966855521633 0.01909106922117506 0 3.8693133854668808e-05 0.019087092902689576 0 9.49975084866693e-05 0.019069445721805297 0 -0.0029721876990738165 0.022599176947055485 0 -0.0024695150830764839 0.023010501165996216 0 -0.0025198263383659604 0.022061782624462848 0 -0.0032179042373367047 0.023247746267959103 0 -0.0029721876990738165 0.022599176947055485 0 -0.0024695150830764839 0.023010501165996216 0 0.00018144438673213664 0.018915374577461851 0 0.00029785236701423908 0.018858636430583383 0 0.00024861744833606914 0.018648007533346098 0 0.00012321901909063675 0.018997458564724429 0 5.7103112576819637e-05 0.018943396292117554 0 0.00018144438673213664 0.018915374577461851 0 5.7103112576819637e-05 0.018943396292117554 0 0.00018144438673213664 0.018915374577461851 0 0.00024861744833606914 0.018648007533346098 0 0.00016772253914583757 0.019070033593852342 0 0.00018144438673213664 0.018915374577461851 0 0.00029785236701423908 0.018858636430583383 0 -0.0014268629246374483 0.021063820073204349 0 -0.00060646999170544476 0.020143194969895979 0 -0.0014625082515670642 0.021784685703493595 0 -0.0025198263383659604 0.022061782624462848 0 -0.0021342154208944118 0.021348954170465565 0 -0.0024695150830764839 0.023010501165996216 0 -0.0014625082515670642 0.021784685703493595 0 -0.0025198263383659604 0.022061782624462848 0 -0.0025198263383659604 0.022061782624462848 0 -0.0028146632606903268 0.021384187412127567 0 -0.0021342154208944118 0.021348954170465565 0 -0.0025198263383659604 0.022061782624462848 0 -0.0028146632606903268 0.021384187412127567 0 -0.003356972938352343 0.021992196965860262 0 -0.0029721876990738165 0.022599176947055485 0 -0.0025198263383659604 0.022061782624462848 0 -0.003356972938352343 0.021992196965860262 0 0.0006155948005244588 0.018949642471827541 0 0.00081592694114317242 0.018746430367289058 0 0.0011542817841437027 0.019018060876133076 0 -0.0035043131159318815 0.0065406293851895062 0 -0.0019244698909077222 0.0054190115586893184 0 0.00065735195961896212 0.019030897224624536 0 0.0006155948005244588 0.018949642471827541 0 0.0011542817841437027 0.019018060876133076 0 0.00030294324819256 0.01919457107021422 0 0.00043051315475394115 0.018906299464206987 0 0.0006155948005244588 0.018949642471827541 0 0.00043051315475394115 0.018906299464206987 0 0.0006155948005244588 0.018949642471827541 0 0.00058814667803782673 0.018781127062710488 0 0.0001122533075913983 0.018944457109071996 0 0.00042286675200185243 0.018551455368121327 0 0.00029785236701423908 0.018858636430583383 0 0.00024861744833606914 0.018648007533346098 0 0.00048887312556069392 0.018538071637996863 0 0.00043051315475394115 0.018906299464206987 0 0.00058814667803782673 0.018781127062710488 0 0.00048887312556069392 0.018538071637996863 0 0.00058814667803782673 0.018781127062710488 0 0.00081592694114317242 0.018746430367289058 0 0.00048887312556069392 0.018538071637996863 0 0.0006155948005244588 0.018949642471827541 0 0.00058814667803782673 0.018781127062710488 0 0.00081592694114317242 0.018746430367289058 0 0.00081592694114317242 0.018746430367289058 0 0.00072424406260005597 0.018390989402995502 0 0.0010262870487211413 0.018538098908433307 0 0.00081592694114317242 0.018746430367289058 0 0.00072424406260005597 0.018390989402995502 0 0.00048887312556069392 0.018538071637996863 0 0.00072424406260005597 0.018390989402995502 0 0.0008845433585346681 0.018069214408412502 0 0.0010262870487211413 0.018538098908433307 0 0.00072424406260005597 0.018390989402995502 0 0.00049811400760259143 0.018186384881637988 0 0.0008845433585346681 0.018069214408412502 0 -0.00060646999170544476 0.020143194969895979 0 4.7857148334175624e-05 0.019061669026081036 0 0.00072424406260005597 0.018390989402995502 0 0.00048887312556069392 0.018538071637996863 0 0.00049811400760259143 0.018186384881637988 0 0.00024861744833606914 0.018648007533346098 0 0.00048887312556069392 0.018538071637996863 0 0.00049811400760259143 0.018186384881637988 0 -0.0005282747255058272 0.018346319295603288 0 -0.00032501653727670438 0.020056865973415782 0 -0.0016312715368198654 0.019419457253219582 0 0.00056487734772174558 0.018008857357395346 0 4.7857148334175624e-05 0.019061669026081036 0 0.00060388415533947962 0.017688856762894774 0 0.00049811400760259143 0.018186384881637988 0 0.0008845433585346681 0.018069214408412502 0 -0.0022275095713815735 0.020502958672803228 0 -0.0030532257673520614 0.020660536148156189 0 -0.0028146632606903268 0.021384187412127567 0 -0.0022275095713815735 0.020502958672803228 0 -0.0028146632606903268 0.021384187412127567 0 -0.0021342154208944118 0.021348954170465565 0 -0.0014625082515670642 0.021784685703493595 0 -0.00032501653727670438 0.020056865973415782 0 -0.0015657645582750957 0.020642042306750222 0 -0.0014625082515670642 0.021784685703493595 0 -0.0021342154208944118 0.021348954170465565 0 -0.0015657645582750957 0.020642042306750222 0 -0.0022275095713815735 0.020502958672803228 0 -0.0021342154208944118 0.021348954170465565 0 -0.0015657645582750957 0.020642042306750222 0 -0.0022275095713815735 0.020502958672803228 0 -0.0015657645582750957 0.020642042306750222 0 -0.0016312715368198654 0.019419457253219582 0 -0.00032501653727670438 0.020056865973415782 0 -0.0015657645582750957 0.020642042306750222 0 -0.0016312715368198654 0.019419457253219582 0 -0.0025980913735504161 0.01854359213818808 0 -0.0016312715368198654 0.019419457253219582 0 -0.0025989802317547693 0.019849439461841711 0 -0.0025980913735504161 0.01854359213818808 0 -0.0025989802317547693 0.019849439461841711 0 -0.0034280178562722204 0.020067678030560181 0 -0.0022275095713815735 0.020502958672803228 0 -0.0016312715368198654 0.019419457253219582 0 -0.0025989802317547693 0.019849439461841711 0 -0.0022275095713815735 0.020502958672803228 0 -0.0030532257673520614 0.020660536148156189 0 -0.0025989802317547693 0.019849439461841711 0 -0.0030532257673520614 0.020660536148156189 0 -0.0025989802317547693 0.019849439461841711 0 -0.0034280178562722204 0.020067678030560181 0 -0.0037608795969864754 0.019231270856600917 0 -0.0034280178562722204 0.020067678030560181 0 -0.0039323243612176002 0.020498720565464791 0 -0.0034280178562722204 0.020067678030560181 0 -0.0039323243612176002 0.020498720565464791 0 -0.0036832180031244814 0.020845060815578541 0 -0.0030532257673520614 0.020660536148156189 0 -0.0034280178562722204 0.020067678030560181 0 -0.0036832180031244814 0.020845060815578541 0 -0.0030532257673520614 0.020660536148156189 0 -0.0036832180031244814 0.020845060815578541 0 -0.0034648991573199795 0.021333514956357647 0 -0.0036832180031244814 0.020845060815578541 0 -0.0038683183992455983 0.021264819165303858 0 -0.0042179600137111249 0.021181236169845939 0 -0.0039323243612176002 0.020498720565464791 0 -0.0036832180031244814 0.020845060815578541 0 -0.0042179600137111249 0.021181236169845939 0 -0.0036832180031244814 0.020845060815578541 0 -0.0038683183992455983 0.021264819165303858 0 -0.0034648991573199795 0.021333514956357647 0 -0.0038683183992455983 0.021264819165303858 0 -0.0034648991573199795 0.021333514956357647 0 -0.0040378236372922947 0.021627501499819683 0 -0.0030532257673520614 0.020660536148156189 0 -0.0028146632606903268 0.021384187412127567 0 -0.0034648991573199795 0.021333514956357647 0 -0.0044385933571851298 0.021458234740971173 0 -0.0047155196864930816 0.021492620040555546 0 -0.0045730547239054174 0.021722506512471689 0 -0.0044385933571851298 0.021458234740971173 0 -0.0040378236372922947 0.021627501499819683 0 -0.0045730547239054174 0.021722506512471689 0 -0.0038683183992455983 0.021264819165303858 0 -0.0042179600137111249 0.021181236169845939 0 -0.0040378236372922947 0.021627501499819683 0 -0.0044385933571851298 0.021458234740971173 0 -0.0042179600137111249 0.021181236169845939 0 -0.0040378236372922947 0.021627501499819683 0 -0.0042179600137111249 0.021181236169845939 0 -0.0045473251855748468 0.021289445343931603 0 -0.0044759978426593197 0.020994577102273503 0 -0.0044385933571851298 0.021458234740971173 0 -0.0042179600137111249 0.021181236169845939 0 -0.0045473251855748468 0.021289445343931603 0 -0.0045473251855748468 0.021289445343931603 0 -0.0047166260350192417 0.021348826497835156 0 -0.0047155196864930816 0.021492620040555546 0 -0.0044385933571851298 0.021458234740971173 0 -0.0045473251855748468 0.021289445343931603 0 -0.0047155196864930816 0.021492620040555546 0 -0.0045473251855748468 0.021289445343931603 0 -0.0044759978426593197 0.020994577102273503 0 -0.0047166260350192417 0.021348826497835156 0 -0.0044759978426593197 0.020994577102273503 0 -0.0049224065956047884 0.021349383868519759 0 -0.0047166260350192417 0.021348826497835156 0 -0.0044759978426593197 0.020994577102273503 0 -0.0042923496472283065 0.020255317265829343 0 -0.0049224065956047884 0.021349383868519759 0 -0.0046757777948646115 0.018437817473171459 0 -0.0042923496472283065 0.020255317265829343 0 -0.0049224065956047884 0.021349383868519759 0 -0.0039323243612176002 0.020498720565464791 0 -0.0044759978426593197 0.020994577102273503 0 -0.0042923496472283065 0.020255317265829343 0 -0.0039323243612176002 0.020498720565464791 0 -0.0042179600137111249 0.021181236169845939 0 -0.0044759978426593197 0.020994577102273503 0 -0.0037608795969864754 0.019231270856600917 0 -0.0039323243612176002 0.020498720565464791 0 -0.0042923496472283065 0.020255317265829343 0 -0.0047107044179105599 0.021970040628838648 0 -0.0046707939927449239 0.021825881238494504 0 -0.0049224065956047884 0.021349383868519759 0 -0.0046707939927449239 0.021825881238494504 0 -0.0047453299028668286 0.021611316552647534 0 -0.0049224065956047884 0.021349383868519759 0 -0.0046707939927449239 0.021825881238494504 0 -0.0046843369025076735 0.02177649799769988 0 -0.0047453299028668286 0.021611316552647534 0 -0.0046843369025076735 0.02177649799769988 0 -0.0047453299028668286 0.021611316552647534 0 -0.0046967244268017252 0.021784270949016672 0 -0.0047453299028668286 0.021611316552647534 0 -0.0049224065956047884 0.021349383868519759 0 -0.0047445686450008672 0.02151650366430392 0 -0.0049224065956047884 0.021349383868519759 0 -0.0047166260350192417 0.021348826497835156 0 -0.0047445686450008672 0.02151650366430392 0 -0.0046226702389554342 0.022122457193985014 0 -0.0046471576279334143 0.02194213758132121 0 -0.0046588217922730463 0.022066997991530439 0 -0.0046112808271382318 0.022214182036063481 0 -0.0046237507698582226 0.022273388227342761 0 -0.0046226702389554342 0.022122457193985014 0 -0.0046489176870998022 0.022063455833086911 0 -0.0046707939927449239 0.021825881238494504 0 -0.0046287333946494107 0.022027945284121771 0 -0.0046226702389554342 0.022122457193985014 0 -0.0046287333946494107 0.022027945284121771 0 -0.0046471576279334143 0.02194213758132121 0 -0.0046707939927449239 0.021825881238494504 0 -0.0046287333946494107 0.022027945284121771 0 -0.0046471576279334143 0.02194213758132121 0 -0.0046760339908091808 0.021901224111023777 0 -0.0046588217922730463 0.022066997991530439 0 -0.0046961621317278953 0.022044664794200034 0 -0.0046843369025076735 0.02177649799769988 0 -0.0046471576279334143 0.02194213758132121 0 -0.0046760339908091808 0.021901224111023777 0 -0.0046707939927449239 0.021825881238494504 0 -0.0046843369025076735 0.02177649799769988 0 -0.0046471576279334143 0.02194213758132121 0 -0.0046843369025076735 0.02177649799769988 0 -0.0046760339908091808 0.021901224111023777 0 -0.0046967244268017252 0.021784270949016672 0 -0.0046471576279334143 0.02194213758132121 0 -0.0046760339908091808 0.021901224111023777 0 -0.0046588217922730463 0.022066997991530439 0 -0.0046414594720468553 0.022216908959201708 0 -0.0046787526173271334 0.022302603359844419 0 -0.0046588217922730463 0.022066997991530439 0 -0.0046414594720468553 0.022216908959201708 0 -0.0046226702389554342 0.022122457193985014 0 -0.0046588217922730463 0.022066997991530439 0 -0.0046961621317278953 0.022044664794200034 0 -0.0047159638353150143 0.022326355260058595 0 -0.0045366553765279483 0.022287008375354019 0 -0.0046787526173271334 0.022302603359844419 0 -0.0046588217922730463 0.022066997991530439 0 -0.0046961621317278953 0.022044664794200034 0 -0.0046787526173271334 0.022302603359844419 0 -0.0046961621317278953 0.022044664794200034 0 -0.0047159638353150143 0.022326355260058595 0 -0.0046760339908091808 0.021901224111023777 0 -0.0046961621317278953 0.022044664794200034 0 -0.0046967244268017252 0.021784270949016672 0 -0.0046961621317278953 0.022044664794200034 0 -0.0046967244268017252 0.021784270949016672 0 -0.0045366553765279483 0.022287008375354019 0 -0.004691735496741541 0.021789967883232307 0 -0.0046858933265163469 0.022093663767678674 0 -0.0047445686450008672 0.02151650366430392 0 -0.0046967244268017252 0.021784270949016672 0 -0.0045366553765279483 0.022287008375354019 0 -0.0047445686450008672 0.02151650366430392 0 -0.0047155196864930816 0.021492620040555546 0 -0.0050125143767769395 0.021719255209390703 0 -0.0047166260350192417 0.021348826497835156 0 -0.0047445686450008672 0.02151650366430392 0 -0.0047155196864930816 0.021492620040555546 0 -0.0047453299028668286 0.021611316552647534 0 -0.0047445686450008672 0.02151650366430392 0 -0.0046967244268017252 0.021784270949016672 0 -0.0047155196864930816 0.021492620040555546 0 -0.0050125143767769395 0.021719255209390703 0 -0.0045730547239054174 0.021722506512471689 0 -0.0046858933265163469 0.022093663767678674 0 -0.0041259873209249631 0.021480692870327486 0 -0.0050125143767769395 0.021719255209390703 0 -0.0046754642836304532 0.022248947735486951 0 -0.0045730547239054174 0.021722506512471689 0 -0.0050125143767769395 0.021719255209390703 0 -0.0046754642836304532 0.022248947735486951 0 -0.0053054638736873549 0.02244071957572619 0 -0.0047271841059218622 0.022505981655295982 0 -0.0045366553765279483 0.022287008375354019 0 -0.0045753483949202874 0.022551387307176398 0 -0.0047271841059218622 0.022505981655295982 0 -0.0047159638353150143 0.022326355260058595 0 -0.0045366553765279483 0.022287008375354019 0 -0.0043914142155186452 0.022069437019741223 0 -0.0041259873209249631 0.021480692870327486 0 -0.0047381742462613858 0.022565786937730894 0 -0.0047271841059218622 0.022505981655295982 0 -0.004787311205700839 0.022563157957900617 0 -0.0047381742462613858 0.022565786937730894 0 -0.0048770584647445528 0.02241865617093378 0 -0.004787311205700839 0.022563157957900617 0 -0.0043389703726650205 0.02325141211250728 0 -0.0046754642836304532 0.022248947735486951 0 -0.0053054638736873549 0.02244071957572619 0 -0.0036421301476258472 0.020787296274608187 0 -0.0041259873209249631 0.021480692870327486 0 -0.0043389703726650205 0.02325141211250728 0 -0.0035243572435091808 0.022688654173102122 0 -0.0041089416159817722 0.022225931685121828 0 -0.0043389703726650205 0.02325141211250728 0 -0.0046754642836304532 0.022248947735486951 0 -0.0041089416159817722 0.022225931685121828 0 -0.0032179042373367047 0.023247746267959103 0 -0.0043389703726650205 0.02325141211250728 0 -0.0035243572435091808 0.022688654173102122 0 -0.0032179042373367047 0.023247746267959103 0 -0.0029721876990738165 0.022599176947055485 0 -0.0035243572435091808 0.022688654173102122 0 -0.0029721876990738165 0.022599176947055485 0 -0.0035243572435091808 0.022688654173102122 0 -0.003356972938352343 0.021992196965860262 0 -0.0035243572435091808 0.022688654173102122 0 -0.003356972938352343 0.021992196965860262 0 -0.0041089416159817722 0.022225931685121828 0 -0.0028146632606903268 0.021384187412127567 0 -0.0034648991573199795 0.021333514956357647 0 -0.003356972938352343 0.021992196965860262 0 -0.0034648991573199795 0.021333514956357647 0 -0.003356972938352343 0.021992196965860262 0 -0.0040378236372922947 0.021627501499819683 0 -0.003356972938352343 0.021992196965860262 0 -0.0040378236372922947 0.021627501499819683 0 -0.0041089416159817722 0.022225931685121828 0 -0.0040378236372922947 0.021627501499819683 0 -0.0045730547239054174 0.021722506512471689 0 -0.0041089416159817722 0.022225931685121828 0 -0.0046754642836304532 0.022248947735486951 0 -0.0045730547239054174 0.021722506512471689 0 -0.0041089416159817722 0.022225931685121828 0 0.00068116337375498414 0.034394397891244606 0 0.00079781927568976048 0.034376984720606865 0 0.001146620514766993 0.033842177881237813 0 0.00068116337375498414 0.034394397891244606 0 0.001146620514766993 0.033842177881237813 0 0.0010307965501646754 0.033946749557692162 0 0.00068116337375498414 0.034394397891244606 0 1.2724019568616299e-06 0.034998865536664071 0 -2.0267616931280657e-08 0.03499727873505621 0 0.00068116337375498414 0.034394397891244606 0 1.2724019568616299e-06 0.034998865536664071 0 0.00079781927568976048 0.034376984720606865 0 1.2724019568616299e-06 0.034998865536664071 0 0.00064822565405292152 0.034681385004691166 0 0.00079781927568976048 0.034376984720606865 0 0.00064822565405292152 0.034681385004691166 0 0.00079781927568976048 0.034376984720606865 0 0.0011802472473671801 0.033843034514680903 0 1.2724019568616299e-06 0.034998865536664071 0 0.00064822565405292152 0.034681385004691166 0 6.3463555137620283e-07 0.034999661029380451 0 0.00079781927568976048 0.034376984720606865 0 0.001146620514766993 0.033842177881237813 0 0.0011802472473671801 0.033843034514680903 0 0.001146620514766993 0.033842177881237813 0 0.0013461508711111567 0.03340802106336685 0 0.0011802472473671801 0.033843034514680903 0 0.001146620514766993 0.033842177881237813 0 0.0013574703190135119 0.033212819996740653 0 0.0012214201854560288 0.033509228602001666 0 0.001146620514766993 0.033842177881237813 0 0.0013574703190135119 0.033212819996740653 0 0.0013461508711111567 0.03340802106336685 0 0.0013574703190135119 0.033212819996740653 0 0.0012214201854560288 0.033509228602001666 0 0.0013399027608773772 0.032765118292354012 0 0.0012214201854560288 0.033509228602001666 0 0.0010307965501646754 0.033946749557692162 0 0.0011054820494607587 0.033765586185442703 0 0.001146620514766993 0.033842177881237813 0 0.0012214201854560288 0.033509228602001666 0 0.0010307965501646754 0.033946749557692162 0 0.0011054820494607587 0.033765586185442703 0 0.0009277211485285297 0.033737204066070434 0 0.0007756454206624511 0.034182924292715793 0 0.0010307965501646754 0.033946749557692162 0 0.0011054820494607587 0.033765586185442703 0 0.0007756454206624511 0.034182924292715793 0 0.0011054820494607587 0.033765586185442703 0 0.001207419880318821 0.03346859999949181 0 0.0011486188573341957 0.033537634238226671 0 0.0012214201854560288 0.033509228602001666 0 0.0011054820494607587 0.033765586185442703 0 0.001207419880318821 0.03346859999949181 0 0.0012214201854560288 0.033509228602001666 0 0.001207419880318821 0.03346859999949181 0 0.0012306081533458039 0.033303228943539688 0 0.0011486188573341957 0.033537634238226671 0 0.0011939950696001156 0.033349211346680716 0 0.0012331251850323437 0.033350505149933998 0 0.001207419880318821 0.03346859999949181 0 0.0011486188573341957 0.033537634238226671 0 0.0012331251850323437 0.033350505149933998 0 0.0011486188573341957 0.033537634238226671 0 0.0009277211485285297 0.033737204066070434 0 0.0010575558513738238 0.033449944317148303 0 0.0011054820494607587 0.033765586185442703 0 0.0011486188573341957 0.033537634238226671 0 0.0009277211485285297 0.033737204066070434 0 0.0009277211485285297 0.033737204066070434 0 0.0007756454206624511 0.034182924292715793 0 0.00059096582710224329 0.033644899597869385 0 0.0009277211485285297 0.033737204066070434 0 0.00059096582710224329 0.033644899597869385 0 0.0010575558513738238 0.033449944317148303 0 0.00068116337375498414 0.034394397891244606 0 0.0010307965501646754 0.033946749557692162 0 0.0007756454206624511 0.034182924292715793 0 0.00068116337375498414 0.034394397891244606 0 0.0007756454206624511 0.034182924292715793 0 -2.0267616931280657e-08 0.03499727873505621 0 -1.7232491813559831e-10 0.035000005155615618 0 8.6638223755526492e-09 0.034999998786167531 0 7.089805587149616e-06 0.035001149873274136 0 0.0007756454206624511 0.034182924292715793 0 -2.0267616931280657e-08 0.03499727873505621 0 0.00059096582710224329 0.033644899597869385 0 1.706170395441232e-07 0.034999557228250051 0 0.00034594452397180176 0.034383138772759204 0 8.6638223755526492e-09 0.034999998786167531 0 7.089805587149616e-06 0.035001149873274136 0 9.7545725381911227e-06 0.034998323470726782 0 0.00059096582710224329 0.033644899597869385 0 0.00094576588824215864 0.033239253993298433 0 0.0010575558513738238 0.033449944317148303 0 0.00034594452397180176 0.034383138772759204 0 0.0005566114647646219 0.034150889706451769 0 7.089805587149616e-06 0.035001149873274136 0 9.7545725381911227e-06 0.034998323470726782 0 1.9222388263534391e-05 0.034998656163685284 0 9.7545725381911227e-06 0.034998323470726782 0 1.8491635667780094e-05 0.034994624372634071 0 1.9222388263534391e-05 0.034998656163685284 0 8.6638223755526492e-09 0.034999998786167531 0 9.7545725381911227e-06 0.034998323470726782 0 4.6387167611933676e-09 0.035000000214550672 0 9.7545725381911227e-06 0.034998323470726782 0 4.6387167611933676e-09 0.035000000214550672 0 1.4417358465991404e-05 0.03499437408265213 0 9.7545725381911227e-06 0.034998323470726782 0 1.8491635667780094e-05 0.034994624372634071 0 1.4417358465991404e-05 0.03499437408265213 0 1.8491635667780094e-05 0.034994624372634071 0 1.4417358465991404e-05 0.03499437408265213 0 2.066470942952146e-05 0.034990330214705774 0 1.4417358465991404e-05 0.03499437408265213 0 2.039970460728299e-05 0.034985894192779372 0 2.066470942952146e-05 0.034990330214705774 0 5.7535518263611657e-05 0.034955679442613338 0 0.00013189292519237648 0.03491990174738626 0 7.2959842952057064e-05 0.034977288021892303 0 2.039970460728299e-05 0.034985894192779372 0 0.00012323872104750931 0.035032402410792425 0 7.2791442560890011e-06 0.034978707942164261 0 7.2959842952057064e-05 0.034977288021892303 0 2.039970460728299e-05 0.034985894192779372 0 4.6387167611933676e-09 0.035000000214550672 0 1.4417358465991404e-05 0.03499437408265213 0 2.039970460728299e-05 0.034985894192779372 0 6.4972138693751248e-09 0.034999935766126151 0 7.2791442560890011e-06 0.034978707942164261 0 4.6387167611933676e-09 0.035000000214550672 0 7.2791442560890011e-06 0.034978707942164261 0 4.6387167611933676e-09 0.035000000214550672 0 2.039970460728299e-05 0.034985894192779372 0 0.00031119039387151405 0.034905492231178357 0 0.00014849342367303896 0.034924510989067604 0 0.00021768338687549909 0.034993961510833636 0 0.00031119039387151405 0.034905492231178357 0 0.00021768338687549909 0.034993961510833636 0 0.00029944856637464164 0.035030582524719293 0 0.00014849342367303896 0.034924510989067604 0 0.00021768338687549909 0.034993961510833636 0 0.00012323872104750931 0.035032402410792425 0 0.00014849342367303896 0.034924510989067604 0 7.2959842952057064e-05 0.034977288021892303 0 0.00012323872104750931 0.035032402410792425 0 0.00021768338687549909 0.034993961510833636 0 0.00012323872104750931 0.035032402410792425 0 0.00023119003786017765 0.035101820537778668 0 1.8491635667780094e-05 0.034994624372634071 0 2.066470942952146e-05 0.034990330214705774 0 2.9072188479036586e-05 0.034992663863336444 0 0.00013189292519237648 0.03491990174738626 0 0.0005372278489609297 0.034663826590012312 0 0.00021768338687549909 0.034993961510833636 0 0.00023119003786017765 0.035101820537778668 0 0.00029944856637464164 0.035030582524719293 0 0.00025570960173060524 0.035076568353905949 0 0.00029944856637464164 0.035030582524719293 0 0.0003207346585549696 0.035123111950593082 0 0.0005372278489609297 0.034663826590012312 0 0.00027947610286098554 0.034970706886056822 0 0.0011456925092244068 0.033090870338620695 0 0.0011585518183835053 0.033255372014702606 0 0.0012490589885939744 0.033193914231411534 0 0.0005372278489609297 0.034663826590012312 0 0.00076067059559302604 0.034168722400698813 0 0.0011585518183835053 0.033255372014702606 0 0.0012445581067274127 0.033253194644548137 0 0.0012490589885939744 0.033193914231411534 0 1.8491635667780094e-05 0.034994624372634071 0 2.9072188479036586e-05 0.034992663863336444 0 1.9222388263534391e-05 0.034998656163685284 0 0.0011456925092244068 0.033090870338620695 0 0.0011585518183835053 0.033255372014702606 0 0.00094576588824215864 0.033239253993298433 0 0.0005372278489609297 0.034663826590012312 0 0.0005566114647646219 0.034150889706451769 0 0.0011585518183835053 0.033255372014702606 0 0.00094576588824215864 0.033239253993298433 0 0.0010575558513738238 0.033449944317148303 0 0.0011585518183835053 0.033255372014702606 0 0.0011939950696001156 0.033349211346680716 0 0.0012445581067274127 0.033253194644548137 0 0.0011585518183835053 0.033255372014702606 0 0.0010575558513738238 0.033449944317148303 0 0.0011939950696001156 0.033349211346680716 0 0.0011486188573341957 0.033537634238226671 0 0.0010575558513738238 0.033449944317148303 0 0.0011939950696001156 0.033349211346680716 0 0.0011939950696001156 0.033349211346680716 0 0.0012415119003349299 0.033288462325337373 0 0.0012331251850323437 0.033350505149933998 0 0.0011939950696001156 0.033349211346680716 0 0.0012415119003349299 0.033288462325337373 0 0.0012445581067274127 0.033253194644548137 0 0.0012415119003349299 0.033288462325337373 0 0.0012626652038126435 0.033224623404063111 0 0.0012653620098809245 0.033210063144402432 0 0.0012626652038126435 0.033224623404063111 0 0.0012756941904904936 0.033232323488308818 0 0.0012445581067274127 0.033253194644548137 0 0.0010153154146236244 0.033443077318974786 0 0.00086611104229991577 0.033635845282480967 0 0.0012415119003349299 0.033288462325337373 0 0.0012626652038126435 0.033224623404063111 0 0.0012445581067274127 0.033253194644548137 0 0.0013216836103602202 0.033095206901369176 0 0.0012830597062911502 0.033103737718205697 0 0.0012880898272903949 0.033087485226566883 0 0.0012830597062911502 0.033103737718205697 0 0.0012458116106539227 0.033014920703903904 0 0.001256575929053668 0.033049502034472863 0 0.0012626652038126435 0.033224623404063111 0 0.0012830597062911502 0.033103737718205697 0 0.0012653620098809245 0.033210063144402432 0 0.00086611104229991577 0.033635845282480967 0 0.0010193184197512628 0.033490926845934341 0 0.0012626652038126435 0.033224623404063111 0 0.0012678450695486078 0.033189281175892225 0 0.0012830597062911502 0.033103737718205697 0 0.0012830597062911502 0.033103737718205697 0 0.0012880898272903949 0.033087485226566883 0 0.0012458116106539227 0.033014920703903904 0 0.0013216836103602202 0.033095206901369176 0 0.0013412969689937302 0.033177536892656498 0 0.0012880898272903949 0.033087485226566883 0 0.00039007791281229262 0.035170742093371885 0 0.00038316194107376229 0.035112069773571203 0 0.0004571207275765996 0.035085963062717843 0 0.00086611104229991577 0.033635845282480967 0 0.00083601832148246533 0.03414228082743153 0 0.0012756941904904936 0.033232323488308818 0 0.0012445581067274127 0.033253194644548137 0 0.0012490589885939744 0.033193914231411534 0 0.00086611104229991577 0.033635845282480967 0 0.00076067059559302604 0.034168722400698813 0 0.00039007791281229262 0.035170742093371885 0 0.00038316194107376229 0.035112069773571203 0 0.0003207346585549696 0.035123111950593082 0 0.00038316194107376229 0.035112069773571203 0 0.0003207346585549696 0.035123111950593082 0 0.00036706041615790989 0.035067929866309605 0 0.00029944856637464164 0.035030582524719293 0 0.00036706041615790989 0.035067929866309605 0 0.0004052708083475909 0.034996767517548266 0 0.00029944856637464164 0.035030582524719293 0 0.0003207346585549696 0.035123111950593082 0 0.00036706041615790989 0.035067929866309605 0 0.0004571207275765996 0.035085963062717843 0 0.0004052708083475909 0.034996767517548266 0 0.00053152409914472521 0.03498959030336992 0 0.00036706041615790989 0.035067929866309605 0 0.0004571207275765996 0.035085963062717843 0 0.0004052708083475909 0.034996767517548266 0 0.00038316194107376229 0.035112069773571203 0 0.00036706041615790989 0.035067929866309605 0 0.0004571207275765996 0.035085963062717843 0 0.00045653609798505465 0.034894103508789853 0 0.0004052708083475909 0.034996767517548266 0 0.00053152409914472521 0.03498959030336992 0 0.00031119039387151405 0.034905492231178357 0 0.00029944856637464164 0.035030582524719293 0 0.0004052708083475909 0.034996767517548266 0 0.00031119039387151405 0.034905492231178357 0 0.00045653609798505465 0.034894103508789853 0 0.0004052708083475909 0.034996767517548266 0 0.0011860406411691785 0.033753922298080566 0 0.0013173546402168723 0.033411776747910023 0 0.00096711512749241024 0.033532339604215304 0 0.0013173546402168723 0.033411776747910023 0 0.0010720159858789414 0.03322888412619536 0 0.00096711512749241024 0.033532339604215304 0 0.00080485131126140249 0.034345602033607911 0 0.00089735206096446039 0.034199168323079308 0 0.00060600835421436693 0.034884464569641289 0 0.00045653609798505465 0.034894103508789853 0 0.00053152409914472521 0.03498959030336992 0 0.00083601832148246533 0.03414228082743153 0 0.00089735206096446039 0.034199168323079308 0 0.0013412969689937302 0.033177536892656498 0 0.0013173546402168723 0.033411776747910023 0 0.0012382761751385909 0.033187678289451621 0 0.0013173546402168723 0.033411776747910023 0 0.0012382761751385909 0.033187678289451621 0 0.0010720159858789414 0.03322888412619536 0 0.0010720159858789414 0.03322888412619536 0 0.0012062114227113902 0.033040157747955955 0 0.0010010432641614365 0.032939766916844623 0 0.0012382761751385909 0.033187678289451621 0 0.0010720159858789414 0.03322888412619536 0 0.0012062114227113902 0.033040157747955955 0 0.0013412969689937302 0.033177536892656498 0 0.0012382761751385909 0.033187678289451621 0 0.0012880898272903949 0.033087485226566883 0 0.0012382761751385909 0.033187678289451621 0 0.0012062114227113902 0.033040157747955955 0 0.0012880898272903949 0.033087485226566883 0 0.0012062114227113902 0.033040157747955955 0 0.0012458116106539227 0.033014920703903904 0 0.0011715637593360999 0.032876210342400215 0 0.0012062114227113902 0.033040157747955955 0 0.0012880898272903949 0.033087485226566883 0 0.0012458116106539227 0.033014920703903904 0 0.0012062114227113902 0.033040157747955955 0 0.0011715637593360999 0.032876210342400215 0 0.0010010432641614365 0.032939766916844623 0 0.0011715637593360999 0.032876210342400215 0 0.00086683131623152901 0.032613747598083047 0 0.0010010432641614365 0.032939766916844623 0 0.0011715637593360999 0.032876210342400215 0 0.00098983886706848867 0.032503240088117523 0 0.00086683131623152901 0.032613747598083047 0 0.0011672923317338291 0.032600565785972202 0 0.0010575549025626943 0.032389085705109025 0 0.00098983886706848867 0.032503240088117523 0 0.0011715637593360999 0.032876210342400215 0 0.0012331098304098726 0.032917231945261007 0 0.00098983886706848867 0.032503240088117523 0 0.0011660685114794475 0.032794963909429091 0 0.0010165438030599321 0.032646930233692362 0 0.0011715637593360999 0.032876210342400215 0 0.0012331098304098726 0.032917231945261007 0 0.001256575929053668 0.033049502034472863 0 0.0012458116106539227 0.033014920703903904 0 0.0011715637593360999 0.032876210342400215 0 0.001256575929053668 0.033049502034472863 0 0.0012830597062911502 0.033103737718205697 0 0.001256575929053668 0.033049502034472863 0 0.0012653620098809245 0.033210063144402432 0 0.001256575929053668 0.033049502034472863 0 0.0012566135762295291 0.03321711289784348 0 0.0012653620098809245 0.033210063144402432 0 0.001207419880318821 0.03346859999949181 0 0.0012566135762295291 0.03321711289784348 0 0.0012331251850323437 0.033350505149933998 0 0.0012415119003349299 0.033288462325337373 0 0.0012331251850323437 0.033350505149933998 0 0.0012653620098809245 0.033210063144402432 0 0.0012566135762295291 0.03321711289784348 0 0.0012331251850323437 0.033350505149933998 0 0.0012653620098809245 0.033210063144402432 0 0.001207419880318821 0.03346859999949181 0 0.0012566135762295291 0.03321711289784348 0 0.0012306081533458039 0.033303228943539688 0 0.0012331098304098726 0.032917231945261007 0 0.001256575929053668 0.033049502034472863 0 0.0012566135762295291 0.03321711289784348 0 0.0011660685114794475 0.032794963909429091 0 0.0012609276446372715 0.033093349610125417 0 0.0012331098304098726 0.032917231945261007 0 0.0012566135762295291 0.03321711289784348 0 0.0012306081533458039 0.033303228943539688 0 0.0011672923317338291 0.032600565785972202 0 0.0012790842440583948 0.032898481378624903 0 0.0011898948494113376 0.032455434087581982 0 0.0012214201854560288 0.033509228602001666 0 0.0012790842440583948 0.032898481378624903 0 0.0013399027608773772 0.032765118292354012 0 0.0012508174967790467 0.033308419470715583 0 0.0012609276446372715 0.033093349610125417 0 0.0012790842440583948 0.032898481378624903 0 0.0013399027608773772 0.032765118292354012 0 0.0011898948494113376 0.032455434087581982 0 0.0011898948494113376 0.032455434087581982 0 0.0010094962028601518 0.032171192951210029 0 0.0010872484610148381 0.031969044221367121 0 0.0010094962028601518 0.032171192951210029 0 0.0010575549025626943 0.032389085705109025 0 0.00084195854239206558 0.032124590452840683 0 0.0011898948494113376 0.032455434087581982 0 0.0010094962028601518 0.032171192951210029 0 0.0010575549025626943 0.032389085705109025 0 0.0010575549025626943 0.032389085705109025 0 0.00084195854239206558 0.032124590452840683 0 0.00098983886706848867 0.032503240088117523 0 0.0011672923317338291 0.032600565785972202 0 0.0011898948494113376 0.032455434087581982 0 0.0010575549025626943 0.032389085705109025 0 0.00084195854239206558 0.032124590452840683 0 0.00053650296079524394 0.031737547872195578 0 0.00066178803604780565 0.032130336449396314 0 0.00084195854239206558 0.032124590452840683 0 0.00066178803604780565 0.032130336449396314 0 0.00098983886706848867 0.032503240088117523 0 0.0010094962028601518 0.032171192951210029 0 0.00084195854239206558 0.032124590452840683 0 0.00079313013549076646 0.031829262875396919 0 0.00084195854239206558 0.032124590452840683 0 0.00053650296079524394 0.031737547872195578 0 0.00079313013549076646 0.031829262875396919 0 0.00053650296079524394 0.031737547872195578 0 0.00030470073110243974 0.031439004791555883 0 0.0003436686836863141 0.031469323523469019 0 0.00053650296079524394 0.031737547872195578 0 0.00048203071897463324 0.031801219814614284 0 0.00030470073110243974 0.031439004791555883 0 0.00048203071897463324 0.031801219814614284 0 0.00040726360908071527 0.031976173503995994 0 0.00030470073110243974 0.031439004791555883 0 0.00053650296079524394 0.031737547872195578 0 0.00048203071897463324 0.031801219814614284 0 0.00066178803604780565 0.032130336449396314 0 0.00040726360908071527 0.031976173503995994 0 0.00059111044488699069 0.032308623138161796 0 0.00066178803604780565 0.032130336449396314 0 0.00048203071897463324 0.031801219814614284 0 0.00040726360908071527 0.031976173503995994 0 0.00066178803604780565 0.032130336449396314 0 0.00040726360908071527 0.031976173503995994 0 0.0003896582235711608 0.032306716742261023 0 0.0002121676130064272 0.032005907230707238 0 0.00040726360908071527 0.031976173503995994 0 0.0003896582235711608 0.032306716742261023 0 0.00059111044488699069 0.032308623138161796 0 0.0003896582235711608 0.032306716742261023 0 0.00059111044488699069 0.032308623138161796 0 0.00061053072670779493 0.032604878277124806 0 0.00059111044488699069 0.032308623138161796 0 0.00086683131623152901 0.032613747598083047 0 0.00061053072670779493 0.032604878277124806 0 0.00059111044488699069 0.032308623138161796 0 0.00066178803604780565 0.032130336449396314 0 0.00086683131623152901 0.032613747598083047 0 0.00066178803604780565 0.032130336449396314 0 0.00098983886706848867 0.032503240088117523 0 0.00086683131623152901 0.032613747598083047 0 0.00086683131623152901 0.032613747598083047 0 0.00075872367725897838 0.032845171496458478 0 0.0010010432641614365 0.032939766916844623 0 0.00086683131623152901 0.032613747598083047 0 0.00075872367725897838 0.032845171496458478 0 0.00061053072670779493 0.032604878277124806 0 0.00075872367725897838 0.032845171496458478 0 0.00074922358890708697 0.033240298961569097 0 0.00054541604659686359 0.032915520602423337 0 0.00075872367725897838 0.032845171496458478 0 0.00054541604659686359 0.032915520602423337 0 0.00061053072670779493 0.032604878277124806 0 0.00075872367725897838 0.032845171496458478 0 0.0010010432641614365 0.032939766916844623 0 0.00074922358890708697 0.033240298961569097 0 0.0010720159858789414 0.03322888412619536 0 0.00074922358890708697 0.033240298961569097 0 0.00096711512749241024 0.033532339604215304 0 0.0010720159858789414 0.03322888412619536 0 0.0010010432641614365 0.032939766916844623 0 0.00074922358890708697 0.033240298961569097 0 0.00074922358890708697 0.033240298961569097 0 0.000420917091625461 0.033279647567851768 0 0.00054541604659686359 0.032915520602423337 0 0.00074922358890708697 0.033240298961569097 0 0.00051072118101579036 0.033501590348498117 0 0.000420917091625461 0.033279647567851768 0 0.00074922358890708697 0.033240298961569097 0 0.00051072118101579036 0.033501590348498117 0 0.00063479039280943687 0.033596045589870199 0 0.00048400267094936235 0.033860828291962616 0 0.00051072118101579036 0.033501590348498117 0 0.00063479039280943687 0.033596045589870199 0 0.00074922358890708697 0.033240298961569097 0 0.00063479039280943687 0.033596045589870199 0 0.00096711512749241024 0.033532339604215304 0 0.00068547573289823522 0.033894695236643749 0 0.00063479039280943687 0.033596045589870199 0 0.00096711512749241024 0.033532339604215304 0 0.00034980059426825092 0.033155276943916297 0 0.00019021091986844014 0.032741792672841441 0 0.00035634908092804725 0.032716774562111882 0 0.00065386364870825549 0.032660030069965693 0 0.00024910075690535207 0.032452282207261395 0 0.00049451909233935688 0.032877746936478595 0 0.00035634908092804725 0.032716774562111882 0 0.00065386364870825549 0.032660030069965693 0 0.0003627480457797709 0.033187568157216393 0 0.00034980059426825092 0.033155276943916297 0 0.00048400267094936235 0.033860828291962616 0 0.00051072118101579036 0.033501590348498117 0 0.00030319318761989043 0.033586600080818561 0 0.00051072118101579036 0.033501590348498117 0 0.00030319318761989043 0.033586600080818561 0 0.000420917091625461 0.033279647567851768 0 0.00030319318761989043 0.033586600080818561 0 0.00020227297414690933 0.033513330521565826 0 0.000420917091625461 0.033279647567851768 0 0.00020227297414690933 0.033513330521565826 0 0.00035324598143475326 0.033029270360421137 0 0.000420917091625461 0.033279647567851768 0 0.00034980059426825092 0.033155276943916297 0 0.00033962655865795485 0.033154484412413941 0 0.00035324598143475326 0.033029270360421137 0 0.000420917091625461 0.033279647567851768 0 0.00054541604659686359 0.032915520602423337 0 0.00035248429827555174 0.033156994311220371 0 0.00035324598143475326 0.033029270360421137 0 0.00014758095108019316 0.032985436385250692 0 0.00035324598143475326 0.033029270360421137 0 0.00014067789281458384 0.03267222322515103 0 0.00014758095108019316 0.032985436385250692 0 0.00035324598143475326 0.033029270360421137 0 0.00035469037009090254 0.032634562784456152 0 0.00014067789281458384 0.03267222322515103 0 0.00035324598143475326 0.033029270360421137 0 0.00035469037009090254 0.032634562784456152 0 0.00054541604659686359 0.032915520602423337 0 0.00035469037009090254 0.032634562784456152 0 0.00054541604659686359 0.032915520602423337 0 0.00061053072670779493 0.032604878277124806 0 0.0003896582235711608 0.032306716742261023 0 0.00035469037009090254 0.032634562784456152 0 0.00061053072670779493 0.032604878277124806 0 0.0003896582235711608 0.032306716742261023 0 0.00035469037009090254 0.032634562784456152 0 0.00016737593358034149 0.032347800151257128 0 0.00016737593358034149 0.032347800151257128 0 -0.0001042109337345519 0.032390364742425057 0 0.00014067789281458384 0.03267222322515103 0 0.00016737593358034149 0.032347800151257128 0 -0.0001042109337345519 0.032390364742425057 0 -0.00011842906624094205 0.03202286074103218 0 -0.0001042109337345519 0.032390364742425057 0 -0.00039284790832139221 0.032222595805160896 0 -0.00011842906624094205 0.03202286074103218 0 -0.0001042109337345519 0.032390364742425057 0 -0.00020202097299535954 0.032667031281940401 0 0.00014067789281458384 0.03267222322515103 0 -0.0001042109337345519 0.032390364742425057 0 -0.00020202097299535954 0.032667031281940401 0 -0.00039284790832139221 0.032222595805160896 0 0.00035469037009090254 0.032634562784456152 0 0.00016737593358034149 0.032347800151257128 0 0.00014067789281458384 0.03267222322515103 0 -0.00020202097299535954 0.032667031281940401 0 0.00014067789281458384 0.03267222322515103 0 0.00014758095108019316 0.032985436385250692 0 -0.00015677911761064525 0.032445761400460529 0 0.00019021091986844014 0.032741792672841441 0 -0.00014840273828402515 0.032251992532620462 0 0.00024910075690535207 0.032452282207261395 0 -1.7725390353284189e-05 0.032666421890403544 0 -0.00014840273828402515 0.032251992532620462 0 -1.7725390353284189e-05 0.032666421890403544 0 -0.00046026443944161081 0.032445032433014831 0 0.00029977782355618639 0.032976359144977055 0 0.00035634908092804725 0.032716774562111882 0 -1.7725390353284189e-05 0.032666421890403544 0 0.00035634908092804725 0.032716774562111882 0 0.00024910075690535207 0.032452282207261395 0 -1.7725390353284189e-05 0.032666421890403544 0 -0.00069991252601446735 0.032678729213406123 0 -0.00039258281773767531 0.032805019661407912 0 -0.00046026443944161081 0.032445032433014831 0 -1.7725390353284189e-05 0.032666421890403544 0 -0.00039258281773767531 0.032805019661407912 0 -0.00046026443944161081 0.032445032433014831 0 -0.000855593898229893 0.032402980463926687 0 -0.00069991252601446735 0.032678729213406123 0 -0.00046026443944161081 0.032445032433014831 0 -0.000855593898229893 0.032402980463926687 0 -0.00046026443944161081 0.032445032433014831 0 -0.00053778144791978859 0.032048266226091228 0 -0.00070977845850235706 0.03147906415978536 0 -0.00081083866263666866 0.03146356663131656 0 -0.00065068917497008506 0.031788097189563526 0 -0.00076451438567348912 0.031973054829702183 0 -0.00066101232906440061 0.031774442349282457 0 -0.000855593898229893 0.032402980463926687 0 -0.00053778144791978859 0.032048266226091228 0 -0.00065068917497008506 0.031788097189563526 0 -0.00015677911761064525 0.032445761400460529 0 -0.00045244080992247758 0.032195353865194169 0 -0.00014840273828402515 0.032251992532620462 0 -0.00046026443944161081 0.032445032433014831 0 -0.00053778144791978859 0.032048266226091228 0 -0.00020202097299535954 0.032667031281940401 0 -0.00053778144791978859 0.032048266226091228 0 -0.00039284790832139221 0.032222595805160896 0 -0.00039284790832139221 0.032222595805160896 0 -0.00056831164221540385 0.032096967857741257 0 -0.00011842906624094205 0.03202286074103218 0 -0.00053778144791978859 0.032048266226091228 0 -0.00039284790832139221 0.032222595805160896 0 -0.00065068917497008506 0.031788097189563526 0 -0.00039284790832139221 0.032222595805160896 0 -0.0011892966839256683 0.032557160763675638 0 -0.00056831164221540385 0.032096967857741257 0 -0.00039284790832139221 0.032222595805160896 0 -0.00065068917497008506 0.031788097189563526 0 -0.00075523782583242346 0.031476217062573031 0 -0.00081083866263666866 0.03146356663131656 0 -0.00065068917497008506 0.031788097189563526 0 -0.00075523782583242346 0.031476217062573031 0 -0.00064375187264857007 0.032111797728852601 0 -0.0010629279226961543 0.031945603388339565 0 -0.001559432930670433 0.03157422750358084 0 -0.0011729731117068769 0.03204244799750041 0 -0.00040696150196797219 0.031601846789709225 0 -0.0011729731117068769 0.03204244799750041 0 -0.00040696150196797219 0.031601846789709225 0 -0.00056831164221540385 0.032096967857741257 0 -0.0011892966839256683 0.032557160763675638 0 -0.0011729731117068769 0.03204244799750041 0 -0.00056831164221540385 0.032096967857741257 0 -0.001559432930670433 0.03157422750358084 0 -0.00040696150196797219 0.031601846789709225 0 -0.00092033618087853004 0.030898296608357988 0 -0.00040696150196797219 0.031601846789709225 0 -0.00056831164221540385 0.032096967857741257 0 -0.00011842906624094205 0.03202286074103218 0 -0.00040696150196797219 0.031601846789709225 0 -0.00011842906624094205 0.03202286074103218 0 0.00025409812766017412 0.031558089190713949 0 -0.00011842906624094205 0.03202286074103218 0 0.0002121676130064272 0.032005907230707238 0 0.00025409812766017412 0.031558089190713949 0 0.00016737593358034149 0.032347800151257128 0 -0.00011842906624094205 0.03202286074103218 0 0.0002121676130064272 0.032005907230707238 0 0.0003896582235711608 0.032306716742261023 0 0.00016737593358034149 0.032347800151257128 0 0.0002121676130064272 0.032005907230707238 0 0.00040726360908071527 0.031976173503995994 0 0.00025409812766017412 0.031558089190713949 0 0.00030470073110243974 0.031439004791555883 0 0.00040726360908071527 0.031976173503995994 0 0.0002121676130064272 0.032005907230707238 0 0.00025409812766017412 0.031558089190713949 0 -0.00040696150196797219 0.031601846789709225 0 0.00025409812766017412 0.031558089190713949 0 0.00026549426327737333 0.03059113822657529 0 0.00025409812766017412 0.031558089190713949 0 0.00030470073110243974 0.031439004791555883 0 0.00026549426327737333 0.03059113822657529 0 0.00030470073110243974 0.031439004791555883 0 0.00026549426327737333 0.03059113822657529 0 0.00028193644868693178 0.031331536094771857 0 0.00042143046067666265 0.030482918907505065 0 0.001008188793267791 0.02958144352271528 0 -0.0011594606223608525 0.029833699834401133 0 0.00026549426327737333 0.03059113822657529 0 -0.00020926172085222234 0.02783807163432719 0 -0.0016910264926929118 0.028202738805794034 0 -0.0011594606223608525 0.029833699834401133 0 -0.00020926172085222234 0.02783807163432719 0 -0.0018902788424722042 0.03078726306054656 0 -0.0011594606223608525 0.029833699834401133 0 -0.00092033618087853004 0.030898296608357988 0 -0.0011594606223608525 0.029833699834401133 0 -0.00092033618087853004 0.030898296608357988 0 0.00026549426327737333 0.03059113822657529 0 -0.00040696150196797219 0.031601846789709225 0 -0.00092033618087853004 0.030898296608357988 0 0.00026549426327737333 0.03059113822657529 0 -0.00020926172085222234 0.02783807163432719 0 0.0013647595230354727 0.025944591625121586 0 -0.00030551667383493786 0.025607582371052061 0 -0.0014323788893601352 0.026541635126478787 0 -0.00020926172085222234 0.02783807163432719 0 -0.00030551667383493786 0.025607582371052061 0 -0.0014323788893601352 0.026541635126478787 0 -0.0016910264926929118 0.028202738805794034 0 -0.00020926172085222234 0.02783807163432719 0 0.00026549426327737333 0.03059113822657529 0 -0.00020926172085222234 0.02783807163432719 0 0.0019269671726107613 0.027801918685064538 0 0.00030470073110243974 0.031439004791555883 0 0.00028193644868693178 0.031331536094771857 0 0.0003436686836863141 0.031469323523469019 0 0.00028193644868693178 0.031331536094771857 0 0.00024517548597958392 0.031340128724845158 0 0.0003436686836863141 0.031469323523469019 0 0.001008188793267791 0.02958144352271528 0 0.0015021086010696375 0.028455737090348036 0 0.0019269671726107613 0.027801918685064538 0 0.0013647595230354727 0.025944591625121586 0 0.0028441788878376174 0.025553771125331727 0 -0.00020926172085222234 0.02783807163432719 0 0.0019269671726107613 0.027801918685064538 0 0.0013647595230354727 0.025944591625121586 0 0.0013647595230354727 0.025944591625121586 0 0.0014807888519994226 0.02493040043552305 0 0.0028441788878376174 0.025553771125331727 0 0.0013647595230354727 0.025944591625121586 0 0.0014807888519994226 0.02493040043552305 0 0.00055296296037037258 0.024616797154994315 0 0.0014807888519994226 0.02493040043552305 0 0.0028441788878376174 0.025553771125331727 0 0.0022167210763464899 0.024559982611534241 0 0.0028441788878376174 0.025553771125331727 0 0.0022167210763464899 0.024559982611534241 0 0.0031007256175236936 0.024067404640786157 0 0.0022167210763464899 0.024559982611534241 0 0.0023663963765847727 0.023941900600899998 0 0.0016114433617164612 0.023575855033239428 0 0.0022167210763464899 0.024559982611534241 0 0.0023663963765847727 0.023941900600899998 0 0.0031007256175236936 0.024067404640786157 0 0.0014807888519994226 0.02493040043552305 0 0.0012979245327541273 0.024240957317174797 0 0.00055296296037037258 0.024616797154994315 0 0.0014807888519994226 0.02493040043552305 0 0.0022167210763464899 0.024559982611534241 0 0.0012979245327541273 0.024240957317174797 0 0.0022167210763464899 0.024559982611534241 0 0.0012979245327541273 0.024240957317174797 0 0.0016114433617164612 0.023575855033239428 0 0.0012979245327541273 0.024240957317174797 0 0.00060754990953421322 0.023545801685880809 0 0.0016114433617164612 0.023575855033239428 0 7.8826756314544352e-05 0.02397178308518122 0 0.00055296296037037258 0.024616797154994315 0 0.00060754990953421322 0.023545801685880809 0 0.0012979245327541273 0.024240957317174797 0 0.00055296296037037258 0.024616797154994315 0 0.00060754990953421322 0.023545801685880809 0 7.8826756314544352e-05 0.02397178308518122 0 0.00055296296037037258 0.024616797154994315 0 -0.00057634216694654598 0.024297371241069021 0 0.00055296296037037258 0.024616797154994315 0 -0.00030551667383493786 0.025607582371052061 0 -0.00057634216694654598 0.024297371241069021 0 0.0013647595230354727 0.025944591625121586 0 0.00055296296037037258 0.024616797154994315 0 -0.00030551667383493786 0.025607582371052061 0 -0.0015409372016804816 0.024819978702739078 0 -0.00030551667383493786 0.025607582371052061 0 -0.00057634216694654598 0.024297371241069021 0 -0.0014323788893601352 0.026541635126478787 0 -0.0015409372016804816 0.024819978702739078 0 -0.00030551667383493786 0.025607582371052061 0 -0.0016582906870239397 0.023483059683972417 0 -0.0015409372016804816 0.024819978702739078 0 -0.00057634216694654598 0.024297371241069021 0 -0.0016582906870239397 0.023483059683972417 0 -0.00057634216694654598 0.024297371241069021 0 -0.00021000908539300437 0.023264748904171892 0 7.8826756314544352e-05 0.02397178308518122 0 -0.00057634216694654598 0.024297371241069021 0 -0.00021000908539300437 0.023264748904171892 0 -0.0016582906870239397 0.023483059683972417 0 -0.00021000908539300437 0.023264748904171892 0 -0.00075081102618980628 0.02256752451463917 0 -0.0011844194837908461 0.023469908185937291 0 -0.00029326991571521988 0.022999028922390679 0 -0.00021000908539300437 0.023264748904171892 0 -0.00057539155340700031 0.02280242268717439 0 0.00019074218372613279 0.02282237361301289 0 -0.00030802466727348061 0.023020793724501984 0 -0.00029326991571521988 0.022999028922390679 0 -0.00021000908539300437 0.023264748904171892 0 0.00060754990953421322 0.023545801685880809 0 0.00019074218372613279 0.02282237361301289 0 7.8826756314544352e-05 0.02397178308518122 0 -0.00021000908539300437 0.023264748904171892 0 0.00060754990953421322 0.023545801685880809 0 0.00060754990953421322 0.023545801685880809 0 0.00019074218372613279 0.02282237361301289 0 0.00094414905143833854 0.022703825593978998 0 0.00019074218372613279 0.02282237361301289 0 0.00026355933287559798 0.02181627663451758 0 0.00094414905143833854 0.022703825593978998 0 0.00026355933287559798 0.02181627663451758 0 0.00094414905143833854 0.022703825593978998 0 0.0014807849822806871 0.021902428084697868 0 0.00066418374244098569 0.023655566180989782 0 0.00073587378877951767 0.023742138361319619 0 0.00082572297649411959 0.023643175748664692 0 -0.00029326991571521988 0.022999028922390679 0 0.00054573616772581393 0.022740258829590562 0 -0.00057539155340700031 0.02280242268717439 0 0.00019074218372613279 0.02282237361301289 0 0.00026355933287559798 0.02181627663451758 0 -0.00062349895443836406 0.022880352932794057 0 -0.00029326991571521988 0.022999028922390679 0 0.00066418374244098569 0.023655566180989782 0 0.00082572297649411959 0.023643175748664692 0 0.00073853788512335812 0.023532257474322856 0 0.00082572297649411959 0.023643175748664692 0 0.00073853788512335812 0.023532257474322856 0 0.00091802089523387767 0.023545471502746117 0 0.00026355933287559798 0.02181627663451758 0 0.0011419817435881945 0.020798064378681917 0 0.0014807849822806871 0.021902428084697868 0 0.00054573616772581393 0.022740258829590562 0 0.0014869962189125408 0.022391312587199889 0 0.00073853788512335812 0.023532257474322856 0 0.00091802089523387767 0.023545471502746117 0 0.0008251810963145834 0.02344731176230767 0 0.00091802089523387767 0.023545471502746117 0 0.0009190455038938514 0.023404587221344184 0 0.0008251810963145834 0.02344731176230767 0 0.00073853788512335812 0.023532257474322856 0 0.0008251810963145834 0.02344731176230767 0 0.00068966416254796043 0.02336979112203828 0 0.002962618472435616 0.023771472582846512 0 0.0025262680756933647 0.024860804840149919 0 0.0034198283710373785 0.027497599143341132 0 0.0039019220655628338 0.026579723389473082 0 0.0030460757932949498 0.027033457213747749 0 0.0034198283710373785 0.027497599143341132 0 0.0039019220655628338 0.026579723389473082 0 0.0040159494872863861 0.027607354509253685 0 0.0011419817435881945 0.020798064378681917 0 0.0023263217752116866 0.021089414733765389 0 0.001971141637210246 0.019812516680582169 0 0.0014869962189125408 0.022391312587199889 0 0.0025262680756933647 0.024860804840149919 0 0.00091802089523387767 0.023545471502746117 0 0.0009190455038938514 0.023404587221344184 0 0.0010041591859656219 0.023455796968277126 0 0.0011419817435881945 0.020798064378681917 0 0.0023263217752116866 0.021089414733765389 0 0.0014807849822806871 0.021902428084697868 0 0.002962618472435616 0.023771472582846512 0 0.0031511313588318411 0.023922082427164097 0 0.0039019220655628338 0.026579723389473082 0 0.0037070725144638899 0.025300268429804967 0 0.0030774740051121318 0.026008758971545153 0 0.0027434974946449315 0.022447399640078504 0 0.0014807849822806871 0.021902428084697868 0 0.0018141179195728986 0.022800414310674724 0 0.0023263217752116866 0.021089414733765389 0 0.0027434974946449315 0.022447399640078504 0 0.0014807849822806871 0.021902428084697868 0 0.00094414905143833854 0.022703825593978998 0 0.0014807849822806871 0.021902428084697868 0 0.0018141179195728986 0.022800414310674724 0 0.00094414905143833854 0.022703825593978998 0 0.0018141179195728986 0.022800414310674724 0 0.0016114433617164612 0.023575855033239428 0 0.0018141179195728986 0.022800414310674724 0 0.0016114433617164612 0.023575855033239428 0 0.0023310345170507196 0.023375394668822966 0 0.00060754990953421322 0.023545801685880809 0 0.00094414905143833854 0.022703825593978998 0 0.0016114433617164612 0.023575855033239428 0 0.0031511313588318411 0.023922082427164097 0 0.003161169693932825 0.024038218337122459 0 0.0027434974946449315 0.022447399640078504 0 0.0023310345170507196 0.023375394668822966 0 0.0031007256175236936 0.024067404640786157 0 0.0027434974946449315 0.022447399640078504 0 0.0018141179195728986 0.022800414310674724 0 0.0023310345170507196 0.023375394668822966 0 0.0023663963765847727 0.023941900600899998 0 0.0016114433617164612 0.023575855033239428 0 0.0023310345170507196 0.023375394668822966 0 0.0023663963765847727 0.023941900600899998 0 0.0023310345170507196 0.023375394668822966 0 0.0031007256175236936 0.024067404640786157 0 0.0030894988672751128 0.024875734341279754 0 0.0031007256175236936 0.024067404640786157 0 0.0031503639750777865 0.024081273591530228 0 0.0037070725144638899 0.025300268429804967 0 0.0030894988672751128 0.024875734341279754 0 0.0031007256175236936 0.024067404640786157 0 0.0030894988672751128 0.024875734341279754 0 0.0021190977331487985 0.02554220987552281 0 0.0031503639750777865 0.024081273591530228 0 0.0012699298219740231 0.027975869255622794 0 0.0016502182414924395 0.027665497517331761 0 0.00048262393691518774 0.030872428827268719 0 0.00030752973907908446 0.030445628459462852 0 0.00022460505381351428 0.031012983295847368 0 0.0037070725144638899 0.025300268429804967 0 0.0030894988672751128 0.024875734341279754 0 0.0030774740051121318 0.026008758971545153 0 0.0030894988672751128 0.024875734341279754 0 0.0021190977331487985 0.02554220987552281 0 0.0030774740051121318 0.026008758971545153 0 0.0030774740051121318 0.026008758971545153 0 0.0025320964689086799 0.026568777322312959 0 0.0030460757932949498 0.027033457213747749 0 0.0039019220655628338 0.026579723389473082 0 0.0030774740051121318 0.026008758971545153 0 0.0030460757932949498 0.027033457213747749 0 0.0021190977331487985 0.02554220987552281 0 0.0030774740051121318 0.026008758971545153 0 0.0025320964689086799 0.026568777322312959 0 0.0021190977331487985 0.02554220987552281 0 0.0021017725704323325 0.026678274137139614 0 0.0025320964689086799 0.026568777322312959 0 0.0021190977331487985 0.02554220987552281 0 0.0021017725704323325 0.026678274137139614 0 0.0013923170390032671 0.027184884144011344 0 0.0021017725704323325 0.026678274137139614 0 0.0025320964689086799 0.026568777322312959 0 0.0023512258296556421 0.027375838666640683 0 0.0021017725704323325 0.026678274137139614 0 0.0023512258296556421 0.027375838666640683 0 0.0013923170390032671 0.027184884144011344 0 0.0034198283710373785 0.027497599143341132 0 0.0030460757932949498 0.027033457213747749 0 0.0028958171140391772 0.027799819174594034 0 0.0023512258296556421 0.027375838666640683 0 0.0030460757932949498 0.027033457213747749 0 0.0028958171140391772 0.027799819174594034 0 0.0025320964689086799 0.026568777322312959 0 0.0023512258296556421 0.027375838666640683 0 0.0030460757932949498 0.027033457213747749 0 0.00080367385104892022 0.029695487457932667 0 0.0012250130370776422 0.02962423966746161 0 0.00083817419566312168 0.029409815422519484 0 0.00070688055580420031 0.029733164997100877 0 0.0012461315513086775 0.029393270758032605 0 0.001008573213499541 0.02919263181256614 0 0.00083817419566312168 0.029409815422519484 0 0.0012461315513086775 0.029393270758032605 0 0.001008573213499541 0.02919263181256614 0 0.0012461315513086775 0.029393270758032605 0 0.001224869171857359 0.029057373775274654 0 0.00083817419566312168 0.029409815422519484 0 0.00055614507794392678 0.02960567528931338 0 0.0010819305600571405 0.028711523054857305 0 0.0023512258296556421 0.027375838666640683 0 0.0013923170390032671 0.027184884144011344 0 0.001220034640208578 0.028588258455374386 0 0.00083817419566312168 0.029409815422519484 0 0.00055614507794392678 0.02960567528931338 0 0.00070688055580420031 0.029733164997100877 0 0.00030752973907908446 0.030445628459462852 0 0.00055614507794392678 0.02960567528931338 0 0.00070611736770805349 0.030242538687914586 0 0.00055614507794392678 0.02960567528931338 0 0.00070688055580420031 0.029733164997100877 0 0.00070611736770805349 0.030242538687914586 0 0.0012699298219740231 0.027975869255622794 0 0.0010402072168986328 0.028378863927152848 0 0.00070688055580420031 0.029733164997100877 0 0.0010525303159956173 0.030065229780869097 0 0.0012726521888639191 0.029707653121072097 0 0.00070688055580420031 0.029733164997100877 0 0.0010525303159956173 0.030065229780869097 0 0.00070611736770805349 0.030242538687914586 0 0.0010525303159956173 0.030065229780869097 0 0.001039207473410557 0.030494292750185423 0 0.0013685778367351117 0.030249549159706512 0 0.0010525303159956173 0.030065229780869097 0 0.001039207473410557 0.030494292750185423 0 0.00070611736770805349 0.030242538687914586 0 0.001039207473410557 0.030494292750185423 0 0.00070611736770805349 0.030242538687914586 0 0.00070582455033741016 0.030670169952506328 0 0.00030752973907908446 0.030445628459462852 0 0.00070611736770805349 0.030242538687914586 0 0.00070582455033741016 0.030670169952506328 0 0.00048262393691518774 0.030872428827268719 0 0.00070582455033741016 0.030670169952506328 0 0.00074855406640785037 0.031048977707719756 0 0.00048262393691518774 0.030872428827268719 0 0.00030752973907908446 0.030445628459462852 0 0.00070582455033741016 0.030670169952506328 0 0.001039207473410557 0.030494292750185423 0 0.00070582455033741016 0.030670169952506328 0 0.0010207783720584246 0.030879114294966942 0 0.001039207473410557 0.030494292750185423 0 0.0010207783720584246 0.030879114294966942 0 0.0013783625086325061 0.03066934353580875 0 0.00070582455033741016 0.030670169952506328 0 0.0010207783720584246 0.030879114294966942 0 0.00074855406640785037 0.031048977707719756 0 0.0010207783720584246 0.030879114294966942 0 0.00094093189900358717 0.031262421884220591 0 0.00074855406640785037 0.031048977707719756 0 0.00094093189900358717 0.031262421884220591 0 0.00066354411561930088 0.031278716903202386 0 0.00074855406640785037 0.031048977707719756 0 0.00094093189900358717 0.031262421884220591 0 0.00066354411561930088 0.031278716903202386 0 0.00070205191746618145 0.031535964788154208 0 0.00094093189900358717 0.031262421884220591 0 0.00070205191746618145 0.031535964788154208 0 0.00097605260083860189 0.031633161324894292 0 0.00066354411561930088 0.031278716903202386 0 0.00048986365804714205 0.031395182373095555 0 0.00070205191746618145 0.031535964788154208 0 0.00066354411561930088 0.031278716903202386 0 0.00074855406640785037 0.031048977707719756 0 0.00046902749397101509 0.031121471022397429 0 0.00048262393691518774 0.030872428827268719 0 0.00074855406640785037 0.031048977707719756 0 0.00046902749397101509 0.031121471022397429 0 0.00046902749397101509 0.031121471022397429 0 0.00022460505381351428 0.031012983295847368 0 0.00034106847764630059 0.031276090904947165 0 0.00048262393691518774 0.030872428827268719 0 0.00046902749397101509 0.031121471022397429 0 0.00022460505381351428 0.031012983295847368 0 0.0015021086010696375 0.028455737090348036 0 0.0016502182414924395 0.027665497517331761 0 0.0028441788878376174 0.025553771125331727 0 0.0031007256175236936 0.024067404640786157 0 0.0031503639750777865 0.024081273591530228 0 0.00024517548597958392 0.031340128724845158 0 0.00022460505381351428 0.031012983295847368 0 0.00034106847764630059 0.031276090904947165 0 0.00046902749397101509 0.031121471022397429 0 0.00034106847764630059 0.031276090904947165 0 0.00048986365804714205 0.031395182373095555 0 0.00066354411561930088 0.031278716903202386 0 0.00046902749397101509 0.031121471022397429 0 0.00048986365804714205 0.031395182373095555 0 0.00034106847764630059 0.031276090904947165 0 0.00048986365804714205 0.031395182373095555 0 0.0003436686836863141 0.031469323523469019 0 0.00048986365804714205 0.031395182373095555 0 0.0003436686836863141 0.031469323523469019 0 0.00055357265162285052 0.031597077715122365 0 0.00024517548597958392 0.031340128724845158 0 0.00034106847764630059 0.031276090904947165 0 0.0003436686836863141 0.031469323523469019 0 0.00053650296079524394 0.031737547872195578 0 0.0003436686836863141 0.031469323523469019 0 0.00055357265162285052 0.031597077715122365 0 0.00053650296079524394 0.031737547872195578 0 0.00055357265162285052 0.031597077715122365 0 0.00079313013549076646 0.031829262875396919 0 0.00079313013549076646 0.031829262875396919 0 0.00070205191746618145 0.031535964788154208 0 0.00097605260083860189 0.031633161324894292 0 0.00055357265162285052 0.031597077715122365 0 0.00079313013549076646 0.031829262875396919 0 0.00070205191746618145 0.031535964788154208 0 0.00048986365804714205 0.031395182373095555 0 0.00055357265162285052 0.031597077715122365 0 0.00070205191746618145 0.031535964788154208 0 0.0012671305106320291 0.031702343461106945 0 0.0010872484610148381 0.031969044221367121 0 0.0012748532985719175 0.032095186904165698 0 0.0012671305106320291 0.031702343461106945 0 0.00097605260083860189 0.031633161324894292 0 0.0010872484610148381 0.031969044221367121 0 0.00079313013549076646 0.031829262875396919 0 0.00097605260083860189 0.031633161324894292 0 0.0010872484610148381 0.031969044221367121 0 0.0010094962028601518 0.032171192951210029 0 0.00079313013549076646 0.031829262875396919 0 0.0010872484610148381 0.031969044221367121 0 0.0011898948494113376 0.032455434087581982 0 0.0010872484610148381 0.031969044221367121 0 0.0012748532985719175 0.032095186904165698 0 0.0013399027608773772 0.032765118292354012 0 0.0012748532985719175 0.032095186904165698 0 0.0014594616818217527 0.032193721242308723 0 0.0013399027608773772 0.032765118292354012 0 0.0011898948494113376 0.032455434087581982 0 0.0012748532985719175 0.032095186904165698 0 0.0013399027608773772 0.032765118292354012 0 0.0014594616818217527 0.032193721242308723 0 0.001476715900261955 0.032658800557010731 0 0.0014594616818217527 0.032193721242308723 0 0.0017175199202519227 0.031313882352100579 0 0.0017244600099372881 0.032085587796549846 0 0.0014594616818217527 0.032193721242308723 0 0.0014390602881165007 0.031697791746380245 0 0.0017175199202519227 0.031313882352100579 0 0.0014594616818217527 0.032193721242308723 0 0.0017244600099372881 0.032085587796549846 0 0.001476715900261955 0.032658800557010731 0 0.0012748532985719175 0.032095186904165698 0 0.0014594616818217527 0.032193721242308723 0 0.0014390602881165007 0.031697791746380245 0 0.0012671305106320291 0.031702343461106945 0 0.0012748532985719175 0.032095186904165698 0 0.0014390602881165007 0.031697791746380245 0 0.0014390602881165007 0.031697791746380245 0 0.0015696219775575818 0.031244998839929025 0 0.0017175199202519227 0.031313882352100579 0 0.0012671305106320291 0.031702343461106945 0 0.0014390602881165007 0.031697791746380245 0 0.0015696219775575818 0.031244998839929025 0 0.0017175199202519227 0.031313882352100579 0 0.0022132738649701879 0.030467297316772942 0 0.0019658994967316802 0.031160195024845988 0 0.0017175199202519227 0.031313882352100579 0 0.0019596510956700979 0.030757570448102359 0 0.0022132738649701879 0.030467297316772942 0 0.0015696219775575818 0.031244998839929025 0 0.0017175199202519227 0.031313882352100579 0 0.0019596510956700979 0.030757570448102359 0 0.0015696219775575818 0.031244998839929025 0 0.0019596510956700979 0.030757570448102359 0 0.0015891945606887022 0.030977134236483267 0 0.0015696219775575818 0.031244998839929025 0 0.0015891945606887022 0.030977134236483267 0 0.0012662969732285011 0.031323996187810295 0 0.0015891945606887022 0.030977134236483267 0 0.0012662969732285011 0.031323996187810295 0 0.0013084733948851462 0.030994862317947541 0 0.0012671305106320291 0.031702343461106945 0 0.0015696219775575818 0.031244998839929025 0 0.0012662969732285011 0.031323996187810295 0 0.0012671305106320291 0.031702343461106945 0 0.00097605260083860189 0.031633161324894292 0 0.0012662969732285011 0.031323996187810295 0 0.00094093189900358717 0.031262421884220591 0 0.00097605260083860189 0.031633161324894292 0 0.0012662969732285011 0.031323996187810295 0 0.00094093189900358717 0.031262421884220591 0 0.0012662969732285011 0.031323996187810295 0 0.0013084733948851462 0.030994862317947541 0 0.0010207783720584246 0.030879114294966942 0 0.00094093189900358717 0.031262421884220591 0 0.0013084733948851462 0.030994862317947541 0 0.0013084733948851462 0.030994862317947541 0 0.0013783625086325061 0.03066934353580875 0 0.0016224096640040854 0.030767610346704482 0 0.0010207783720584246 0.030879114294966942 0 0.0013084733948851462 0.030994862317947541 0 0.0013783625086325061 0.03066934353580875 0 0.0016224096640040854 0.030767610346704482 0 0.0018335009305458507 0.030510305018681939 0 0.0019926293724076968 0.030688105928066263 0 0.0015891945606887022 0.030977134236483267 0 0.0016224096640040854 0.030767610346704482 0 0.0019926293724076968 0.030688105928066263 0 0.0015891945606887022 0.030977134236483267 0 0.0013084733948851462 0.030994862317947541 0 0.0016224096640040854 0.030767610346704482 0 0.0013783625086325061 0.03066934353580875 0 0.0016224096640040854 0.030767610346704482 0 0.0018335009305458507 0.030510305018681939 0 0.001039207473410557 0.030494292750185423 0 0.0013783625086325061 0.03066934353580875 0 0.0013685778367351117 0.030249549159706512 0 0.0013783625086325061 0.03066934353580875 0 0.0018335009305458507 0.030510305018681939 0 0.0013685778367351117 0.030249549159706512 0 0.0010525303159956173 0.030065229780869097 0 0.0013685778367351117 0.030249549159706512 0 0.0012726521888639191 0.029707653121072097 0 0.0013685778367351117 0.030249549159706512 0 0.0017178607991713199 0.030009724868066353 0 0.0012726521888639191 0.029707653121072097 0 0.0018335009305458507 0.030510305018681939 0 0.0013685778367351117 0.030249549159706512 0 0.0017178607991713199 0.030009724868066353 0 0.0018335009305458507 0.030510305018681939 0 0.0017178607991713199 0.030009724868066353 0 0.0021969929205279599 0.029978018329297612 0 0.001989956308676529 0.03059438708397336 0 0.0023477908089464348 0.030385023086653994 0 0.0017178607991713199 0.030009724868066353 0 0.0018890878136065168 0.029596204876479407 0 0.0021969929205279599 0.029978018329297612 0 0.0017950177452633947 0.029772308922458531 0 0.0012250130370776422 0.02962423966746161 0 0.0017178607991713199 0.030009724868066353 0 0.0018890878136065168 0.029596204876479407 0 0.0012726521888639191 0.029707653121072097 0 0.0015305437811219073 0.029255559730608654 0 0.0012461315513086775 0.029393270758032605 0 0.0013942998032979157 0.029080905561077501 0 0.0012461315513086775 0.029393270758032605 0 0.001224869171857359 0.029057373775274654 0 0.0013942998032979157 0.029080905561077501 0 0.0022539488218727192 0.031576096432181171 0 0.0029253218589014173 0.03168121306406374 0 0.0033127822969752567 0.033229330137450337 0 0.00412346397988189 0.032997988683896848 0 0.0027781004700588854 0.031484845167334234 0 0.0024875023823595936 0.030625799485232447 0 0.0025355585365201463 0.030914682603078544 0 0.0027781004700588854 0.031484845167334234 0 0.0028866354233227321 0.031866323081328182 0 0.0022539488218727192 0.031576096432181171 0 0.0017950177452633947 0.029772308922458531 0 0.0022539488218727192 0.031576096432181171 0 0.0024875023823595936 0.030625799485232447 0 0.0022767655023295417 0.030718024675200274 0 0.0025355585365201463 0.030914682603078544 0 0.0022539488218727192 0.031576096432181171 0 0.0023477908089464348 0.030385023086653994 0 0.0018890878136065168 0.029596204876479407 0 0.0025435080338276658 0.029507409189633325 0 0.0021969929205279599 0.029978018329297612 0 0.0018335009305458507 0.030510305018681939 0 0.0022767655023295417 0.030718024675200274 0 0.0023298002794814848 0.030674293946157484 0 0.0022767655023295417 0.030718024675200274 0 0.0025355585365201463 0.030914682603078544 0 0.0023298002794814848 0.030674293946157484 0 0.0025355585365201463 0.030914682603078544 0 0.0026293700329495201 0.030794070815408574 0 0.0027781004700588854 0.031484845167334234 0 0.0025355585365201463 0.030914682603078544 0 0.0026293700329495201 0.030794070815408574 0 0.0023298002794814848 0.030674293946157484 0 0.0026293700329495201 0.030794070815408574 0 0.0024272770093224606 0.030435723104292906 0 0.0027593140470715972 0.030591506668624386 0 0.0026293700329495201 0.030794070815408574 0 0.0023298002794814848 0.030674293946157484 0 0.0024272770093224606 0.030435723104292906 0 0.0023298002794814848 0.030674293946157484 0 0.0019926293724076968 0.030688105928066263 0 0.0024272770093224606 0.030435723104292906 0 0.0018335009305458507 0.030510305018681939 0 0.0023298002794814848 0.030674293946157484 0 0.0019926293724076968 0.030688105928066263 0 0.0019596510956700979 0.030757570448102359 0 0.0019926293724076968 0.030688105928066263 0 0.0024272770093224606 0.030435723104292906 0 0.0019596510956700979 0.030757570448102359 0 0.0015891945606887022 0.030977134236483267 0 0.0019926293724076968 0.030688105928066263 0 0.0019596510956700979 0.030757570448102359 0 0.0024272770093224606 0.030435723104292906 0 0.0022132738649701879 0.030467297316772942 0 0.0024272770093224606 0.030435723104292906 0 0.0029245269166879536 0.029566684001225498 0 0.0027593140470715972 0.030591506668624386 0 0.0024272770093224606 0.030435723104292906 0 0.0029245269166879536 0.029566684001225498 0 0.0022132738649701879 0.030467297316772942 0 0.0029245269166879536 0.029566684001225498 0 0.0025543384156242279 0.030793101848447656 0 0.0025074849223332076 0.028087988764082385 0 0.0029245269166879536 0.029566684001225498 0 0.0025074849223332076 0.028087988764082385 0 0.0032019447632850484 0.028811466425329783 0 0.0025543384156242279 0.030793101848447656 0 0.0027593140470715972 0.030591506668624386 0 0.0027781004700588854 0.031484845167334234 0 0.0029245269166879536 0.029566684001225498 0 0.0025543384156242279 0.030793101848447656 0 0.0027593140470715972 0.030591506668624386 0 0.0026293700329495201 0.030794070815408574 0 0.0027593140470715972 0.030591506668624386 0 0.0027781004700588854 0.031484845167334234 0 0.0027781004700588854 0.031484845167334234 0 0.0020133341585484967 0.032179315534562943 0 0.002075619614879327 0.03289939857996637 0 0.0025543384156242279 0.030793101848447656 0 0.0020133341585484967 0.032179315534562943 0 0.0014365808660410364 0.032000229674930429 0 0.0025543384156242279 0.030793101848447656 0 0.0027781004700588854 0.031484845167334234 0 0.0020133341585484967 0.032179315534562943 0 0.002075619614879327 0.03289939857996637 0 0.0012122836361195509 0.033364476511202494 0 0.0013309417254908807 0.033872590584856456 0 0.0020133341585484967 0.032179315534562943 0 0.002075619614879327 0.03289939857996637 0 0.0012122836361195509 0.033364476511202494 0 0.002075619614879327 0.03289939857996637 0 0.0013309417254908807 0.033872590584856456 0 0.0018355693384656101 0.033771403432778492 0 0.002075619614879327 0.03289939857996637 0 0.0022891938304822447 0.033505056764436068 0 0.0018355693384656101 0.033771403432778492 0 0.0027781004700588854 0.031484845167334234 0 0.002075619614879327 0.03289939857996637 0 0.0025856937886347738 0.032982213499321893 0 0.0033127822969752567 0.033229330137450337 0 0.0027781004700588854 0.031484845167334234 0 0.0025856937886347738 0.032982213499321893 0 0.002075619614879327 0.03289939857996637 0 0.0025856937886347738 0.032982213499321893 0 0.0022891938304822447 0.033505056764436068 0 0.00054761765713519741 0.034408714665442187 0 0.0012122836361195509 0.033364476511202494 0 -1.7881762479958461e-06 0.034994440575091802 0 0.00054761765713519741 0.034408714665442187 0 -1.7881762479958461e-06 0.034994440575091802 0 9.0925832741787306e-07 0.035000479466882034 0 0.00054761765713519741 0.034408714665442187 0 0.0012122836361195509 0.033364476511202494 0 0.0013309417254908807 0.033872590584856456 0 0.0012122836361195509 0.033364476511202494 0 0.0014365808660410364 0.032000229674930429 0 -1.7881762479958461e-06 0.034994440575091802 0 0.0020133341585484967 0.032179315534562943 0 0.0012122836361195509 0.033364476511202494 0 0.0014365808660410364 0.032000229674930429 0 -5.1273638968646484e-06 0.034990161065083805 0 0.0036240577595962708 0.036362693518490384 0 8.1954027961030906e-06 0.035023588671342407 0 1.633666743391843e-06 0.034998923479454269 0 0.0026063453081636954 0.032434999793038745 0 0.0014365808660410364 0.032000229674930429 0 -1.7881762479958461e-06 0.034994440575091802 0 0.00027497304488579508 0.031084719314841632 0 0.0036240577595962708 0.036362693518490384 0 8.1954027961030906e-06 0.035023588671342407 0 -1.1562165953497362e-05 0.034927402888185251 0 0.0025543384156242279 0.030793101848447656 0 0.0014365808660410364 0.032000229674930429 0 0.0025074849223332076 0.028087988764082385 0 0.0014365808660410364 0.032000229674930429 0 0.00027497304488579508 0.031084719314841632 0 0.0025074849223332076 0.028087988764082385 0 0.0026063453081636954 0.032434999793038745 0 0.0079937785372811779 0.023488174243161027 0 0.0036240577595962708 0.036362693518490384 0 -1.1562165953497362e-05 0.034927402888185251 0 0.0067168969112040879 0.022079000661532469 0 0.0036240577595962708 0.036362693518490384 0 0.015025462242431399 0.020644058621476582 0 0.0067168969112040879 0.022079000661532469 0 -1.6781781003242936e-06 0.03498718532925349 0 0.0027434687631115486 0.019915598147430515 0 -1.1562165953497362e-05 0.034927402888185251 0 0.0067168969112040879 0.022079000661532469 0 -0.0010896021220093803 0.0051196397386934238 0 0.015025462242431399 0.020644058621476582 0 0.0067168969112040879 0.022079000661532469 0 0.0088659083832994673 0.0089429117270038994 0 -0.0010896021220093803 0.0051196397386934238 0 0.0088659083832994673 0.0089429117270038994 0 0.00095572471766929327 -0.00085212348667293078 0 0.0027434687631115486 0.019915598147430515 0 0.0026343254098249642 0.030780121342199825 0 1.5444781070739861e-08 0.034902997447337415 0 1.8612526295718671e-08 0.034999985591412271 0 -9.6893504298268664e-06 0.034993737258793164 0 0.0067168969112040879 0.022079000661532469 0 -0.0010896021220093803 0.0051196397386934238 0 0.0088659083832994673 0.0089429117270038994 0 0.0088659083832994673 0.0089429117270038994 0 0.00095572471766929327 -0.00085212348667293078 0 0.011084735781505012 0.0019389056202368216 0 0.0022962567973653812 0.032069462075922942 0 0.0019175092579813752 0.032376034429526239 0 0.0021563168390282563 0.03292491538510714 0 0.0026343254098249642 0.030780121342199825 0 0.0012402949151636806 0.034110131582935944 0 -3.1512486288822843e-07 0.03500028339957479 0 -4.8996886435644817e-06 0.034997455734334604 0 -9.0917815873626861e-06 0.035050876500521896 0 1.131368561303213e-05 0.034969238778108681 0 0.0026343254098249642 0.030780121342199825 0 0.0026343254098249642 0.030780121342199825 0 0.0052916612719522502 0.02302675865242438 0 0.0022962567973653812 0.032069462075922942 0 0.0019175092579813752 0.032376034429526239 0 0.0019009866065498979 0.032070131346308824 0 0.0019518160399406191 0.032031432039252523 0 0.0020307464742670318 0.032060285188591303 0 0.0018016834522980062 0.03244168786616404 0 0.0019175092579813752 0.032376034429526239 0 0.0019518160399406191 0.032031432039252523 0 0.0018016834522980062 0.03244168786616404 0 0.0019175092579813752 0.032376034429526239 0 0.0019518160399406191 0.032031432039252523 0 0.0019009866065498979 0.032070131346308824 0 0.0052916612719522502 0.02302675865242438 0 0.0043845744387689652 0.023754482935996347 0 0.0019518160399406191 0.032031432039252523 0 0.0019009866065498979 0.032070131346308824 0 0.0021390822820223847 0.032023435790538235 0 0.0088659083832994673 0.0089429117270038994 0 0.011084735781505012 0.0019389056202368216 0 0.020606665127780494 0.0052720598771445496 0 0.015025462242431399 0.020644058621476582 0 0.0088659083832994673 0.0089429117270038994 0 0.020606665127780494 0.0052720598771445496 0 0.0079937785372811779 0.023488174243161027 0 0.0043845744387689652 0.023754482935996347 0 0.0029245269166879536 0.029566684001225498 0 0.0032019447632850484 0.028811466425329783 0 0.0025370232737498815 0.030221767914312442 0 0.0025074849223332076 0.028087988764082385 0 0.0032019447632850484 0.028811466425329783 0 0.0038088850242411205 0.027526072527876443 0 0.0032019447632850484 0.028811466425329783 0 0.0025370232737498815 0.030221767914312442 0 0.0038088850242411205 0.027526072527876443 0 0.0027525447015884397 0.026178328784700073 0 0.0043845744387689652 0.023754482935996347 0 0.0029245269166879536 0.029566684001225498 0 0.0022132738649701879 0.030467297316772942 0 0.0025370232737498815 0.030221767914312442 0 0.0022132738649701879 0.030467297316772942 0 0.0025370232737498815 0.030221767914312442 0 0.0019658994967316802 0.031160195024845988 0 0.0025370232737498815 0.030221767914312442 0 0.0019658994967316802 0.031160195024845988 0 0.0020225065644644156 0.031704134234118234 0 0.0019658994967316802 0.031160195024845988 0 0.0020225065644644156 0.031704134234118234 0 0.0017244600099372881 0.032085587796549846 0 0.0017175199202519227 0.031313882352100579 0 0.0019658994967316802 0.031160195024845988 0 0.0017244600099372881 0.032085587796549846 0 0.0019518160399406191 0.032031432039252523 0 0.0023548733408964161 0.031625999131610259 0 0.0021390822820223847 0.032023435790538235 0 0.0031884019208549066 0.026464840325616482 0 0.0043845744387689652 0.023754482935996347 0 0.0025370232737498815 0.030221767914312442 0 0.0023548733408964161 0.031625999131610259 0 0.002560929555231942 0.031256582196026061 0 0.0025370232737498815 0.030221767914312442 0 0.0020225065644644156 0.031704134234118234 0 0.0023548733408964161 0.031625999131610259 0 0.0020225065644644156 0.031704134234118234 0 0.0023548733408964161 0.031625999131610259 0 0.0020719776589622672 0.031926403208003488 0 0.0019518160399406191 0.032031432039252523 0 0.0023548733408964161 0.031625999131610259 0 0.0020307464742670318 0.032060285188591303 0 0.0023548733408964161 0.031625999131610259 0 0.0020719776589622672 0.031926403208003488 0 0.0020307464742670318 0.032060285188591303 0 0.0018343425498394553 0.032397093360298279 0 0.0017244600099372881 0.032085587796549846 0 0.0015340365125196152 0.032870205830733142 0 0.0020719776589622672 0.031926403208003488 0 0.0020307464742670318 0.032060285188591303 0 0.0018343425498394553 0.032397093360298279 0 0.0020307464742670318 0.032060285188591303 0 0.0018343425498394553 0.032397093360298279 0 0.0018016834522980062 0.03244168786616404 0 0.0020225065644644156 0.031704134234118234 0 0.0020719776589622672 0.031926403208003488 0 0.0018343425498394553 0.032397093360298279 0 0.0018343425498394553 0.032397093360298279 0 0.0015340365125196152 0.032870205830733142 0 0.0014745547556226342 0.033157737412378381 0 0.0020225065644644156 0.031704134234118234 0 0.0018343425498394553 0.032397093360298279 0 0.0017244600099372881 0.032085587796549846 0 0.0017244600099372881 0.032085587796549846 0 0.001476715900261955 0.032658800557010731 0 0.0015340365125196152 0.032870205830733142 0 0.0013574703190135119 0.033212819996740653 0 0.0013399027608773772 0.032765118292354012 0 0.001476715900261955 0.032658800557010731 0 0.0013574703190135119 0.033212819996740653 0 0.001476715900261955 0.032658800557010731 0 0.0015340365125196152 0.032870205830733142 0 0.0015340365125196152 0.032870205830733142 0 0.0013461508711111567 0.03340802106336685 0 0.0014745547556226342 0.033157737412378381 0 0.0013574703190135119 0.033212819996740653 0 0.0015340365125196152 0.032870205830733142 0 0.0013461508711111567 0.03340802106336685 0 0.0013461508711111567 0.03340802106336685 0 0.0011802472473671801 0.033843034514680903 0 0.0014745547556226342 0.033157737412378381 0 0.0011802472473671801 0.033843034514680903 0 0.0014745547556226342 0.033157737412378381 0 0.0013077936639088721 0.033590244533577847 0 0.0014745547556226342 0.033157737412378381 0 0.0013077936639088721 0.033590244533577847 0 0.0015672706874014771 0.032952079482666229 0 0.00064822565405292152 0.034681385004691166 0 0.0013077936639088721 0.033590244533577847 0 0.0021563168390282563 0.03292491538510714 0 0.00095665730133667477 0.034248687440926386 0 0.0012402949151636806 0.034110131582935944 0 0.00064822565405292152 0.034681385004691166 0 0.0011802472473671801 0.033843034514680903 0 0.0013077936639088721 0.033590244533577847 0 0.00064822565405292152 0.034681385004691166 0 6.3463555137620283e-07 0.034999661029380451 0 -9.0917815873626861e-06 0.035050876500521896 0 0.0013077936639088721 0.033590244533577847 0 0.0021563168390282563 0.03292491538510714 0 0.0016982785234412147 0.032829955390979708 0 -3.1512486288822843e-07 0.03500028339957479 0 6.3463555137620283e-07 0.034999661029380451 0 -9.0917815873626861e-06 0.035050876500521896 0 0.0019175092579813752 0.032376034429526239 0 0.0021563168390282563 0.03292491538510714 0 0.0016982785234412147 0.032829955390979708 0 0.0019175092579813752 0.032376034429526239 0 0.0018016834522980062 0.03244168786616404 0 0.0016982785234412147 0.032829955390979708 0 0.0018343425498394553 0.032397093360298279 0 0.0018016834522980062 0.03244168786616404 0 0.0015672706874014771 0.032952079482666229 0 0.0018343425498394553 0.032397093360298279 0 0.0014745547556226342 0.033157737412378381 0 0.0015672706874014771 0.032952079482666229 0 0.0013077936639088721 0.033590244533577847 0 0.0015672706874014771 0.032952079482666229 0 0.0016982785234412147 0.032829955390979708 0 0.0018016834522980062 0.03244168786616404 0 0.0015672706874014771 0.032952079482666229 0 0.0016982785234412147 0.032829955390979708 0 1.6770636432834297e-05 0.034951212210913699 0 -4.2914912577864399e-06 0.034970165995747052 0 1.2051715897055404e-05 0.034986509549464626 0 1.6770636432834297e-05 0.034951212210913699 0 4.4225581535653766e-08 0.034999959832238525 0 1.2051715897055404e-05 0.034986509549464626 0 4.4225581535653766e-08 0.034999959832238525 0 1.4884015210119282e-05 0.03494036547170646 0 -6.4862721827508805e-09 0.034999898300321915 0 1.6770636432834297e-05 0.034951212210913699 0 4.4225581535653766e-08 0.034999959832238525 0 1.4884015210119282e-05 0.03494036547170646 0 1.6770636432834297e-05 0.034951212210913699 0 2.4396406487246926e-05 0.03485268060451787 0 1.4884015210119282e-05 0.03494036547170646 0 2.4396406487246926e-05 0.03485268060451787 0 0.00013259957030356881 0.034591757571389374 0 0.00018627977417022179 0.034765524473171161 0 1.6770636432834297e-05 0.034951212210913699 0 2.4396406487246926e-05 0.03485268060451787 0 -4.2914912577864399e-06 0.034970165995747052 0 2.4396406487246926e-05 0.03485268060451787 0 0.00013259957030356881 0.034591757571389374 0 -4.0206404170299145e-05 0.034609458465439447 0 1.138040790101489e-05 0.03484568180314191 0 -3.3474723639578256e-06 0.034789620089644278 0 -4.0206404170299145e-05 0.034609458465439447 0 4.7061302341961738e-05 0.034488344081942339 0 -7.3024428778606788e-05 0.034413329226505494 0 0.00013259957030356881 0.034591757571389374 0 -4.0206404170299145e-05 0.034609458465439447 0 4.7061302341961738e-05 0.034488344081942339 0 -3.3474723639578256e-06 0.034789620089644278 0 3.8882425428342773e-05 0.034673272805332084 0 0.00013259957030356881 0.034591757571389374 0 4.7061302341961738e-05 0.034488344081942339 0 0.00015826113819796605 0.034433605872487026 0 0.00013259957030356881 0.034591757571389374 0 0.00015826113819796605 0.034433605872487026 0 0.00022326522295225957 0.034511318301234807 0 0.00079219346149624753 0.033709551645466504 0 0.0011145900919793741 0.03244554403603802 0 4.7061302341961738e-05 0.034488344081942339 0 0.00015826113819796605 0.034433605872487026 0 8.2542420099699938e-05 0.034320025986027278 0 0.00015826113819796605 0.034433605872487026 0 8.2542420099699938e-05 0.034320025986027278 0 0.00029690889500486679 0.034405814302942726 0 4.7061302341961738e-05 0.034488344081942339 0 -7.3024428778606788e-05 0.034413329226505494 0 8.2542420099699938e-05 0.034320025986027278 0 6.1015661263779058e-06 0.034994256502228233 0 1.2051715897055404e-05 0.034986509549464626 0 1.927454864329383e-05 0.034998681922629941 0 -4.2914912577864399e-06 0.034970165995747052 0 6.1015661263779058e-06 0.034994256502228233 0 1.2051715897055404e-05 0.034986509549464626 0 4.4225581535653766e-08 0.034999959832238525 0 1.2051715897055404e-05 0.034986509549464626 0 -4.1103631954910303e-08 0.034999867357497702 0 -4.1103631954910303e-08 0.034999867357497702 0 1.927454864329383e-05 0.034998681922629941 0 2.3227693005666369e-07 0.035000495090419824 0 1.2051715897055404e-05 0.034986509549464626 0 -4.1103631954910303e-08 0.034999867357497702 0 1.927454864329383e-05 0.034998681922629941 0 1.927454864329383e-05 0.034998681922629941 0 3.9448022034508277e-05 0.034998559088554183 0 2.3227693005666369e-07 0.035000495090419824 0 1.927454864329383e-05 0.034998681922629941 0 3.9448022034508277e-05 0.034998559088554183 0 1.0334951728880109e-05 0.035005020515325613 0 3.9448022034508277e-05 0.034998559088554183 0 2.3227693005666369e-07 0.035000495090419824 0 0.00011329338440335515 0.03501405092534967 0 3.8882425428342773e-05 0.034673272805332084 0 0.00056269332107674068 0.034624896146619566 0 6.1015661263779058e-06 0.034994256502228233 0 1.927454864329383e-05 0.034998681922629941 0 1.0334951728880109e-05 0.035005020515325613 0 0.0013564863261694025 0.035552975960600613 0 0.0011302664070524731 0.034556389416940191 0 0.00011329338440335515 0.03501405092534967 0 0.0016438958853458138 0.03417143890785123 0 0.0014977820052701281 0.034279721315098897 0 0.0016653305522708875 0.033908252941532969 0 0.0016438958853458138 0.03417143890785123 0 0.0014977820052701281 0.034279721315098897 0 0.0011302664070524731 0.034556389416940191 0 0.00056269332107674068 0.034624896146619566 0 0.00084968417973492569 0.034642367527182749 0 0.0014977820052701281 0.034279721315098897 0 0.0011302664070524731 0.034556389416940191 0 0.0012139600779054768 0.034412684698000059 0 0.0011302664070524731 0.034556389416940191 0 0.00011329338440335515 0.03501405092534967 0 2.6642822882880582e-07 0.03499853865653714 0 2.3227693005666369e-07 0.035000495090419824 0 0.00011329338440335515 0.03501405092534967 0 2.6642822882880582e-07 0.03499853865653714 0 3.9448022034508277e-05 0.034998559088554183 0 1.0334951728880109e-05 0.035005020515325613 0 0.00011329338440335515 0.03501405092534967 0 0.00056269332107674068 0.034624896146619566 0 0.00037680014142440918 0.034914181792604429 0 0.0011302664070524731 0.034556389416940191 0 2.6642822882880582e-07 0.03499853865653714 0 0.0012139600779054768 0.034412684698000059 0 8.8318431350708591e-08 0.034999523386991131 0 0.00073509420063762093 0.034725698766485902 0 0.00034196784234054387 0.034771757687454087 0 8.8318431350708591e-08 0.034999523386991131 0 0.0010895161905746459 0.034843819620589536 0 0.00073509420063762093 0.034725698766485902 0 7.1822597781138806e-07 0.034999617076604782 0 0.0010786447190912494 0.034674372820633285 0 0.0010895161905746459 0.034843819620589536 0 0.0010963016370826766 0.034668572618972229 0 0.00073509420063762093 0.034725698766485902 0 0.0010895161905746459 0.034843819620589536 0 0.0010963016370826766 0.034668572618972229 0 0.0014305262360813386 0.034511019800649835 0 0.001183081607043977 0.034507055235932629 0 0.0010963016370826766 0.034668572618972229 0 0.0014305262360813386 0.034511019800649835 0 0.001183081607043977 0.034507055235932629 0 0.00073509420063762093 0.034725698766485902 0 0.00088764960936407787 0.034441946759161145 0 0.001183081607043977 0.034507055235932629 0 0.0010963016370826766 0.034668572618972229 0 0.00073509420063762093 0.034725698766485902 0 0.00054761765713519741 0.034408714665442187 0 0.00088764960936407787 0.034441946759161145 0 0.0013309417254908807 0.033872590584856456 0 0.001183081607043977 0.034507055235932629 0 0.00088764960936407787 0.034441946759161145 0 0.0014896780272708242 0.03418156999762427 0 0.00088764960936407787 0.034441946759161145 0 0.0013309417254908807 0.033872590584856456 0 0.0014896780272708242 0.03418156999762427 0 8.8318431350708591e-08 0.034999523386991131 0 9.0925832741787306e-07 0.035000479466882034 0 0.00034196784234054387 0.034771757687454087 0 0.00054761765713519741 0.034408714665442187 0 0.00088764960936407787 0.034441946759161145 0 0.00034196784234054387 0.034771757687454087 0 0.00054761765713519741 0.034408714665442187 0 9.0925832741787306e-07 0.035000479466882034 0 0.00034196784234054387 0.034771757687454087 0 0.00073509420063762093 0.034725698766485902 0 0.00088764960936407787 0.034441946759161145 0 0.00034196784234054387 0.034771757687454087 0 0.0020081769134152323 0.03408632097296882 0 0.0026926248556818069 0.033608019334056966 0 0.0029279871708168615 0.034017282873771766 0 0.0033127822969752567 0.033229330137450337 0 0.0025856937886347738 0.032982213499321893 0 0.0026926248556818069 0.033608019334056966 0 0.0025856937886347738 0.032982213499321893 0 0.0026926248556818069 0.033608019334056966 0 0.0022891938304822447 0.033505056764436068 0 0.0020081769134152323 0.03408632097296882 0 0.0026926248556818069 0.033608019334056966 0 0.0022891938304822447 0.033505056764436068 0 0.0020081769134152323 0.03408632097296882 0 0.0022891938304822447 0.033505056764436068 0 0.0018355693384656101 0.033771403432778492 0 0.0013309417254908807 0.033872590584856456 0 0.0018355693384656101 0.033771403432778492 0 0.0014896780272708242 0.03418156999762427 0 0.0020081769134152323 0.03408632097296882 0 0.0018355693384656101 0.033771403432778492 0 0.0014896780272708242 0.03418156999762427 0 0.0020081769134152323 0.03408632097296882 0 0.0015807714260711342 0.034358770242785663 0 0.0017340713930747689 0.034301697830740836 0 0.0020081769134152323 0.03408632097296882 0 0.0014896780272708242 0.03418156999762427 0 0.0015807714260711342 0.034358770242785663 0 0.001183081607043977 0.034507055235932629 0 0.0015807714260711342 0.034358770242785663 0 0.0014305262360813386 0.034511019800649835 0 0.001183081607043977 0.034507055235932629 0 0.0014896780272708242 0.03418156999762427 0 0.0015807714260711342 0.034358770242785663 0 0.0015807714260711342 0.034358770242785663 0 0.0014305262360813386 0.034511019800649835 0 0.0017340713930747689 0.034301697830740836 0 0.0014305262360813386 0.034511019800649835 0 0.0017340713930747689 0.034301697830740836 0 0.0017432148644490996 0.034099167350646602 0 0.0019660701829996674 0.034142909464136291 0 0.0018478155522831793 0.034169373283661132 0 0.0020081769134152323 0.03408632097296882 0 0.0018373349240747871 0.03422236108559653 0 0.0029279871708168615 0.034017282873771766 0 0.0020081769134152323 0.03408632097296882 0 0.0017340713930747689 0.034301697830740836 0 0.0018373349240747871 0.03422236108559653 0 0.0018373349240747871 0.03422236108559653 0 0.0015908332540254329 0.033704413879931484 0 0.0011919002211639852 0.033896829729089195 0 0.0017340713930747689 0.034301697830740836 0 0.0018373349240747871 0.03422236108559653 0 0.0017432148644490996 0.034099167350646602 0 0.0018373349240747871 0.03422236108559653 0 0.0015908332540254329 0.033704413879931484 0 0.0017432148644490996 0.034099167350646602 0 0.0015908332540254329 0.033704413879931484 0 0.0017432148644490996 0.034099167350646602 0 0.0016568991948751959 0.033650695428887267 0 0.0010895161905746459 0.034843819620589536 0 0.0014305262360813386 0.034511019800649835 0 0.0017432148644490996 0.034099167350646602 0 0.0014977820052701281 0.034279721315098897 0 0.0012139600779054768 0.034412684698000059 0 0.0017432148644490996 0.034099167350646602 0 0.0010786447190912494 0.034674372820633285 0 0.0014851132122050616 0.034412100677647051 0 0.0017432148644490996 0.034099167350646602 0 0.0016653305522708875 0.033908252941532969 0 0.0016568991948751959 0.033650695428887267 0 0.0014977820052701281 0.034279721315098897 0 0.0017432148644490996 0.034099167350646602 0 0.0016653305522708875 0.033908252941532969 0 0.0016438958853458138 0.03417143890785123 0 0.0016653305522708875 0.033908252941532969 0 0.0017180667510399981 0.033213542786908912 0 0.00056269332107674068 0.034624896146619566 0 0.00079219346149624753 0.033709551645466504 0 -7.3024428778606788e-05 0.034413329226505494 0 -0.0001084614512091625 0.034233136671657734 0 8.2542420099699938e-05 0.034320025986027278 0 0.0016653305522708875 0.033908252941532969 0 0.0016568991948751959 0.033650695428887267 0 0.0017180667510399981 0.033213542786908912 0 0.0014867119581054424 0.03333052635268554 0 0.0017180667510399981 0.033213542786908912 0 0.0012215070646550033 0.032857655575462337 0 0.0015908332540254329 0.033704413879931484 0 0.0014867119581054424 0.03333052635268554 0 0.0011890418510351153 0.033186688583027944 0 0.0015908332540254329 0.033704413879931484 0 0.0014867119581054424 0.03333052635268554 0 0.0016568991948751959 0.033650695428887267 0 0.0014867119581054424 0.03333052635268554 0 0.0016568991948751959 0.033650695428887267 0 0.0017180667510399981 0.033213542786908912 0 0.0012215070646550033 0.032857655575462337 0 0.0011890418510351153 0.033186688583027944 0 0.00074839143193152706 0.032459586693960582 0 0.0011890418510351153 0.033186688583027944 0 0.00074839143193152706 0.032459586693960582 0 0.00075702646573483823 0.033001885955851594 0 0.0014867119581054424 0.03333052635268554 0 0.0012215070646550033 0.032857655575462337 0 0.0011890418510351153 0.033186688583027944 0 0.00074839143193152706 0.032459586693960582 0 0.00036353666789312522 0.032104751329781571 0 0.00051791672657390216 0.032075747446309887 0 0.00074839143193152706 0.032459586693960582 0 0.00036353666789312522 0.032104751329781571 0 0.00075702646573483823 0.033001885955851594 0 0.00036353666789312522 0.032104751329781571 0 0.00021199276004340239 0.033175092714593804 0 0.00075702646573483823 0.033001885955851594 0 0.00021199276004340239 0.033175092714593804 0 0.00075702646573483823 0.033001885955851594 0 0.00054471882409757775 0.03369358910887206 0 0.00075702646573483823 0.033001885955851594 0 0.00054471882409757775 0.03369358910887206 0 0.0011919002211639852 0.033896829729089195 0 0.00021199276004340239 0.033175092714593804 0 0.00054471882409757775 0.03369358910887206 0 -0.00014627404390047484 0.033815233551677877 0 0.0011890418510351153 0.033186688583027944 0 0.00075702646573483823 0.033001885955851594 0 0.0011919002211639852 0.033896829729089195 0 0.0015908332540254329 0.033704413879931484 0 0.0011890418510351153 0.033186688583027944 0 0.0011919002211639852 0.033896829729089195 0 0.0011919002211639852 0.033896829729089195 0 0.00064154110202622832 0.03435102663191017 0 0.0013955716828855783 0.034701214470366941 0 0.0018373349240747871 0.03422236108559653 0 0.0011919002211639852 0.033896829729089195 0 0.0013955716828855783 0.034701214470366941 0 0.00064154110202622832 0.03435102663191017 0 -0.00021817262672042058 0.034690719989237839 0 -0.00014627404390047484 0.033815233551677877 0 0.00054471882409757775 0.03369358910887206 0 0.0011919002211639852 0.033896829729089195 0 0.00064154110202622832 0.03435102663191017 0 0.00054471882409757775 0.03369358910887206 0 0.00064154110202622832 0.03435102663191017 0 -0.00014627404390047484 0.033815233551677877 0 0.00085636433772754588 0.035478896382827509 0 0.00077453073999774824 0.03508795502231471 0 -0.00021817262672042058 0.034690719989237839 0 0.00064154110202622832 0.03435102663191017 0 0.00077453073999774824 0.03508795502231471 0 -0.00021817262672042058 0.034690719989237839 0 0.0022539488218727192 0.031576096432181171 0 0.00072590512974038542 0.031600762891307331 0 0.0015305437811219073 0.029255559730608654 0 0.0018980053423291511 0.029213094443554691 0 0.001523111002489221 0.028915360461758861 0 0.0033127822969752567 0.033229330137450337 0 0.0039995487865949735 0.033060125609648681 0 0.0029279871708168615 0.034017282873771766 0 0.00085636433772754588 0.035478896382827509 0 0.00077453073999774824 0.03508795502231471 0 0.0013955716828855783 0.034701214470366941 0 0.0022539488218727192 0.031576096432181171 0 0.0018478155522831793 0.034169373283661132 0 0.00064154110202622832 0.03435102663191017 0 0.00077453073999774824 0.03508795502231471 0 0.0013955716828855783 0.034701214470366941 0 0.0033127822969752567 0.033229330137450337 0 0.0026926248556818069 0.033608019334056966 0 0.0029279871708168615 0.034017282873771766 0 0.0012185203032109445 0.028889593847713366 0 0.0013942998032979157 0.029080905561077501 0 0.001523111002489221 0.028915360461758861 0 0.0012185203032109445 0.028889593847713366 0 0.001224869171857359 0.029057373775274654 0 0.001137550537929881 0.028956234318489035 0 0.0012185203032109445 0.028889593847713366 0 0.001224869171857359 0.029057373775274654 0 0.0013942998032979157 0.029080905561077501 0 0.0015305437811219073 0.029255559730608654 0 0.0013942998032979157 0.029080905561077501 0 0.001523111002489221 0.028915360461758861 0 -0.00021817262672042058 0.034690719989237839 0 -0.00014627404390047484 0.033815233551677877 0 -0.001429104321088963 0.033770109951415918 0 0.0012185203032109445 0.028889593847713366 0 0.001110209477487986 0.028833098740947298 0 0.0010819305600571405 0.028711523054857305 0 0.00072590512974038542 0.031600762891307331 0 0.00095455173813755508 0.030545517582887521 0 0.0012185203032109445 0.028889593847713366 0 0.001523111002489221 0.028915360461758861 0 0.001110209477487986 0.028833098740947298 0 0.0015775372871094958 0.029981039067618974 0 0.00096657806521874712 0.030576561785878666 0 0.0016336238493595578 0.030635668881957477 0 0.00095455173813755508 0.030545517582887521 0 0.00013731591355271841 0.031757823473046419 0 -0.00014627404390047484 0.033815233551677877 0 -0.001429104321088963 0.033770109951415918 0 -0.00067524281862389225 0.033096371031745821 0 0.00021199276004340239 0.033175092714593804 0 -0.00014627404390047484 0.033815233551677877 0 -0.00067524281862389225 0.033096371031745821 0 0.00036353666789312522 0.032104751329781571 0 0.00021199276004340239 0.033175092714593804 0 -0.00067524281862389225 0.033096371031745821 0 0.00036353666789312522 0.032104751329781571 0 0.00099086676264757028 0.031425296675446537 0 0.00051791672657390216 0.032075747446309887 0 0.00029826732495933061 0.031824145090127695 0 0.00013731591355271841 0.031757823473046419 0 0.00036353666789312522 0.032104751329781571 0 0.00096657806521874712 0.030576561785878666 0 0.00099086676264757028 0.031425296675446537 0 0.00099086676264757028 0.031425296675446537 0 0.0016336238493595578 0.030635668881957477 0 0.0015963643946464772 0.031347813186648615 0 0.00096657806521874712 0.030576561785878666 0 0.00099086676264757028 0.031425296675446537 0 0.0016336238493595578 0.030635668881957477 0 0.0028144773226074001 0.029618522522442087 0 0.0028971996234557732 0.029461080511070763 0 0.0030313279052126005 0.029557463328367263 0 0.0028144773226074001 0.029618522522442087 0 0.0028971996234557732 0.029461080511070763 0 0.002607430769026415 0.0293535111594731 0 0.0028971996234557732 0.029461080511070763 0 0.0028393107342321723 0.02928577745429695 0 0.002607430769026415 0.0293535111594731 0 0.0028971996234557732 0.029461080511070763 0 0.0028393107342321723 0.02928577745429695 0 0.0030545170020005218 0.02944902226118094 0 0.0016235589926563922 0.03194349494887342 0 0.0016869406569814493 0.032069001198245961 0 0.00045555096498229214 0.034533406837557651 0 0.00037242882763872676 0.034494923106252767 0 0.00035546489775606876 0.034567232571738715 0 0.0020484377046668945 0.030476100279062505 0 0.0019414142686030235 0.030941927664325099 0 0.0028971996234557732 0.029461080511070763 0 0.0030545170020005218 0.02944902226118094 0 0.0030313279052126005 0.029557463328367263 0 0.00099086676264757028 0.031425296675446537 0 0.0015963643946464772 0.031347813186648615 0 0.00051791672657390216 0.032075747446309887 0 0.0019414142686030235 0.030941927664325099 0 0.0011145900919793741 0.03244554403603802 0 0.00074839143193152706 0.032459586693960582 0 0.00051791672657390216 0.032075747446309887 0 0.00093690594267716964 0.032211441658860369 0 0.0030545170020005218 0.02944902226118094 0 0.0030313279052126005 0.029557463328367263 0 0.0031868988151908125 0.029550553976271543 0 0.0016869406569814493 0.032069001198245961 0 0.0011145900919793741 0.03244554403603802 0 0.00012419403032456786 0.033415698818241066 0 0.0011145900919793741 0.03244554403603802 0 0.0017180667510399981 0.033213542786908912 0 0.0012215070646550033 0.032857655575462337 0 0.00093690594267716964 0.032211441658860369 0 0.00015826113819796605 0.034433605872487026 0 0.0002623231830209194 0.034429616489832809 0 0.00022326522295225957 0.034511318301234807 0 0.0012215070646550033 0.032857655575462337 0 0.00074839143193152706 0.032459586693960582 0 0.00093690594267716964 0.032211441658860369 0 0.00013259957030356881 0.034591757571389374 0 0.00022326522295225957 0.034511318301234807 0 0.00026020507989985247 0.034591006341827941 0 0.0002623231830209194 0.034429616489832809 0 0.00022326522295225957 0.034511318301234807 0 0.00029387079455476579 0.034517094226807703 0 0.00022326522295225957 0.034511318301234807 0 0.00029387079455476579 0.034517094226807703 0 0.00026020507989985247 0.034591006341827941 0 0.00037242882763872676 0.034494923106252767 0 0.0002623231830209194 0.034429616489832809 0 0.00029387079455476579 0.034517094226807703 0 0.00037242882763872676 0.034494923106252767 0 0.00029387079455476579 0.034517094226807703 0 0.00035546489775606876 0.034567232571738715 0 0.00029387079455476579 0.034517094226807703 0 0.00035546489775606876 0.034567232571738715 0 0.00026020507989985247 0.034591006341827941 0 0.00035546489775606876 0.034567232571738715 0 0.00026020507989985247 0.034591006341827941 0 0.00032208714709925973 0.034665248947417342 0 0.00035546489775606876 0.034567232571738715 0 0.00032208714709925973 0.034665248947417342 0 0.00039318876244871413 0.034607111365140712 0 0.00013259957030356881 0.034591757571389374 0 0.00026020507989985247 0.034591006341827941 0 0.00018627977417022179 0.034765524473171161 0 0.00026020507989985247 0.034591006341827941 0 0.00018627977417022179 0.034765524473171161 0 0.00032208714709925973 0.034665248947417342 0 0.00018627977417022179 0.034765524473171161 0 0.00032208714709925973 0.034665248947417342 0 0.00034379412088665851 0.034730973878247196 0 0.00032208714709925973 0.034665248947417342 0 0.00040857009371695024 0.0346659988789405 0 0.00034379412088665851 0.034730973878247196 0 0.00040857009371695024 0.0346659988789405 0 0.00046065220479348689 0.034596884312146733 0 0.00039318876244871413 0.034607111365140712 0 0.00032208714709925973 0.034665248947417342 0 0.00040857009371695024 0.0346659988789405 0 0.00039318876244871413 0.034607111365140712 0 0.00040857009371695024 0.0346659988789405 0 0.00046065220479348689 0.034596884312146733 0 0.00050119322231014028 0.034631589954450176 0 0.00045555096498229214 0.034533406837557651 0 0.00046065220479348689 0.034596884312146733 0 0.00039318876244871413 0.034607111365140712 0 0.00045555096498229214 0.034533406837557651 0 0.00046065220479348689 0.034596884312146733 0 0.00052849768365695478 0.034547741440830136 0 0.00045555096498229214 0.034533406837557651 0 0.00035546489775606876 0.034567232571738715 0 0.00039318876244871413 0.034607111365140712 0 0.0014943416224955696 0.031993186061648825 0 0.0012131646957668951 0.032780532729230934 0 0.0024973093059960745 0.029171487607280739 0 0.0025786138285720937 0.029158699386776267 0 0.0024542335039070408 0.029150992984348433 0 0.0024973093059960745 0.029171487607280739 0 0.0024760461051801233 0.029161659683815136 0 0.0024542335039070408 0.029150992984348433 0 0.0024973093059960745 0.029171487607280739 0 0.0024760461051801233 0.029161659683815136 0 0.0024687123226802368 0.029202042671169284 0 0.0024973093059960745 0.029171487607280739 0 0.0025786138285720937 0.029158699386776267 0 0.002607430769026415 0.0293535111594731 0 0.0016235589926563922 0.03194349494887342 0 0.0014943416224955696 0.031993186061648825 0 0.00046065220479348689 0.034596884312146733 0 0.00052849768365695478 0.034547741440830136 0 0.00050119322231014028 0.034631589954450176 0 0.00052849768365695478 0.034547741440830136 0 0.00050119322231014028 0.034631589954450176 0 0.00055631002072361517 0.034572340998109088 0 0.00050119322231014028 0.034631589954450176 0 0.00056020271767778069 0.034603079583457173 0 0.00055631002072361517 0.034572340998109088 0 0.00052849768365695478 0.034547741440830136 0 0.00055631002072361517 0.034572340998109088 0 0.00061097049222141322 0.034550618441873716 0 0.00056020271767778069 0.034603079583457173 0 0.00055631002072361517 0.034572340998109088 0 0.00059464750194286782 0.034575793730067708 0 0.00055631002072361517 0.034572340998109088 0 0.00059464750194286782 0.034575793730067708 0 0.00061097049222141322 0.034550618441873716 0 0.00059464750194286782 0.034575793730067708 0 0.00061097049222141322 0.034550618441873716 0 0.00061061506508397619 0.034561273070754447 0 0.00056020271767778069 0.034603079583457173 0 0.00059464750194286782 0.034575793730067708 0 0.00059373364289102561 0.034600198890529357 0 0.00059373364289102561 0.034600198890529357 0 0.00061153592898489646 0.034584898476877741 0 0.0006180193208822673 0.034599082502657023 0 0.00059464750194286782 0.034575793730067708 0 0.00059373364289102561 0.034600198890529357 0 0.00061153592898489646 0.034584898476877741 0 0.0024889723457095655 0.029159631009433667 0 0.0024542335039070408 0.029150992984348433 0 0.0025376692432808943 0.029188828017940344 0 0.00061153592898489646 0.034584898476877741 0 0.00061815810298989629 0.034569679236119699 0 0.00063434806580716524 0.034580762140980749 0 0.00061153592898489646 0.034584898476877741 0 0.00063434806580716524 0.034580762140980749 0 0.0006180193208822673 0.034599082502657023 0 0.0012131646957668951 0.032780532729230934 0 0.0017569011066785743 0.031763732389869612 0 0.00064355115526825107 0.034554536568016631 0 0.00061097049222141322 0.034550618441873716 0 0.00073804751468119385 0.03453376814805445 0 0.00064355115526825107 0.034554536568016631 0 0.00066129985635287984 0.034554847270280353 0 0.00073804751468119385 0.03453376814805445 0 0.0012131646957668951 0.032780532729230934 0 0.00091636567599290687 0.034195569370994605 0 0.0024542335039070408 0.029150992984348433 0 0.0025932917530969747 0.029251470641019073 0 0.0025376692432808943 0.029188828017940344 0 0.00059464750194286782 0.034575793730067708 0 0.00061815810298989629 0.034569679236119699 0 0.00061061506508397619 0.034561273070754447 0 0.00059464750194286782 0.034575793730067708 0 0.00061153592898489646 0.034584898476877741 0 0.00061815810298989629 0.034569679236119699 0 0.00061815810298989629 0.034569679236119699 0 0.00061061506508397619 0.034561273070754447 0 0.00062492749023819016 0.034559799440639298 0 0.00061815810298989629 0.034569679236119699 0 0.00063866992227819145 0.03456521586834306 0 0.00062492749023819016 0.034559799440639298 0 0.00061815810298989629 0.034569679236119699 0 0.00063866992227819145 0.03456521586834306 0 0.00063434806580716524 0.034580762140980749 0 0.00064355115526825107 0.034554536568016631 0 0.00063866992227819145 0.03456521586834306 0 0.00062492749023819016 0.034559799440639298 0 0.00063866992227819145 0.03456521586834306 0 0.00063434806580716524 0.034580762140980749 0 0.00065538001360844087 0.034566913217258563 0 0.00065538001360844087 0.034566913217258563 0 0.00068233653094814555 0.034555982214795403 0 0.00066143979969343766 0.034577110992367148 0 0.00063434806580716524 0.034580762140980749 0 0.00065538001360844087 0.034566913217258563 0 0.00066143979969343766 0.034577110992367148 0 0.00065538001360844087 0.034566913217258563 0 0.00068233653094814555 0.034555982214795403 0 0.00066129985635287984 0.034554847270280353 0 0.00068233653094814555 0.034555982214795403 0 0.00068964086260615918 0.034567801156536543 0 0.00066143979969343766 0.034577110992367148 0 0.00063866992227819145 0.03456521586834306 0 0.00065538001360844087 0.034566913217258563 0 0.00066129985635287984 0.034554847270280353 0 0.00064355115526825107 0.034554536568016631 0 0.00063866992227819145 0.03456521586834306 0 0.00066129985635287984 0.034554847270280353 0 0.00250975622923671 0.029165252401141272 0 0.0024889723457095655 0.029159631009433667 0 0.0025376692432808943 0.029188828017940344 0 0.0025212525337311967 0.029168255393951285 0 0.00250975622923671 0.029165252401141272 0 0.0025376692432808943 0.029188828017940344 0 0.0025212525337311967 0.029168255393951285 0 0.0025358082991869097 0.029157091600382594 0 0.0025117845403092756 0.029150417334110994 0 0.00250975622923671 0.029165252401141272 0 0.002492337302009756 0.0291534080506805 0 0.0025117845403092756 0.029150417334110994 0 0.0025212525337311967 0.029168255393951285 0 0.00250975622923671 0.029165252401141272 0 0.0025117845403092756 0.029150417334110994 0 0.00250975622923671 0.029165252401141272 0 0.0024889723457095655 0.029159631009433667 0 0.002492337302009756 0.0291534080506805 0 0.0024889723457095655 0.029159631009433667 0 0.002476882505411027 0.029154063016546106 0 0.002492337302009756 0.0291534080506805 0 0.0024889723457095655 0.029159631009433667 0 0.002476882505411027 0.029154063016546106 0 0.0024542335039070408 0.029150992984348433 0 0.002476882505411027 0.029154063016546106 0 0.0024542335039070408 0.029150992984348433 0 0.0024734964244533131 0.02915190759543717 0 0.00061097049222141322 0.034550618441873716 0 0.00061061506508397619 0.034561273070754447 0 0.00062492749023819016 0.034559799440639298 0 0.00064355115526825107 0.034554536568016631 0 0.00061097049222141322 0.034550618441873716 0 0.00062492749023819016 0.034559799440639298 0 0.00054429224956937779 0.034381072753194776 0 0.00073804751468119385 0.03453376814805445 0 0.00076062750927208364 0.034501637077731406 0 0.0025932917530969747 0.029251470641019073 0 0.0026241189252927109 0.029205105010975192 0 0.0026790142988409628 0.02920740280250559 0 0.00076173811685313825 0.03453636724297051 0 0.00076062750927208364 0.034501637077731406 0 0.00079272906934492134 0.034542301629932701 0 0.00076173811685313825 0.03453636724297051 0 0.00073804751468119385 0.03453376814805445 0 0.00076062750927208364 0.034501637077731406 0 0.0025932917530969747 0.029251470641019073 0 0.0025756034678139287 0.029213099305447052 0 0.002595898018447877 0.029206124331782407 0 0.0025932917530969747 0.029251470641019073 0 0.002595898018447877 0.029206124331782407 0 0.0026241189252927109 0.029205105010975192 0 0.00068233653094814555 0.034555982214795403 0 0.00066129985635287984 0.034554847270280353 0 0.00073804751468119385 0.03453376814805445 0 0.00068233653094814555 0.034555982214795403 0 0.00073804751468119385 0.03453376814805445 0 0.0007070257745101933 0.034556692127800673 0 0.00068233653094814555 0.034555982214795403 0 0.00068964086260615918 0.034567801156536543 0 0.0007070257745101933 0.034556692127800673 0 0.0025932917530969747 0.029251470641019073 0 0.0025376692432808943 0.029188828017940344 0 0.0025756034678139287 0.029213099305447052 0 0.0025376692432808943 0.029188828017940344 0 0.0025358082991869097 0.029157091600382594 0 0.002558492032010203 0.029164863706119811 0 0.0025212525337311967 0.029168255393951285 0 0.0025376692432808943 0.029188828017940344 0 0.0025358082991869097 0.029157091600382594 0 0.002558492032010203 0.029164863706119811 0 0.0025754017606488548 0.029183043118655886 0 0.002590987827545512 0.029142562411773199 0 0.0025376692432808943 0.029188828017940344 0 0.002558492032010203 0.029164863706119811 0 0.0025754017606488548 0.029183043118655886 0 0.0025376692432808943 0.029188828017940344 0 0.0025754017606488548 0.029183043118655886 0 0.0025756034678139287 0.029213099305447052 0 0.0025754017606488548 0.029183043118655886 0 0.0025756034678139287 0.029213099305447052 0 0.002595898018447877 0.029206124331782407 0 0.002595898018447877 0.029206124331782407 0 0.0026096076466506292 0.029178219843897426 0 0.0026241189252927109 0.029205105010975192 0 0.0025754017606488548 0.029183043118655886 0 0.002595898018447877 0.029206124331782407 0 0.0026096076466506292 0.029178219843897426 0 0.0025754017606488548 0.029183043118655886 0 0.0026096076466506292 0.029178219843897426 0 0.002590987827545512 0.029142562411773199 0 0.0026096076466506292 0.029178219843897426 0 0.002590987827545512 0.029142562411773199 0 0.0026527656730645833 0.029118616319295066 0 0.0026096076466506292 0.029178219843897426 0 0.002653953574477317 0.029171275146267509 0 0.0026527656730645833 0.029118616319295066 0 0.002653953574477317 0.029171275146267509 0 0.0026241189252927109 0.029205105010975192 0 0.0026790142988409628 0.02920740280250559 0 0.0026096076466506292 0.029178219843897426 0 0.002653953574477317 0.029171275146267509 0 0.0026241189252927109 0.029205105010975192 0 0.0026527656730645833 0.029118616319295066 0 0.0026099692462261681 0.029092804767441399 0 0.0026721877134513032 0.029018654124006921 0 0.0026099692462261681 0.029092804767441399 0 0.0025921207403573955 0.029058517739800963 0 0.0026721877134513032 0.029018654124006921 0 0.002590987827545512 0.029142562411773199 0 0.0026527656730645833 0.029118616319295066 0 0.0026099692462261681 0.029092804767441399 0 0.002590987827545512 0.029142562411773199 0 0.0026099692462261681 0.029092804767441399 0 0.0025640549045027679 0.029125310220928055 0 0.0026099692462261681 0.029092804767441399 0 0.0025640549045027679 0.029125310220928055 0 0.0025921207403573955 0.029058517739800963 0 0.0025640549045027679 0.029125310220928055 0 0.0025396606906932084 0.029100431932727166 0 0.0025921207403573955 0.029058517739800963 0 0.0025358082991869097 0.029157091600382594 0 0.002558492032010203 0.029164863706119811 0 0.0025640549045027679 0.029125310220928055 0 0.002558492032010203 0.029164863706119811 0 0.002590987827545512 0.029142562411773199 0 0.0025640549045027679 0.029125310220928055 0 0.0025358082991869097 0.029157091600382594 0 0.0025640549045027679 0.029125310220928055 0 0.00253172426890046 0.029134772541795095 0 0.0025358082991869097 0.029157091600382594 0 0.00253172426890046 0.029134772541795095 0 0.0025117845403092756 0.029150417334110994 0 0.00253172426890046 0.029134772541795095 0 0.0025396606906932084 0.029100431932727166 0 0.0025074561633728616 0.029133494358699816 0 0.0025640549045027679 0.029125310220928055 0 0.00253172426890046 0.029134772541795095 0 0.0025396606906932084 0.029100431932727166 0 0.0025396606906932084 0.029100431932727166 0 0.0025200985435781752 0.029102292421855087 0 0.0025635759810979566 0.029051064010823406 0 0.0025396606906932084 0.029100431932727166 0 0.0025921207403573955 0.029058517739800963 0 0.0025635759810979566 0.029051064010823406 0 0.0025921207403573955 0.029058517739800963 0 0.0026308121267845422 0.028991556337093653 0 0.0026721877134513032 0.029018654124006921 0 0.0025921207403573955 0.029058517739800963 0 0.0026308121267845422 0.028991556337093653 0 0.0025635759810979566 0.029051064010823406 0 0.0024760461051801233 0.029161659683815136 0 0.0024542335039070408 0.029150992984348433 0 0.0024720780934688789 0.029152889911100509 0 0.0024846106006948588 0.029143846468582812 0 0.0024720780934688789 0.029152889911100509 0 0.002481191324128545 0.029149245197664472 0 0.0024763545017756038 0.029152416625679432 0 0.0024846106006948588 0.029143846468582812 0 0.0024720780934688789 0.029152889911100509 0 0.0024760461051801233 0.029161659683815136 0 0.0024763545017756038 0.029152416625679432 0 0.0024720780934688789 0.029152889911100509 0 0.0024542335039070408 0.029150992984348433 0 0.0024720780934688789 0.029152889911100509 0 0.0024734964244533131 0.02915190759543717 0 0.0024720780934688789 0.029152889911100509 0 0.0024734964244533131 0.02915190759543717 0 0.002481191324128545 0.029149245197664472 0 0.002476882505411027 0.029154063016546106 0 0.0024734964244533131 0.02915190759543717 0 0.002481191324128545 0.029149245197664472 0 0.002476882505411027 0.029154063016546106 0 0.002481191324128545 0.029149245197664472 0 0.002492337302009756 0.0291534080506805 0 0.002492337302009756 0.0291534080506805 0 0.0024938736877834849 0.029145887237924183 0 0.0025117845403092756 0.029150417334110994 0 0.002481191324128545 0.029149245197664472 0 0.002492337302009756 0.0291534080506805 0 0.0024938736877834849 0.029145887237924183 0 0.00253172426890046 0.029134772541795095 0 0.0025117845403092756 0.029150417334110994 0 0.0025074561633728616 0.029133494358699816 0 0.0024938736877834849 0.029145887237924183 0 0.0025117845403092756 0.029150417334110994 0 0.0025074561633728616 0.029133494358699816 0 0.0024846106006948588 0.029143846468582812 0 0.0024938736877834849 0.029145887237924183 0 0.0025074561633728616 0.029133494358699816 0 0.0024846106006948588 0.029143846468582812 0 0.0025074561633728616 0.029133494358699816 0 0.0024995426327653978 0.029128263070069674 0 0.0024846106006948588 0.029143846468582812 0 0.002481191324128545 0.029149245197664472 0 0.0024938736877834849 0.029145887237924183 0 0.0024846106006948588 0.029143846468582812 0 0.0024995426327653978 0.029128263070069674 0 0.0024762876849042498 0.029155709519136219 0 0.0025396606906932084 0.029100431932727166 0 0.0024995426327653978 0.029128263070069674 0 0.0025200985435781752 0.029102292421855087 0 0.0025396606906932084 0.029100431932727166 0 0.0025074561633728616 0.029133494358699816 0 0.0024995426327653978 0.029128263070069674 0 0.0024995426327653978 0.029128263070069674 0 0.0025200985435781752 0.029102292421855087 0 0.002491891203717447 0.029137511213460209 0 0.0024995426327653978 0.029128263070069674 0 0.002491891203717447 0.029137511213460209 0 0.0024762876849042498 0.029155709519136219 0 0.002491891203717447 0.029137511213460209 0 0.0024762876849042498 0.029155709519136219 0 0.0024759384068634071 0.029172044991386842 0 0.0024760461051801233 0.029161659683815136 0 0.0024762876849042498 0.029155709519136219 0 0.0024687123226802368 0.029202042671169284 0 0.0024763545017756038 0.029152416625679432 0 0.0024846106006948588 0.029143846468582812 0 0.0024762876849042498 0.029155709519136219 0 0.0024760461051801233 0.029161659683815136 0 0.0024763545017756038 0.029152416625679432 0 0.0024762876849042498 0.029155709519136219 0 0.0024759384068634071 0.029172044991386842 0 0.0024505234613597109 0.029258698766146514 0 0.0024687123226802368 0.029202042671169284 0 0.0024762876849042498 0.029155709519136219 0 0.0024759384068634071 0.029172044991386842 0 0.0024687123226802368 0.029202042671169284 0 0.002491891203717447 0.029137511213460209 0 0.0024759384068634071 0.029172044991386842 0 0.0025120190925176727 0.029115117572640969 0 0.0025200985435781752 0.029102292421855087 0 0.002491891203717447 0.029137511213460209 0 0.0025120190925176727 0.029115117572640969 0 0.0024759384068634071 0.029172044991386842 0 0.0025120190925176727 0.029115117572640969 0 0.002491508732254127 0.029172840953429643 0 0.0025120190925176727 0.029115117572640969 0 0.002491508732254127 0.029172840953429643 0 0.002555947594776569 0.029063175783037055 0 0.002491508732254127 0.029172840953429643 0 0.002555947594776569 0.029063175783037055 0 0.0025452003909961158 0.029132331264260604 0 0.0024759384068634071 0.029172044991386842 0 0.002491508732254127 0.029172840953429643 0 0.0024505234613597109 0.029258698766146514 0 0.002491508732254127 0.029172840953429643 0 0.0024505234613597109 0.029258698766146514 0 0.0024552699836865406 0.02927996732462089 0 0.0026308121267845422 0.028991556337093653 0 0.0026246248425980776 0.028970178931516277 0 0.0027274283146320605 0.028867352916207865 0 0.0026308121267845422 0.028991556337093653 0 0.0026246248425980776 0.028970178931516277 0 0.0025635759810979566 0.029051064010823406 0 0.0025120190925176727 0.029115117572640969 0 0.0025635759810979566 0.029051064010823406 0 0.002555947594776569 0.029063175783037055 0 0.0026246248425980776 0.028970178931516277 0 0.0025635759810979566 0.029051064010823406 0 0.002555947594776569 0.029063175783037055 0 0.0025200985435781752 0.029102292421855087 0 0.0025120190925176727 0.029115117572640969 0 0.0025635759810979566 0.029051064010823406 0 0.0026246248425980776 0.028970178931516277 0 0.002555947594776569 0.029063175783037055 0 0.0026281159724391148 0.028974240239246329 0 0.002555947594776569 0.029063175783037055 0 0.0026281159724391148 0.028974240239246329 0 0.0025452003909961158 0.029132331264260604 0 0.0026246248425980776 0.028970178931516277 0 0.0026281159724391148 0.028974240239246329 0 0.0027431501578902501 0.028783475548192473 0 0.0026717071623470322 0.028961163909417057 0 0.0028048684235938244 0.028811118913162494 0 0.0027431501578902501 0.028783475548192473 0 0.0026281159724391148 0.028974240239246329 0 0.0026717071623470322 0.028961163909417057 0 0.0027431501578902501 0.028783475548192473 0 0.0026717071623470322 0.028961163909417057 0 0.0026121820977696303 0.029108375260498989 0 0.0025452003909961158 0.029132331264260604 0 0.0026281159724391148 0.028974240239246329 0 0.0026717071623470322 0.028961163909417057 0 0.0025452003909961158 0.029132331264260604 0 0.0026717071623470322 0.028961163909417057 0 0.0026121820977696303 0.029108375260498989 0 0.0028048684235938244 0.028811118913162494 0 0.0024552699836865406 0.02927996732462089 0 0.0025452003909961158 0.029132331264260604 0 0.0024550643785285391 0.029333761391984795 0 0.0024552699836865406 0.02927996732462089 0 0.0024550643785285391 0.029333761391984795 0 0.0023967358968097598 0.029430829148637094 0 0.002491508732254127 0.029172840953429643 0 0.0024552699836865406 0.02927996732462089 0 0.0025452003909961158 0.029132331264260604 0 0.0026121820977696303 0.029108375260498989 0 0.0024550643785285391 0.029333761391984795 0 0.0024527056095260632 0.029363791984278603 0 0.0026121820977696303 0.029108375260498989 0 0.0025452003909961158 0.029132331264260604 0 0.0024550643785285391 0.029333761391984795 0 0.0024550643785285391 0.029333761391984795 0 0.0023678027744496338 0.029557286834539599 0 0.0023967358968097598 0.029430829148637094 0 0.0023678027744496338 0.029557286834539599 0 0.0023519804272026114 0.029835314816599651 0 0.0023967358968097598 0.029430829148637094 0 0.0023967358968097598 0.029430829148637094 0 0.0024783279347459289 0.02930164314179283 0 0.0025114098372072315 0.029494708465451394 0 0.0023519804272026114 0.029835314816599651 0 0.0023967358968097598 0.029430829148637094 0 0.0025114098372072315 0.029494708465451394 0 0.0024505234613597109 0.029258698766146514 0 0.0024552699836865406 0.02927996732462089 0 0.0023967358968097598 0.029430829148637094 0 0.0024973093059960745 0.029171487607280739 0 0.0024783279347459289 0.02930164314179283 0 0.002607430769026415 0.0293535111594731 0 0.0024505234613597109 0.029258698766146514 0 0.0023967358968097598 0.029430829148637094 0 0.0024783279347459289 0.02930164314179283 0 0.0024973093059960745 0.029171487607280739 0 0.0024783279347459289 0.02930164314179283 0 0.0024687123226802368 0.029202042671169284 0 0.0024505234613597109 0.029258698766146514 0 0.0024783279347459289 0.02930164314179283 0 0.0024687123226802368 0.029202042671169284 0 0.0028393107342321723 0.02928577745429695 0 0.0025786138285720937 0.029158699386776267 0 0.002607430769026415 0.0293535111594731 0 0.0024783279347459289 0.02930164314179283 0 0.002607430769026415 0.0293535111594731 0 0.0025114098372072315 0.029494708465451394 0 0.0028144773226074001 0.029618522522442087 0 0.002607430769026415 0.0293535111594731 0 0.0025114098372072315 0.029494708465451394 0 0.0028144773226074001 0.029618522522442087 0 0.0023519804272026114 0.029835314816599651 0 0.0025114098372072315 0.029494708465451394 0 0.0020484377046668945 0.030476100279062505 0 0.0021807981875453701 0.030173643754139359 0 0.0015963643946464772 0.031347813186648615 0 0.0023519804272026114 0.029835314816599651 0 0.0020736166857824117 0.030300725005428495 0 0.0016336238493595578 0.030635668881957477 0 0.0015963643946464772 0.031347813186648615 0 0.0020736166857824117 0.030300725005428495 0 0.0020736166857824117 0.030300725005428495 0 0.0022287852669137086 0.029671454914598747 0 0.0020568761259597075 0.030271453919965684 0 0.0016336238493595578 0.030635668881957477 0 0.0020736166857824117 0.030300725005428495 0 0.0020568761259597075 0.030271453919965684 0 0.0023678027744496338 0.029557286834539599 0 0.0022287852669137086 0.029671454914598747 0 0.0024527056095260632 0.029363791984278603 0 0.0023678027744496338 0.029557286834539599 0 0.0023519804272026114 0.029835314816599651 0 0.0022287852669137086 0.029671454914598747 0 0.0023519804272026114 0.029835314816599651 0 0.0020736166857824117 0.030300725005428495 0 0.0022287852669137086 0.029671454914598747 0 0.0020296510554112489 0.0298837484969376 0 0.0016284667185299322 0.029867029409695618 0 0.0022287852669137086 0.029671454914598747 0 0.0023726803108633514 0.029239307161977087 0 0.0020801502387775513 0.028997834946852673 0 0.0022287852669137086 0.029671454914598747 0 0.0023726803108633514 0.029239307161977087 0 0.0024527056095260632 0.029363791984278603 0 0.0023726803108633514 0.029239307161977087 0 0.0020801502387775513 0.028997834946852673 0 0.0024111698693184643 0.028955052349755123 0 0.0022287852669137086 0.029671454914598747 0 0.0020801502387775513 0.028997834946852673 0 0.0015172840951288354 0.029081752197259825 0 0.0020801502387775513 0.028997834946852673 0 0.0015172840951288354 0.029081752197259825 0 0.00181657704257446 0.028614568463598517 0 0.0020801502387775513 0.028997834946852673 0 0.00181657704257446 0.028614568463598517 0 0.0023342878188047354 0.028661840848761718 0 0.0020801502387775513 0.028997834946852673 0 0.0023342878188047354 0.028661840848761718 0 0.0024111698693184643 0.028955052349755123 0 0.0010346749500103126 0.028665830010897692 0 0.0015172840951288354 0.029081752197259825 0 0.00181657704257446 0.028614568463598517 0 0.0015775372871094958 0.029981039067618974 0 0.0016336238493595578 0.030635668881957477 0 0.0020568761259597075 0.030271453919965684 0 0.00095455173813755508 0.030545517582887521 0 0.0016284667185299322 0.029867029409695618 0 0.0010346749500103126 0.028665830010897692 0 0.00181657704257446 0.028614568463598517 0 0.001797791405841022 0.028046799728053875 0 0.00095455173813755508 0.030545517582887521 0 0.0017320133357458559 0.028203966500067262 0 0.001110209477487986 0.028833098740947298 0 0.001220034640208578 0.028588258455374386 0 0.0010819305600571405 0.028711523054857305 0 0.00181657704257446 0.028614568463598517 0 0.0021114926084053777 0.028320201833178561 0 0.001797791405841022 0.028046799728053875 0 0.00181657704257446 0.028614568463598517 0 0.0021114926084053777 0.028320201833178561 0 0.0023342878188047354 0.028661840848761718 0 0.0022052867983560552 0.027606038474501965 0 0.0017320133357458559 0.028203966500067262 0 0.0021114926084053777 0.028320201833178561 0 0.001797791405841022 0.028046799728053875 0 0.0023808571074736933 0.028063889042508009 0 0.0013923170390032671 0.027184884144011344 0 0.001220034640208578 0.028588258455374386 0 0.0010819305600571405 0.028711523054857305 0 0.0010402072168986328 0.028378863927152848 0 0.0010330056264340817 0.028604929033287353 0 0.001008573213499541 0.02919263181256614 0 0.00083817419566312168 0.029409815422519484 0 0.0010819305600571405 0.028711523054857305 0 0.001008573213499541 0.02919263181256614 0 0.001137550537929881 0.028956234318489035 0 0.0010819305600571405 0.028711523054857305 0 0.001008573213499541 0.02919263181256614 0 0.001224869171857359 0.029057373775274654 0 0.001137550537929881 0.028956234318489035 0 0.0012185203032109445 0.028889593847713366 0 0.001137550537929881 0.028956234318489035 0 0.0010819305600571405 0.028711523054857305 0 0.0034198283710373785 0.027497599143341132 0 0.0028958171140391772 0.027799819174594034 0 0.0032711791848403404 0.028277283870507701 0 0.0028958171140391772 0.027799819174594034 0 0.0023808571074736933 0.028063889042508009 0 0.0028845187575612012 0.028222976276292808 0 0.0028958171140391772 0.027799819174594034 0 0.0028845187575612012 0.028222976276292808 0 0.0032711791848403404 0.028277283870507701 0 0.0023512258296556421 0.027375838666640683 0 0.0028958171140391772 0.027799819174594034 0 0.0023808571074736933 0.028063889042508009 0 0.0023512258296556421 0.027375838666640683 0 0.001797791405841022 0.028046799728053875 0 0.0023808571074736933 0.028063889042508009 0 0.0023808571074736933 0.028063889042508009 0 0.0023758342383850628 0.028379968286078892 0 0.002651501295366546 0.028461568006688108 0 0.0023808571074736933 0.028063889042508009 0 0.002651501295366546 0.028461568006688108 0 0.0028845187575612012 0.028222976276292808 0 0.0021114926084053777 0.028320201833178561 0 0.0023808571074736933 0.028063889042508009 0 0.0023758342383850628 0.028379968286078892 0 0.0021114926084053777 0.028320201833178561 0 0.0023758342383850628 0.028379968286078892 0 0.0023342878188047354 0.028661840848761718 0 0.0023758342383850628 0.028379968286078892 0 0.0023342878188047354 0.028661840848761718 0 0.002651501295366546 0.028461568006688108 0 0.0023342878188047354 0.028661840848761718 0 0.002651501295366546 0.028461568006688108 0 0.0026215718884633446 0.028796514015992699 0 0.002651501295366546 0.028461568006688108 0 0.0028845187575612012 0.028222976276292808 0 0.0029680339315385925 0.02873043032632791 0 0.002651501295366546 0.028461568006688108 0 0.0029680339315385925 0.02873043032632791 0 0.0026215718884633446 0.028796514015992699 0 0.0028845187575612012 0.028222976276292808 0 0.0029680339315385925 0.02873043032632791 0 0.0032711791848403404 0.028277283870507701 0 0.0029680339315385925 0.02873043032632791 0 0.0027703587620987974 0.028889185929751142 0 0.0029301415896582595 0.028745168796286372 0 0.0029680339315385925 0.02873043032632791 0 0.0027703587620987974 0.028889185929751142 0 0.0026215718884633446 0.028796514015992699 0 0.0023342878188047354 0.028661840848761718 0 0.0026215718884633446 0.028796514015992699 0 0.0024111698693184643 0.028955052349755123 0 0.0027703587620987974 0.028889185929751142 0 0.0026215718884633446 0.028796514015992699 0 0.0025556153904448429 0.029069918463650563 0 0.0023726803108633514 0.029239307161977087 0 0.0025556153904448429 0.029069918463650563 0 0.0024111698693184643 0.028955052349755123 0 0.0026215718884633446 0.028796514015992699 0 0.0025556153904448429 0.029069918463650563 0 0.0024111698693184643 0.028955052349755123 0 0.0023726803108633514 0.029239307161977087 0 0.0025556153904448429 0.029069918463650563 0 0.0024527056095260632 0.029363791984278603 0 0.0025556153904448429 0.029069918463650563 0 0.0024527056095260632 0.029363791984278603 0 0.0027031097999355214 0.029020634431214984 0 0.0027703587620987974 0.028889185929751142 0 0.0025556153904448429 0.029069918463650563 0 0.0027031097999355214 0.029020634431214984 0 0.0026121820977696303 0.029108375260498989 0 0.0024527056095260632 0.029363791984278603 0 0.0027031097999355214 0.029020634431214984 0 0.0024550643785285391 0.029333761391984795 0 0.0023678027744496338 0.029557286834539599 0 0.0024527056095260632 0.029363791984278603 0 0.0027031097999355214 0.029020634431214984 0 0.0029301415896582595 0.028745168796286372 0 0.0028048684235938244 0.028811118913162494 0 0.0027703587620987974 0.028889185929751142 0 0.0027031097999355214 0.029020634431214984 0 0.0029301415896582595 0.028745168796286372 0 0.0026121820977696303 0.029108375260498989 0 0.0027031097999355214 0.029020634431214984 0 0.0028048684235938244 0.028811118913162494 0 0.002933581195586447 0.028639979642643362 0 0.0029301415896582595 0.028745168796286372 0 0.0028048684235938244 0.028811118913162494 0 0.002933581195586447 0.028639979642643362 0 0.0028756651889618326 0.028636121157482063 0 0.0029301415896582595 0.028745168796286372 0 0.002933581195586447 0.028639979642643362 0 0.0028756651889618326 0.028636121157482063 0 0.0029641414586574497 0.028398646701969045 0 0.0028756651889618326 0.028636121157482063 0 0.0029301415896582595 0.028745168796286372 0 0.0029043278242068724 0.028744239314205808 0 0.0037446202867269535 0.026902097375889493 0 0.0041741423156723785 0.027703766535377688 0 0.003653488167771854 0.027408834505355122 0 0.0033416418737181185 0.02806526136900862 0 0.002562231018495161 0.026959985808021569 0 0.0029680339315385925 0.02873043032632791 0 0.0029301415896582595 0.028745168796286372 0 0.0029043278242068724 0.028744239314205808 0 0.0029680339315385925 0.02873043032632791 0 0.0032711791848403404 0.028277283870507701 0 0.0039978300932308267 0.028487934012518749 0 0.0030590181125372423 0.028371412025283083 0 0.002562231018495161 0.026959985808021569 0 0.002562231018495161 0.026959985808021569 0 0.0025262680756933647 0.024860804840149919 0 0.00097224881314658023 0.0233289382088443 0 0.0009190455038938514 0.023404587221344184 0 0.0010041591859656219 0.023455796968277126 0 0.0032711791848403404 0.028277283870507701 0 0.0039978300932308267 0.028487934012518749 0 0.0037737790707412133 0.027616979321766211 0 0.00261427232142255 0.027683878961485921 0 0.0025262680756933647 0.024860804840149919 0 0.0034198283710373785 0.027497599143341132 0 0.0032711791848403404 0.028277283870507701 0 0.0040159494872863861 0.027607354509253685 0 0.0008251810963145834 0.02344731176230767 0 0.00083245309143886238 0.023349358156105005 0 0.00068966416254796043 0.02336979112203828 0 0.0021784534040287435 0.02556092755045963 0 0.0012541544488793605 0.024116060976929182 0 0.0009190455038938514 0.023404587221344184 0 0.0008251810963145834 0.02344731176230767 0 0.00083245309143886238 0.023349358156105005 0 0.0041741423156723785 0.027703766535377688 0 0.0035511256759705526 0.028006155116985829 0 0.003653488167771854 0.027408834505355122 0 0.00097224881314658023 0.0233289382088443 0 0.0009190455038938514 0.023404587221344184 0 0.00083245309143886238 0.023349358156105005 0 0.002562231018495161 0.026959985808021569 0 0.0021784534040287435 0.02556092755045963 0 0.0035511256759705526 0.028006155116985829 0 0.0031043545424561036 0.027671987339053648 0 0.0028615382540208034 0.028332225993462461 0 0.0035511256759705526 0.028006155116985829 0 0.0031043545424561036 0.027671987339053648 0 0.003653488167771854 0.027408834505355122 0 0.0031043545424561036 0.027671987339053648 0 0.003653488167771854 0.027408834505355122 0 0.0035770730138571767 0.026991135966848982 0 0.0031043545424561036 0.027671987339053648 0 0.0035770730138571767 0.026991135966848982 0 0.0027421932059696662 0.026783696357965733 0 0.0037446202867269535 0.026902097375889493 0 0.003653488167771854 0.027408834505355122 0 0.0035770730138571767 0.026991135966848982 0 0.0037446202867269535 0.026902097375889493 0 0.0035770730138571767 0.026991135966848982 0 0.0040237547477116912 0.026452960739786157 0 0.0035770730138571767 0.026991135966848982 0 0.0040237547477116912 0.026452960739786157 0 0.0027421932059696662 0.026783696357965733 0 0.0040237547477116912 0.026452960739786157 0 0.0030605063362862681 0.024265909927481521 0 0.0027731567285572446 0.025769559810476093 0 0.0040237547477116912 0.026452960739786157 0 0.0041137140582494999 0.02367016334491389 0 0.0056507555941214789 0.022989342231729635 0 0.0041922276911235739 0.026332452022830518 0 0.0044464578234769143 0.025631401385193407 0 0.0040237547477116912 0.026452960739786157 0 0.0041137140582494999 0.02367016334491389 0 0.0030605063362862681 0.024265909927481521 0 0.0041137140582494999 0.02367016334491389 0 0.0056507555941214789 0.022989342231729635 0 0.0045601428080520295 0.022318396814952693 0 0.0041137140582494999 0.02367016334491389 0 0.0034565920342386038 0.022576687664591647 0 0.0030605063362862681 0.024265909927481521 0 0.0041137140582494999 0.02367016334491389 0 0.0034565920342386038 0.022576687664591647 0 0.0045601428080520295 0.022318396814952693 0 0.0040237547477116912 0.026452960739786157 0 0.0037790685126101258 0.028456521720862854 0 0.0032305426871625316 0.02774265831855445 0 0.0037790685126101258 0.028456521720862854 0 0.0032305426871625316 0.02774265831855445 0 0.0031647080248666691 0.0285451313787306 0 0.0033416418737181185 0.02806526136900862 0 0.0032743920033289791 0.027816061159746802 0 0.0037446202867269535 0.026902097375889493 0 0.0040237547477116912 0.026452960739786157 0 0.0032305426871625316 0.02774265831855445 0 0.0032305426871625316 0.02774265831855445 0 0.0029641414586574497 0.028398646701969045 0 0.0029995750845068924 0.028345784876476082 0 0.0028756651889618326 0.028636121157482063 0 0.0032305426871625316 0.02774265831855445 0 0.0029641414586574497 0.028398646701969045 0 0.0029641414586574497 0.028398646701969045 0 0.0028048684235938244 0.028811118913162494 0 0.0027431501578902501 0.028783475548192473 0 0.002933581195586447 0.028639979642643362 0 0.0029641414586574497 0.028398646701969045 0 0.0028048684235938244 0.028811118913162494 0 0.0027431501578902501 0.028783475548192473 0 0.0028700994803977633 0.028601151593051991 0 0.0027274283146320605 0.028867352916207865 0 0.0029641414586574497 0.028398646701969045 0 0.0027431501578902501 0.028783475548192473 0 0.0028700994803977633 0.028601151593051991 0 0.0028700994803977633 0.028601151593051991 0 0.0028366215850422166 0.028793549958579186 0 0.0027274283146320605 0.028867352916207865 0 0.0026246248425980776 0.028970178931516277 0 0.0027431501578902501 0.028783475548192473 0 0.0027274283146320605 0.028867352916207865 0 0.0032305426871625316 0.02774265831855445 0 0.0029995750845068924 0.028345784876476082 0 0.0031647080248666691 0.0285451313787306 0 0.0029641414586574497 0.028398646701969045 0 0.0028700994803977633 0.028601151593051991 0 0.0029995750845068924 0.028345784876476082 0 0.0028700994803977633 0.028601151593051991 0 0.0029995750845068924 0.028345784876476082 0 0.0029373576324737681 0.028754603263581778 0 0.0028700994803977633 0.028601151593051991 0 0.0028366215850422166 0.028793549958579186 0 0.0029373576324737681 0.028754603263581778 0 0.0029995750845068924 0.028345784876476082 0 0.0031647080248666691 0.0285451313787306 0 0.0029373576324737681 0.028754603263581778 0 0.0031647080248666691 0.0285451313787306 0 0.0030580697936414486 0.028871910004438742 0 0.0029373576324737681 0.028754603263581778 0 0.0031647080248666691 0.0285451313787306 0 0.0030580697936414486 0.028871910004438742 0 0.0032571390144644418 0.028932011238580049 0 0.0029373576324737681 0.028754603263581778 0 0.0029286554033109168 0.028971254715746752 0 0.0028006367503470848 0.028936340732911923 0 0.0030580697936414486 0.028871910004438742 0 0.0029373576324737681 0.028754603263581778 0 0.0029286554033109168 0.028971254715746752 0 0.0030580697936414486 0.028871910004438742 0 0.0029286554033109168 0.028971254715746752 0 0.0030467737202822479 0.029041201961828696 0 0.0029286554033109168 0.028971254715746752 0 0.0028300719299895645 0.029077373520713441 0 0.0029343426691886458 0.029115417250171211 0 0.0029286554033109168 0.028971254715746752 0 0.0030467737202822479 0.029041201961828696 0 0.0029343426691886458 0.029115417250171211 0 0.0030580697936414486 0.028871910004438742 0 0.0030467737202822479 0.029041201961828696 0 0.0032571390144644418 0.028932011238580049 0 0.0030467737202822479 0.029041201961828696 0 0.0031469046928020378 0.029120066124293333 0 0.0032571390144644418 0.028932011238580049 0 0.0026308121267845422 0.028991556337093653 0 0.0027274283146320605 0.028867352916207865 0 0.0026721877134513032 0.029018654124006921 0 0.0027274283146320605 0.028867352916207865 0 0.0026721877134513032 0.029018654124006921 0 0.0028006367503470848 0.028936340732911923 0 0.0028366215850422166 0.028793549958579186 0 0.0029373576324737681 0.028754603263581778 0 0.0028006367503470848 0.028936340732911923 0 0.0028366215850422166 0.028793549958579186 0 0.0027274283146320605 0.028867352916207865 0 0.0028006367503470848 0.028936340732911923 0 0.0028006367503470848 0.028936340732911923 0 0.0028300719299895645 0.029077373520713441 0 0.0027348882012095481 0.029078229857319383 0 0.0029286554033109168 0.028971254715746752 0 0.0028006367503470848 0.028936340732911923 0 0.0028300719299895645 0.029077373520713441 0 0.0026721877134513032 0.029018654124006921 0 0.0028006367503470848 0.028936340732911923 0 0.0027348882012095481 0.029078229857319383 0 0.0026527656730645833 0.029118616319295066 0 0.0026721877134513032 0.029018654124006921 0 0.0027348882012095481 0.029078229857319383 0 0.0017569011066785743 0.031763732389869612 0 0.0023418940785246735 0.029615544916601681 0 0.0025932917530969747 0.029251470641019073 0 0.0028449849331798685 0.029288126857950049 0 0.0027532570197905649 0.029240959949497693 0 0.00076062750927208364 0.034501637077731406 0 0.00092293126309841804 0.034524623908752862 0 0.00079272906934492134 0.034542301629932701 0 0.0025932917530969747 0.029251470641019073 0 0.0028449849331798685 0.029288126857950049 0 0.0029930649871143279 0.029406283561851237 0 0.0026790142988409628 0.02920740280250559 0 0.0027045091898106424 0.029153708413973883 0 0.0027425460067471773 0.029196075753894313 0 0.002653953574477317 0.029171275146267509 0 0.0026790142988409628 0.02920740280250559 0 0.0027045091898106424 0.029153708413973883 0 0.002653953574477317 0.029171275146267509 0 0.0026527656730645833 0.029118616319295066 0 0.0027045091898106424 0.029153708413973883 0 0.0026527656730645833 0.029118616319295066 0 0.0027348882012095481 0.029078229857319383 0 0.0027045091898106424 0.029153708413973883 0 0.0027348882012095481 0.029078229857319383 0 0.0027045091898106424 0.029153708413973883 0 0.0027768353588249876 0.029153758981770347 0 0.0026790142988409628 0.02920740280250559 0 0.0027425460067471773 0.029196075753894313 0 0.0027532570197905649 0.029240959949497693 0 0.0027045091898106424 0.029153708413973883 0 0.0027425460067471773 0.029196075753894313 0 0.0027768353588249876 0.029153758981770347 0 0.0027425460067471773 0.029196075753894313 0 0.0027881396273013318 0.029206129252215517 0 0.0027532570197905649 0.029240959949497693 0 0.0027881396273013318 0.029206129252215517 0 0.0027768353588249876 0.029153758981770347 0 0.0028471717712400687 0.02919813442193174 0 0.0027881396273013318 0.029206129252215517 0 0.0028471717712400687 0.02919813442193174 0 0.0028237211812914892 0.029241005821833626 0 0.0027425460067471773 0.029196075753894313 0 0.0027881396273013318 0.029206129252215517 0 0.0027768353588249876 0.029153758981770347 0 0.0028300719299895645 0.029077373520713441 0 0.0027348882012095481 0.029078229857319383 0 0.0027768353588249876 0.029153758981770347 0 0.0028300719299895645 0.029077373520713441 0 0.0027768353588249876 0.029153758981770347 0 0.0028471717712400687 0.02919813442193174 0 0.0028300719299895645 0.029077373520713441 0 0.0028471717712400687 0.02919813442193174 0 0.0029343426691886458 0.029115417250171211 0 0.0028746961191881051 0.029249996474224486 0 0.0028449849331798685 0.029288126857950049 0 0.0029149878640879496 0.029274846223601641 0 0.0028471717712400687 0.02919813442193174 0 0.0028746961191881051 0.029249996474224486 0 0.0029421418892843815 0.029226989128704941 0 0.0028471717712400687 0.02919813442193174 0 0.0028746961191881051 0.029249996474224486 0 0.0028237211812914892 0.029241005821833626 0 0.0028746961191881051 0.029249996474224486 0 0.0028449849331798685 0.029288126857950049 0 0.0028237211812914892 0.029241005821833626 0 0.0028449849331798685 0.029288126857950049 0 0.0028237211812914892 0.029241005821833626 0 0.0027532570197905649 0.029240959949497693 0 0.0027881396273013318 0.029206129252215517 0 0.0028237211812914892 0.029241005821833626 0 0.0027532570197905649 0.029240959949497693 0 0.0025932917530969747 0.029251470641019073 0 0.0026790142988409628 0.02920740280250559 0 0.0027532570197905649 0.029240959949497693 0 0.0031279886042093535 0.029237185590271213 0 0.0032931489623166518 0.029101700847157273 0 0.0031256582436876936 0.029445342953220929 0 0.0031469046928020378 0.029120066124293333 0 0.0031279886042093535 0.029237185590271213 0 0.0032931489623166518 0.029101700847157273 0 0.0030281620140833686 0.029169862597718886 0 0.0030183881727540154 0.029256700751249431 0 0.0031279886042093535 0.029237185590271213 0 0.0031469046928020378 0.029120066124293333 0 0.0030281620140833686 0.029169862597718886 0 0.0031279886042093535 0.029237185590271213 0 0.0030467737202822479 0.029041201961828696 0 0.0031469046928020378 0.029120066124293333 0 0.0030281620140833686 0.029169862597718886 0 0.0030467737202822479 0.029041201961828696 0 0.0029343426691886458 0.029115417250171211 0 0.0030281620140833686 0.029169862597718886 0 0.0028471717712400687 0.02919813442193174 0 0.0029343426691886458 0.029115417250171211 0 0.0029421418892843815 0.029226989128704941 0 0.0029343426691886458 0.029115417250171211 0 0.0030281620140833686 0.029169862597718886 0 0.0029421418892843815 0.029226989128704941 0 0.0030281620140833686 0.029169862597718886 0 0.0030183881727540154 0.029256700751249431 0 0.0029421418892843815 0.029226989128704941 0 0.0030183881727540154 0.029256700751249431 0 0.0029652864230117577 0.029277147454042928 0 0.0029421418892843815 0.029226989128704941 0 0.0028449849331798685 0.029288126857950049 0 0.00295304352996108 0.029325751838395343 0 0.0029930649871143279 0.029406283561851237 0 0.0030183881727540154 0.029256700751249431 0 0.0029652864230117577 0.029277147454042928 0 0.0030037742919923911 0.029313924470704959 0 0.0028746961191881051 0.029249996474224486 0 0.0029421418892843815 0.029226989128704941 0 0.0029149878640879496 0.029274846223601641 0 0.0029652864230117577 0.029277147454042928 0 0.0029421418892843815 0.029226989128704941 0 0.0029149878640879496 0.029274846223601641 0 0.0028449849331798685 0.029288126857950049 0 0.0029149878640879496 0.029274846223601641 0 0.00295304352996108 0.029325751838395343 0 0.0029652864230117577 0.029277147454042928 0 0.0029149878640879496 0.029274846223601641 0 0.00295304352996108 0.029325751838395343 0 0.0030183881727540154 0.029256700751249431 0 0.0030037742919923911 0.029313924470704959 0 0.0030528010146129892 0.02933076261040032 0 0.00295304352996108 0.029325751838395343 0 0.0030037742919923911 0.029313924470704959 0 0.0029930649871143279 0.029406283561851237 0 0.0030037742919923911 0.029313924470704959 0 0.0030528010146129892 0.02933076261040032 0 0.0029930649871143279 0.029406283561851237 0 0.0029652864230117577 0.029277147454042928 0 0.00295304352996108 0.029325751838395343 0 0.0030037742919923911 0.029313924470704959 0 0.0030528010146129892 0.02933076261040032 0 0.0031279886042093535 0.029237185590271213 0 0.0031256582436876936 0.029445342953220929 0 0.0030183881727540154 0.029256700751249431 0 0.0030528010146129892 0.02933076261040032 0 0.0031279886042093535 0.029237185590271213 0 0.0036196376927806508 0.025391661555470298 0 0.0017195776558933927 0.026660853471742227 0 0.0061572064428566812 0.020670251868095697 0 0.0049414755197896938 0.019783474900352354 0 0.0052188106836309565 0.021357294938429732 0 0.0036196376927806508 0.025391661555470298 0 0.0027863916245080911 0.022130723231926542 0 0.0061572064428566812 0.020670251868095697 0 0.0049414755197896938 0.019783474900352354 0 0.004818473236166073 0.018353733337327482 0 0.0052188106836309565 0.021357294938429732 0 0.0042381801283694568 0.017847888818557776 0 0.0035207775660364557 0.019028683646604247 0 0.0049414755197896938 0.019783474900352354 0 0.0052188106836309565 0.021357294938429732 0 0.003553365704805841 0.018717960408064456 0 0.0052188106836309565 0.021357294938429732 0 0.0035207775660364557 0.019028683646604247 0 0.0034101666131204572 0.020208572600561667 0 0.0049202590449251337 0.020804487893746809 0 0.0038596373896310726 0.018351188362537411 0 0.0052188106836309565 0.021357294938429732 0 0.0038777892319050611 0.021510900370127744 0 0.0034101666131204572 0.020208572600561667 0 0.0034565920342386038 0.022576687664591647 0 0.0038777892319050611 0.021510900370127744 0 0.0045601428080520295 0.022318396814952693 0 0.0056507555941214789 0.022989342231729635 0 0.0052188106836309565 0.021357294938429732 0 0.0045601428080520295 0.022318396814952693 0 0.0052188106836309565 0.021357294938429732 0 0.0038777892319050611 0.021510900370127744 0 0.0045601428080520295 0.022318396814952693 0 0.0044464578234769143 0.025631401385193407 0 0.0036196376927806508 0.025391661555470298 0 0.0056507555941214789 0.022989342231729635 0 0.0061572064428566812 0.020670251868095697 0 0.0052188106836309565 0.021357294938429732 0 0.0037790685126101258 0.028456521720862854 0 0.0033945826546705931 0.029285795006139145 0 0.0032571390144644418 0.028932011238580049 0 0.0037790685126101258 0.028456521720862854 0 0.0031647080248666691 0.0285451313787306 0 0.0032571390144644418 0.028932011238580049 0 0.0031469046928020378 0.029120066124293333 0 0.0032931489623166518 0.029101700847157273 0 0.0032571390144644418 0.028932011238580049 0 0.0036196376927806508 0.025391661555470298 0 0.0039957260724706985 0.027258359169044781 0 0.00076527767367437548 0.025570740982294417 0 0.00074603080582029803 0.025624210786209519 0 0.00069251347113545125 0.02551957511562445 0 0.00076527767367437548 0.025570740982294417 0 0.00073845836150883935 0.02552072006256358 0 0.00069251347113545125 0.02551957511562445 0 0.00076527767367437548 0.025570740982294417 0 0.00074603080582029803 0.025624210786209519 0 0.00077601705421135832 0.025607260253252873 0 0.00076527767367437548 0.025570740982294417 0 0.00077601705421135832 0.025607260253252873 0 0.00079941074251314002 0.025599066678940883 0 0.00076527767367437548 0.025570740982294417 0 0.00080188205628109628 0.025566870001805055 0 0.000785086875647459 0.025531767139623917 0 0.00076527767367437548 0.025570740982294417 0 0.00073845836150883935 0.02552072006256358 0 0.000785086875647459 0.025531767139623917 0 0.00076527767367437548 0.025570740982294417 0 0.00079941074251314002 0.025599066678940883 0 0.00080188205628109628 0.025566870001805055 0 0.003407759955147794 0.018191582854745335 0 0.003553365704805841 0.018717960408064456 0 0.0021267544883650292 0.016578076289341652 0 0.0027863916245080911 0.022130723231926542 0 0.0014708628654199476 0.021262443801700084 0 0.003407759955147794 0.018191582854745335 0 0.0032247674057053251 0.016665258611277899 0 0.0021267544883650292 0.016578076289341652 0 0.003407759955147794 0.018191582854745335 0 0.0042751402630703747 0.018450166661297698 0 0.0032247674057053251 0.016665258611277899 0 0.0038596373896310726 0.018351188362537411 0 0.0024846267516114187 0.015760012788664887 0 0.003407759955147794 0.018191582854745335 0 0.003553365704805841 0.018717960408064456 0 0.004818473236166073 0.018353733337327482 0 0.003047004468265412 0.021067074313191988 0 0.0027863916245080911 0.022130723231926542 0 0.0042381801283694568 0.017847888818557776 0 0.0035207775660364557 0.019028683646604247 0 0.0030413308271170728 0.017884155402961635 0 0.0049414755197896938 0.019783474900352354 0 0.003553365704805841 0.018717960408064456 0 0.004818473236166073 0.018353733337327482 0 0.0030979300752519375 0.025290276460217986 0 0.0026621801923616393 0.024183743312837375 0 0.0034439819166905273 0.024418701699247439 0 0.00074603080582029803 0.025624210786209519 0 0.00077601705421135832 0.025607260253252873 0 0.00080468046188255716 0.025639983360209357 0 0.0027863916245080911 0.022130723231926542 0 0.0017195776558933927 0.026660853471742227 0 0.00077601705421135832 0.025607260253252873 0 0.00080468046188255716 0.025639983360209357 0 0.00079941074251314002 0.025599066678940883 0 0.0007197012809292742 0.025945042680820107 0 0.00082584252076642101 0.025975759812551628 0 0.00083998340555210599 0.0255940450616404 0 0.0023418940785246735 0.029615544916601681 0 0.00060665023348252783 0.030566543859722118 0 0.0017195776558933927 0.026660853471742227 0 0.0023418940785246735 0.029615544916601681 0 0.0030528010146129892 0.02933076261040032 0 0.0031256582436876936 0.029445342953220929 0 0.0029930649871143279 0.029406283561851237 0 0.00092293126309841804 0.034524623908752862 0 0.00079272906934492134 0.034542301629932701 0 0.00083522889210988849 0.034588912034986923 0 0.00092293126309841804 0.034524623908752862 0 0.00083522889210988849 0.034588912034986923 0 0.00084545726784774765 0.034682509920625298 0 0.00079272906934492134 0.034542301629932701 0 0.00083522889210988849 0.034588912034986923 0 0.00078029850606498702 0.034608872859170761 0 0.00083522889210988849 0.034588912034986923 0 0.00084545726784774765 0.034682509920625298 0 0.00078029850606498702 0.034608872859170761 0 0.00084545726784774765 0.034682509920625298 0 0.00072313263726308489 0.034663273174912509 0 0.00078029850606498702 0.034608872859170761 0 0.0017195776558933927 0.026660853471742227 0 0.0011354531719353982 0.025655394502486242 0 0.00080468046188255716 0.025639983360209357 0 0.00079941074251314002 0.025599066678940883 0 0.00083998340555210599 0.0255940450616404 0 0.00082584252076642101 0.025975759812551628 0 0.00092848683014580471 0.025597993733542906 0 0.00083998340555210599 0.0255940450616404 0 0.00092848683014580471 0.025597993733542906 0 0.00083998340555210599 0.0255940450616404 0 0.00084817747477763028 0.025531624036213802 0 0.00083998340555210599 0.0255940450616404 0 0.00080188205628109628 0.025566870001805055 0 0.00084817747477763028 0.025531624036213802 0 0.00079941074251314002 0.025599066678940883 0 0.00083998340555210599 0.0255940450616404 0 0.00080188205628109628 0.025566870001805055 0 0.00080188205628109628 0.025566870001805055 0 0.00084817747477763028 0.025531624036213802 0 0.000785086875647459 0.025531767139623917 0 0.00084817747477763028 0.025531624036213802 0 0.00096422413224795029 0.025441553527507463 0 0.00080296410410629192 0.025466999536508887 0 0.00084817747477763028 0.025531624036213802 0 0.00080296410410629192 0.025466999536508887 0 0.000785086875647459 0.025531767139623917 0 0.00092848683014580471 0.025597993733542906 0 0.00084817747477763028 0.025531624036213802 0 0.00096422413224795029 0.025441553527507463 0 0.00084545726784774765 0.034682509920625298 0 0.00078057317985771738 0.034808283134813614 0 0.00072313324590410637 0.034752926408499744 0 0.00060665023348252783 0.030566543859722118 0 -6.2913315948183535e-05 0.026692639290039816 0 -6.2913315948183535e-05 0.026692639290039816 0 0.00065796552515378531 0.023119622016850323 0 9.4047367904339375e-05 0.020613788131566713 0 0.0003183284253721527 0.020631262321681727 0 0.00032083888939936703 0.020719117178682689 0 0.0003183284253721527 0.020631262321681727 0 0.0003015369345184685 0.020639680926764249 0 0.00032083888939936703 0.020719117178682689 0 0.0003183284253721527 0.020631262321681727 0 0.0003015369345184685 0.020639680926764249 0 0.00029716342698970604 0.020728588884333016 0 0.0003015369345184685 0.020639680926764249 0 0.0002426569516929048 0.020642154787228105 0 0.00026925723939260233 0.020658686863611882 0 0.00080296410410629192 0.025466999536508887 0 0.00073845836150883935 0.02552072006256358 0 0.00067574947100009614 0.025471846495105584 0 0.00065796552515378531 0.023119622016850323 0 0.00063473261026760386 0.020985457750887455 0 0.00080296410410629192 0.025466999536508887 0 0.00073845836150883935 0.02552072006256358 0 0.000785086875647459 0.025531767139623917 0 0.0032247674057053251 0.016665258611277899 0 0.0027251825240770214 0.015958707465959277 0 0.0021267544883650292 0.016578076289341652 0 0.0014708628654199476 0.021262443801700084 0 0.00063473261026760386 0.020985457750887455 0 0.00073845836150883935 0.02552072006256358 0 0.00069251347113545125 0.02551957511562445 0 0.00067574947100009614 0.025471846495105584 0 0.00031564880478752435 0.020590735880999068 0 0.00041312531256762714 0.018661218862233219 0 -3.7459271883072813e-05 0.020338244327667128 0 0.00029716342698970604 0.020728588884333016 0 0.00031564880478752435 0.020590735880999068 0 -3.7459271883072813e-05 0.020338244327667128 0 0.0003015369345184685 0.020639680926764249 0 0.00029716342698970604 0.020728588884333016 0 0.00031564880478752435 0.020590735880999068 0 0.00063473261026760386 0.020985457750887455 0 0.00054817123567860019 0.01791300924741886 0 0.00031564880478752435 0.020590735880999068 0 0.0002426569516929048 0.020642154787228105 0 0.00013285240586226926 0.020637986599604082 0 0.0003015369345184685 0.020639680926764249 0 0.00031564880478752435 0.020590735880999068 0 0.0002426569516929048 0.020642154787228105 0 0.00027849743107733333 0.020306570526354466 0 0.0001231359239185088 0.019553899033905763 0 0.00031564880478752435 0.020590735880999068 0 0.00013285240586226926 0.020637986599604082 0 -0.00010546610706106438 0.020627967185016662 0 0.0002426569516929048 0.020642154787228105 0 0.00013285240586226926 0.020637986599604082 0 0.00026925723939260233 0.020658686863611882 0 0.00013285240586226926 0.020637986599604082 0 0.00026925723939260233 0.020658686863611882 0 0.00015838711215693734 0.020530495648822235 0 0.00013285240586226926 0.020637986599604082 0 -0.00010546610706106438 0.020627967185016662 0 0.00015838711215693734 0.020530495648822235 0 0.00026925723939260233 0.020658686863611882 0 0.00031132858175239429 0.020630405919484205 0 0.00032083888939936703 0.020719117178682689 0 0.0003015369345184685 0.020639680926764249 0 0.00026925723939260233 0.020658686863611882 0 0.00032083888939936703 0.020719117178682689 0 0.00026925723939260233 0.020658686863611882 0 0.00031132858175239429 0.020630405919484205 0 0.00015838711215693734 0.020530495648822235 0 0.00031132858175239429 0.020630405919484205 0 0.00025708397723373444 0.020328404011792194 0 0.0003675713932852006 0.020785914797654896 0 0.00031132858175239429 0.020630405919484205 0 0.00025708397723373444 0.020328404011792194 0 0.00015838711215693734 0.020530495648822235 0 -0.00010546610706106438 0.020627967185016662 0 -2.8553459476298764e-05 0.020126632601515818 0 -0.00060903410270739765 0.019585341946103587 0 -0.00010546610706106438 0.020627967185016662 0 0.00015838711215693734 0.020530495648822235 0 -2.8553459476298764e-05 0.020126632601515818 0 0.00025708397723373444 0.020328404011792194 0 0.00015838711215693734 0.020530495648822235 0 -2.8553459476298764e-05 0.020126632601515818 0 0.00025708397723373444 0.020328404011792194 0 -2.8553459476298764e-05 0.020126632601515818 0 6.4511330197212407e-05 0.019257656199955422 0 -2.8553459476298764e-05 0.020126632601515818 0 6.4511330197212407e-05 0.019257656199955422 0 -0.00060903410270739765 0.019585341946103587 0 0.00025708397723373444 0.020328404011792194 0 6.4511330197212407e-05 0.019257656199955422 0 0.00025420612916928734 0.020259057130849828 0 0.00025708397723373444 0.020328404011792194 0 0.00025420612916928734 0.020259057130849828 0 0.0003675713932852006 0.020785914797654896 0 9.922633576471666e-07 0.018670076092504585 0 5.3804073913312377e-07 0.020595176566896967 0 0.00025420612916928734 0.020259057130849828 0 6.4511330197212407e-05 0.019257656199955422 0 9.922633576471666e-07 0.018670076092504585 0 0.00025420612916928734 0.020259057130849828 0 6.4511330197212407e-05 0.019257656199955422 0 9.922633576471666e-07 0.018670076092504585 0 -2.4190678126416283e-06 0.016748353736753027 0 5.3804073913312377e-07 0.020595176566896967 0 0.00024819020425517958 0.021597593713415224 0 -3.1750835056648477e-07 0.022519882485851468 0 5.3804073913312377e-07 0.020595176566896967 0 0.00025420612916928734 0.020259057130849828 0 0.00024819020425517958 0.021597593713415224 0 0.00025420612916928734 0.020259057130849828 0 0.00024819020425517958 0.021597593713415224 0 0.0003675713932852006 0.020785914797654896 0 0.00024819020425517958 0.021597593713415224 0 0.00021554402613806965 0.020905215389477719 0 -0.00019348061771935985 0.021098602593401228 0 0.00024819020425517958 0.021597593713415224 0 0.0003675713932852006 0.020785914797654896 0 0.00021554402613806965 0.020905215389477719 0 0.0003675713932852006 0.020785914797654896 0 0.00032083888939936703 0.020719117178682689 0 0.00021554402613806965 0.020905215389477719 0 0.00031132858175239429 0.020630405919484205 0 0.0003675713932852006 0.020785914797654896 0 0.00032083888939936703 0.020719117178682689 0 9.4047367904339375e-05 0.020613788131566713 0 0.00032083888939936703 0.020719117178682689 0 0.00021554402613806965 0.020905215389477719 0 -0.0016459888164505596 0.026703069189068476 0 -0.0011982055024137087 0.025542256944643984 0 -0.00041615385114117273 0.026451878116123911 0 9.4047367904339375e-05 0.020613788131566713 0 0.00021554402613806965 0.020905215389477719 0 -0.00019348061771935985 0.021098602593401228 0 -6.2913315948183535e-05 0.026692639290039816 0 -0.00036942451593272577 0.023072424643227337 0 -0.0011982055024137087 0.025542256944643984 0 3.8806554922554902e-05 0.025366538562322946 0 -0.00041615385114117273 0.026451878116123911 0 -0.00036942451593272577 0.023072424643227337 0 -0.00047602067433228864 0.023414582341855113 0 -0.0011982055024137087 0.025542256944643984 0 -0.00035592096697600352 0.023458692056173791 0 3.8806554922554902e-05 0.025366538562322946 0 0.00024819020425517958 0.021597593713415224 0 -0.00019348061771935985 0.021098602593401228 0 -0.00035592096697600352 0.023458692056173791 0 -0.00035592096697600352 0.023458692056173791 0 -3.1750835056648477e-07 0.022519882485851468 0 -5.057149404719096e-08 0.024444409765553989 0 0.00024819020425517958 0.021597593713415224 0 -0.00035592096697600352 0.023458692056173791 0 -3.1750835056648477e-07 0.022519882485851468 0 -5.057149404719096e-08 0.024444409765553989 0 0.00010587574825381896 0.024657014718088854 0 4.5851146630952338e-07 0.026368961601618147 0 -0.00035592096697600352 0.023458692056173791 0 -5.057149404719096e-08 0.024444409765553989 0 0.00010587574825381896 0.024657014718088854 0 0.00010587574825381896 0.024657014718088854 0 0.00035420490341947622 0.025577298258518007 0 3.8806554922554902e-05 0.025366538562322946 0 -0.00035592096697600352 0.023458692056173791 0 0.00010587574825381896 0.024657014718088854 0 3.8806554922554902e-05 0.025366538562322946 0 0.00010587574825381896 0.024657014718088854 0 0.00035420490341947622 0.025577298258518007 0 4.5851146630952338e-07 0.026368961601618147 0 0.00035420490341947622 0.025577298258518007 0 0.00044427900871466571 0.026133676855677128 0 0.00046539047468195264 0.026104470513180447 0 0.00035420490341947622 0.025577298258518007 0 3.8806554922554902e-05 0.025366538562322946 0 0.00044427900871466571 0.026133676855677128 0 3.8806554922554902e-05 0.025366538562322946 0 0.00044427900871466571 0.026133676855677128 0 -0.00041615385114117273 0.026451878116123911 0 0.00047296485870602429 0.034930688065620344 0 0.00051452901610091173 0.034808500274903682 0 0.00037726405868998856 0.034881244142889421 0 0.00049865093464844642 0.034816041960755023 0 0.00040294258572888243 0.034785262379097327 0 0.00051452901610091173 0.034808500274903682 0 0.0005274878008245166 0.034731498281209139 0 0.00043242327159217852 0.034741094917619654 0 0.00051452901610091173 0.034808500274903682 0 0.00063392374479324053 0.034744447748741816 0 0.0005274878008245166 0.034731498281209139 0 0.00051452901610091173 0.034808500274903682 0 0.00063169621316077685 0.034868373414977179 0 0.00063392374479324053 0.034744447748741816 0 0.00047296485870602429 0.034930688065620344 0 0.00051452901610091173 0.034808500274903682 0 0.00063169621316077685 0.034868373414977179 0 0.00043041756284065358 0.030536875566815298 0 -0.00011946802871315608 0.03035522736159843 0 -6.2913315948183535e-05 0.026692639290039816 0 -0.00011946802871315608 0.03035522736159843 0 0.00078057317985771738 0.034808283134813614 0 0.00063169621316077685 0.034868373414977179 0 0.00072313324590410637 0.034752926408499744 0 0.00063169621316077685 0.034868373414977179 0 0.00072313324590410637 0.034752926408499744 0 0.00063392374479324053 0.034744447748741816 0 0.00063392374479324053 0.034744447748741816 0 0.00065041384145477952 0.034667959800913015 0 0.0005861989543751977 0.034674196774694827 0 0.00063392374479324053 0.034744447748741816 0 0.00065041384145477952 0.034667959800913015 0 0.00072313263726308489 0.034663273174912509 0 0.00065041384145477952 0.034667959800913015 0 0.00072313263726308489 0.034663273174912509 0 0.00068287397988699291 0.034609778045409621 0 0.00065041384145477952 0.034667959800913015 0 0.00063310063881851875 0.034636801374037261 0 0.0005861989543751977 0.034674196774694827 0 0.00072313324590410637 0.034752926408499744 0 0.00063392374479324053 0.034744447748741816 0 0.00072313263726308489 0.034663273174912509 0 0.00084545726784774765 0.034682509920625298 0 0.00072313324590410637 0.034752926408499744 0 0.00072313263726308489 0.034663273174912509 0 0.00072313263726308489 0.034663273174912509 0 0.00078029850606498702 0.034608872859170761 0 0.00073186571158914845 0.034603651158641696 0 0.00078029850606498702 0.034608872859170761 0 0.00073186571158914845 0.034603651158641696 0 0.00075522376028020703 0.03456511758619836 0 0.00072313263726308489 0.034663273174912509 0 0.00073186571158914845 0.034603651158641696 0 0.00068287397988699291 0.034609778045409621 0 0.00073186571158914845 0.034603651158641696 0 0.00071891836415092993 0.03457029373285473 0 0.00068287397988699291 0.034609778045409621 0 0.00068964086260615918 0.034567801156536543 0 0.00071891836415092993 0.03457029373285473 0 0.00068287397988699291 0.034609778045409621 0 0.00068964086260615918 0.034567801156536543 0 0.0007070257745101933 0.034556692127800673 0 0.00071891836415092993 0.03457029373285473 0 0.00073804751468119385 0.03453376814805445 0 0.0007070257745101933 0.034556692127800673 0 0.00071891836415092993 0.03457029373285473 0 0.00079272906934492134 0.034542301629932701 0 0.00078029850606498702 0.034608872859170761 0 0.00075522376028020703 0.03456511758619836 0 0.00073186571158914845 0.034603651158641696 0 0.00071891836415092993 0.03457029373285473 0 0.00075522376028020703 0.03456511758619836 0 0.00073804751468119385 0.03453376814805445 0 0.00071891836415092993 0.03457029373285473 0 0.00075522376028020703 0.03456511758619836 0 0.00076173811685313825 0.03453636724297051 0 0.00073804751468119385 0.03453376814805445 0 0.00075522376028020703 0.03456511758619836 0 0.00076173811685313825 0.03453636724297051 0 0.00079272906934492134 0.034542301629932701 0 0.00075522376028020703 0.03456511758619836 0 0.00063310063881851875 0.034636801374037261 0 0.0006449114452639214 0.034602115457800731 0 0.00060374145715419794 0.03462927126246395 0 0.00065041384145477952 0.034667959800913015 0 0.00063310063881851875 0.034636801374037261 0 0.00068287397988699291 0.034609778045409621 0 0.00063310063881851875 0.034636801374037261 0 0.00068287397988699291 0.034609778045409621 0 0.0006449114452639214 0.034602115457800731 0 0.00068964086260615918 0.034567801156536543 0 0.00068287397988699291 0.034609778045409621 0 0.0006699407446122442 0.034589533099215405 0 0.00068287397988699291 0.034609778045409621 0 0.0006699407446122442 0.034589533099215405 0 0.0006449114452639214 0.034602115457800731 0 0.00068964086260615918 0.034567801156536543 0 0.0006699407446122442 0.034589533099215405 0 0.00066143979969343766 0.034577110992367148 0 0.0006699407446122442 0.034589533099215405 0 0.00066143979969343766 0.034577110992367148 0 0.0006449114452639214 0.034602115457800731 0 0.00063434806580716524 0.034580762140980749 0 0.0006449114452639214 0.034602115457800731 0 0.0006180193208822673 0.034599082502657023 0 0.0006449114452639214 0.034602115457800731 0 0.0006180193208822673 0.034599082502657023 0 0.00060374145715419794 0.03462927126246395 0 0.00063434806580716524 0.034580762140980749 0 0.00066143979969343766 0.034577110992367148 0 0.0006449114452639214 0.034602115457800731 0 0.00055736477683603915 0.034636336826556195 0 0.00050845072092636876 0.034687522539250816 0 0.0005861989543751977 0.034674196774694827 0 0.00059373364289102561 0.034600198890529357 0 0.0006180193208822673 0.034599082502657023 0 0.00060374145715419794 0.03462927126246395 0 0.00059373364289102561 0.034600198890529357 0 0.00060374145715419794 0.03462927126246395 0 0.00055736477683603915 0.034636336826556195 0 0.00060374145715419794 0.03462927126246395 0 0.00055736477683603915 0.034636336826556195 0 0.0005861989543751977 0.034674196774694827 0 0.00063310063881851875 0.034636801374037261 0 0.00060374145715419794 0.03462927126246395 0 0.0005861989543751977 0.034674196774694827 0 0.00056020271767778069 0.034603079583457173 0 0.00059373364289102561 0.034600198890529357 0 0.00055736477683603915 0.034636336826556195 0 0.00050119322231014028 0.034631589954450176 0 0.00055736477683603915 0.034636336826556195 0 0.00050845072092636876 0.034687522539250816 0 0.00050119322231014028 0.034631589954450176 0 0.00050845072092636876 0.034687522539250816 0 0.00043242327159217852 0.034741094917619654 0 0.00050119322231014028 0.034631589954450176 0 0.00056020271767778069 0.034603079583457173 0 0.00055736477683603915 0.034636336826556195 0 0.00050845072092636876 0.034687522539250816 0 0.0005274878008245166 0.034731498281209139 0 0.00043242327159217852 0.034741094917619654 0 0.00050845072092636876 0.034687522539250816 0 0.0005274878008245166 0.034731498281209139 0 0.0005861989543751977 0.034674196774694827 0 0.00063392374479324053 0.034744447748741816 0 0.0005274878008245166 0.034731498281209139 0 0.0005861989543751977 0.034674196774694827 0 0.00040294258572888243 0.034785262379097327 0 0.00029304116433398448 0.034768876072059585 0 0.0003565908768383316 0.034812545321381089 0 0.00025861525259952188 0.03481534655632168 0 0.00028211553047862933 0.034882136942158762 0 0.00040857009371695024 0.0346659988789405 0 0.00050119322231014028 0.034631589954450176 0 0.00043242327159217852 0.034741094917619654 0 0.00040857009371695024 0.0346659988789405 0 0.00043242327159217852 0.034741094917619654 0 0.00034379412088665851 0.034730973878247196 0 0.00020161387741364837 0.03474966655857558 0 0.00029304116433398448 0.034768876072059585 0 0.00018627977417022179 0.034765524473171161 0 0.00025861525259952188 0.03481534655632168 0 0.00018706605795421375 0.034848623524701625 0 0.00018706605795421375 0.034848623524701625 0 0.00021159040589549248 0.03487850714535444 0 0.00014947788780392759 0.034893240866384539 0 0.00021159040589549248 0.03487850714535444 0 0.00017063531498281003 0.034915833108307363 0 0.00014947788780392759 0.034893240866384539 0 0.00025861525259952188 0.03481534655632168 0 0.00018706605795421375 0.034848623524701625 0 0.00021159040589549248 0.03487850714535444 0 0.00025861525259952188 0.03481534655632168 0 0.00021159040589549248 0.03487850714535444 0 0.00028211553047862933 0.034882136942158762 0 0.00021159040589549248 0.03487850714535444 0 0.00020600721170953157 0.034927701691407444 0 0.00028211553047862933 0.034882136942158762 0 0.00021159040589549248 0.03487850714535444 0 0.00017063531498281003 0.034915833108307363 0 0.00020600721170953157 0.034927701691407444 0 0.00017063531498281003 0.034915833108307363 0 0.00020600721170953157 0.034927701691407444 0 0.00014703946452815315 0.034948183723131 0 0.00020600721170953157 0.034927701691407444 0 0.00015881576997856618 0.034974765867443747 0 0.00014703946452815315 0.034948183723131 0 0.00020600721170953157 0.034927701691407444 0 0.00015881576997856618 0.034974765867443747 0 0.00021362232987560479 0.034962913664966899 0 0.00020600721170953157 0.034927701691407444 0 0.00025689930234094367 0.034929917273261474 0 0.00028211553047862933 0.034882136942158762 0 0.00020600721170953157 0.034927701691407444 0 0.00025689930234094367 0.034929917273261474 0 0.00021362232987560479 0.034962913664966899 0 0.00025689930234094367 0.034929917273261474 0 0.00021362232987560479 0.034962913664966899 0 0.00027509279585145765 0.0349608248359113 0 0.00030222520231624377 0.034924381383409128 0 0.00037726405868998856 0.034881244142889421 0 0.00032602841914926376 0.03497164093930602 0 0.00030222520231624377 0.034924381383409128 0 0.00028211553047862933 0.034882136942158762 0 0.00037726405868998856 0.034881244142889421 0 0.00025689930234094367 0.034929917273261474 0 0.00030222520231624377 0.034924381383409128 0 0.00027509279585145765 0.0349608248359113 0 0.00025689930234094367 0.034929917273261474 0 0.00030222520231624377 0.034924381383409128 0 0.00028211553047862933 0.034882136942158762 0 0.00051452901610091173 0.034808500274903682 0 0.0003565908768383316 0.034812545321381089 0 0.00037726405868998856 0.034881244142889421 0 0.0003565908768383316 0.034812545321381089 0 0.00028211553047862933 0.034882136942158762 0 0.00037726405868998856 0.034881244142889421 0 0.00047296485870602429 0.034930688065620344 0 0.00037726405868998856 0.034881244142889421 0 0.00032602841914926376 0.03497164093930602 0 0.00043041756284065358 0.030536875566815298 0 0.00040685467134717046 0.030727061325103267 0 0.00044427900871466571 0.026133676855677128 0 0.00042682931146771169 0.026116927270176955 0 0.00046539047468195264 0.026104470513180447 0 0.00042682931146771169 0.026116927270176955 0 0.00019859350757353214 0.026525036773123557 0 -0.00028497217966922062 0.026233090088499906 0 0.00040685467134717046 0.030727061325103267 0 0.00023404339990287546 0.032852910133017714 0 0.00030222520231624377 0.034924381383409128 0 0.00032602841914926376 0.03497164093930602 0 0.00027509279585145765 0.0349608248359113 0 0.00042682931146771169 0.026116927270176955 0 0.00019859350757353214 0.026525036773123557 0 0.00046539047468195264 0.026104470513180447 0 0.00019859350757353214 0.026525036773123557 0 0.00046539047468195264 0.026104470513180447 0 0.0003114362828509246 0.026677411137811892 0 0.00035420490341947622 0.025577298258518007 0 0.00046539047468195264 0.026104470513180447 0 0.0003114362828509246 0.026677411137811892 0 0.00035420490341947622 0.025577298258518007 0 0.0003114362828509246 0.026677411137811892 0 4.5851146630952338e-07 0.026368961601618147 0 0.0003114362828509246 0.026677411137811892 0 1.2937751290094803e-06 0.028294221418627762 0 -2.7853699007921189e-05 0.02731390821147486 0 0.00019859350757353214 0.026525036773123557 0 0.0003114362828509246 0.026677411137811892 0 -2.7853699007921189e-05 0.02731390821147486 0 0.0003114362828509246 0.026677411137811892 0 1.2937751290094803e-06 0.028294221418627762 0 4.5851146630952338e-07 0.026368961601618147 0 -0.00017661546754576277 0.028397006094717344 0 -3.1606427646473682e-06 0.030215487900004129 0 -0.0014546028216513526 0.028395328347446552 0 -5.4558338794020477e-07 0.030219169302768575 0 -0.00073366173498678165 0.029930472386401875 0 1.2937751290094803e-06 0.028294221418627762 0 -0.00017661546754576277 0.028397006094717344 0 -2.7853699007921189e-05 0.02731390821147486 0 1.2937751290094803e-06 0.028294221418627762 0 -0.00017661546754576277 0.028397006094717344 0 -3.1606427646473682e-06 0.030215487900004129 0 -0.00017661546754576277 0.028397006094717344 0 -0.00088016280714705469 0.027583542363146106 0 -0.0014546028216513526 0.028395328347446552 0 -2.7853699007921189e-05 0.02731390821147486 0 -0.00088016280714705469 0.027583542363146106 0 -0.00098907128849212928 0.026733218441241439 0 -0.00017661546754576277 0.028397006094717344 0 -2.7853699007921189e-05 0.02731390821147486 0 -0.00088016280714705469 0.027583542363146106 0 -2.7486892173777145e-05 0.031459141844683909 0 0.00023404339990287546 0.032852910133017714 0 -2.7853699007921189e-05 0.02731390821147486 0 -0.00098907128849212928 0.026733218441241439 0 -0.00028497217966922062 0.026233090088499906 0 0.00015023009928209099 0.035016584761371393 0 0.00019699785016792727 0.034976903982553445 0 0.00015140765911557773 0.035002132425541128 0 0.00019859350757353214 0.026525036773123557 0 -2.7853699007921189e-05 0.02731390821147486 0 -0.00028497217966922062 0.026233090088499906 0 0.00032602841914926376 0.03497164093930602 0 0.00022998691302132107 0.03497393158261617 0 0.00027509279585145765 0.0349608248359113 0 0.00021362232987560479 0.034962913664966899 0 0.00021409631368629359 0.035004873632147451 0 0.00027509279585145765 0.0349608248359113 0 0.00023404339990287546 0.032852910133017714 0 -0.00023579795473677308 0.034119914998921072 0 0.00021409631368629359 0.035004873632147451 0 0.00015140765911557773 0.035002132425541128 0 0.0001764431245744974 0.03498890174366176 0 0.00023404339990287546 0.032852910133017714 0 -2.2188637787044608e-05 0.033920021755245416 0 0.00015140765911557773 0.035002132425541128 0 0.0001764431245744974 0.03498890174366176 0 0.00014884752316222225 0.034992932634029264 0 0.00021362232987560479 0.034962913664966899 0 0.00021409631368629359 0.035004873632147451 0 0.0001764431245744974 0.03498890174366176 0 0.00015881576997856618 0.034974765867443747 0 0.00021362232987560479 0.034962913664966899 0 0.0001764431245744974 0.03498890174366176 0 0.00015881576997856618 0.034974765867443747 0 0.0001764431245744974 0.03498890174366176 0 0.00014884752316222225 0.034992932634029264 0 0.00015881576997856618 0.034974765867443747 0 0.00014884752316222225 0.034992932634029264 0 0.00012649484295354857 0.034993413718395878 0 0.00015881576997856618 0.034974765867443747 0 0.00012649484295354857 0.034993413718395878 0 0.00011749803613311427 0.034977406322000491 0 0.00012649484295354857 0.034993413718395878 0 0.0001007486060497159 0.034993843106470732 0 0.00011749803613311427 0.034977406322000491 0 0.00012649484295354857 0.034993413718395878 0 0.00011144472343157911 0.03500825584615639 0 0.00013276214002397636 0.035005670245258268 0 0.00012649484295354857 0.034993413718395878 0 0.00011144472343157911 0.03500825584615639 0 0.0001007486060497159 0.034993843106470732 0 0.00014884752316222225 0.034992932634029264 0 0.00012649484295354857 0.034993413718395878 0 0.00013276214002397636 0.035005670245258268 0 0.00015140765911557773 0.035002132425541128 0 0.00014884752316222225 0.034992932634029264 0 0.00013276214002397636 0.035005670245258268 0 0.00011144472343157911 0.03500825584615639 0 7.5395043147826585e-05 0.035003219733897382 0 0.0001007486060497159 0.034993843106470732 0 7.5395043147826585e-05 0.035003219733897382 0 0.0001007486060497159 0.034993843106470732 0 7.8212968522617943e-05 0.03498418289571175 0 -9.903203079537307e-05 0.032781875740252611 0 0.00016855280731829095 0.03450465059618809 0 0.00011144472343157911 0.03500825584615639 0 7.5395043147826585e-05 0.035003219733897382 0 0.00011462086413487975 0.035028333042973245 0 -0.00011272578218500973 0.034802902158355742 0 -8.9184384630169679e-05 0.034787123320969754 0 3.0847290373877311e-06 0.034856384383585341 0 -1.9193082059157057e-05 0.034949672678814075 0 -0.00011272578218500973 0.034802902158355742 0 3.0847290373877311e-06 0.034856384383585341 0 0.0002724210817972342 0.035203880919630809 0 1.1313820739046627e-05 0.032217122109096046 0 -2.7486892173777145e-05 0.031459141844683909 0 1.1313820739046627e-05 0.032217122109096046 0 0.00015023009928209099 0.035016584761371393 0 0.00012639337008886196 0.035015967594470856 0 0.00011462086413487975 0.035028333042973245 0 -0.00088016280714705469 0.027583542363146106 0 -0.00098907128849212928 0.026733218441241439 0 -0.0020451243244295043 0.027339667832184653 0 0.00011144472343157911 0.03500825584615639 0 0.00012639337008886196 0.035015967594470856 0 0.00011462086413487975 0.035028333042973245 0 0.00015023009928209099 0.035016584761371393 0 0.00013276214002397636 0.035005670245258268 0 0.00012639337008886196 0.035015967594470856 0 0.00015023009928209099 0.035016584761371393 0 0.00015140765911557773 0.035002132425541128 0 0.00013276214002397636 0.035005670245258268 0 0.00011144472343157911 0.03500825584615639 0 0.00013276214002397636 0.035005670245258268 0 0.00012639337008886196 0.035015967594470856 0 -0.00088016280714705469 0.027583542363146106 0 -0.0020451243244295043 0.027339667832184653 0 -0.0014546028216513526 0.028395328347446552 0 6.9806603445046796e-05 0.031507357789026642 0 8.2094269637134483e-05 0.031482574051038624 0 -1.2279112403459821e-05 0.031410569089888422 0 1.1313820739046627e-05 0.032217122109096046 0 -0.00073366173498678165 0.029930472386401875 0 7.2778420185090322e-05 0.031515133051793938 0 8.2094269637134483e-05 0.031482574051038624 0 -1.2279112403459821e-05 0.031410569089888422 0 -0.00026963807517246287 0.033484322660263528 0 4.1669697090318944e-05 0.033277003281823855 0 0.00018230007477973423 0.033754963436192116 0 1.1313820739046627e-05 0.032217122109096046 0 -9.903203079537307e-05 0.032781875740252611 0 7.2778420185090322e-05 0.031515133051793938 0 8.2094269637134483e-05 0.031482574051038624 0 0.00010270252693032826 0.031495811903778016 0 8.2094269637134483e-05 0.031482574051038624 0 4.3455374591774147e-05 0.031416637608448574 0 2.8269207089274097e-05 0.031499303642551851 0 -0.00012899913418443619 0.032727440864123339 0 -9.903203079537307e-05 0.032781875740252611 0 -9.903203079537307e-05 0.032781875740252611 0 -2.7300400902014978e-05 0.033295270369222502 0 4.3455374591774147e-05 0.031416637608448574 0 -0.00027745818944731934 0.031475482247543166 0 2.8269207089274097e-05 0.031499303642551851 0 6.9806603445046796e-05 0.031507357789026642 0 2.8269207089274097e-05 0.031499303642551851 0 0.00012252209409777768 0.03167297742739647 0 -0.00027745818944731934 0.031475482247543166 0 2.8269207089274097e-05 0.031499303642551851 0 0.00012252209409777768 0.03167297742739647 0 6.9806603445046796e-05 0.031507357789026642 0 8.2094269637134483e-05 0.031482574051038624 0 2.8269207089274097e-05 0.031499303642551851 0 -0.00027745818944731934 0.031475482247543166 0 0.00012252209409777768 0.03167297742739647 0 1.9135769802118565e-08 0.032324429077260526 0 -2.7300400902014978e-05 0.033295270369222502 0 -2.6602910198373801e-07 0.032328108082354132 0 -2.3523361082593667e-08 0.030222710678439894 0 0.00012252209409777768 0.03167297742739647 0 1.9135769802118565e-08 0.032324429077260526 0 -2.3523361082593667e-08 0.030222710678439894 0 0.00012252209409777768 0.03167297742739647 0 -1.2279112403459821e-05 0.031410569089888422 0 6.9806603445046796e-05 0.031507357789026642 0 0.00012252209409777768 0.03167297742739647 0 -1.2279112403459821e-05 0.031410569089888422 0 -3.9427386565544848e-07 0.032330963746414178 0 2.7134588635104487e-07 0.034998166826183237 0 -1.3756950988846836e-05 0.034619923033742742 0 2.7134588635104487e-07 0.034998166826183237 0 -1.0593099723545406e-05 0.034917459679741365 0 -1.4113059073231916e-07 0.035000714935211043 0 2.7134588635104487e-07 0.034998166826183237 0 -1.3756950988846836e-05 0.034619923033742742 0 -1.0593099723545406e-05 0.034917459679741365 0 -1.3756950988846836e-05 0.034619923033742742 0 -9.3976490750623918e-05 0.034750140729559155 0 -1.0593099723545406e-05 0.034917459679741365 0 -1.7687120478301274e-05 0.034145925943516675 0 -6.9288078886413005e-05 0.033954340263908818 0 -0.00015249715608886295 0.033488518031625371 0 -3.9427386565544848e-07 0.032330963746414178 0 9.3184891039408945e-05 0.033472729257349988 0 -3.9427386565544848e-07 0.032330963746414178 0 -1.3756950988846836e-05 0.034619923033742742 0 9.3184891039408945e-05 0.033472729257349988 0 -2.7300400902014978e-05 0.033295270369222502 0 -6.9288078886413005e-05 0.033954340263908818 0 -2.7300400902014978e-05 0.033295270369222502 0 0.00016855280731829095 0.03450465059618809 0 -9.3976490750623918e-05 0.034750140729559155 0 -0.00010067526328691458 0.034880272883700263 0 -1.0593099723545406e-05 0.034917459679741365 0 -0.00017520370128710873 0.034848421027934014 0 -0.00010067526328691458 0.034880272883700263 0 -0.00011047570920681596 0.034968209868508363 0 -0.00017520370128710873 0.034848421027934014 0 -9.3976490750623918e-05 0.034750140729559155 0 -0.00010067526328691458 0.034880272883700263 0 -0.00010067526328691458 0.034880272883700263 0 -1.0593099723545406e-05 0.034917459679741365 0 -0.00011047570920681596 0.034968209868508363 0 -1.0593099723545406e-05 0.034917459679741365 0 -3.1423445552469574e-05 0.034985758555715334 0 -1.4113059073231916e-07 0.035000714935211043 0 -1.0593099723545406e-05 0.034917459679741365 0 -3.1423445552469574e-05 0.034985758555715334 0 -0.00011047570920681596 0.034968209868508363 0 5.2803863010611856e-05 0.034865851544022997 0 0.00016855280731829095 0.03450465059618809 0 0.00016855280731829095 0.03450465059618809 0 7.8245837455453353e-05 0.035044488948298695 0 -1.9193082059157057e-05 0.034949672678814075 0 3.0847290373877311e-06 0.034856384383585341 0 8.2796958383439844e-06 0.034977744460881727 0 5.9796130790698125e-06 0.034996698488100719 0 2.0080301396238056e-05 0.035002779701509952 0 8.2796958383439844e-06 0.034977744460881727 0 5.9796130790698125e-06 0.034996698488100719 0 -1.2383712846303097e-08 0.034999956220652689 0 8.2796958383439844e-06 0.034977744460881727 0 5.2803863010611856e-05 0.034865851544022997 0 6.1102734718105893e-08 0.034999871197957388 0 1.5692919849940116e-05 0.034991466846891722 0 2.6948216842299578e-08 0.034999998491135359 0 8.2796958383439844e-06 0.034977744460881727 0 -1.2383712846303097e-08 0.034999956220652689 0 2.6948216842299578e-08 0.034999998491135359 0 8.2796958383439844e-06 0.034977744460881727 0 1.5692919849940116e-05 0.034991466846891722 0 2.6948216842299578e-08 0.034999998491135359 0 1.4125550912720604e-05 0.03497325848566659 0 1.5692919849940116e-05 0.034991466846891722 0 3.4386711791016345e-05 0.034967299465060921 0 1.4125550912720604e-05 0.03497325848566659 0 1.5692919849940116e-05 0.034991466846891722 0 3.4386711791016345e-05 0.034967299465060921 0 6.1293375582543809e-05 0.03496878621290863 0 7.5395043147826585e-05 0.035003219733897382 0 1.5692919849940116e-05 0.034991466846891722 0 7.8212968522617943e-05 0.03498418289571175 0 -1.9193082059157057e-05 0.034949672678814075 0 1.5692919849940116e-05 0.034991466846891722 0 8.2796958383439844e-06 0.034977744460881727 0 0.0002724210817972342 0.035203880919630809 0 -2.7271883989684475e-05 0.03490111293367492 0 1.5692919849940116e-05 0.034991466846891722 0 7.8212968522617943e-05 0.03498418289571175 0 6.1293375582543809e-05 0.03496878621290863 0 0.0001007486060497159 0.034993843106470732 0 7.8212968522617943e-05 0.03498418289571175 0 0.00011749803613311427 0.034977406322000491 0 7.8212968522617943e-05 0.03498418289571175 0 0.00011749803613311427 0.034977406322000491 0 0.00010072779840942473 0.03495854457481315 0 7.8212968522617943e-05 0.03498418289571175 0 6.1293375582543809e-05 0.03496878621290863 0 0.00010072779840942473 0.03495854457481315 0 0.00015881576997856618 0.034974765867443747 0 0.00011749803613311427 0.034977406322000491 0 0.00014703946452815315 0.034948183723131 0 0.00011749803613311427 0.034977406322000491 0 0.00014703946452815315 0.034948183723131 0 0.00010072779840942473 0.03495854457481315 0 0.00017063531498281003 0.034915833108307363 0 0.00014703946452815315 0.034948183723131 0 0.00012962010188711137 0.03493066138965624 0 0.00014703946452815315 0.034948183723131 0 0.00012962010188711137 0.03493066138965624 0 0.00010072779840942473 0.03495854457481315 0 0.00012962010188711137 0.03493066138965624 0 0.00010072779840942473 0.03495854457481315 0 7.8592833240016843e-05 0.034937465125347164 0 0.00017063531498281003 0.034915833108307363 0 0.00012962010188711137 0.03493066138965624 0 0.00014947788780392759 0.034893240866384539 0 3.4386711791016345e-05 0.034967299465060921 0 6.1293375582543809e-05 0.03496878621290863 0 7.8592833240016843e-05 0.034937465125347164 0 6.1293375582543809e-05 0.03496878621290863 0 0.00010072779840942473 0.03495854457481315 0 7.8592833240016843e-05 0.034937465125347164 0 3.4386711791016345e-05 0.034967299465060921 0 7.8592833240016843e-05 0.034937465125347164 0 3.8913943418499143e-05 0.034934229282079995 0 7.8592833240016843e-05 0.034937465125347164 0 0.00010222469198524623 0.034880635921493083 0 3.8913943418499143e-05 0.034934229282079995 0 7.8592833240016843e-05 0.034937465125347164 0 0.00014947788780392759 0.034893240866384539 0 0.00010222469198524623 0.034880635921493083 0 0.00018706605795421375 0.034848623524701625 0 0.00014947788780392759 0.034893240866384539 0 0.00010222469198524623 0.034880635921493083 0 0.00012962010188711137 0.03493066138965624 0 7.8592833240016843e-05 0.034937465125347164 0 0.00014947788780392759 0.034893240866384539 0 2.4396406487246926e-05 0.03485268060451787 0 0.00018627977417022179 0.034765524473171161 0 0.00010222469198524623 0.034880635921493083 0 0.00018627977417022179 0.034765524473171161 0 0.00018706605795421375 0.034848623524701625 0 0.00010222469198524623 0.034880635921493083 0 2.4396406487246926e-05 0.03485268060451787 0 0.00010222469198524623 0.034880635921493083 0 3.8913943418499143e-05 0.034934229282079995 0 2.4396406487246926e-05 0.03485268060451787 0 1.4884015210119282e-05 0.03494036547170646 0 3.8913943418499143e-05 0.034934229282079995 0 1.4884015210119282e-05 0.03494036547170646 0 -6.4862721827508805e-09 0.034999898300321915 0 1.4125550912720604e-05 0.03497325848566659 0 2.6948216842299578e-08 0.034999998491135359 0 -6.4862721827508805e-09 0.034999898300321915 0 1.4125550912720604e-05 0.03497325848566659 0 3.4386711791016345e-05 0.034967299465060921 0 1.4125550912720604e-05 0.03497325848566659 0 3.8913943418499143e-05 0.034934229282079995 0 1.4884015210119282e-05 0.03494036547170646 0 1.4125550912720604e-05 0.03497325848566659 0 3.8913943418499143e-05 0.034934229282079995 0 0.0014767432336479616 0.00092195477569816271 0 0.0016277083746875714 0.00029521041320728589 0 0.00068364516781185141 0.0012008406075329991 0 -0.001302502726535407 0.0058007440615792296 0 -0.0041710425791188915 0.0085643531274966558 0 0.0014767432336479616 0.00092195477569816271 0 0.00068364516781185141 0.0012008406075329991 0 0.0013058839080006136 0.0016042115768544975 0 0.0014767432336479616 0.00092195477569816271 0 0.0017807813232328838 0.00099951916269642137 0 0.0016077714732066208 0.0013859286679895955 0 0.0014767432336479616 0.00092195477569816271 0 0.0017807813232328838 0.00099951916269642137 0 0.0017532813274153541 0.00076943011287077131 0 0.0014767432336479616 0.00092195477569816271 0 0.0017532813274153541 0.00076943011287077131 0 0.0018087119774163479 0.00077438158993948462 0 0.0017832498633137848 0.00094887775590899012 0 0.0017532813274153541 0.00076943011287077131 0 0.0018087119774163479 0.00077438158993948462 0 -0.0097713565050499239 0.017170063139283025 0 -0.0087372776123041812 0.017488510302713475 0 -0.0083974804542976747 0.015104131571623191 0 -0.0097713565050499239 0.017170063139283025 0 -0.0087372776123041812 0.017488510302713475 0 -0.008957433512817246 0.01871911699619367 0 0.0003838709605940781 0.0011657189336030083 0 -0.001302502726535407 0.0058007440615792296 0 -0.0087372776123041812 0.017488510302713475 0 -0.0077838488761641528 0.017175990948191847 0 -0.0083974804542976747 0.015104131571623191 0 -0.0087372776123041812 0.017488510302713475 0 -0.0077838488761641528 0.017175990948191847 0 -0.007909257435229286 0.018415039449463298 0 -0.0077838488761641528 0.017175990948191847 0 -0.006633490239469542 0.018092775136399973 0 -0.007909257435229286 0.018415039449463298 0 -0.0068247637438207691 0.016655774298943139 0 -0.006633490239469542 0.018092775136399973 0 -0.005210497502282435 0.017438982348210993 0 -0.0077838488761641528 0.017175990948191847 0 -0.0068247637438207691 0.016655774298943139 0 -0.006633490239469542 0.018092775136399973 0 -0.0065786208396861135 0.015456329593675601 0 -0.0083974804542976747 0.015104131571623191 0 -0.0061414340182434852 0.014109635040581901 0 -0.0068247637438207691 0.016655774298943139 0 -0.0065786208396861135 0.015456329593675601 0 -0.0083974804542976747 0.015104131571623191 0 -0.0068247637438207691 0.016655774298943139 0 -0.0065786208396861135 0.015456329593675601 0 -0.0053508586380632602 0.015834190401857413 0 -0.0065786208396861135 0.015456329593675601 0 -0.0061414340182434852 0.014109635040581901 0 -0.0053508586380632602 0.015834190401857413 0 -0.0077838488761641528 0.017175990948191847 0 -0.0068247637438207691 0.016655774298943139 0 -0.0083974804542976747 0.015104131571623191 0 0.00068364516781185141 0.0012008406075329991 0 0.00075870976607058424 0.002163091962662908 0 -0.00048187768437592282 0.0028138972885639749 0 -0.0041710425791188915 0.0085643531274966558 0 -0.0034412699196384594 0.0075968443668843694 0 0.00068364516781185141 0.0012008406075329991 0 0.00075870976607058424 0.002163091962662908 0 0.0013058839080006136 0.0016042115768544975 0 -0.0083974804542976747 0.015104131571623191 0 -0.0061414340182434852 0.014109635040581901 0 -0.0067453087325355125 0.012493954247242449 0 -0.00048187768437592282 0.0028138972885639749 0 0.00093777512831002803 0.0029964854923097148 0 -0.00054376457757047351 0.0044564711902955806 0 0.00075870976607058424 0.002163091962662908 0 -0.00048187768437592282 0.0028138972885639749 0 0.00093777512831002803 0.0029964854923097148 0 0.00075870976607058424 0.002163091962662908 0 0.00093777512831002803 0.0029964854923097148 0 0.0012442230380078094 0.002116597095486368 0 0.00044392200165759894 0.0038089784590164834 0 0.0010121465578413046 0.0032773892867624613 0 0.00088938378214209013 0.0038591983071043241 0 0.00093777512831002803 0.0029964854923097148 0 0.0012442230380078094 0.002116597095486368 0 0.0017785517482137511 0.0017358183120645236 0 0.00044392200165759894 0.0038089784590164834 0 0.0010906851923458778 0.0025367409138950668 0 0.0010121465578413046 0.0032773892867624613 0 0.00056389313280504462 0.0033339877517640525 0 0.0014783860168029999 0.0021493403474592554 0 0.00075870976607058424 0.002163091962662908 0 0.0012442230380078094 0.002116597095486368 0 0.0013058839080006136 0.0016042115768544975 0 0.0012442230380078094 0.002116597095486368 0 0.0014766624702595643 0.0017407350522709486 0 0.0017785517482137511 0.0017358183120645236 0 0.0014767432336479616 0.00092195477569816271 0 0.0013058839080006136 0.0016042115768544975 0 0.0016077714732066208 0.0013859286679895955 0 0.0012442230380078094 0.002116597095486368 0 0.0014766624702595643 0.0017407350522709486 0 0.0013058839080006136 0.0016042115768544975 0 0.0014766624702595643 0.0017407350522709486 0 0.0013058839080006136 0.0016042115768544975 0 0.0016077714732066208 0.0013859286679895955 0 0.0017807813232328838 0.00099951916269642137 0 0.0016077714732066208 0.0013859286679895955 0 0.0017785517482137511 0.0017358183120645236 0 0.0012540682138054897 0.0025977552675237343 0 0.0010906851923458778 0.0025367409138950668 0 0.00194520048988559 0.0009467971394444023 0 0.0014766624702595643 0.0017407350522709486 0 0.0016077714732066208 0.0013859286679895955 0 0.0017785517482137511 0.0017358183120645236 0 0.0012540682138054897 0.0025977552675237343 0 0.0010906851923458778 0.0025367409138950668 0 0.0010121465578413046 0.0032773892867624613 0 0.0010121465578413046 0.0032773892867624613 0 0.0012224541034824238 0.0036996886952960152 0 0.00088938378214209013 0.0038591983071043241 0 0.0012540682138054897 0.0025977552675237343 0 0.0010121465578413046 0.0032773892867624613 0 0.0012685266554555133 0.0032561686750546426 0 0.0010121465578413046 0.0032773892867624613 0 0.0012685266554555133 0.0032561686750546426 0 0.0012224541034824238 0.0036996886952960152 0 0.0012540682138054897 0.0025977552675237343 0 0.0012685266554555133 0.0032561686750546426 0 0.0016856043422115001 0.003450792066146971 0 0.0012685266554555133 0.0032561686750546426 0 0.0016856043422115001 0.003450792066146971 0 0.0012224541034824238 0.0036996886952960152 0 0.0012540682138054897 0.0025977552675237343 0 0.0016856043422115001 0.003450792066146971 0 0.003147683803860761 0.0033918315877128321 0 0.0012540682138054897 0.0025977552675237343 0 0.0021083134469896906 0.001131583881642522 0 0.00194520048988559 0.0009467971394444023 0 0.0013140453192785218 0.0023288183053976623 0 0.002570706117649047 0.0022596311100505596 0 0.0021083134469896906 0.001131583881642522 0 0.0021716561027020145 0.00067891188255233875 0 0.0022960878960570433 0.0005185573846597601 0 0.0021083134469896906 0.001131583881642522 0 0.0021716561027020145 0.00067891188255233875 0 0.00194520048988559 0.0009467971394444023 0 0.0021716561027020145 0.00067891188255233875 0 0.00194520048988559 0.0009467971394444023 0 0.0021903256224725812 0.0002505276115929769 0 0.0014783860168029999 0.0021493403474592554 0 0.0019986711211522571 0.0013894859983278394 0 0.0017807813232328838 0.00099951916269642137 0 0.0017785517482137511 0.0017358183120645236 0 0.00194520048988559 0.0009467971394444023 0 0.0022960878960570433 0.0005185573846597601 0 0.0024123280542039703 0.0001322382581513355 0 0.0023967942507712118 0.00031841169083189478 0 0.0024123280542039703 0.0001322382581513355 0 0.0023967942507712118 0.00031841169083189478 0 0.0024938640418741961 -0.00011865394730315899 0 0.0024123280542039703 0.0001322382581513355 0 0.0024938640418741961 -0.00011865394730315899 0 0.0024922193312508687 -0.00017883940569145306 0 0.0021083134469896906 0.001131583881642522 0 0.0022960878960570433 0.0005185573846597601 0 0.0023967942507712118 0.00031841169083189478 0 0.002570706117649047 0.0022596311100505596 0 0.0029891356254534603 0.0016018274354498729 0 0.0021716561027020145 0.00067891188255233875 0 0.0023165620695870244 0.00032297289665520043 0 0.0021903256224725812 0.0002505276115929769 0 0.0021716561027020145 0.00067891188255233875 0 0.0022960878960570433 0.0005185573846597601 0 0.0023165620695870244 0.00032297289665520043 0 0.0022960878960570433 0.0005185573846597601 0 0.0023165620695870244 0.00032297289665520043 0 0.0024123280542039703 0.0001322382581513355 0 0.0024123280542039703 0.0001322382581513355 0 0.0024195653725193264 -7.708403188144091e-05 0 0.0024922193312508687 -0.00017883940569145306 0 0.0023165620695870244 0.00032297289665520043 0 0.0024123280542039703 0.0001322382581513355 0 0.0024195653725193264 -7.708403188144091e-05 0 0.0024195653725193264 -7.708403188144091e-05 0 0.0021903256224725812 0.0002505276115929769 0 0.0023440380652219065 -0.0003884149834723898 0 0.0023165620695870244 0.00032297289665520043 0 0.0024195653725193264 -7.708403188144091e-05 0 0.0021903256224725812 0.0002505276115929769 0 0.0021903256224725812 0.0002505276115929769 0 0.001634786734523796 0.00047736931527842127 0 0.0020832682863955185 -0.00026086591434319864 0 0.0017807813232328838 0.00099951916269642137 0 0.0017532813274153541 0.00076943011287077131 0 0.001634786734523796 0.00047736931527842127 0 0.0017807813232328838 0.00099951916269642137 0 0.00194520048988559 0.0009467971394444023 0 0.001634786734523796 0.00047736931527842127 0 0.00194520048988559 0.0009467971394444023 0 0.0021903256224725812 0.0002505276115929769 0 0.001634786734523796 0.00047736931527842127 0 0.0017832498633137848 0.00094887775590899012 0 0.0017532813274153541 0.00076943011287077131 0 0.001634786734523796 0.00047736931527842127 0 0.0017832498633137848 0.00094887775590899012 0 0.001634786734523796 0.00047736931527842127 0 0.0018368111257541912 0.0015713652773320123 0 0.001634786734523796 0.00047736931527842127 0 0.0018368111257541912 0.0015713652773320123 0 0.00046000578998017528 0.0015194045373916 0 0.0015221153038455486 0.00048822017727845503 0 0.0012647999351272691 0.0006961758900663038 0 0.00046000578998017528 0.0015194045373916 0 0.00084250831928568823 0.0024785129496025186 0 -0.00060610976950119407 0.0028234626879106261 0 0.0018368111257541912 0.0015713652773320123 0 0.00046000578998017528 0.0015194045373916 0 0.00084250831928568823 0.0024785129496025186 0 0.0018368111257541912 0.0015713652773320123 0 0.00084250831928568823 0.0024785129496025186 0 0.0017712334020877829 0.002484189858363755 0 0.0021903256224725812 0.0002505276115929769 0 0.0020832682863955185 -0.00026086591434319864 0 0.0023440380652219065 -0.0003884149834723898 0 0.0012647999351272691 0.0006961758900663038 0 0.00076501235068403175 0.0011564927147531808 0 0.0020832682863955185 -0.00026086591434319864 0 0.0023440380652219065 -0.0003884149834723898 0 0.0023274647451700368 -0.0003393505864560218 0 0.0023440380652219065 -0.0003884149834723898 0 0.0023274647451700368 -0.0003393505864560218 0 0.0022761736732129414 -0.00030828453716654451 0 0.00076501235068403175 0.0011564927147531808 0 -0.0015141364486229215 0.0012984733726660695 0 0.0023274647451700368 -0.0003393505864560218 0 0.0022778002722396037 -3.8669935332401752e-05 0 0.0022761736732129414 -0.00030828453716654451 0 -0.00060610976950119407 0.0028234626879106261 0 -0.00059750215136166406 0.0038500774894432671 0 0.00047254911078922844 0.0035934383220119566 0 -0.00059750215136166406 0.0038500774894432671 0 0.00047254911078922844 0.0035934383220119566 0 0.00015051242948390292 0.0044252134570074292 0 -0.00060610976950119407 0.0028234626879106261 0 -0.00059750215136166406 0.0038500774894432671 0 -0.0015696176971136116 0.0041652386966146001 0 0.0023274647451700368 -0.0003393505864560218 0 0.0023134222983234574 1.4446119903790974e-05 0 0.0022778002722396037 -3.8669935332401752e-05 0 -0.0015141364486229215 0.0012984733726660695 0 -0.0007406609384533958 0.001433475123799436 0 0.0017712334020877829 0.002484189858363755 0 0.0014087331742781701 0.0032742753061139151 0 0.0022882333800264948 0.0035790207707074324 0 0.00084250831928568823 0.0024785129496025186 0 0.0017712334020877829 0.002484189858363755 0 0.0014087331742781701 0.0032742753061139151 0 0.00084250831928568823 0.0024785129496025186 0 -0.00060610976950119407 0.0028234626879106261 0 0.00047254911078922844 0.0035934383220119566 0 0.00084250831928568823 0.0024785129496025186 0 0.0014087331742781701 0.0032742753061139151 0 0.00047254911078922844 0.0035934383220119566 0 0.00047254911078922844 0.0035934383220119566 0 0.00080269525410367698 0.0043724731205319698 0 0.0012608385305246761 0.0039594978503555448 0 0.00047254911078922844 0.0035934383220119566 0 0.00015051242948390292 0.0044252134570074292 0 0.00080269525410367698 0.0043724731205319698 0 0.00080269525410367698 0.0043724731205319698 0 0.0012915811286739541 0.0044404490941094103 0 0.0012608385305246761 0.0039594978503555448 0 0.0014087331742781701 0.0032742753061139151 0 0.00047254911078922844 0.0035934383220119566 0 0.0012608385305246761 0.0039594978503555448 0 0.0014087331742781701 0.0032742753061139151 0 0.0012608385305246761 0.0039594978503555448 0 0.0017728541704511284 0.0038726560385035991 0 0.0014087331742781701 0.0032742753061139151 0 0.0017728541704511284 0.0038726560385035991 0 0.0022882333800264948 0.0035790207707074324 0 0.0012608385305246761 0.0039594978503555448 0 0.0017728541704511284 0.0038726560385035991 0 0.0017198129090864854 0.0042719605992942505 0 0.0012915811286739541 0.0044404490941094103 0 0.0012608385305246761 0.0039594978503555448 0 0.0017198129090864854 0.0042719605992942505 0 0.001642684459085597 0.0047489846467723825 0 0.0012915811286739541 0.0044404490941094103 0 0.0017198129090864854 0.0042719605992942505 0 0.0021633468885008888 0.0047073861134090669 0 0.0017198129090864854 0.0042719605992942505 0 0.0026315142087558006 0.0041802538260345716 0 0.001274188537327648 0.0089033535737341619 0 0.0008925066016823637 0.0095494704043114012 0 0.0017728541704511284 0.0038726560385035991 0 0.0017198129090864854 0.0042719605992942505 0 0.0021413157065477157 0.0043005466239061305 0 0.0008925066016823637 0.0095494704043114012 0 -0.002227635740443443 0.012853236256756087 0 0.0028689904476002369 0.0047492426473238923 0 0.0026315142087558006 0.0041802538260345716 0 0.0038259480300430978 0.0042010067949874337 0 -0.0016437331784095062 0.011814000551291792 0 -0.00081799649318564812 0.011847577999952986 0 -0.0014023440238385243 0.010599069346842103 0 -0.0099036899600450611 0.02269872632903569 0 -0.010385292468463883 0.021691669276556295 0 -0.0091806586370788545 0.02180051394227216 0 -0.002227635740443443 0.012853236256756087 0 -0.00086282986405400647 0.010242207787123927 0 0.0017728541704511284 0.0038726560385035991 0 0.0021413157065477157 0.0043005466239061305 0 0.0022882333800264948 0.0035790207707074324 0 0.0008925066016823637 0.0095494704043114012 0 -0.00086282986405400647 0.010242207787123927 0 -0.0099036899600450611 0.02269872632903569 0 -0.0091806586370788545 0.02180051394227216 0 -0.0081028110189063467 0.022819067144335629 0 -0.002227635740443443 0.012853236256756087 0 -0.0060719747669715531 0.019259211961288117 0 -0.0091806586370788545 0.02180051394227216 0 -0.0087312271906607314 0.020906192185400983 0 -0.0081073936897524609 0.02168930617256562 0 -0.0091806586370788545 0.02180051394227216 0 -0.0095232105883838632 0.020805706174919083 0 -0.0087312271906607314 0.020906192185400983 0 -0.010385292468463883 0.021691669276556295 0 -0.0091806586370788545 0.02180051394227216 0 -0.0095232105883838632 0.020805706174919083 0 -0.0095232105883838632 0.020805706174919083 0 -0.0087312271906607314 0.020906192185400983 0 -0.0090819731200164119 0.019950793013087859 0 0.0017712334020877829 0.002484189858363755 0 0.00225241680665838 0.0035863881339073681 0 0.0025036829599500011 0.0019434655201891566 0 -0.010385292468463883 0.021691669276556295 0 -0.0095232105883838632 0.020805706174919083 0 -0.010051559759433728 0.019509857989156811 0 -0.00031045760525308695 0.0033317557328832832 0 -0.00086282986405400647 0.010242207787123927 0 -0.00086282986405400647 0.010242207787123927 0 -0.0036346501288136704 0.011612392550978012 0 0.0018368111257541912 0.0015713652773320123 0 0.0017712334020877829 0.002484189858363755 0 0.0025036829599500011 0.0019434655201891566 0 -0.0095232105883838632 0.020805706174919083 0 -0.010051559759433728 0.019509857989156811 0 -0.0090819731200164119 0.019950793013087859 0 -0.0087312271906607314 0.020906192185400983 0 -0.0090819731200164119 0.019950793013087859 0 -0.0081309657691069973 0.019774814808459582 0 -0.0090819731200164119 0.019950793013087859 0 -0.008957433512817246 0.01871911699619367 0 -0.0081309657691069973 0.019774814808459582 0 -0.010051559759433728 0.019509857989156811 0 -0.0090819731200164119 0.019950793013087859 0 -0.008957433512817246 0.01871911699619367 0 -0.0097713565050499239 0.017170063139283025 0 -0.010051559759433728 0.019509857989156811 0 -0.008957433512817246 0.01871911699619367 0 -0.001302502726535407 0.0058007440615792296 0 -0.0036346501288136704 0.011612392550978012 0 0.0026749203266399199 0.00066765839066284171 0 0.0018368111257541912 0.0015713652773320123 0 0.0025036829599500011 0.0019434655201891566 0 -0.001302502726535407 0.0058007440615792296 0 0.0029335387182433813 0.00029201115396913411 0 0.0017832498633137848 0.00094887775590899012 0 0.0018087119774163479 0.00077438158993948462 0 0.0018368111257541912 0.0015713652773320123 0 -0.0071766848207883279 0.01914984947605872 0 -0.006633490239469542 0.018092775136399973 0 -0.0061325145391482282 0.019548424307597068 0 -0.006633490239469542 0.018092775136399973 0 -0.0061325145391482282 0.019548424307597068 0 -0.0052963275618998365 0.018946649038132746 0 -0.0071766848207883279 0.01914984947605872 0 -0.006633490239469542 0.018092775136399973 0 -0.007909257435229286 0.018415039449463298 0 -0.008957433512817246 0.01871911699619367 0 -0.007909257435229286 0.018415039449463298 0 -0.0081309657691069973 0.019774814808459582 0 -0.0071766848207883279 0.01914984947605872 0 -0.007909257435229286 0.018415039449463298 0 -0.0081309657691069973 0.019774814808459582 0 -0.0087372776123041812 0.017488510302713475 0 -0.008957433512817246 0.01871911699619367 0 -0.007909257435229286 0.018415039449463298 0 -0.0071766848207883279 0.01914984947605872 0 -0.0081309657691069973 0.019774814808459582 0 -0.0069643022560898389 0.020045728836753943 0 -0.0081309657691069973 0.019774814808459582 0 -0.0069643022560898389 0.020045728836753943 0 -0.0074155524223930231 0.020938440774724412 0 -0.0071766848207883279 0.01914984947605872 0 -0.0069643022560898389 0.020045728836753943 0 -0.0061325145391482282 0.019548424307597068 0 -0.0069643022560898389 0.020045728836753943 0 -0.0061325145391482282 0.019548424307597068 0 -0.0061862765285123139 0.020594874159433504 0 -0.0061862765285123139 0.020594874159433504 0 -0.0063736146176382475 0.021448397369274577 0 -0.0074155524223930231 0.020938440774724412 0 -0.0069643022560898389 0.020045728836753943 0 -0.0061862765285123139 0.020594874159433504 0 -0.0074155524223930231 0.020938440774724412 0 -0.0063736146176382475 0.021448397369274577 0 -0.0074155524223930231 0.020938440774724412 0 -0.0070930188301620029 0.021974024478169773 0 -0.0087312271906607314 0.020906192185400983 0 -0.0074155524223930231 0.020938440774724412 0 -0.0081073936897524609 0.02168930617256562 0 -0.0087312271906607314 0.020906192185400983 0 -0.0081309657691069973 0.019774814808459582 0 -0.0074155524223930231 0.020938440774724412 0 -0.0074155524223930231 0.020938440774724412 0 -0.0081073936897524609 0.02168930617256562 0 -0.0070930188301620029 0.021974024478169773 0 -0.0060719747669715531 0.019259211961288117 0 -0.0049931312334385667 0.020603562130463778 0 -0.0080373187872757011 0.02282870198960819 0 -0.0070930188301620029 0.021974024478169773 0 -0.0066924186289589746 0.022902513772722774 0 -0.0091806586370788545 0.02180051394227216 0 -0.0081073936897524609 0.02168930617256562 0 -0.0081028110189063467 0.022819067144335629 0 -0.0081073936897524609 0.02168930617256562 0 -0.0081028110189063467 0.022819067144335629 0 -0.0070930188301620029 0.021974024478169773 0 -0.0060719747669715531 0.019259211961288117 0 -0.0078164856168067617 0.021675933456785288 0 -0.0049931312334385667 0.020603562130463778 0 -0.0049128338068816753 0.021035863504234018 0 -0.0060970434558764997 0.022179123891852715 0 -0.0066924186289589746 0.022902513772722774 0 -0.0053182760164850011 0.022961935671018101 0 -0.0063736146176382475 0.021448397369274577 0 -0.0060970434558764997 0.022179123891852715 0 -0.0070930188301620029 0.021974024478169773 0 -0.0060970434558764997 0.022179123891852715 0 -0.0070930188301620029 0.021974024478169773 0 -0.0066924186289589746 0.022902513772722774 0 -0.0063736146176382475 0.021448397369274577 0 -0.0060970434558764997 0.022179123891852715 0 -0.0049168671837246302 0.021672076291022319 0 -0.0060970434558764997 0.022179123891852715 0 -0.0053182760164850011 0.022961935671018101 0 -0.0049168671837246302 0.021672076291022319 0 -0.0049128338068816753 0.021035863504234018 0 -0.0048341487953515345 0.021265847629315146 0 -0.0048071115470360538 0.021384818396576463 0 -0.0046537510324495754 0.020907276439328378 0 -0.0045187920020735867 0.021207957107431549 0 -0.0046015198252503759 0.021393667893060481 0 -0.0048071115470360538 0.021384818396576463 0 -0.0045187920020735867 0.021207957107431549 0 -0.0048134762034880959 0.021079885032519868 0 -0.0049128338068816753 0.021035863504234018 0 -0.0048341487953515345 0.021265847629315146 0 -0.004622212403219147 0.020676573152596755 0 -0.0049168671837246302 0.021672076291022319 0 -0.005320976550470596 0.020156826712684421 0 -0.0044920362907453935 0.020386473762601279 0 -0.0061862765285123139 0.020594874159433504 0 -0.0063736146176382475 0.021448397369274577 0 -0.0049168671837246302 0.021672076291022319 0 -0.0061862765285123139 0.020594874159433504 0 -0.0049168671837246302 0.021672076291022319 0 -0.005320976550470596 0.020156826712684421 0 -0.0046537510324495754 0.020907276439328378 0 -0.0040712335507566266 0.020662822346647243 0 -0.0042242312219590902 0.021089467836380542 0 -0.0046537510324495754 0.020907276439328378 0 -0.0040712335507566266 0.020662822346647243 0 -0.0044920362907453935 0.020386473762601279 0 -0.0046537510324495754 0.020907276439328378 0 -0.0042242312219590902 0.021089467836380542 0 -0.0045187920020735867 0.021207957107431549 0 -0.0043360060244653862 0.021386821471656516 0 -0.0046015198252503759 0.021393667893060481 0 -0.0045187920020735867 0.021207957107431549 0 -0.004071605930915166 0.021451978653183452 0 -0.0043360060244653862 0.021386821471656516 0 -0.0042242312219590902 0.021089467836380542 0 -0.0043360060244653862 0.021386821471656516 0 -0.0042242312219590902 0.021089467836380542 0 -0.0045187920020735867 0.021207957107431549 0 -0.004071605930915166 0.021451978653183452 0 -0.003695065407759786 0.021241190556414734 0 -0.0037409174332052333 0.020870405341196645 0 -0.004071605930915166 0.021451978653183452 0 -0.0042242312219590902 0.021089467836380542 0 -0.0037409174332052333 0.020870405341196645 0 -0.0034512309269939512 0.021448450617966314 0 -0.003695065407759786 0.021241190556414734 0 -0.0033647897756746907 0.02082453801841605 0 -0.003695065407759786 0.021241190556414734 0 -0.0033647897756746907 0.02082453801841605 0 -0.0037409174332052333 0.020870405341196645 0 -0.003352846437506819 0.02052061696446664 0 -0.0037409174332052333 0.020870405341196645 0 -0.0034584596932776303 0.020307952129402337 0 -0.0033647897756746907 0.02082453801841605 0 -0.003352846437506819 0.02052061696446664 0 -0.0037409174332052333 0.020870405341196645 0 -0.0040712335507566266 0.020662822346647243 0 -0.0042242312219590902 0.021089467836380542 0 -0.0037409174332052333 0.020870405341196645 0 -0.0040712335507566266 0.020662822346647243 0 -0.0037409174332052333 0.020870405341196645 0 -0.0034584596932776303 0.020307952129402337 0 -0.0040712335507566266 0.020662822346647243 0 -0.0034584596932776303 0.020307952129402337 0 -0.0037109113586140628 0.020028210800463127 0 -0.0034584596932776303 0.020307952129402337 0 -0.0033688810610050884 0.020018270662620904 0 -0.0037109113586140628 0.020028210800463127 0 -0.0033688810610050884 0.020018270662620904 0 -0.0037109113586140628 0.020028210800463127 0 -0.0032947005105708384 0.01969943497058017 0 -0.0034584596932776303 0.020307952129402337 0 -0.0031725752494665316 0.020296523040497002 0 -0.0032108622461695185 0.020038121134330993 0 -0.003352846437506819 0.02052061696446664 0 -0.0034584596932776303 0.020307952129402337 0 -0.0031725752494665316 0.020296523040497002 0 -0.0034584596932776303 0.020307952129402337 0 -0.0033688810610050884 0.020018270662620904 0 -0.0032108622461695185 0.020038121134330993 0 -0.0031725752494665316 0.020296523040497002 0 -0.0032108622461695185 0.020038121134330993 0 -0.0030812296597803068 0.020167280824766268 0 -0.0032108622461695185 0.020038121134330993 0 -0.0031007561906390485 0.020099346064765024 0 -0.0030812296597803068 0.020167280824766268 0 -0.0032108622461695185 0.020038121134330993 0 -0.0031584567387171678 0.020002045811351746 0 -0.0032947005105708384 0.01969943497058017 0 -0.0032108622461695185 0.020038121134330993 0 -0.0031584567387171678 0.020002045811351746 0 -0.0031007561906390485 0.020099346064765024 0 -0.0032947005105708384 0.01969943497058017 0 -0.0035603028494891192 0.019319405329292272 0 -0.0031483785504218325 0.018852011773610258 0 -0.0037109113586140628 0.020028210800463127 0 -0.0032947005105708384 0.01969943497058017 0 -0.0035603028494891192 0.019319405329292272 0 -0.0033688810610050884 0.020018270662620904 0 -0.0032108622461695185 0.020038121134330993 0 -0.0032947005105708384 0.01969943497058017 0 -0.0037109113586140628 0.020028210800463127 0 -0.0035603028494891192 0.019319405329292272 0 -0.0043850298758346439 0.019620526166916556 0 -0.0035603028494891192 0.019319405329292272 0 -0.004424079504233889 0.018622828742483111 0 -0.0043850298758346439 0.019620526166916556 0 -0.0035603028494891192 0.019319405329292272 0 -0.004424079504233889 0.018622828742483111 0 -0.0039226300986130733 0.017488343675757297 0 -0.004424079504233889 0.018622828742483111 0 -0.0052963275618998365 0.018946649038132746 0 -0.005210497502282435 0.017438982348210993 0 -0.006633490239469542 0.018092775136399973 0 -0.0052963275618998365 0.018946649038132746 0 -0.005210497502282435 0.017438982348210993 0 -0.004424079504233889 0.018622828742483111 0 -0.0052963275618998365 0.018946649038132746 0 -0.0043850298758346439 0.019620526166916556 0 -0.0061325145391482282 0.019548424307597068 0 -0.0052963275618998365 0.018946649038132746 0 -0.005320976550470596 0.020156826712684421 0 -0.0052963275618998365 0.018946649038132746 0 -0.005320976550470596 0.020156826712684421 0 -0.0043850298758346439 0.019620526166916556 0 -0.0061325145391482282 0.019548424307597068 0 -0.0061862765285123139 0.020594874159433504 0 -0.005320976550470596 0.020156826712684421 0 -0.005320976550470596 0.020156826712684421 0 -0.0044920362907453935 0.020386473762601279 0 -0.0043850298758346439 0.019620526166916556 0 -0.0040712335507566266 0.020662822346647243 0 -0.0037109113586140628 0.020028210800463127 0 -0.0044920362907453935 0.020386473762601279 0 -0.0037109113586140628 0.020028210800463127 0 -0.0044920362907453935 0.020386473762601279 0 -0.0043850298758346439 0.019620526166916556 0 0.0031043545424561036 0.027671987339053648 0 0.0028615382540208034 0.028332225993462461 0 0.0021723733303813061 0.027709450504533134 0 -0.0018223117592031184 0.021484132311547961 0 -0.0022866059497206066 0.021274508716983238 0 -0.0022990903191131896 0.020782581258135684 0 0.0012541544488793605 0.024116060976929182 0 -2.9842845676393418e-05 0.024181877381235065 0 0.0006330987577347311 0.023469588207116705 0 0.00068966416254796043 0.02336979112203828 0 0.00052269209283477118 0.023404128923403239 0 -0.0018223117592031184 0.021484132311547961 0 -0.002584474005320764 0.021707639706306792 0 -0.0022866059497206066 0.021274508716983238 0 0.0012541544488793605 0.024116060976929182 0 -0.0018590207332036444 0.02199515852235609 0 -0.0018590207332036444 0.02199515852235609 0 -0.0026738275511024021 0.021490795966133323 0 -0.0018590207332036444 0.02199515852235609 0 -0.0027732578098667721 0.020609641808604761 0 -0.002584474005320764 0.021707639706306792 0 -0.0022866059497206066 0.021274508716983238 0 -0.0028416873578656523 0.02090380997026697 0 -0.0022866059497206066 0.021274508716983238 0 -0.0028416873578656523 0.02090380997026697 0 -0.0022990903191131896 0.020782581258135684 0 -0.0025434335555493395 0.020992353687521424 0 -0.0027353153877654698 0.020491329610536037 0 -0.0029413795349279722 0.020771088846384622 0 -0.0027353153877654698 0.020491329610536037 0 -0.0029413795349279722 0.020771088846384622 0 -0.0030729983941369817 0.02052890450093835 0 -0.0034512309269939512 0.021448450617966314 0 -0.0029413795349279722 0.020771088846384622 0 -0.0025736861621501925 0.021236061374908643 0 -0.0025434335555493395 0.020992353687521424 0 -0.0029413795349279722 0.020771088846384622 0 -0.0027226201920556802 0.021044069543307876 0 -0.0029427307574551565 0.020954316438835188 0 -0.0026738275511024021 0.021490795966133323 0 -0.0034512309269939512 0.021448450617966314 0 -0.0033647897756746907 0.02082453801841605 0 -0.0029413795349279722 0.020771088846384622 0 -0.0033647897756746907 0.02082453801841605 0 -0.0029413795349279722 0.020771088846384622 0 -0.0030729983941369817 0.02052890450093835 0 -0.003352846437506819 0.02052061696446664 0 -0.0031725752494665316 0.020296523040497002 0 -0.0030729983941369817 0.02052890450093835 0 -0.0033647897756746907 0.02082453801841605 0 -0.003352846437506819 0.02052061696446664 0 -0.0030729983941369817 0.02052890450093835 0 -0.0031725752494665316 0.020296523040497002 0 -0.0030729983941369817 0.02052890450093835 0 -0.0030046842476064198 0.020323668391867441 0 -0.0031725752494665316 0.020296523040497002 0 -0.0030046842476064198 0.020323668391867441 0 -0.0030812296597803068 0.020167280824766268 0 -0.0031007561906390485 0.020099346064765024 0 -0.0030812296597803068 0.020167280824766268 0 -0.0030446396064877541 0.020176779334323082 0 -0.0030812296597803068 0.020167280824766268 0 -0.0030446396064877541 0.020176779334323082 0 -0.0029848235198081589 0.020213260887626545 0 -0.0030046842476064198 0.020323668391867441 0 -0.0030812296597803068 0.020167280824766268 0 -0.0029848235198081589 0.020213260887626545 0 -0.0027732578098667721 0.020609641808604761 0 -0.0029179185453984619 0.020340112852292459 0 -0.0028416873578656523 0.02090380997026697 0 -0.0029848235198081589 0.020213260887626545 0 -0.0027810518248269512 0.020188296204890942 0 -0.0027353153877654698 0.020491329610536037 0 -0.0030729983941369817 0.02052890450093835 0 -0.0030046842476064198 0.020323668391867441 0 -0.0027353153877654698 0.020491329610536037 0 -0.0030046842476064198 0.020323668391867441 0 -0.0029848235198081589 0.020213260887626545 0 -0.0010165151988536373 0.023302170433264886 0 -2.9842845676393418e-05 0.024181877381235065 0 -0.0028416873578656523 0.02090380997026697 0 -0.0027810518248269512 0.020188296204890942 0 -0.0022990903191131896 0.020782581258135684 0 0.00074891129414852455 0.0265535684133258 0 0.0027421932059696662 0.026783696357965733 0 0.0021723733303813061 0.027709450504533134 0 0.00074891129414852455 0.0265535684133258 0 0.0027421932059696662 0.026783696357965733 0 0.001803031053532426 0.025726933880786469 0 0.0031043545424561036 0.027671987339053648 0 0.0027421932059696662 0.026783696357965733 0 0.0021723733303813061 0.027709450504533134 0 0.0034565920342386038 0.022576687664591647 0 0.0021239624600904801 0.022664808260513938 0 0.0030605063362862681 0.024265909927481521 0 0.0021239624600904801 0.022664808260513938 0 0.0018841468717900999 0.024306086091566363 0 0.0030605063362862681 0.024265909927481521 0 0.0018841468717900999 0.024306086091566363 0 0.0030605063362862681 0.024265909927481521 0 0.0027731567285572446 0.025769559810476093 0 0.0040237547477116912 0.026452960739786157 0 0.0027421932059696662 0.026783696357965733 0 0.0027731567285572446 0.025769559810476093 0 0.0027421932059696662 0.026783696357965733 0 0.0027731567285572446 0.025769559810476093 0 0.001803031053532426 0.025726933880786469 0 0.0018841468717900999 0.024306086091566363 0 0.0027731567285572446 0.025769559810476093 0 0.001803031053532426 0.025726933880786469 0 0.0018841468717900999 0.024306086091566363 0 0.001803031053532426 0.025726933880786469 0 0.00082592863693604262 0.024761535369317866 0 0.00074891129414852455 0.0265535684133258 0 0.001803031053532426 0.025726933880786469 0 0.00082592863693604262 0.024761535369317866 0 0.0018841468717900999 0.024306086091566363 0 0.00082592863693604262 0.024761535369317866 0 0.00073382158770181794 0.022926974021418328 0 0.0021239624600904801 0.022664808260513938 0 0.0018841468717900999 0.024306086091566363 0 0.00073382158770181794 0.022926974021418328 0 0.00082592863693604262 0.024761535369317866 0 0.00073382158770181794 0.022926974021418328 0 -0.0011398252869704965 0.024052204153437104 0 0.00073382158770181794 0.022926974021418328 0 -0.0011398252869704965 0.024052204153437104 0 -0.00048202047762008589 0.021100005389908739 0 -0.0011398252869704965 0.024052204153437104 0 -0.002645911705552543 0.020632910307767316 0 -0.00048202047762008589 0.021100005389908739 0 0.00074891129414852455 0.0265535684133258 0 0.00082592863693604262 0.024761535369317866 0 -0.0011398252869704965 0.024052204153437104 0 -0.0030446396064877541 0.020176779334323082 0 -0.0029848235198081589 0.020213260887626545 0 -0.0030640735645095238 0.020256392797375192 0 -0.0029848235198081589 0.020213260887626545 0 -0.0027810518248269512 0.020188296204890942 0 -0.0030640735645095238 0.020256392797375192 0 -0.0010165151988536373 0.023302170433264886 0 -0.0019908320076317066 0.022074471952083938 0 -0.0030640735645095238 0.020256392797375192 0 -0.0030275249001391956 0.020206141813113157 0 -0.002900426582537629 0.020423312471334651 0 -0.0030446396064877541 0.020176779334323082 0 -0.0030640735645095238 0.020256392797375192 0 -0.0030275249001391956 0.020206141813113157 0 -0.0031007561906390485 0.020099346064765024 0 -0.0030446396064877541 0.020176779334323082 0 -0.0030275249001391956 0.020206141813113157 0 -0.0030640735645095238 0.020256392797375192 0 -0.002900426582537629 0.020423312471334651 0 -0.002645911705552543 0.020632910307767316 0 -0.0019908320076317066 0.022074471952083938 0 -0.0025826659747901974 0.020980589495216247 0 -0.002900426582537629 0.020423312471334651 0 -0.002645911705552543 0.020632910307767316 0 -0.0031954906182146397 0.020335016710991475 0 -0.002645911705552543 0.020632910307767316 0 -0.0013585758071920466 0.020014434233365439 0 -0.00048202047762008589 0.021100005389908739 0 -0.002645911705552543 0.020632910307767316 0 -0.002061268010912976 0.019479283308467408 0 -0.0013585758071920466 0.020014434233365439 0 -0.002645911705552543 0.020632910307767316 0 -0.002061268010912976 0.019479283308467408 0 -0.0031954906182146397 0.020335016710991475 0 -0.002061268010912976 0.019479283308467408 0 -0.0031954906182146397 0.020335016710991475 0 -0.0023057859992161927 0.017107821917758951 0 -0.002061268010912976 0.019479283308467408 0 -0.00064611800736710388 0.018963890549521946 0 -0.0023057859992161927 0.017107821917758951 0 -0.002061268010912976 0.019479283308467408 0 -0.00064611800736710388 0.018963890549521946 0 -0.0013585758071920466 0.020014434233365439 0 -0.00064611800736710388 0.018963890549521946 0 0.00016364919124869836 0.019955401399503244 0 -0.0013585758071920466 0.020014434233365439 0 -0.00064611800736710388 0.018963890549521946 0 0.00016364919124869836 0.019955401399503244 0 0.0011007052925485798 0.01870074467793683 0 0.00016364919124869836 0.019955401399503244 0 -0.0013585758071920466 0.020014434233365439 0 -0.00048202047762008589 0.021100005389908739 0 0.0021239624600904801 0.022664808260513938 0 0.00073382158770181794 0.022926974021418328 0 0.0012367998520491554 0.020826567623982183 0 0.00016364919124869836 0.019955401399503244 0 -0.00048202047762008589 0.021100005389908739 0 0.0012367998520491554 0.020826567623982183 0 0.00073382158770181794 0.022926974021418328 0 -0.00048202047762008589 0.021100005389908739 0 0.0012367998520491554 0.020826567623982183 0 0.00016364919124869836 0.019955401399503244 0 0.0012367998520491554 0.020826567623982183 0 0.0011007052925485798 0.01870074467793683 0 0.0012367998520491554 0.020826567623982183 0 0.0011007052925485798 0.01870074467793683 0 0.0022337733669936756 0.019644901338597014 0 0.0011007052925485798 0.01870074467793683 0 0.0022337733669936756 0.019644901338597014 0 0.0024810525662674388 0.018479820645543158 0 0.0022337733669936756 0.019644901338597014 0 0.0035207775660364557 0.019028683646604247 0 0.0024810525662674388 0.018479820645543158 0 0.0022337733669936756 0.019644901338597014 0 0.0035207775660364557 0.019028683646604247 0 0.0034101666131204572 0.020208572600561667 0 0.0022337733669936756 0.019644901338597014 0 0.0034101666131204572 0.020208572600561667 0 0.0026609900945611595 0.021199552945518917 0 0.0038777892319050611 0.021510900370127744 0 0.0034101666131204572 0.020208572600561667 0 0.0026609900945611595 0.021199552945518917 0 0.0012367998520491554 0.020826567623982183 0 0.0022337733669936756 0.019644901338597014 0 0.0026609900945611595 0.021199552945518917 0 0.0021239624600904801 0.022664808260513938 0 0.0012367998520491554 0.020826567623982183 0 0.0026609900945611595 0.021199552945518917 0 0.0034565920342386038 0.022576687664591647 0 0.0021239624600904801 0.022664808260513938 0 0.0026609900945611595 0.021199552945518917 0 0.0034565920342386038 0.022576687664591647 0 0.0038777892319050611 0.021510900370127744 0 0.0026609900945611595 0.021199552945518917 0 -0.0040417842125254847 0.015927197710923078 0 -0.0039226300986130733 0.017488343675757297 0 -0.0023763918248064465 0.015955379361874612 0 -0.0040417842125254847 0.015927197710923078 0 -0.0023763918248064465 0.015955379361874612 0 -0.0033492021070437921 0.014257603513554689 0 -0.0040417842125254847 0.015927197710923078 0 -0.0033492021070437921 0.014257603513554689 0 -0.0047523672754794834 0.014512278955104719 0 -0.0040417842125254847 0.015927197710923078 0 -0.0053508586380632602 0.015834190401857413 0 -0.0047523672754794834 0.014512278955104719 0 -0.0061414340182434852 0.014109635040581901 0 -0.0053508586380632602 0.015834190401857413 0 -0.0047523672754794834 0.014512278955104719 0 -0.0040417842125254847 0.015927197710923078 0 -0.0053508586380632602 0.015834190401857413 0 -0.005210497502282435 0.017438982348210993 0 -0.0068247637438207691 0.016655774298943139 0 -0.0053508586380632602 0.015834190401857413 0 -0.005210497502282435 0.017438982348210993 0 -0.004424079504233889 0.018622828742483111 0 -0.005210497502282435 0.017438982348210993 0 -0.0039226300986130733 0.017488343675757297 0 -0.0035603028494891192 0.019319405329292272 0 -0.0039226300986130733 0.017488343675757297 0 -0.0023763918248064465 0.015955379361874612 0 -0.0040417842125254847 0.015927197710923078 0 -0.005210497502282435 0.017438982348210993 0 -0.0039226300986130733 0.017488343675757297 0 -0.0033548061372761229 0.018952101264077047 0 -0.0029916689277136492 0.017323527046315203 0 -0.0035603028494891192 0.019319405329292272 0 -0.0031483785504218325 0.018852011773610258 0 -0.0034864056835380184 0.018737168049056053 0 -0.0032242387270476321 0.019752476428268703 0 -0.0031042483975989806 0.01961143355959984 0 -0.0031584567387171678 0.020002045811351746 0 -0.0032947005105708384 0.01969943497058017 0 -0.0029450022697927289 0.020346162295447678 0 -0.0031584567387171678 0.020002045811351746 0 -0.0030433558809795161 0.020193773844231648 0 -0.0029450022697927289 0.020346162295447678 0 -0.002900426582537629 0.020423312471334651 0 -0.0030433558809795161 0.020193773844231648 0 -0.0029450022697927289 0.020346162295447678 0 -0.0031584567387171678 0.020002045811351746 0 -0.0031007561906390485 0.020099346064765024 0 -0.0030433558809795161 0.020193773844231648 0 -0.0031007561906390485 0.020099346064765024 0 -0.0030275249001391956 0.020206141813113157 0 -0.0030433558809795161 0.020193773844231648 0 -0.0030275249001391956 0.020206141813113157 0 -0.002900426582537629 0.020423312471334651 0 -0.0030433558809795161 0.020193773844231648 0 -0.0031483785504218325 0.018852011773610258 0 -0.003242523289715003 0.018451344255179983 0 -0.0028600554036224434 0.018158935242726298 0 -0.002900426582537629 0.020423312471334651 0 -0.0029450022697927289 0.020346162295447678 0 -0.0031954906182146397 0.020335016710991475 0 -0.0031042483975989806 0.01961143355959984 0 -0.0029313849100388784 0.019033768606141921 0 -0.0031483785504218325 0.018852011773610258 0 -0.0034864056835380184 0.018737168049056053 0 -0.003242523289715003 0.018451344255179983 0 -0.0034864056835380184 0.018737168049056053 0 -0.003242523289715003 0.018451344255179983 0 -0.0035547573116097202 0.017964211060659905 0 -0.003242523289715003 0.018451344255179983 0 -0.0028600554036224434 0.018158935242726298 0 -0.0035547573116097202 0.017964211060659905 0 -0.0029916689277136492 0.017323527046315203 0 -0.0026659220650904853 0.015091144404286843 0 -0.0028600554036224434 0.018158935242726298 0 -0.0030353229120241806 0.017497137431734307 0 -0.0023057859992161927 0.017107821917758951 0 -0.0029313849100388784 0.019033768606141921 0 -0.0024539080095153281 0.017456502151362609 0 -0.0028600554036224434 0.018158935242726298 0 -0.0030353229120241806 0.017497137431734307 0 -0.0035547573116097202 0.017964211060659905 0 -0.0016825685792555087 0.012402738308462436 0 -0.0044833115178433023 0.01211320266344392 0 -0.0028839903128779348 0.010548159217158086 0 -0.0016825685792555087 0.012402738308462436 0 -0.0033492021070437921 0.014257603513554689 0 -0.0044833115178433023 0.01211320266344392 0 -0.0033492021070437921 0.014257603513554689 0 -0.0047523672754794834 0.014512278955104719 0 -0.0044833115178433023 0.01211320266344392 0 -0.0023763918248064465 0.015955379361874612 0 -0.0016825685792555087 0.012402738308462436 0 -0.0033492021070437921 0.014257603513554689 0 -0.0061414340182434852 0.014109635040581901 0 -0.0047523672754794834 0.014512278955104719 0 -0.0044833115178433023 0.01211320266344392 0 -0.0061414340182434852 0.014109635040581901 0 -0.0067453087325355125 0.012493954247242449 0 -0.0044833115178433023 0.01211320266344392 0 -0.0067453087325355125 0.012493954247242449 0 -0.0044833115178433023 0.01211320266344392 0 -0.0044782630460741459 0.0095581755554782471 0 -0.0034412699196384594 0.0075968443668843694 0 -0.0028663316292402564 0.0073303814307850304 0 -0.00048187768437592282 0.0028138972885639749 0 -0.0015034981948904499 0.0050863104144638748 0 -0.00054376457757047351 0.0044564711902955806 0 -0.0015034981948904499 0.0050863104144638748 0 -0.00070115759736428596 0.0056667645573455832 0 -0.00054376457757047351 0.0044564711902955806 0 -0.0015034981948904499 0.0050863104144638748 0 -0.00070115759736428596 0.0056667645573455832 0 -0.0011462591520802988 0.0066069106274980176 0 -0.00070115759736428596 0.0056667645573455832 0 -0.0011462591520802988 0.0066069106274980176 0 -0.00048737350532563608 0.0065305224398010103 0 -0.0028663316292402564 0.0073303814307850304 0 -0.0022303186988801801 0.0071673270271298975 0 -0.0015034981948904499 0.0050863104144638748 0 -0.0011462591520802988 0.0066069106274980176 0 -0.0019561807241671638 0.0073441908042115303 0 -0.0044782630460741459 0.0095581755554782471 0 -0.0013266733693201793 0.0084719590769275262 0 -0.0019561807241671638 0.0073441908042115303 0 -0.0044833115178433023 0.01211320266344392 0 -0.0044782630460741459 0.0095581755554782471 0 -0.0028839903128779348 0.010548159217158086 0 -0.0044782630460741459 0.0095581755554782471 0 -0.0028839903128779348 0.010548159217158086 0 -0.0013266733693201793 0.0084719590769275262 0 -0.0026659220650904853 0.015091144404286843 0 -0.002528600790612704 0.012542391905681443 0 -0.0016825685792555087 0.012402738308462436 0 -0.0028839903128779348 0.010548159217158086 0 -0.0013266733693201793 0.0084719590769275262 0 -0.0030353229120241806 0.017497137431734307 0 -0.0035547573116097202 0.017964211060659905 0 -0.0036744675297034871 0.016452301904425492 0 -0.0030353229120241806 0.017497137431734307 0 -0.0036744675297034871 0.016452301904425492 0 -0.0023057859992161927 0.017107821917758951 0 -0.002417417269937158 0.015211357316123776 0 -0.0036744675297034871 0.016452301904425492 0 -0.0023057859992161927 0.017107821917758951 0 -0.0013266733693201793 0.0084719590769275262 0 -0.0019614539664196862 0.0073272045085087355 0 -0.0019561807241671638 0.0073441908042115303 0 -0.002417417269937158 0.015211357316123776 0 -0.0036744675297034871 0.016452301904425492 0 -0.0032852852128495216 0.01380603106456189 0 -0.0019614539664196862 0.0073272045085087355 0 -0.0019561807241671638 0.0073441908042115303 0 -0.0014143620055298472 0.007370943921059284 0 -0.002528600790612704 0.012542391905681443 0 -0.0023809613773498324 0.010789410733207471 0 -0.002417417269937158 0.015211357316123776 0 -0.0032852852128495216 0.01380603106456189 0 -0.0018594664932207849 0.013123034220739255 0 -0.002417417269937158 0.015211357316123776 0 -0.0018594664932207849 0.013123034220739255 0 -0.0012440251430714583 0.013823658999595432 0 -0.0032852852128495216 0.01380603106456189 0 -0.0018594664932207849 0.013123034220739255 0 -0.0015263338683003541 0.010557681297041875 0 -0.0018594664932207849 0.013123034220739255 0 -0.0012440251430714583 0.013823658999595432 0 -0.00097899788006269644 0.012317323476288305 0 -0.0023809613773498324 0.010789410733207471 0 -0.0019455277364825755 0.010549030517751842 0 -0.0019614539664196862 0.0073272045085087355 0 -0.0012104176802407495 0.0087806242865249972 0 -0.00093928507039721951 0.0080179336583039648 0 -0.0019614539664196862 0.0073272045085087355 0 -0.0012104176802407495 0.0087806242865249972 0 -0.0015263338683003541 0.010557681297041875 0 -0.0012104176802407495 0.0087806242865249972 0 -0.00093928507039721951 0.0080179336583039648 0 -0.00053561950121579899 0.0087146097938924048 0 -0.00093928507039721951 0.0080179336583039648 0 -0.00023993224819613605 0.0079442791107840784 0 -0.0007534989370758399 0.0073744092431431455 0 -0.00093928507039721951 0.0080179336583039648 0 -0.00023993224819613605 0.0079442791107840784 0 -0.00053561950121579899 0.0087146097938924048 0 -0.00023993224819613605 0.0079442791107840784 0 -0.0007534989370758399 0.0073744092431431455 0 -0.00024278279140302353 0.0072131481545054813 0 -0.0007534989370758399 0.0073744092431431455 0 -0.00024278279140302353 0.0072131481545054813 0 -0.00048737350532563608 0.0065305224398010103 0 -0.0011462591520802988 0.0066069106274980176 0 -0.0007534989370758399 0.0073744092431431455 0 -0.00048737350532563608 0.0065305224398010103 0 -0.0011462591520802988 0.0066069106274980176 0 -0.0007534989370758399 0.0073744092431431455 0 -0.0014143620055298472 0.007370943921059284 0 -0.0019614539664196862 0.0073272045085087355 0 -0.00093928507039721951 0.0080179336583039648 0 -0.0014143620055298472 0.007370943921059284 0 -0.0011462591520802988 0.0066069106274980176 0 -0.0019561807241671638 0.0073441908042115303 0 -0.0014143620055298472 0.007370943921059284 0 -0.00093928507039721951 0.0080179336583039648 0 -0.0007534989370758399 0.0073744092431431455 0 -0.0014143620055298472 0.007370943921059284 0 0.0026793289998639489 0.016676602020005721 0 0.0014255084797974572 0.015468625552945469 0 0.0029047961360687017 0.014927509173745634 0 0.0042381801283694568 0.017847888818557776 0 0.0026793289998639489 0.016676602020005721 0 0.0029047961360687017 0.014927509173745634 0 0.0042381801283694568 0.017847888818557776 0 0.0026793289998639489 0.016676602020005721 0 0.0030413308271170728 0.017884155402961635 0 0.0035207775660364557 0.019028683646604247 0 0.0030413308271170728 0.017884155402961635 0 0.0024810525662674388 0.018479820645543158 0 0.0011007052925485798 0.01870074467793683 0 0.0024810525662674388 0.018479820645543158 0 0.0023292775769236294 0.017465281020588867 0 0.0030413308271170728 0.017884155402961635 0 0.0024810525662674388 0.018479820645543158 0 0.0023292775769236294 0.017465281020588867 0 0.0026793289998639489 0.016676602020005721 0 0.0030413308271170728 0.017884155402961635 0 0.0023292775769236294 0.017465281020588867 0 0.0026793289998639489 0.016676602020005721 0 0.0023292775769236294 0.017465281020588867 0 0.0013065787172940727 0.016996415108342905 0 0.0011007052925485798 0.01870074467793683 0 0.0023292775769236294 0.017465281020588867 0 0.0013065787172940727 0.016996415108342905 0 0.0011007052925485798 0.01870074467793683 0 0.0013065787172940727 0.016996415108342905 0 -0.00015540826464634355 0.017411006240549348 0 0.0013065787172940727 0.016996415108342905 0 0.00048757326932676053 0.016085405820871194 0 -0.00015540826464634355 0.017411006240549348 0 0.0013065787172940727 0.016996415108342905 0 0.00048757326932676053 0.016085405820871194 0 0.0014255084797974572 0.015468625552945469 0 0.0026793289998639489 0.016676602020005721 0 0.0013065787172940727 0.016996415108342905 0 0.0014255084797974572 0.015468625552945469 0 0.00048757326932676053 0.016085405820871194 0 0.0014255084797974572 0.015468625552945469 0 0.00025321860757153138 0.014734000894817795 0 -0.00060508323457911662 0.016109711485456354 0 -0.00133570294857731 0.015231799437311807 0 0.00025321860757153138 0.014734000894817795 0 0.00048757326932676053 0.016085405820871194 0 -0.00060508323457911662 0.016109711485456354 0 0.00025321860757153138 0.014734000894817795 0 0.00048757326932676053 0.016085405820871194 0 -0.00060508323457911662 0.016109711485456354 0 -0.00015540826464634355 0.017411006240549348 0 -0.00064611800736710388 0.018963890549521946 0 0.0011007052925485798 0.01870074467793683 0 -0.00015540826464634355 0.017411006240549348 0 -0.00064611800736710388 0.018963890549521946 0 -0.00015540826464634355 0.017411006240549348 0 -0.0023057859992161927 0.017107821917758951 0 -0.00060508323457911662 0.016109711485456354 0 -0.00015540826464634355 0.017411006240549348 0 -0.0023057859992161927 0.017107821917758951 0 -0.00060508323457911662 0.016109711485456354 0 -0.0023057859992161927 0.017107821917758951 0 -0.00133570294857731 0.015231799437311807 0 -0.002417417269937158 0.015211357316123776 0 -0.0023057859992161927 0.017107821917758951 0 -0.00133570294857731 0.015231799437311807 0 -0.00133570294857731 0.015231799437311807 0 -0.0012440251430714583 0.013823658999595432 0 -0.0002880291971125397 0.013514294608206748 0 -0.002417417269937158 0.015211357316123776 0 -0.00133570294857731 0.015231799437311807 0 -0.0012440251430714583 0.013823658999595432 0 -0.0012440251430714583 0.013823658999595432 0 -0.0002880291971125397 0.013514294608206748 0 -0.00097899788006269644 0.012317323476288305 0 -0.0002880291971125397 0.013514294608206748 0 -0.0001878627508542224 0.012355155072169289 0 -0.00097899788006269644 0.012317323476288305 0 -0.0002880291971125397 0.013514294608206748 0 0.00048607256521181972 0.013127657400554382 0 -0.0001878627508542224 0.012355155072169289 0 -0.0002880291971125397 0.013514294608206748 0 0.00025321860757153138 0.014734000894817795 0 0.00048607256521181972 0.013127657400554382 0 -0.00133570294857731 0.015231799437311807 0 -0.0002880291971125397 0.013514294608206748 0 0.00025321860757153138 0.014734000894817795 0 0.00025321860757153138 0.014734000894817795 0 0.0012770743384044223 0.014143445190695334 0 0.00048607256521181972 0.013127657400554382 0 0.0014255084797974572 0.015468625552945469 0 0.00025321860757153138 0.014734000894817795 0 0.0012770743384044223 0.014143445190695334 0 0.00048607256521181972 0.013127657400554382 0 0.0014311282811469708 0.012686575470431926 0 0.00023773283179298691 0.012282695702708799 0 0.0012770743384044223 0.014143445190695334 0 0.00048607256521181972 0.013127657400554382 0 0.0014311282811469708 0.012686575470431926 0 0.00087392791639758025 0.014562186101542605 0 0.0019537301625776539 0.014897774561945496 0 0.0021267544883650292 0.016578076289341652 0 0.0011326879957463678 0.013736737345717991 0 0.0024846267516114187 0.015760012788664887 0 0.0012770743384044223 0.014143445190695334 0 0.0014311282811469708 0.012686575470431926 0 0.0029047961360687017 0.014927509173745634 0 0.0027251825240770214 0.015958707465959277 0 0.0019537301625776539 0.014897774561945496 0 0.0021267544883650292 0.016578076289341652 0 0.0014255084797974572 0.015468625552945469 0 0.0012770743384044223 0.014143445190695334 0 0.0029047961360687017 0.014927509173745634 0 0.00041312531256762714 0.018661218862233219 0 -0.00029346628439493364 0.018450192648348053 0 0.00016027406978005141 0.017108681855258809 0 0.0001231359239185088 0.019553899033905763 0 -5.5523913694230244e-05 0.01836061047166395 0 0.0002368317368620051 0.016284104821364949 0 -9.7580150581700345e-05 0.015519278977622956 0 0.00041312531256762714 0.018661218862233219 0 -3.7459271883072813e-05 0.020338244327667128 0 -0.00029346628439493364 0.018450192648348053 0 0.00087392791639758025 0.014562186101542605 0 0.0019537301625776539 0.014897774561945496 0 0.00073808523908850873 0.013707319036103413 0 0.00054817123567860019 0.01791300924741886 0 0.0002368317368620051 0.016284104821364949 0 0.0011326879957463678 0.013736737345717991 0 8.6089953340953999e-05 0.012928020125733089 0 0.0014311282811469708 0.012686575470431926 0 0.00023773283179298691 0.012282695702708799 0 -0.00020021253502247266 0.011890430204199358 0 0.00087392791639758025 0.014562186101542605 0 0.00073808523908850873 0.013707319036103413 0 1.0595799279290991e-05 0.013463610970817951 0 0.00023773283179298691 0.012282695702708799 0 -0.00020021253502247266 0.011890430204199358 0 -0.00013027948033667974 0.011961440875374901 0 0.00073808523908850873 0.013707319036103413 0 1.0595799279290991e-05 0.013463610970817951 0 -0.00025320716619410761 0.013610320956934612 0 -0.00020021253502247266 0.011890430204199358 0 -0.00013027948033667974 0.011961440875374901 0 -3.5366140793247598e-05 0.012508949213136271 0 -0.00013027948033667974 0.011961440875374901 0 -0.00023150233630577131 0.011980461889519688 0 -3.5366140793247598e-05 0.012508949213136271 0 0.00023773283179298691 0.012282695702708799 0 -0.00013027948033667974 0.011961440875374901 0 -0.0001878627508542224 0.012355155072169289 0 0.00048607256521181972 0.013127657400554382 0 0.00023773283179298691 0.012282695702708799 0 -0.0001878627508542224 0.012355155072169289 0 -0.00013027948033667974 0.011961440875374901 0 -0.0001878627508542224 0.012355155072169289 0 -0.00058095075312397204 0.01178661525304228 0 -0.0001878627508542224 0.012355155072169289 0 -0.00097899788006269644 0.012317323476288305 0 -0.00058095075312397204 0.01178661525304228 0 -0.00013027948033667974 0.011961440875374901 0 -0.00058095075312397204 0.01178661525304228 0 -0.00023150233630577131 0.011980461889519688 0 -0.00058095075312397204 0.01178661525304228 0 -0.00023150233630577131 0.011980461889519688 0 -0.0015263338683003541 0.010557681297041875 0 -0.00023150233630577131 0.011980461889519688 0 -6.4099547503763705e-05 0.01287091901604008 0 -0.00035266746770526859 0.011527918693479872 0 -0.00023150233630577131 0.011980461889519688 0 -6.4099547503763705e-05 0.01287091901604008 0 -3.5366140793247598e-05 0.012508949213136271 0 -6.4099547503763705e-05 0.01287091901604008 0 7.2010376146016408e-07 0.013609358260862799 0 -0.00035266746770526859 0.011527918693479872 0 -6.4099547503763705e-05 0.01287091901604008 0 7.2010376146016408e-07 0.013609358260862799 0 -5.7366364623940544e-05 0.014236549273889211 0 7.2010376146016408e-07 0.013609358260862799 0 -5.7366364623940544e-05 0.014236549273889211 0 -2.4757753803150163e-06 0.015500971440303494 0 -6.4099547503763705e-05 0.01287091901604008 0 -5.7366364623940544e-05 0.014236549273889211 0 -3.5366140793247598e-05 0.012508949213136271 0 -0.00020021253502247266 0.011890430204199358 0 -5.7366364623940544e-05 0.014236549273889211 0 -3.5366140793247598e-05 0.012508949213136271 0 8.6089953340953999e-05 0.012928020125733089 0 5.363701283265947e-05 0.013911676509966742 0 1.0595799279290991e-05 0.013463610970817951 0 -5.7366364623940544e-05 0.014236549273889211 0 -0.00025320716619410761 0.013610320956934612 0 -0.00027474372208122509 0.017002817787791925 0 -1.3668883420670177e-06 0.015510896158117354 0 1.1347201129769674e-06 0.016740213018969625 0 -5.7366364623940544e-05 0.014236549273889211 0 -0.00025320716619410761 0.013610320956934612 0 -2.4757753803150163e-06 0.015500971440303494 0 -9.7580150581700345e-05 0.015519278977622956 0 -6.9528346728622569e-08 0.015505942504287471 0 -1.8941146168656714e-07 0.016746073379591195 0 -5.5523913694230244e-05 0.01836061047166395 0 6.4511330197212407e-05 0.019257656199955422 0 -2.4190678126416283e-06 0.016748353736753027 0 -0.00060903410270739765 0.019585341946103587 0 -0.00027474372208122509 0.017002817787791925 0 1.1347201129769674e-06 0.016740213018969625 0 0.00016027406978005141 0.017108681855258809 0 -0.00029346628439493364 0.018450192648348053 0 -0.00027474372208122509 0.017002817787791925 0 0.00016027406978005141 0.017108681855258809 0 -0.00029926990511396361 0.0093345183363007234 0 -0.0015263338683003541 0.010557681297041875 0 -0.00029846375834923319 0.010336611613002396 0 -0.00029926990511396361 0.0093345183363007234 0 1.4630744402660221e-05 0.0086219829694397752 0 7.9670802759712529e-06 0.0083250455948660554 0 -0.00029926990511396361 0.0093345183363007234 0 -0.00053561950121579899 0.0087146097938924048 0 7.9670802759712529e-06 0.0083250455948660554 0 -0.00023993224819613605 0.0079442791107840784 0 -0.00053561950121579899 0.0087146097938924048 0 7.9670802759712529e-06 0.0083250455948660554 0 -0.00029926990511396361 0.0093345183363007234 0 -0.00053561950121579899 0.0087146097938924048 0 -0.0015263338683003541 0.010557681297041875 0 -0.0012104176802407495 0.0087806242865249972 0 -0.00053561950121579899 0.0087146097938924048 0 -0.0015263338683003541 0.010557681297041875 0 -0.0018594664932207849 0.013123034220739255 0 -0.00097899788006269644 0.012317323476288305 0 -0.0015263338683003541 0.010557681297041875 0 -0.00097899788006269644 0.012317323476288305 0 -0.00058095075312397204 0.01178661525304228 0 -0.0015263338683003541 0.010557681297041875 0 -0.00023150233630577131 0.011980461889519688 0 -0.0015263338683003541 0.010557681297041875 0 -0.00035266746770526859 0.011527918693479872 0 -0.0015263338683003541 0.010557681297041875 0 -0.00035266746770526859 0.011527918693479872 0 -0.00029846375834923319 0.010336611613002396 0 7.2010376146016408e-07 0.013609358260862799 0 -0.00035266746770526859 0.011527918693479872 0 -5.6148276651084663e-07 0.011712610561524528 0 -0.00035266746770526859 0.011527918693479872 0 -5.6148276651084663e-07 0.011712610561524528 0 -0.00029846375834923319 0.010336611613002396 0 -5.6148276651084663e-07 0.011712610561524528 0 -0.00029846375834923319 0.010336611613002396 0 -6.259011141180202e-08 0.0098169650997111581 0 -0.00029926990511396361 0.0093345183363007234 0 -0.00029846375834923319 0.010336611613002396 0 1.4630744402660221e-05 0.0086219829694397752 0 -6.259011141180202e-08 0.0098169650997111581 0 2.0415945201149076e-07 0.0079207468988371412 0 1.4630744402660221e-05 0.0086219829694397752 0 -0.00029846375834923319 0.010336611613002396 0 -6.259011141180202e-08 0.0098169650997111581 0 1.4630744402660221e-05 0.0086219829694397752 0 2.0415945201149076e-07 0.0079207468988371412 0 0.00015594091814955912 0.007178282604523507 0 1.4630744402660221e-05 0.0086219829694397752 0 2.0415945201149076e-07 0.0079207468988371412 0 0.00015594091814955912 0.007178282604523507 0 4.6363338162229834e-07 0.006024914066972753 0 0.00015594091814955912 0.007178282604523507 0 0.0004164658206146089 0.0066183971731608778 0 4.6361375577033157e-05 0.0075971228450150549 0 0.00015594091814955912 0.007178282604523507 0 1.4630744402660221e-05 0.0086219829694397752 0 4.6361375577033157e-05 0.0075971228450150549 0 4.6363338162229834e-07 0.006024914066972753 0 0.0002890458002856659 0.0057509306173782644 0 6.2771187924866784e-07 0.004128424381044906 0 0.00015594091814955912 0.007178282604523507 0 4.6363338162229834e-07 0.006024914066972753 0 0.0002890458002856659 0.0057509306173782644 0 0.00015594091814955912 0.007178282604523507 0 0.0002890458002856659 0.0057509306173782644 0 0.0004164658206146089 0.0066183971731608778 0 0.0002890458002856659 0.0057509306173782644 0 0.00039730819963036489 0.0062244261033344104 0 0.0004164658206146089 0.0066183971731608778 0 0.00068732330298952495 0.0048263759460803997 0 0.00072637900746144713 0.0051092586077030955 0 0.00039730819963036489 0.0062244261033344104 0 0.0004164658206146089 0.0066183971731608778 0 0.00081841589078657879 0.0054006041812283039 0 0.0004164658206146089 0.0066183971731608778 0 0.00081841589078657879 0.0054006041812283039 0 4.6361375577033157e-05 0.0075971228450150549 0 0.00081841589078657879 0.0054006041812283039 0 4.6361375577033157e-05 0.0075971228450150549 0 0.00043511117576078799 0.005016282846512652 0 0.00081841589078657879 0.0054006041812283039 0 0.00043511117576078799 0.005016282846512652 0 0.00089930610564915088 0.0048579049424314017 0 0.00081841589078657879 0.0054006041812283039 0 0.00089930610564915088 0.0048579049424314017 0 0.00094176321992793955 0.0045924661781955719 0 0.0011310739024864244 0.0038728238157901399 0 0.00081841589078657879 0.0054006041812283039 0 0.00094176321992793955 0.0045924661781955719 0 1.4630744402660221e-05 0.0086219829694397752 0 4.6361375577033157e-05 0.0075971228450150549 0 7.9670802759712529e-06 0.0083250455948660554 0 0.0002157278778159396 0.007238088537897004 0 0.0007199563364907696 0.0064247371301510876 0 4.6361375577033157e-05 0.0075971228450150549 0 0.00022443130088996714 0.0078937475632433179 0 0.00051478258181793571 0.0077494408450767428 0 4.6361375577033157e-05 0.0075971228450150549 0 0.00051478258181793571 0.0077494408450767428 0 0.00086908043366961969 0.0078312988823910825 0 -0.00023993224819613605 0.0079442791107840784 0 7.9670802759712529e-06 0.0083250455948660554 0 0.00022443130088996714 0.0078937475632433179 0 4.6361375577033157e-05 0.0075971228450150549 0 7.9670802759712529e-06 0.0083250455948660554 0 0.00022443130088996714 0.0078937475632433179 0 -0.00023993224819613605 0.0079442791107840784 0 0.00022443130088996714 0.0078937475632433179 0 0.00016259699569199799 0.0074560967938606419 0 -0.00023993224819613605 0.0079442791107840784 0 0.00016259699569199799 0.0074560967938606419 0 -0.00024278279140302353 0.0072131481545054813 0 0.00016259699569199799 0.0074560967938606419 0 -0.00024278279140302353 0.0072131481545054813 0 0.00012905094497235979 0.0066977274216381971 0 -0.00024278279140302353 0.0072131481545054813 0 0.00012905094497235979 0.0066977274216381971 0 -0.00048737350532563608 0.0065305224398010103 0 0.00012905094497235979 0.0066977274216381971 0 0.00063350350566011816 0.0070014771423656417 0 0.00060609260070320573 0.0059665865260154658 0 0.00063350350566011816 0.0070014771423656417 0 0.0011883619921824714 0.0065740607829274291 0 0.00060609260070320573 0.0059665865260154658 0 0.00016259699569199799 0.0074560967938606419 0 0.00012905094497235979 0.0066977274216381971 0 0.00063350350566011816 0.0070014771423656417 0 0.00063350350566011816 0.0070014771423656417 0 0.00051478258181793571 0.0077494408450767428 0 0.0010643972343899169 0.0071649932777087073 0 0.00016259699569199799 0.0074560967938606419 0 0.00063350350566011816 0.0070014771423656417 0 0.00051478258181793571 0.0077494408450767428 0 0.00022443130088996714 0.0078937475632433179 0 0.00016259699569199799 0.0074560967938606419 0 0.00051478258181793571 0.0077494408450767428 0 0.00086908043366961969 0.0078312988823910825 0 0.0010643972343899169 0.0071649932777087073 0 0.0021946337849514052 0.006650017375917569 0 0.0007199563364907696 0.0064247371301510876 0 0.001198722015987988 0.005157304906620681 0 0.00051478258181793571 0.0077494408450767428 0 0.00086908043366961969 0.0078312988823910825 0 0.0010643972343899169 0.0071649932777087073 0 0.00089930610564915088 0.0048579049424314017 0 0.00089287351306093312 0.0045262603484897412 0 0.00091920457312454269 0.0047595543199621749 0 0.00043511117576078799 0.005016282846512652 0 0.00089930610564915088 0.0048579049424314017 0 0.00089287351306093312 0.0045262603484897412 0 0.0010643972343899169 0.0071649932777087073 0 0.0021946337849514052 0.006650017375917569 0 0.0011883619921824714 0.0065740607829274291 0 0.0021946337849514052 0.006650017375917569 0 0.0011883619921824714 0.0065740607829274291 0 0.0015614231244523405 0.0058384534176624571 0 0.00063350350566011816 0.0070014771423656417 0 0.0010643972343899169 0.0071649932777087073 0 0.0011883619921824714 0.0065740607829274291 0 0.0011883619921824714 0.0065740607829274291 0 0.0015614231244523405 0.0058384534176624571 0 0.00060609260070320573 0.0059665865260154658 0 0.0015614231244523405 0.0058384534176624571 0 0.00067608469341913643 0.0046909845830975083 0 0.00060609260070320573 0.0059665865260154658 0 0.0011925319961694405 0.0051698019309723946 0 0.00081755973197211317 0.0048103895833039884 0 0.001171442595821544 0.0047360669757071355 0 0.0011598782366664692 0.0044824530050518903 0 0.0012966409921343805 0.0044039120143942638 0 0.001198722015987988 0.005157304906620681 0 0.0014159992482075088 0.0045056214312162975 0 0.001198722015987988 0.005157304906620681 0 0.0011925319961694405 0.0051698019309723946 0 0.001171442595821544 0.0047360669757071355 0 0.0009210508937219946 0.0045774739005223072 0 0.0011598782366664692 0.0044824530050518903 0 0.0009210508937219946 0.0045774739005223072 0 0.0011598782366664692 0.0044824530050518903 0 0.0010653845912761085 0.0042541668795604282 0 0.0011598782366664692 0.0044824530050518903 0 0.0015539815566037139 0.0042392679464135904 0 0.0012966409921343805 0.0044039120143942638 0 0.0011598782366664692 0.0044824530050518903 0 0.0010653845912761085 0.0042541668795604282 0 0.0015539815566037139 0.0042392679464135904 0 0.0010653845912761085 0.0042541668795604282 0 0.0012224541034824238 0.0036996886952960152 0 0.00088938378214209013 0.0038591983071043241 0 0.0016856043422115001 0.003450792066146971 0 0.0012224541034824238 0.0036996886952960152 0 0.0015539815566037139 0.0042392679464135904 0 0.0010653845912761085 0.0042541668795604282 0 0.0012224541034824238 0.0036996886952960152 0 0.0015539815566037139 0.0042392679464135904 0 0.0009210508937219946 0.0045774739005223072 0 0.00082236637326392806 0.0043406681731302235 0 0.00067608469341913643 0.0046909845830975083 0 0.0009210508937219946 0.0045774739005223072 0 0.0010653845912761085 0.0042541668795604282 0 0.00082236637326392806 0.0043406681731302235 0 0.00044392200165759894 0.0038089784590164834 0 0.00082236637326392806 0.0043406681731302235 0 0.00067608469341913643 0.0046909845830975083 0 0.0010653845912761085 0.0042541668795604282 0 0.00082236637326392806 0.0043406681731302235 0 0.00088938378214209013 0.0038591983071043241 0 0.00044392200165759894 0.0038089784590164834 0 0.00082236637326392806 0.0043406681731302235 0 0.00088938378214209013 0.0038591983071043241 0 0.00056389313280504462 0.0033339877517640525 0 -0.00043085943752597494 0.0041251493102513158 0 0.00044392200165759894 0.0038089784590164834 0 0.00067608469341913643 0.0046909845830975083 0 9.6008045645970042e-05 0.0049991857112982414 0 0.00044392200165759894 0.0038089784590164834 0 9.6008045645970042e-05 0.0049991857112982414 0 -0.00054376457757047351 0.0044564711902955806 0 -0.00070115759736428596 0.0056667645573455832 0 9.6008045645970042e-05 0.0049991857112982414 0 -0.00054376457757047351 0.0044564711902955806 0 -0.00070115759736428596 0.0056667645573455832 0 9.6008045645970042e-05 0.0049991857112982414 0 -7.6443777049071843e-05 0.0059084280839868594 0 -0.00070115759736428596 0.0056667645573455832 0 -0.00048737350532563608 0.0065305224398010103 0 -7.6443777049071843e-05 0.0059084280839868594 0 0.00012905094497235979 0.0066977274216381971 0 -0.00048737350532563608 0.0065305224398010103 0 -7.6443777049071843e-05 0.0059084280839868594 0 0.00012905094497235979 0.0066977274216381971 0 -7.6443777049071843e-05 0.0059084280839868594 0 0.00060609260070320573 0.0059665865260154658 0 0.00067608469341913643 0.0046909845830975083 0 9.6008045645970042e-05 0.0049991857112982414 0 0.00060609260070320573 0.0059665865260154658 0 9.6008045645970042e-05 0.0049991857112982414 0 -7.6443777049071843e-05 0.0059084280839868594 0 0.00060609260070320573 0.0059665865260154658 0 0.0005589390324930954 0.0045175834828996798 0 0.00050089833549783551 0.0043066890837284511 0 0.00028998820228723105 0.0044534297489975281 0 0.0005589390324930954 0.0045175834828996798 0 0.00050089833549783551 0.0043066890837284511 0 0.00070738240036380537 0.0043780127400429711 0 0.00050089833549783551 0.0043066890837284511 0 0.00070738240036380537 0.0043780127400429711 0 0.00073401589212973692 0.004250776722740008 0 0.00050089833549783551 0.0043066890837284511 0 0.00028998820228723105 0.0044534297489975281 0 0.00026562355094574415 0.0042427750241123474 0 8.826957488699099e-05 0.0043526538007230622 0 0.00028998820228723105 0.0044534297489975281 0 0.00026562355094574415 0.0042427750241123474 0 8.826957488699099e-05 0.0043526538007230622 0 5.3976816554107438e-05 0.0041624688263869648 0 -9.9245119531171964e-05 0.0042550661121577163 0 8.826957488699099e-05 0.0043526538007230622 0 5.3976816554107438e-05 0.0041624688263869648 0 0.00026562355094574415 0.0042427750241123474 0 8.826957488699099e-05 0.0043526538007230622 0 8.5249768008206141e-05 0.0045647617853618611 0 -7.7500912921151571e-05 0.0044603719985769567 0 8.826957488699099e-05 0.0043526538007230622 0 0.00028998820228723105 0.0044534297489975281 0 8.5249768008206141e-05 0.0045647617853618611 0 0.0029891356254534603 0.0016018274354498729 0 0.0021073635155521497 0.001123260094052894 0 0.00027200167073032763 0.0048018204393173135 0 8.5249768008206141e-05 0.0045647617853618611 0 -0.00014301404762678238 0.0047149043746992384 0 0.00028998820228723105 0.0044534297489975281 0 0.00027200167073032763 0.0048018204393173135 0 8.5249768008206141e-05 0.0045647617853618611 0 0.0005589390324930954 0.0045175834828996798 0 0.00027200167073032763 0.0048018204393173135 0 0.00082429975976859061 0.0047496429471977266 0 0.0029891356254534603 0.0016018274354498729 0 0.0019972044112482354 0.0040010197825710043 0 0.003147683803860761 0.0033918315877128321 0 0.0050788693728849414 0.0038882793472438189 0 0.0034246367746494323 0.0040575202403122269 0 0.0005589390324930954 0.0045175834828996798 0 0.00028998820228723105 0.0044534297489975281 0 0.00027200167073032763 0.0048018204393173135 0 0.003147683803860761 0.0033918315877128321 0 0.0034246367746494323 0.0040575202403122269 0 0.0015539815566037139 0.0042392679464135904 0 0.0005589390324930954 0.0045175834828996798 0 0.00082429975976859061 0.0047496429471977266 0 0.00080892372512257713 0.0044900411335811108 0 0.00082429975976859061 0.0047496429471977266 0 0.0010560355697705501 0.0044772242695777474 0 0.00080892372512257713 0.0044900411335811108 0 0.0010560355697705501 0.0044772242695777474 0 0.0015539815566037139 0.0042392679464135904 0 0.0012215971674249656 0.0043847265843855732 0 0.0016856043422115001 0.003450792066146971 0 0.003147683803860761 0.0033918315877128321 0 0.0015539815566037139 0.0042392679464135904 0 0.00082429975976859061 0.0047496429471977266 0 0.0010560355697705501 0.0044772242695777474 0 0.0015539815566037139 0.0042392679464135904 0 0.0019972044112482354 0.0040010197825710043 0 0.0016287633797857212 0.0042335417328693038 0 0.0015539815566037139 0.0042392679464135904 0 0.0012966409921343805 0.0044039120143942638 0 0.0012215971674249656 0.0043847265843855732 0 0.0013270369637612906 0.0041823054471838992 0 0.0012966409921343805 0.0044039120143942638 0 0.0010193252020727702 0.0042168810135579044 0 0.0012966409921343805 0.0044039120143942638 0 0.0012215971674249656 0.0043847265843855732 0 0.00098126591845730353 0.0043672129503571581 0 0.0012966409921343805 0.0044039120143942638 0 0.00098126591845730353 0.0043672129503571581 0 0.0010193252020727702 0.0042168810135579044 0 0.00080892372512257713 0.0044900411335811108 0 0.00070738240036380537 0.0043780127400429711 0 0.00098126591845730353 0.0043672129503571581 0 0.0005589390324930954 0.0045175834828996798 0 0.00080892372512257713 0.0044900411335811108 0 0.00070738240036380537 0.0043780127400429711 0 0.0010560355697705501 0.0044772242695777474 0 0.00080892372512257713 0.0044900411335811108 0 0.00098126591845730353 0.0043672129503571581 0 0.0010560355697705501 0.0044772242695777474 0 0.0012215971674249656 0.0043847265843855732 0 0.00098126591845730353 0.0043672129503571581 0 0.00098126591845730353 0.0043672129503571581 0 0.00073401589212973692 0.004250776722740008 0 0.0010193252020727702 0.0042168810135579044 0 0.00070738240036380537 0.0043780127400429711 0 0.00098126591845730353 0.0043672129503571581 0 0.00073401589212973692 0.004250776722740008 0 0.00073401589212973692 0.004250776722740008 0 0.00077595691763637255 0.0041238794145585641 0 0.00045138342801813691 0.004134028013748809 0 0.00077595691763637255 0.0041238794145585641 0 0.00057219517434040057 0.0040283590746299008 0 0.00045138342801813691 0.004134028013748809 0 0.00073401589212973692 0.004250776722740008 0 0.00077595691763637255 0.0041238794145585641 0 0.0010193252020727702 0.0042168810135579044 0 0.0013270369637612906 0.0041823054471838992 0 0.0010193252020727702 0.0042168810135579044 0 0.00095759046042037167 0.0039975499767119747 0 0.00077595691763637255 0.0041238794145585641 0 0.0010193252020727702 0.0042168810135579044 0 0.00095759046042037167 0.0039975499767119747 0 0.001198722015987988 0.005157304906620681 0 0.000851762506986591 0.0043762150855602483 0 0.00089930610564915088 0.0048579049424314017 0 0.00091920457312454269 0.0047595543199621749 0 0.00094176321992793955 0.0045924661781955719 0 0.00077595691763637255 0.0041238794145585641 0 0.00095759046042037167 0.0039975499767119747 0 0.00057219517434040057 0.0040283590746299008 0 0.00095759046042037167 0.0039975499767119747 0 0.00057219517434040057 0.0040283590746299008 0 0.00058120550793505979 0.004077177535049493 0 0.000851762506986591 0.0043762150855602483 0 0.00072123151457817881 0.0042153993213986879 0 0.00057219517434040057 0.0040283590746299008 0 0.00036358133113165739 0.0039330632213937355 0 0.00058120550793505979 0.004077177535049493 0 0.00057219517434040057 0.0040283590746299008 0 0.00045138342801813691 0.004134028013748809 0 0.00021004434510095202 0.003986269553402636 0 0.00036358133113165739 0.0039330632213937355 0 0.00021004434510095202 0.003986269553402636 0 0.00013215727322787589 0.0037331568805472905 0 0.00057219517434040057 0.0040283590746299008 0 0.00036358133113165739 0.0039330632213937355 0 0.00021004434510095202 0.003986269553402636 0 0.00045138342801813691 0.004134028013748809 0 0.00018985792125212321 0.0040993090988114085 0 0.00021004434510095202 0.003986269553402636 0 0.00045138342801813691 0.004134028013748809 0 0.00026562355094574415 0.0042427750241123474 0 0.00018985792125212321 0.0040993090988114085 0 0.00050089833549783551 0.0043066890837284511 0 0.00045138342801813691 0.004134028013748809 0 0.00026562355094574415 0.0042427750241123474 0 0.00050089833549783551 0.0043066890837284511 0 0.00073401589212973692 0.004250776722740008 0 0.00045138342801813691 0.004134028013748809 0 5.3976816554107438e-05 0.0041624688263869648 0 0.00026562355094574415 0.0042427750241123474 0 0.00018985792125212321 0.0040993090988114085 0 0.00018985792125212321 0.0040993090988114085 0 -3.3421246713730138e-05 0.0039793951180671534 0 0.00021004434510095202 0.003986269553402636 0 5.3976816554107438e-05 0.0041624688263869648 0 0.00018985792125212321 0.0040993090988114085 0 -3.3421246713730138e-05 0.0039793951180671534 0 -3.3421246713730138e-05 0.0039793951180671534 0 0.00021004434510095202 0.003986269553402636 0 -0.00018647013164689436 0.0037565279368655747 0 0.00021004434510095202 0.003986269553402636 0 0.00013215727322787589 0.0037331568805472905 0 -0.00018647013164689436 0.0037565279368655747 0 -0.00016459412603664627 0.0035622791078302727 0 0.00013215727322787589 0.0037331568805472905 0 -0.00018647013164689436 0.0037565279368655747 0 -0.00016459412603664627 0.0035622791078302727 0 0.00013215727322787589 0.0037331568805472905 0 0.00010499524149085644 0.003458609296195036 0 0.00036358133113165739 0.0039330632213937355 0 0.00034138824666852283 0.0037294399065634868 0 0.00013215727322787589 0.0037331568805472905 0 0.00036358133113165739 0.0039330632213937355 0 0.00034138824666852283 0.0037294399065634868 0 0.00058120550793505979 0.004077177535049493 0 0.00034138824666852283 0.0037294399065634868 0 0.00013215727322787589 0.0037331568805472905 0 0.00010499524149085644 0.003458609296195036 0 0.00034138824666852283 0.0037294399065634868 0 0.00010499524149085644 0.003458609296195036 0 0.00027163575791236367 0.0032777588507446201 0 0.00010499524149085644 0.003458609296195036 0 0.00027163575791236367 0.0032777588507446201 0 2.8953962046768768e-06 0.0029912303857178948 0 0.00010499524149085644 0.003458609296195036 0 -0.00018078541344151029 0.003282814210114884 0 2.8953962046768768e-06 0.0029912303857178948 0 -0.00018078541344151029 0.003282814210114884 0 -0.00029995165692825286 0.0029391871410213658 0 -0.00042568242512474837 0.0034765971985218523 0 -0.00018078541344151029 0.003282814210114884 0 -0.00029995165692825286 0.0029391871410213658 0 2.8953962046768768e-06 0.0029912303857178948 0 -0.00016459412603664627 0.0035622791078302727 0 -0.00018078541344151029 0.003282814210114884 0 -0.00042568242512474837 0.0034765971985218523 0 -0.00016459412603664627 0.0035622791078302727 0 0.00010499524149085644 0.003458609296195036 0 -0.00018078541344151029 0.003282814210114884 0 0.00091920457312454269 0.0047595543199621749 0 0.00094176321992793955 0.0045924661781955719 0 0.00058120550793505979 0.004077177535049493 0 0.00094176321992793955 0.0045924661781955719 0 0.00058120550793505979 0.004077177535049493 0 0.00062433864855193806 0.003662135284247631 0 0.00034138824666852283 0.0037294399065634868 0 0.00058120550793505979 0.004077177535049493 0 0.00062433864855193806 0.003662135284247631 0 0.00034138824666852283 0.0037294399065634868 0 0.00027163575791236367 0.0032777588507446201 0 0.00062433864855193806 0.003662135284247631 0 0.00027163575791236367 0.0032777588507446201 0 0.00062433864855193806 0.003662135284247631 0 0.00041137312003425677 0.0028823390773191435 0 0.0011310739024864244 0.0038728238157901399 0 0.00094176321992793955 0.0045924661781955719 0 0.00062433864855193806 0.003662135284247631 0 0.0002890458002856659 0.0057509306173782644 0 0.00039730819963036489 0.0062244261033344104 0 -0.00026732523357825212 0.0048959962029592576 0 0.0011310739024864244 0.0038728238157901399 0 0.00062433864855193806 0.003662135284247631 0 0.00076487744317992057 0.002790640177123509 0 0.00068732330298952495 0.0048263759460803997 0 0.00043650630974697506 0.0038611508115997261 0 0.00062433864855193806 0.003662135284247631 0 0.00076487744317992057 0.002790640177123509 0 0.00041137312003425677 0.0028823390773191435 0 0.00043650630974697506 0.0038611508115997261 0 1.9227164468251376e-07 0.0022330137049762794 0 -0.00026732523357825212 0.0048959962029592576 0 -1.7493279960208284e-06 0.0022342505055271281 0 6.2771187924866784e-07 0.004128424381044906 0 0.00076487744317992057 0.002790640177123509 0 0.00041137312003425677 0.0028823390773191435 0 2.8603793961591778e-06 0.002228405455987994 0 0.0002890458002856659 0.0057509306173782644 0 -0.00026732523357825212 0.0048959962029592576 0 6.2771187924866784e-07 0.004128424381044906 0 -0.00054712228873817804 0.002596354959080084 0 -0.00029995165692825286 0.0029391871410213658 0 -0.00042568242512474837 0.0034765971985218523 0 -5.5669676248336583e-05 0.0025290383004274359 0 -0.00045538041501829455 0.0025854764278792431 0 -0.00029995165692825286 0.0029391871410213658 0 -0.00045538041501829455 0.0025854764278792431 0 -0.00082356032725053243 0.0025196211281721722 0 7.5905855901832358e-05 0.0018592517055282709 0 -5.5669676248336583e-05 0.0025290383004274359 0 -0.00045538041501829455 0.0025854764278792431 0 7.5905855901832358e-05 0.0018592517055282709 0 -0.00045538041501829455 0.0025854764278792431 0 -0.00054712228873817804 0.002596354959080084 0 -0.00029995165692825286 0.0029391871410213658 0 0.00032522028671394559 -0.000496301177212647 0 0.00039665435237721516 -0.00063318007523039939 0 -5.5669676248336583e-05 0.0025290383004274359 0 -0.00029995165692825286 0.0029391871410213658 0 2.8953962046768768e-06 0.0029912303857178948 0 0.00027163575791236367 0.0032777588507446201 0 2.8953962046768768e-06 0.0029912303857178948 0 0.00019128414227820417 0.0025391371610315565 0 0.00027163575791236367 0.0032777588507446201 0 0.00041137312003425677 0.0028823390773191435 0 0.00019128414227820417 0.0025391371610315565 0 -5.5669676248336583e-05 0.0025290383004274359 0 2.8953962046768768e-06 0.0029912303857178948 0 0.00019128414227820417 0.0025391371610315565 0 -5.5669676248336583e-05 0.0025290383004274359 0 0.00019128414227820417 0.0025391371610315565 0 7.5905855901832358e-05 0.0018592517055282709 0 2.8603793961591778e-06 0.002228405455987994 0 -2.5129898807559037e-06 0.00067610006240880155 0 7.5905855901832358e-05 0.0018592517055282709 0 0.00041137312003425677 0.0028823390773191435 0 2.8603793961591778e-06 0.002228405455987994 0 0.00019128414227820417 0.0025391371610315565 0 2.8603793961591778e-06 0.002228405455987994 0 0.00019128414227820417 0.0025391371610315565 0 7.5905855901832358e-05 0.0018592517055282709 0 -0.00082356032725053243 0.0025196211281721722 0 -2.5129898807559037e-06 0.00067610006240880155 0 7.5905855901832358e-05 0.0018592517055282709 0 0.00039665435237721516 -0.00063318007523039939 0 -3.0095493598270577e-07 0.00067204722163315622 0 -2.8667195594807486e-05 -0.00052753013136811117 0 -8.7234345996425647e-07 0.0006689681681174202 0 6.2274724011380293e-07 -0.0010870190887249534 0 -2.8667195594807486e-05 -0.00052753013136811117 0 6.2274724011380293e-07 -0.0010870190887249534 0 4.6797596013199846e-05 -0.0015488511905016522 0 0.00039665435237721516 -0.00063318007523039939 0 0.001260490467164506 -0.0031395861489888093 0 0.0032951881089136829 -0.0047157379247536003 0 0.0021940336381949875 -0.0041783262651931439 0 0.0028470339555414243 -0.0034985477113912951 0 0.0032951881089136829 -0.0047157379247536003 0 0.0021940336381949875 -0.0041783262651931439 0 0.0020498755191508062 -0.004990703625550698 0 0.0021940336381949875 -0.0041783262651931439 0 0.0020498755191508062 -0.004990703625550698 0 0.001376689282237953 -0.0043930971845323437 0 6.2274724011380293e-07 -0.0010870190887249534 0 4.6797596013199846e-05 -0.0015488511905016522 0 -8.6944918937593934e-08 -0.0028468238790749748 0 0.0020498755191508062 -0.004990703625550698 0 0.00091272714574281322 -0.005243557592713978 0 0.00097761974954644476 -0.0047379391692950199 0 0.001260490467164506 -0.0031395861489888093 0 0.00059784788300130183 -0.0042975627515670087 0 4.6797596013199846e-05 -0.0015488511905016522 0 -8.6944918937593934e-08 -0.0028468238790749748 0 -2.3067802658441128e-05 -0.0034105155911774714 0 -8.6944918937593934e-08 -0.0028468238790749748 0 -2.3067802658441128e-05 -0.0034105155911774714 0 -3.5173247049632752e-08 -0.0046066945764502414 0 0.00091272714574281322 -0.005243557592713978 0 0.00054310006843161197 -0.0049304600162019567 0 0.00097761974954644476 -0.0047379391692950199 0 0.00097761974954644476 -0.0047379391692950199 0 0.00058911935760886064 -0.004385306054360342 0 0.001376689282237953 -0.0043930971845323437 0 -0.00034299584170086983 -0.0042963305632347593 0 0.0012390704550866479 -0.004435063414311706 0 0.00054310006843161197 -0.0049304600162019567 0 0.00097761974954644476 -0.0047379391692950199 0 0.00058911935760886064 -0.004385306054360342 0 0.0020498755191508062 -0.004990703625550698 0 0.00097761974954644476 -0.0047379391692950199 0 0.001376689282237953 -0.0043930971845323437 0 0.0021940336381949875 -0.0041783262651931439 0 0.001376689282237953 -0.0043930971845323437 0 0.0013798380127761575 -0.003233612029565419 0 0.00035310376352127876 -0.0042541612658121564 0 0.001376689282237953 -0.0043930971845323437 0 0.0013798380127761575 -0.003233612029565419 0 -0.00034299584170086983 -0.0042963305632347593 0 0.00030378205996869066 -0.00042164953622589747 0 -0.001931115569034719 0.0013310069346247802 0 -0.0017085397861135952 0.002769095492521534 0 -0.0010154905505330861 0.002332873593659566 0 -0.0017085397861135952 0.002769095492521534 0 -0.0010154905505330861 0.002332873593659566 0 -0.0011720707592182908 0.0034835528306599484 0 0.0021940336381949875 -0.0041783262651931439 0 0.0013798380127761575 -0.003233612029565419 0 0.0028470339555414243 -0.0034985477113912951 0 0.00030378205996869066 -0.00042164953622589747 0 0.00094161163761368176 0.0018849277190464957 0 0.0013798380127761575 -0.003233612029565419 0 0.0028470339555414243 -0.0034985477113912951 0 0.0023634909366462317 -0.0022234121688931904 0 0.0012614134984197387 -0.00029404362787408423 0 0.00094161163761368176 0.0018849277190464957 0 -0.00016459412603664627 0.0035622791078302727 0 -0.00018647013164689436 0.0037565279368655747 0 -0.00042568242512474837 0.0034765971985218523 0 -0.00018647013164689436 0.0037565279368655747 0 -0.00042568242512474837 0.0034765971985218523 0 -0.00035118478502695397 0.0038515837232933228 0 0.00039665435237721516 -0.00063318007523039939 0 0.0012614134984197387 -0.00029404362787408423 0 0.00032459416295330497 -0.0084026613057953635 0 0.00033015898665010666 -0.0083177716231087415 0 0.00026983870204421535 -0.008392567994246836 0 0.00033015898665010666 -0.0083177716231087415 0 0.00026983870204421535 -0.008392567994246836 0 0.00022737465860908014 -0.0081051997145830928 0 0.00026983870204421535 -0.008392567994246836 0 0.00018840251196651343 -0.0081428330081980988 0 0.00022737465860908014 -0.0081051997145830928 0 9.5487891218424693e-07 -0.0078549728566122724 0 0.00018840251196651343 -0.0081428330081980988 0 5.1745036102651145e-07 -0.0093452317112610872 0 0.00026983870204421535 -0.008392567994246836 0 0.00018840251196651343 -0.0081428330081980988 0 5.1745036102651145e-07 -0.0093452317112610872 0 9.5487891218424693e-07 -0.0078549728566122724 0 0.00018840251196651343 -0.0081428330081980988 0 0.00011255888941705432 -0.0075136397707443311 0 0.00018840251196651343 -0.0081428330081980988 0 0.00011255888941705432 -0.0075136397707443311 0 0.00022737465860908014 -0.0081051997145830928 0 9.5487891218424693e-07 -0.0078549728566122724 0 0.00011255888941705432 -0.0075136397707443311 0 -1.5699547266626482e-06 -0.0063687225653318059 0 -0.00022943250185406125 -0.0080926642280469696 0 -0.00037633670008435492 -0.008368929619530098 0 0.00013370978989230871 -0.0084398657596922149 0 0.00011255888941705432 -0.0075136397707443311 0 0.00022737465860908014 -0.0081051997145830928 0 -0.00022943250185406125 -0.0080926642280469696 0 0.00033015898665010666 -0.0083177716231087415 0 0.00022737465860908014 -0.0081051997145830928 0 0.00013370978989230871 -0.0084398657596922149 0 0.00022737465860908014 -0.0081051997145830928 0 -0.00022943250185406125 -0.0080926642280469696 0 0.00013370978989230871 -0.0084398657596922149 0 0.00011255888941705432 -0.0075136397707443311 0 -0.00022943250185406125 -0.0080926642280469696 0 -0.0011413045315704817 -0.0075895932991410483 0 -0.00022943250185406125 -0.0080926642280469696 0 -0.0011413045315704817 -0.0075895932991410483 0 -0.00052042635421001271 -0.0086204193860137199 0 -0.0015287102129743517 -0.006644421691851179 0 -0.0013006459166151466 -0.0048985694672520567 0 -1.8119914586953944e-07 -0.0063647441703166682 0 3.9068947977885397e-06 -0.0055712797784236929 0 -3.5173247049632752e-08 -0.0046066945764502414 0 0.00011255888941705432 -0.0075136397707443311 0 -1.5699547266626482e-06 -0.0063687225653318059 0 -0.0011413045315704817 -0.0075895932991410483 0 -2.6242354931082006e-07 -0.0063655788271839925 0 -0.00063684225631013467 -0.0062338461855317943 0 -1.8119914586953944e-07 -0.0063647441703166682 0 3.9068947977885397e-06 -0.0055712797784236929 0 4.4642205305384629e-05 -0.0050242451529637615 0 0.00059784788300130183 -0.0042975627515670087 0 0.00019507636586215513 -0.0050265790577040202 0 0.00054310006843161197 -0.0049304600162019567 0 3.9068947977885397e-06 -0.0055712797784236929 0 4.4642205305384629e-05 -0.0050242451529637615 0 0.00091272714574281322 -0.005243557592713978 0 0.00054310006843161197 -0.0049304600162019567 0 3.9068947977885397e-06 -0.0055712797784236929 0 -2.3067802658441128e-05 -0.0034105155911774714 0 3.9068947977885397e-06 -0.0055712797784236929 0 -3.5173247049632752e-08 -0.0046066945764502414 0 -0.00034299584170086983 -0.0042963305632347593 0 -0.00063684225631013467 -0.0062338461855317943 0 -0.0019732424028054687 -0.008394572943295384 0 -0.0011413045315704817 -0.0075895932991410483 0 -0.00052042635421001271 -0.0086204193860137199 0 0.00054310006843161197 -0.0049304600162019567 0 0.00058911935760886064 -0.004385306054360342 0 4.4642205305384629e-05 -0.0050242451529637615 0 -0.00034299584170086983 -0.0042963305632347593 0 -0.0013006459166151466 -0.0048985694672520567 0 -0.001931115569034719 0.0013310069346247802 0 -0.0025455368219457781 0.0026125723634940782 0 -0.0031220742184148958 0.0014596152701054287 0 -0.001931115569034719 0.0013310069346247802 0 -0.0017085397861135952 0.002769095492521534 0 -0.0025455368219457781 0.0026125723634940782 0 0.0017613710658201784 -0.0080216444408897532 0 0.0014531915543454057 -0.0085638273332438591 0 0.0013028484780071487 -0.0081829808945472031 0 0.0017613710658201784 -0.0080216444408897532 0 0.0013028484780071487 -0.0081829808945472031 0 0.0012162170242940749 -0.0077400867007498516 0 -0.00027939375933115146 -0.002567078006812639 0 -0.0013006459166151466 -0.0048985694672520567 0 0.0014531915543454057 -0.0085638273332438591 0 0.0010548769886258491 -0.0085128761008681341 0 0.0013028484780071487 -0.0081829808945472031 0 -0.0013006459166151466 -0.0048985694672520567 0 0.00067658099767102715 -0.0074973220739457305 0 0.0010548769886258491 -0.0085128761008681341 0 0.0013028484780071487 -0.0081829808945472031 0 0.00097344056923529649 -0.0081018767740570208 0 0.0013028484780071487 -0.0081829808945472031 0 0.00097344056923529649 -0.0081018767740570208 0 0.0012162170242940749 -0.0077400867007498516 0 0.00097344056923529649 -0.0081018767740570208 0 0.00084442077694887169 -0.0089525265519613227 0 0.00074646202512781566 -0.0085431723376704558 0 0.00097344056923529649 -0.0081018767740570208 0 0.00078549621375860977 -0.0078114479516826459 0 0.0007043195595454715 -0.0082279154117404513 0 0.00097344056923529649 -0.0081018767740570208 0 0.00074646202512781566 -0.0085431723376704558 0 0.0007043195595454715 -0.0082279154117404513 0 0.00097344056923529649 -0.0081018767740570208 0 0.00046809461550591041 -0.0083859015930306084 0 0.00031933488337785253 -0.0083416759613820345 0 0.00067658099767102715 -0.0074973220739457305 0 0.00056690789324062281 -0.0079429597823993062 0 0.0010548769886258491 -0.0085128761008681341 0 0.00097344056923529649 -0.0081018767740570208 0 0.00046809461550591041 -0.0083859015930306084 0 0.00085564497965786679 -0.0082988178260142344 0 0.00058596511179458122 -0.008725519444220094 0 0.00033015898665010666 -0.0083177716231087415 0 0.00013370978989230871 -0.0084398657596922149 0 0.00046809461550591041 -0.0083859015930306084 0 0.00032459416295330497 -0.0084026613057953635 0 0.00046809461550591041 -0.0083859015930306084 0 0.00031933488337785253 -0.0083416759613820345 0 0.00032459416295330497 -0.0084026613057953635 0 0.00033015898665010666 -0.0083177716231087415 0 0.00046809461550591041 -0.0083859015930306084 0 0.00097344056923529649 -0.0081018767740570208 0 0.00078549621375860977 -0.0078114479516826459 0 0.0012162170242940749 -0.0077400867007498516 0 0.00079823741693365083 -0.0073656749567943287 0 0.00078549621375860977 -0.0078114479516826459 0 0.0012162170242940749 -0.0077400867007498516 0 0.00034965841914263925 -0.0059422869035207554 0 0.00079553178666373397 -0.0057107285345237282 0 0.00079823741693365083 -0.0073656749567943287 0 0.0012162170242940749 -0.0077400867007498516 0 0.0012886320207446302 -0.0072036261331683352 0 0.0012162170242940749 -0.0077400867007498516 0 0.0016314512397451212 -0.0074924061347747643 0 0.0012886320207446302 -0.0072036261331683352 0 0.0016314512397451212 -0.0074924061347747643 0 0.0018228415896951939 -0.0070135701634575914 0 0.0012886320207446302 -0.0072036261331683352 0 0.0017613710658201784 -0.0080216444408897532 0 0.0012162170242940749 -0.0077400867007498516 0 0.0016314512397451212 -0.0074924061347747643 0 -0.00027939375933115146 -0.002567078006812639 0 0.00022857733293707625 -0.0019201354167616082 0 -0.0017085397861135952 0.002769095492521534 0 -0.0025455368219457781 0.0026125723634940782 0 -0.0019316985802613183 0.0037040789481115389 0 0.0017613710658201784 -0.0080216444408897532 0 0.0016314512397451212 -0.0074924061347747643 0 0.0020834393213920352 -0.0074539453807414714 0 0.0016314512397451212 -0.0074924061347747643 0 0.0018228415896951939 -0.0070135701634575914 0 0.0020834393213920352 -0.0074539453807414714 0 0.001300972682910115 -0.0037569499198079467 0 0.0018981852551910746 -0.0028344294735944179 0 0.0015050570377918534 -0.0023446178485660653 0 0.001300972682910115 -0.0037569499198079467 0 0.00065913281383906265 -0.0030835484299372553 0 0.0015050570377918534 -0.0023446178485660653 0 0.001300972682910115 -0.0037569499198079467 0 0.00065913281383906265 -0.0030835484299372553 0 0.0003312017476964855 -0.004409848554858882 0 0.0014205104785512497 -0.0050656710543449468 0 0.00079553178666373397 -0.0057107285345237282 0 0.0003312017476964855 -0.004409848554858882 0 -4.4213534171722679e-07 -0.0040363195594587285 0 -0.00022223058318806408 -0.0044921183428734178 0 0.00065913281383906265 -0.0030835484299372553 0 0.0003312017476964855 -0.004409848554858882 0 -4.4213534171722679e-07 -0.0040363195594587285 0 0.00065913281383906265 -0.0030835484299372553 0 -4.4213534171722679e-07 -0.0040363195594587285 0 4.7805823443524149e-05 -0.0034132954760089998 0 -4.4213534171722679e-07 -0.0040363195594587285 0 4.7805823443524149e-05 -0.0034132954760089998 0 -0.00035156150331459217 -0.0040693115925934491 0 -4.4213534171722679e-07 -0.0040363195594587285 0 -0.00035156150331459217 -0.0040693115925934491 0 -0.00033980290284543394 -0.0047705124557220766 0 -4.4213534171722679e-07 -0.0040363195594587285 0 -0.00022223058318806408 -0.0044921183428734178 0 -0.00033980290284543394 -0.0047705124557220766 0 -0.00023051862226926824 -0.0045507006991829402 0 -0.00022223058318806408 -0.0044921183428734178 0 7.1588245989091543e-05 -0.0047269298838976681 0 -0.00023051862226926824 -0.0045507006991829402 0 0.0003312017476964855 -0.004409848554858882 0 -0.00022223058318806408 -0.0044921183428734178 0 -0.00037210867835275825 0.0037905568913441097 0 -0.00063267318556085102 0.0039444866089036893 0 -0.00035019184615935555 0.0040015760404615861 0 -0.00037210867835275825 0.0037905568913441097 0 -0.00035019184615935555 0.0040015760404615861 0 -0.00029895047397994023 0.0038983786730422305 0 -0.00037210867835275825 0.0037905568913441097 0 -0.00029895047397994023 0.0038983786730422305 0 -0.00029986881844958118 0.0038635089372575154 0 -0.00037210867835275825 0.0037905568913441097 0 -0.00063267318556085102 0.0039444866089036893 0 -0.00067480099071176634 0.0033857523941099661 0 -0.00063267318556085102 0.0039444866089036893 0 -0.0004166343533839305 0.0042158435893833784 0 -0.00067749055099810564 0.0043431340964619307 0 -0.00063267318556085102 0.0039444866089036893 0 -0.00035019184615935555 0.0040015760404615861 0 -0.0004166343533839305 0.0042158435893833784 0 -0.00035019184615935555 0.0040015760404615861 0 -0.00024723216753958248 0.004159151990472407 0 -0.0004166343533839305 0.0042158435893833784 0 -0.00024723216753958248 0.004159151990472407 0 -0.00012469819651990651 0.0040778697329400173 0 -0.00023996178469098695 0.0040110215258431043 0 -0.00035019184615935555 0.0040015760404615861 0 -0.00024723216753958248 0.004159151990472407 0 -0.00023996178469098695 0.0040110215258431043 0 5.3976816554107438e-05 0.0041624688263869648 0 -0.00012469819651990651 0.0040778697329400173 0 -9.9245119531171964e-05 0.0042550661121577163 0 -0.00024723216753958248 0.004159151990472407 0 -0.00012469819651990651 0.0040778697329400173 0 -9.9245119531171964e-05 0.0042550661121577163 0 5.3976816554107438e-05 0.0041624688263869648 0 -3.3421246713730138e-05 0.0039793951180671534 0 -0.00012469819651990651 0.0040778697329400173 0 -3.3421246713730138e-05 0.0039793951180671534 0 -0.00012469819651990651 0.0040778697329400173 0 -0.00020377445248032154 0.0039409401541872103 0 -0.00035019184615935555 0.0040015760404615861 0 -0.00023996178469098695 0.0040110215258431043 0 -0.00029895047397994023 0.0038983786730422305 0 -0.00012469819651990651 0.0040778697329400173 0 -0.00023996178469098695 0.0040110215258431043 0 -0.00020377445248032154 0.0039409401541872103 0 -0.00023996178469098695 0.0040110215258431043 0 -0.00020377445248032154 0.0039409401541872103 0 -0.00029895047397994023 0.0038983786730422305 0 -0.00029986881844958118 0.0038635089372575154 0 -0.00022438034111401766 0.0038649585110887728 0 -0.00035118478502695397 0.0038515837232933228 0 -0.00018647013164689436 0.0037565279368655747 0 -0.00022438034111401766 0.0038649585110887728 0 -0.00035118478502695397 0.0038515837232933228 0 -0.00020377445248032154 0.0039409401541872103 0 -0.00029895047397994023 0.0038983786730422305 0 -0.00029986881844958118 0.0038635089372575154 0 -3.3421246713730138e-05 0.0039793951180671534 0 -0.00018647013164689436 0.0037565279368655747 0 -0.00022438034111401766 0.0038649585110887728 0 -0.00020377445248032154 0.0039409401541872103 0 -0.00029986881844958118 0.0038635089372575154 0 -0.00022438034111401766 0.0038649585110887728 0 -3.3421246713730138e-05 0.0039793951180671534 0 -0.00020377445248032154 0.0039409401541872103 0 -0.00022438034111401766 0.0038649585110887728 0 -0.0010154905505330861 0.002332873593659566 0 -0.00016208362482259737 0.0033275456019148135 0 -0.00067480099071176634 0.0033857523941099661 0 -0.00037210867835275825 0.0037905568913441097 0 -0.00016208362482259737 0.0033275456019148135 0 -0.00067480099071176634 0.0033857523941099661 0 -0.00037210867835275825 0.0037905568913441097 0 -0.00029986881844958118 0.0038635089372575154 0 -0.00031048989308715517 0.0038467336031469631 0 0.0003892286799038069 0.0030140077368328608 0 0.00094161163761368176 0.0018849277190464957 0 0.00091440163052846453 0.0020674257003979271 0 0.00094161163761368176 0.0018849277190464957 0 -0.0010154905505330861 0.002332873593659566 0 -0.00067480099071176634 0.0033857523941099661 0 -0.0011720707592182908 0.0034835528306599484 0 -0.00063267318556085102 0.0039444866089036893 0 -0.00067480099071176634 0.0033857523941099661 0 -0.0011720707592182908 0.0034835528306599484 0 -0.0017085397861135952 0.002769095492521534 0 -0.0011720707592182908 0.0034835528306599484 0 -0.0019316985802613183 0.0037040789481115389 0 -0.0019316985802613183 0.0037040789481115389 0 -0.0013560095419653685 0.003976031564470137 0 -0.0013476587353199777 0.0045784390926436758 0 -0.0011720707592182908 0.0034835528306599484 0 -0.0019316985802613183 0.0037040789481115389 0 -0.0013560095419653685 0.003976031564470137 0 -0.00063267318556085102 0.0039444866089036893 0 -0.0011720707592182908 0.0034835528306599484 0 -0.00096562025366554933 0.0041034160472222967 0 -0.0011720707592182908 0.0034835528306599484 0 -0.0013560095419653685 0.003976031564470137 0 -0.00096562025366554933 0.0041034160472222967 0 -0.00063267318556085102 0.0039444866089036893 0 -0.00096562025366554933 0.0041034160472222967 0 -0.00067749055099810564 0.0043431340964619307 0 -0.0013560095419653685 0.003976031564470137 0 -0.00096562025366554933 0.0041034160472222967 0 -0.0013476587353199777 0.0045784390926436758 0 -0.00096562025366554933 0.0041034160472222967 0 -0.0013476587353199777 0.0045784390926436758 0 -0.00067749055099810564 0.0043431340964619307 0 0.0018729642162295247 -0.0024198743298020713 0 0.0014047781428129333 0.00037125737415252114 0 -0.0013476587353199777 0.0045784390926436758 0 -0.00065043449119222597 0.0046694902574565249 0 -0.00067749055099810564 0.0043431340964619307 0 0.001300972682910115 -0.0037569499198079467 0 0.0022675907120793576 -0.0030853009354071315 0 0.0018981852551910746 -0.0028344294735944179 0 0.00022857733293707625 -0.0019201354167616082 0 0.0018729642162295247 -0.0024198743298020713 0 0.0014205104785512497 -0.0050656710543449468 0 0.0018729642162295247 -0.0024198743298020713 0 0.0018228415896951939 -0.0070135701634575914 0 0.0020834393213920352 -0.0074539453807414714 0 0.0024020194444379249 -0.0068308346835344504 0 0.0018729642162295247 -0.0024198743298020713 0 0.0018853945109003054 -0.0024894493530040022 0 0.0018981852551910746 -0.0028344294735944179 0 0.0021454193390168606 -0.0022424008869711414 0 0.0015050570377918534 -0.0023446178485660653 0 0.0018981852551910746 -0.0028344294735944179 0 0.0021454193390168606 -0.0022424008869711414 0 0.002357072319868766 -0.0027857479788899898 0 0.0022675907120793576 -0.0030853009354071315 0 0.0018981852551910746 -0.0028344294735944179 0 0.002357072319868766 -0.0027857479788899898 0 0.002226876577338163 -0.0030528538567315459 0 0.002357072319868766 -0.0027857479788899898 0 0.0032848210576730463 -0.0026416643066097482 0 0.0027821928308245304 -0.002373051794842717 0 0.002357072319868766 -0.0027857479788899898 0 0.0032848210576730463 -0.0026416643066097482 0 0.0021454193390168606 -0.0022424008869711414 0 0.0027821928308245304 -0.002373051794842717 0 0.002357072319868766 -0.0027857479788899898 0 0.0021454193390168606 -0.0022424008869711414 0 0.0027821928308245304 -0.002373051794842717 0 0.0025400497424194523 -0.0016800941831062604 0 0.0014047781428129333 0.00037125737415252114 0 0.0021073635155521497 0.001123260094052894 0 0.0027821928308245304 -0.002373051794842717 0 0.0040869453403250197 -0.0019102751320768038 0 0.0025400497424194523 -0.0016800941831062604 0 0.0027821928308245304 -0.002373051794842717 0 0.0032848210576730463 -0.0026416643066097482 0 0.0040869453403250197 -0.0019102751320768038 0 0.0032848210576730463 -0.0026416643066097482 0 0.0040869453403250197 -0.0019102751320768038 0 0.0043902867237098353 -0.0022833058071495774 0 -0.00065043449119222597 0.0046694902574565249 0 -0.00029311219418587739 0.0044347011614059061 0 -0.00014301404762678238 0.0047149043746992384 0 -0.00065043449119222597 0.0046694902574565249 0 -0.00067749055099810564 0.0043431340964619307 0 -0.00029311219418587739 0.0044347011614059061 0 -0.0004166343533839305 0.0042158435893833784 0 -0.00067749055099810564 0.0043431340964619307 0 -0.00029311219418587739 0.0044347011614059061 0 -0.00024723216753958248 0.004159151990472407 0 -0.0004166343533839305 0.0042158435893833784 0 -0.00029311219418587739 0.0044347011614059061 0 8.826957488699099e-05 0.0043526538007230622 0 -9.9245119531171964e-05 0.0042550661121577163 0 -7.7500912921151571e-05 0.0044603719985769567 0 -0.00024723216753958248 0.004159151990472407 0 -9.9245119531171964e-05 0.0042550661121577163 0 -0.00029311219418587739 0.0044347011614059061 0 -9.9245119531171964e-05 0.0042550661121577163 0 -0.00029311219418587739 0.0044347011614059061 0 -7.7500912921151571e-05 0.0044603719985769567 0 -0.00029311219418587739 0.0044347011614059061 0 -7.7500912921151571e-05 0.0044603719985769567 0 -0.00014301404762678238 0.0047149043746992384 0 8.5249768008206141e-05 0.0045647617853618611 0 -7.7500912921151571e-05 0.0044603719985769567 0 -0.00014301404762678238 0.0047149043746992384 0 0.0029891356254534603 0.0016018274354498729 0 0.0033502335114790568 -0.00097032824398108556 0 0.0053511014460049513 -0.0020076141704134091 0 0.0040869453403250197 -0.0019102751320768038 0 0.0043902867237098353 -0.0022833058071495774 0 0.0025841502362002819 -0.00041243916276431994 0 0.0024938640418741961 -0.00011865394730315899 0 0.0025527706072369966 -0.00045225818210839074 0 0.0023967942507712118 0.00031841169083189478 0 0.0025841502362002819 -0.00041243916276431994 0 0.0024938640418741961 -0.00011865394730315899 0 0.0024938640418741961 -0.00011865394730315899 0 0.0024922193312508687 -0.00017883940569145306 0 0.0025527706072369966 -0.00045225818210839074 0 0.0033502335114790568 -0.00097032824398108556 0 0.0025402083044095353 -0.0013759150820667001 0 0.0025841502362002819 -0.00041243916276431994 0 0.0025821753551520219 -0.00086644393596052561 0 0.0025527706072369966 -0.00045225818210839074 0 0.0025841502362002819 -0.00041243916276431994 0 0.0025821753551520219 -0.00086644393596052561 0 0.0025400497424194523 -0.0016800941831062604 0 0.0025107332992753014 -0.0006207152818959406 0 0.0025527706072369966 -0.00045225818210839074 0 0.0024878593557975228 -0.00033423549244386168 0 0.0025821753551520219 -0.00086644393596052561 0 0.0025107332992753014 -0.0006207152818959406 0 0.0025527706072369966 -0.00045225818210839074 0 0.0025821753551520219 -0.00086644393596052561 0 0.0025107332992753014 -0.0006207152818959406 0 0.0024374882899899919 -0.0011300522067169692 0 0.0024195653725193264 -7.708403188144091e-05 0 0.0024922193312508687 -0.00017883940569145306 0 0.0024878593557975228 -0.00033423549244386168 0 0.0024922193312508687 -0.00017883940569145306 0 0.0025527706072369966 -0.00045225818210839074 0 0.0024878593557975228 -0.00033423549244386168 0 0.0024195653725193264 -7.708403188144091e-05 0 0.0024878593557975228 -0.00033423549244386168 0 0.0024219173783334327 -0.00038971165465794477 0 0.0024195653725193264 -7.708403188144091e-05 0 0.0023440380652219065 -0.0003884149834723898 0 0.0024219173783334327 -0.00038971165465794477 0 0.0025107332992753014 -0.0006207152818959406 0 0.0024878593557975228 -0.00033423549244386168 0 0.0024219173783334327 -0.00038971165465794477 0 0.0025107332992753014 -0.0006207152818959406 0 0.0024219173783334327 -0.00038971165465794477 0 0.0022959248852199633 -0.00061066741299461969 0 0.0013161918637468954 -0.0023811589186324808 0 -0.0001674706646362113 -0.0037606146818788726 0 0.00017938903530087259 -0.0023278377346419459 0 0.0016986300832928947 -0.0014081400738198899 0 0.00083054944128100651 -0.0020830716490910449 0 0.0023336628561572243 -0.00041770085533285209 0 0.0022959248852199633 -0.00061066741299461969 0 0.0018139860046885918 -0.00051012740807788255 0 0.0024219173783334327 -0.00038971165465794477 0 0.0023336628561572243 -0.00041770085533285209 0 0.0022959248852199633 -0.00061066741299461969 0 0.0022959248852199633 -0.00061066741299461969 0 0.0018486757627762416 -0.00095430751080303241 0 0.0022113964304339281 -0.0010222740821974712 0 0.0022959248852199633 -0.00061066741299461969 0 0.0018486757627762416 -0.00095430751080303241 0 0.0018139860046885918 -0.00051012740807788255 0 0.0022113964304339281 -0.0010222740821974712 0 0.0020574111115242997 -0.0016580084841155581 0 0.0016368301521267259 -0.0015426889091404907 0 0.0018486757627762416 -0.00095430751080303241 0 0.0022113964304339281 -0.0010222740821974712 0 0.0016368301521267259 -0.0015426889091404907 0 0.0022113964304339281 -0.0010222740821974712 0 0.0024374882899899919 -0.0011300522067169692 0 0.0020574111115242997 -0.0016580084841155581 0 0.0025107332992753014 -0.0006207152818959406 0 0.0022959248852199633 -0.00061066741299461969 0 0.0022113964304339281 -0.0010222740821974712 0 0.0025107332992753014 -0.0006207152818959406 0 0.0022113964304339281 -0.0010222740821974712 0 0.0024374882899899919 -0.0011300522067169692 0 0.0025821753551520219 -0.00086644393596052561 0 0.0024374882899899919 -0.0011300522067169692 0 0.0025400497424194523 -0.0016800941831062604 0 0.0024374882899899919 -0.0011300522067169692 0 0.0025400497424194523 -0.0016800941831062604 0 0.0020574111115242997 -0.0016580084841155581 0 0.0021454193390168606 -0.0022424008869711414 0 0.0020574111115242997 -0.0016580084841155581 0 0.0015050570377918534 -0.0023446178485660653 0 0.0021454193390168606 -0.0022424008869711414 0 0.0025400497424194523 -0.0016800941831062604 0 0.0020574111115242997 -0.0016580084841155581 0 0.0020574111115242997 -0.0016580084841155581 0 0.0015050570377918534 -0.0023446178485660653 0 0.0016368301521267259 -0.0015426889091404907 0 0.0015050570377918534 -0.0023446178485660653 0 0.00097131441275819126 -0.002121386347552174 0 0.0016368301521267259 -0.0015426889091404907 0 0.00065913281383906265 -0.0030835484299372553 0 0.0015050570377918534 -0.0023446178485660653 0 0.00097131441275819126 -0.002121386347552174 0 0.00065913281383906265 -0.0030835484299372553 0 0.00097131441275819126 -0.002121386347552174 0 4.1906032920862666e-05 -0.0024133857313463516 0 0.00015399529494445398 -0.0025359826594664107 0 -0.00012157719850541351 -0.0030417109014613101 0 0.00097131441275819126 -0.002121386347552174 0 0.000924674780185423 -0.0011816768584014862 0 4.1906032920862666e-05 -0.0024133857313463516 0 0.0018486757627762416 -0.00095430751080303241 0 0.000924674780185423 -0.0011816768584014862 0 0.0016368301521267259 -0.0015426889091404907 0 0.00097131441275819126 -0.002121386347552174 0 0.000924674780185423 -0.0011816768584014862 0 0.0016368301521267259 -0.0015426889091404907 0 -0.00035156150331459217 -0.0040693115925934491 0 -0.00046507997632645975 -0.0034923142100607399 0 -0.00038064170732067168 -0.0034932216211938229 0 4.7805823443524149e-05 -0.0034132954760089998 0 -0.00035156150331459217 -0.0040693115925934491 0 4.1906032920862666e-05 -0.0024133857313463516 0 -0.00038556455540908892 -0.0036591437349831951 0 -0.00012157719850541351 -0.0030417109014613101 0 0.00065913281383906265 -0.0030835484299372553 0 4.7805823443524149e-05 -0.0034132954760089998 0 4.1906032920862666e-05 -0.0024133857313463516 0 -0.00089077555101662697 -0.0038038436802913444 0 -0.00038064170732067168 -0.0034932216211938229 0 -0.00058652047279240005 -0.0037759490833337598 0 -0.00038064170732067168 -0.0034932216211938229 0 -0.00036186559644127555 -0.0036015221059815718 0 -0.00058652047279240005 -0.0037759490833337598 0 -0.00029968037972105758 -0.0051824419276677485 0 -9.9985477847769897e-05 -0.0053862819959818523 0 -0.00046507997632645975 -0.0034923142100607399 0 -0.00036186559644127555 -0.0036015221059815718 0 -8.7664407835256444e-05 -0.0038031814241177402 0 -0.00046507997632645975 -0.0034923142100607399 0 -0.00038064170732067168 -0.0034932216211938229 0 -0.00036186559644127555 -0.0036015221059815718 0 -0.00036186559644127555 -0.0036015221059815718 0 -8.7664407835256444e-05 -0.0038031814241177402 0 -0.00058652047279240005 -0.0037759490833337598 0 -8.7664407835256444e-05 -0.0038031814241177402 0 -0.00058652047279240005 -0.0037759490833337598 0 -0.000531350329646521 -0.0042261669886517507 0 -0.00058652047279240005 -0.0037759490833337598 0 -0.000531350329646521 -0.0042261669886517507 0 -0.0010521202388244354 -0.0037282803352528906 0 -8.7664407835256444e-05 -0.0038031814241177402 0 -0.000531350329646521 -0.0042261669886517507 0 0.00015569851104425063 -0.0046870058191593031 0 -9.9985477847769897e-05 -0.0053862819959818523 0 2.9687950462715919e-05 -0.0057256080522758894 0 -0.00089077555101662697 -0.0038038436802913444 0 -0.0001674706646362113 -0.0037606146818788726 0 -0.0010521202388244354 -0.0037282803352528906 0 0.00015399529494445398 -0.0025359826594664107 0 0.00083054944128100651 -0.0020830716490910449 0 0.0018486757627762416 -0.00095430751080303241 0 0.000924674780185423 -0.0011816768584014862 0 0.0018139860046885918 -0.00051012740807788255 0 -0.00089077555101662697 -0.0038038436802913444 0 -0.00058652047279240005 -0.0037759490833337598 0 -0.0010521202388244354 -0.0037282803352528906 0 -0.000531350329646521 -0.0042261669886517507 0 -0.0010521202388244354 -0.0037282803352528906 0 -0.00095531407188423237 -0.0045301700506302006 0 -0.0011254355366915887 -0.0036725681778495829 0 -0.0010895368663080358 -0.0033941875878228064 0 -0.0010521202388244354 -0.0037282803352528906 0 -0.0016206501644097659 -0.0050369039605378304 0 -0.00095531407188423237 -0.0045301700506302006 0 -0.0001674706646362113 -0.0037606146818788726 0 -0.0010521202388244354 -0.0037282803352528906 0 0.00017938903530087259 -0.0023278377346419459 0 -0.0010521202388244354 -0.0037282803352528906 0 -0.00079442159456648623 -0.0017926863551694545 0 0.00017938903530087259 -0.0023278377346419459 0 -0.00079442159456648623 -0.0017926863551694545 0 0.00017938903530087259 -0.0023278377346419459 0 0.00025877390316074558 -0.0011020753083129495 0 -0.00095531407188423237 -0.0045301700506302006 0 -0.0010013058743385441 -0.0054455925695528285 0 -0.00056542972273706214 -0.0050008257208986467 0 -0.0016206501644097659 -0.0050369039605378304 0 -0.00095531407188423237 -0.0045301700506302006 0 -0.0010013058743385441 -0.0054455925695528285 0 -0.0010013058743385441 -0.0054455925695528285 0 -0.0014286901898090023 -0.0057838161601607629 0 -0.0010085734401732995 -0.0061909972780154312 0 -0.0016206501644097659 -0.0050369039605378304 0 -0.0010013058743385441 -0.0054455925695528285 0 -0.0014286901898090023 -0.0057838161601607629 0 -0.00079442159456648623 -0.0017926863551694545 0 -0.00025478304938731755 -0.00036642401231579158 0 0.00025877390316074558 -0.0011020753083129495 0 -0.0010895368663080358 -0.0033941875878228064 0 -0.0010185618200342866 -0.0041478655092783163 0 -0.0016206501644097659 -0.0050369039605378304 0 -0.0014286901898090023 -0.0057838161601607629 0 -0.0018249391157317035 -0.0061544365217591568 0 -0.0014286901898090023 -0.0057838161601607629 0 -0.001630728010715861 -0.0060887609428065571 0 -0.0013794517439395799 -0.0061240150418849434 0 -0.0016332910729916499 -0.005048468205351926 0 -0.0010185618200342866 -0.0041478655092783163 0 -0.00025478304938731755 -0.00036642401231579158 0 0.00062613366496012284 -0.00038382970111194305 0 0.00025877390316074558 -0.0011020753083129495 0 -0.000531350329646521 -0.0042261669886517507 0 0.00015569851104425063 -0.0046870058191593031 0 -0.00056542972273706214 -0.0050008257208986467 0 0.00015569851104425063 -0.0046870058191593031 0 -0.00056542972273706214 -0.0050008257208986467 0 -0.00049874286197017659 -0.0057905668479970012 0 -0.000531350329646521 -0.0042261669886517507 0 -0.00095531407188423237 -0.0045301700506302006 0 -0.00056542972273706214 -0.0050008257208986467 0 -0.00049874286197017659 -0.0057905668479970012 0 -1.1027044135262385e-05 -0.0062638650563967679 0 -0.00045420975960438586 -0.0064218381957339282 0 -0.0010013058743385441 -0.0054455925695528285 0 -0.00049874286197017659 -0.0057905668479970012 0 -0.0010085734401732995 -0.0061909972780154312 0 -0.0010013058743385441 -0.0054455925695528285 0 -0.00056542972273706214 -0.0050008257208986467 0 -0.00049874286197017659 -0.0057905668479970012 0 2.9687950462715919e-05 -0.0057256080522758894 0 9.234524588418935e-06 -0.0061582631970120141 0 0.00015569851104425063 -0.0046870058191593031 0 -0.00049874286197017659 -0.0057905668479970012 0 -1.1027044135262385e-05 -0.0062638650563967679 0 2.1519706143846354e-05 -0.0066784986677658467 0 -1.1027044135262385e-05 -0.0062638650563967679 0 -8.976709388792426e-05 -0.006453933876430131 0 -1.1027044135262385e-05 -0.0062638650563967679 0 -3.7578500555692692e-05 -0.0065505271113161963 0 -8.976709388792426e-05 -0.006453933876430131 0 -1.1027044135262385e-05 -0.0062638650563967679 0 -3.7578500555692692e-05 -0.0065505271113161963 0 -0.00045420975960438586 -0.0064218381957339282 0 -3.7578500555692692e-05 -0.0065505271113161963 0 -0.00045420975960438586 -0.0064218381957339282 0 -0.00032928773073616639 -0.0067537570688870601 0 -0.00049874286197017659 -0.0057905668479970012 0 -0.00045420975960438586 -0.0064218381957339282 0 -0.0010085734401732995 -0.0061909972780154312 0 -0.00045420975960438586 -0.0064218381957339282 0 -0.0010085734401732995 -0.0061909972780154312 0 -0.0008711486980400951 -0.006688966323651257 0 -0.00065401920582508846 -0.0068356781826492052 0 -0.00032928773073616639 -0.0067537570688870601 0 -0.00017094848730050491 -0.0072311289611856188 0 -0.00045420975960438586 -0.0064218381957339282 0 -0.00065401920582508846 -0.0068356781826492052 0 -0.0008711486980400951 -0.006688966323651257 0 -0.00065401920582508846 -0.0068356781826492052 0 -0.00092445318403624967 -0.0069742091807671576 0 -0.00075357749674265912 -0.0072635638901328873 0 -0.00065401920582508846 -0.0068356781826492052 0 -0.0008711486980400951 -0.006688966323651257 0 -0.00092445318403624967 -0.0069742091807671576 0 -0.00045420975960438586 -0.0064218381957339282 0 -0.00065401920582508846 -0.0068356781826492052 0 -0.00032928773073616639 -0.0067537570688870601 0 -3.7578500555692692e-05 -0.0065505271113161963 0 -0.00013313739496886642 -0.0065542281586103606 0 -2.7278801903463183e-05 -0.006452565457013045 0 -8.5900512244807404e-05 -0.0064020948037173571 0 -0.00066119563709763512 -0.0077025324634775461 0 -3.7578500555692692e-05 -0.0065505271113161963 0 -0.00032928773073616639 -0.0067537570688870601 0 -0.00017094848730050491 -0.0072311289611856188 0 -0.0011128771583038999 -0.0048150009726510455 0 -0.0013496936624835104 -0.0058730238742732413 0 -0.0019697013914001579 -0.005617945748165586 0 -0.0010185618200342866 -0.0041478655092783163 0 -0.0015374716691846731 -0.0063612243414371203 0 -0.0014177476624842233 -0.0064042073575357053 0 -0.001630728010715861 -0.0060887609428065571 0 -0.0016930753818366136 -0.0067022290473896023 0 -0.0014177476624842233 -0.0064042073575357053 0 -0.001630728010715861 -0.0060887609428065571 0 -0.0013794517439395799 -0.0061240150418849434 0 -0.0014177476624842233 -0.0064042073575357053 0 -0.0013794517439395799 -0.0061240150418849434 0 -0.0010085734401732995 -0.0061909972780154312 0 -0.0014177476624842233 -0.0064042073575357053 0 -0.0010085734401732995 -0.0061909972780154312 0 -0.0013797462119975764 -0.0068562127485083434 0 -0.0014286901898090023 -0.0057838161601607629 0 -0.0013794517439395799 -0.0061240150418849434 0 -0.0010085734401732995 -0.0061909972780154312 0 -0.0010085734401732995 -0.0061909972780154312 0 -0.0008711486980400951 -0.006688966323651257 0 -0.0012880060531089204 -0.0070134453337683707 0 -0.0010555469894002476 -0.0063060397632813256 0 -0.0013142022364677521 -0.0069071040089220496 0 -0.0008711486980400951 -0.006688966323651257 0 -0.00092445318403624967 -0.0069742091807671576 0 -0.0012880060531089204 -0.0070134453337683707 0 -0.00092445318403624967 -0.0069742091807671576 0 -0.0012880060531089204 -0.0070134453337683707 0 -0.0010384784116624459 -0.0071718874763924082 0 -0.0014177476624842233 -0.0064042073575357053 0 -0.0013797462119975764 -0.0068562127485083434 0 -0.0016930753818366136 -0.0067022290473896023 0 -0.0013496936624835104 -0.0058730238742732413 0 -0.0019697013914001579 -0.005617945748165586 0 -0.001994832567299236 -0.0063299074129300947 0 -0.0019697013914001579 -0.005617945748165586 0 -0.001994832567299236 -0.0063299074129300947 0 -0.0027710160917322354 -0.006405801990441354 0 -0.00025478304938731755 -0.00036642401231579158 0 0.00086049919366163851 0.00021820318180132246 0 0.00062613366496012284 -0.00038382970111194305 0 -0.0010185618200342866 -0.0041478655092783163 0 -0.00043042819447263998 -0.0027470043446644848 0 0.00086049919366163851 0.00021820318180132246 0 0.00062613366496012284 -0.00038382970111194305 0 0.0012350161693157567 -0.00017325269373512221 0 0.00062613366496012284 -0.00038382970111194305 0 0.0012350161693157567 -0.00017325269373512221 0 0.00091924758580989375 -0.00067332713502930202 0 0.00086049919366163851 0.00021820318180132246 0 0.0012350161693157567 -0.00017325269373512221 0 0.0014869965691540815 9.7275949257932776e-05 0 0.0012350161693157567 -0.00017325269373512221 0 0.0018105383112087647 -0.00017785210667334067 0 0.0016894622190758541 -0.00053705788116702223 0 0.0012350161693157567 -0.00017325269373512221 0 0.0014869965691540815 9.7275949257932776e-05 0 0.0018105383112087647 -0.00017785210667334067 0 0.0012350161693157567 -0.00017325269373512221 0 0.00091924758580989375 -0.00067332713502930202 0 0.0016894622190758541 -0.00053705788116702223 0 0.0014869965691540815 9.7275949257932776e-05 0 0.0018940325388212074 0.00011022089932379393 0 0.0015152773369027615 0.00045214613671233438 0 -0.00043042819447263998 -0.0027470043446644848 0 -0.00067233412723932337 -0.0029661882410093833 0 0.00086049919366163851 0.00021820318180132246 0 0.0014869965691540815 9.7275949257932776e-05 0 0.0015152773369027615 0.00045214613671233438 0 0.0018940325388212074 0.00011022089932379393 0 0.0015152773369027615 0.00045214613671233438 0 0.0018844221819022447 0.00036954466627625956 0 0.0018940325388212074 0.00011022089932379393 0 0.0021573581510683929 0.00014508976379566535 0 0.0018844221819022447 0.00036954466627625956 0 0.0014869965691540815 9.7275949257932776e-05 0 0.0018940325388212074 0.00011022089932379393 0 0.0018105383112087647 -0.00017785210667334067 0 0.0022466508721401619 0.00012819316745165646 0 0.0021573581510683929 0.00014508976379566535 0 0.0021863609733288299 0.00028298532463412907 0 0.0022466508721401619 0.00012819316745165646 0 0.0021573581510683929 0.00014508976379566535 0 0.0022778002722396037 -3.8669935332401752e-05 0 0.0023538962237751372 0.00012332868802917692 0 0.0022466508721401619 0.00012819316745165646 0 0.0022778002722396037 -3.8669935332401752e-05 0 0.0018940325388212074 0.00011022089932379393 0 0.0021573581510683929 0.00014508976379566535 0 0.0021694621338050829 -7.6135661933072416e-05 0 0.0018940325388212074 0.00011022089932379393 0 0.0021694621338050829 -7.6135661933072416e-05 0 0.0021267361059941416 -0.00019849048866136507 0 0.0021573581510683929 0.00014508976379566535 0 0.0021694621338050829 -7.6135661933072416e-05 0 0.0022778002722396037 -3.8669935332401752e-05 0 0.0021694621338050829 -7.6135661933072416e-05 0 0.0022778002722396037 -3.8669935332401752e-05 0 0.0022761736732129414 -0.00030828453716654451 0 0.0021694621338050829 -7.6135661933072416e-05 0 0.0021267361059941416 -0.00019849048866136507 0 0.0022761736732129414 -0.00030828453716654451 0 0.0021267361059941416 -0.00019849048866136507 0 0.0022761736732129414 -0.00030828453716654451 0 0.0022100595608398601 -0.00045315827562381566 0 0.0018105383112087647 -0.00017785210667334067 0 0.0022100595608398601 -0.00045315827562381566 0 0.0016894622190758541 -0.00053705788116702223 0 0.0018940325388212074 0.00011022089932379393 0 0.0021267361059941416 -0.00019849048866136507 0 0.0018105383112087647 -0.00017785210667334067 0 0.0021267361059941416 -0.00019849048866136507 0 0.0018105383112087647 -0.00017785210667334067 0 0.0022100595608398601 -0.00045315827562381566 0 0.0022100595608398601 -0.00045315827562381566 0 0.0022231545829008814 -0.00071228594666428375 0 0.0016894622190758541 -0.00053705788116702223 0 0.0023440380652219065 -0.0003884149834723898 0 0.0022100595608398601 -0.00045315827562381566 0 0.0022231545829008814 -0.00071228594666428375 0 0.0023440380652219065 -0.0003884149834723898 0 0.0022761736732129414 -0.00030828453716654451 0 0.0022100595608398601 -0.00045315827562381566 0 0.0023440380652219065 -0.0003884149834723898 0 0.0024219173783334327 -0.00038971165465794477 0 0.0022231545829008814 -0.00071228594666428375 0 0.0024219173783334327 -0.00038971165465794477 0 0.0023336628561572243 -0.00041770085533285209 0 0.0022231545829008814 -0.00071228594666428375 0 0.0013161918637468954 -0.0023811589186324808 0 0.0022231545829008814 -0.00071228594666428375 0 0.0011530088500667981 -0.0012337228734825576 0 0.0016986300832928947 -0.0014081400738198899 0 0.0021254960076949841 -0.00094637299175232199 0 0.0013161918637468954 -0.0023811589186324808 0 0.0011530088500667981 -0.0012337228734825576 0 0.00017938903530087259 -0.0023278377346419459 0 0.0011530088500667981 -0.0012337228734825576 0 0.00017938903530087259 -0.0023278377346419459 0 0.00025877390316074558 -0.0011020753083129495 0 0.0011530088500667981 -0.0012337228734825576 0 0.00025877390316074558 -0.0011020753083129495 0 0.00091924758580989375 -0.00067332713502930202 0 0.00062613366496012284 -0.00038382970111194305 0 0.00025877390316074558 -0.0011020753083129495 0 0.00091924758580989375 -0.00067332713502930202 0 0.0011530088500667981 -0.0012337228734825576 0 0.00091924758580989375 -0.00067332713502930202 0 0.0016894622190758541 -0.00053705788116702223 0 0.0022231545829008814 -0.00071228594666428375 0 0.0011530088500667981 -0.0012337228734825576 0 0.0016894622190758541 -0.00053705788116702223 0 0.0018252486446719829 -0.0067361013880244654 0 0.0027445290104569269 -0.0065306909575138976 0 0.0026318975760766393 -0.0073962106375915736 0 0.0018252486446719829 -0.0067361013880244654 0 0.0026318975760766393 -0.0073962106375915736 0 0.0018977729832989133 -0.0074517685609444533 0 0.0018252486446719829 -0.0067361013880244654 0 0.0018977729832989133 -0.0074517685609444533 0 0.0012483051674064304 -0.0073200333016447709 0 -0.00035938510451414602 -0.0066357338345135837 0 -0.00042647374598246885 -0.0067575266249501782 0 -0.0002446865890908941 -0.0067329566522624333 0 0.00069043484476052582 -0.0067050998892238091 0 0.0012595042649790143 -0.0067557392812725393 0 -0.00042647374598246885 -0.0067575266249501782 0 -0.00058766209135626747 -0.0067288644309589224 0 -0.00051882087564176377 -0.0068480650705116507 0 -0.00035938510451414602 -0.0066357338345135837 0 -0.00042647374598246885 -0.0067575266249501782 0 -0.00058766209135626747 -0.0067288644309589224 0 0.00098529180442840747 -0.011869379399558257 0 0.00076206336238543969 -0.012374135982326428 0 0.00068969294795232471 -0.012036220278729484 0 0.0027445290104569269 -0.0065306909575138976 0 0.0030519958568963009 -0.0067978570534094496 0 0.0034355034937584581 -0.0063629512239167579 0 0.0012595042649790143 -0.0067557392812725393 0 0.0016087519855129339 -0.010357879407714448 0 0.0020982144850844172 -0.0092998522037077529 0 0.0016087519855129339 -0.010357879407714448 0 0.00098529180442840747 -0.011869379399558257 0 0.00068969294795232471 -0.012036220278729484 0 0.0006982381084912879 -0.011684994160306767 0 0.00098529180442840747 -0.011869379399558257 0 0.00088513447367731925 -0.011592923813264065 0 0.0006982381084912879 -0.011684994160306767 0 0.0027445290104569269 -0.0065306909575138976 0 0.0030519958568963009 -0.0067978570534094496 0 0.0026318975760766393 -0.0073962106375915736 0 0.00098529180442840747 -0.011869379399558257 0 0.00088513447367731925 -0.011592923813264065 0 0.001027412950542769 -0.011524139220376321 0 0.0020982144850844172 -0.0092998522037077529 0 0.0018016174405570021 -0.0095086013647271549 0 0.00088634699082460562 -0.011459708638794242 0 0.00088513447367731925 -0.011592923813264065 0 0.001027412950542769 -0.011524139220376321 0 0.00088634699082460562 -0.011459708638794242 0 0.00093367898597823478 -0.011330738875027316 0 0.001027412950542769 -0.011524139220376321 0 0.00088513447367731925 -0.011592923813264065 0 0.0006982381084912879 -0.011684994160306767 0 0.00076565850172118923 -0.011520071748181211 0 0.00088634699082460562 -0.011459708638794242 0 0.00088513447367731925 -0.011592923813264065 0 0.00076565850172118923 -0.011520071748181211 0 0.00088634699082460562 -0.011459708638794242 0 0.0008357697054599565 -0.011374674780265073 0 0.00076565850172118923 -0.011520071748181211 0 0.0008357697054599565 -0.011374674780265073 0 0.00093367898597823478 -0.011330738875027316 0 0.00089648813238324377 -0.011271915066394708 0 0.00088634699082460562 -0.011459708638794242 0 0.0008357697054599565 -0.011374674780265073 0 0.00093367898597823478 -0.011330738875027316 0 0.00093367898597823478 -0.011330738875027316 0 0.001027412950542769 -0.011524139220376321 0 0.00099291321759551279 -0.011241498970064503 0 0.00093367898597823478 -0.011330738875027316 0 0.00099291321759551279 -0.011241498970064503 0 0.00092902302584511941 -0.011146257471960854 0 0.0018016174405570021 -0.0095086013647271549 0 0.001527121064279967 -0.0097515225445014286 0 0.0026318975760766393 -0.0073962106375915736 0 0.0018977729832989133 -0.0074517685609444533 0 0.0021371546797918435 -0.0081961092271752405 0 0.0018977729832989133 -0.0074517685609444533 0 0.0021371546797918435 -0.0081961092271752405 0 0.0012884714891575283 -0.0078803161825457824 0 0.0021371546797918435 -0.0081961092271752405 0 0.0012884714891575283 -0.0078803161825457824 0 0.00151102418545391 -0.0092228137258556844 0 0.0012884714891575283 -0.0078803161825457824 0 0.00047471281996672133 -0.008419126299568121 0 0.00151102418545391 -0.0092228137258556844 0 0.0012884714891575283 -0.0078803161825457824 0 0.00047471281996672133 -0.008419126299568121 0 0.00057179882130631841 -0.0075482772972805786 0 0.00047471281996672133 -0.008419126299568121 0 0.00057179882130631841 -0.0075482772972805786 0 -3.7560424670522468e-05 -0.0079140523730413664 0 0.00057179882130631841 -0.0075482772972805786 0 0.0012483051674064304 -0.0073200333016447709 0 0.00054221999494090585 -0.0070250891644214374 0 0.00057179882130631841 -0.0075482772972805786 0 0.00018184401090276609 -0.0068643969961661591 0 0.00054221999494090585 -0.0070250891644214374 0 0.0012884714891575283 -0.0078803161825457824 0 0.00057179882130631841 -0.0075482772972805786 0 0.0012483051674064304 -0.0073200333016447709 0 0.0018977729832989133 -0.0074517685609444533 0 0.0012884714891575283 -0.0078803161825457824 0 0.0012483051674064304 -0.0073200333016447709 0 -0.0010873126522659882 -0.008060063566171902 0 -0.0019521778260798567 -0.00906173805561304 0 -0.00054877123308789781 -0.0087403137762849942 0 -0.00052176590113313869 -0.0073366685410428964 0 -0.00066119563709763512 -0.0077025324634775461 0 0.00047471281996672133 -0.008419126299568121 0 -3.7560424670522468e-05 -0.0079140523730413664 0 -0.00054877123308789781 -0.0087403137762849942 0 -0.0010873126522659882 -0.008060063566171902 0 -3.7560424670522468e-05 -0.0079140523730413664 0 -0.00054877123308789781 -0.0087403137762849942 0 0.00057179882130631841 -0.0075482772972805786 0 -3.7560424670522468e-05 -0.0079140523730413664 0 0.00018184401090276609 -0.0068643969961661591 0 -0.00011619020899243626 -0.0067310659281118769 0 0.00016137097848270299 -0.0067702702737346904 0 -0.00013313739496886642 -0.0065542281586103606 0 0.00018184401090276609 -0.0068643969961661591 0 -0.00011397801546083561 -0.0066214381079927496 0 0.00018184401090276609 -0.0068643969961661591 0 -0.00011397801546083561 -0.0066214381079927496 0 0.00054221999494090585 -0.0070250891644214374 0 -0.0010873126522659882 -0.008060063566171902 0 -3.7560424670522468e-05 -0.0079140523730413664 0 0.00018184401090276609 -0.0068643969961661591 0 -0.00052176590113313869 -0.0073366685410428964 0 1.6552389276181985e-05 -0.0068847197679724392 0 -3.7578500555692692e-05 -0.0065505271113161963 0 -0.00011397801546083561 -0.0066214381079927496 0 -8.976709388792426e-05 -0.006453933876430131 0 -3.7578500555692692e-05 -0.0065505271113161963 0 -0.00013313739496886642 -0.0065542281586103606 0 -0.00011397801546083561 -0.0066214381079927496 0 -0.00011397801546083561 -0.0066214381079927496 0 -8.976709388792426e-05 -0.006453933876430131 0 -0.00013459526068133667 -0.0065692491048447797 0 -8.976709388792426e-05 -0.006453933876430131 0 -0.00013459526068133667 -0.0065692491048447797 0 -0.00011825270149877696 -0.0065976958151658825 0 -0.00013459526068133667 -0.0065692491048447797 0 -0.00011825270149877696 -0.0065976958151658825 0 -0.00017608626959807113 -0.006622528854183905 0 -0.00011397801546083561 -0.0066214381079927496 0 -0.00013459526068133667 -0.0065692491048447797 0 -0.00018379957231826402 -0.0065688136078301687 0 -0.00015112034426744162 -0.0066873819114793608 0 -0.00011825270149877696 -0.0065976958151658825 0 -0.00017608626959807113 -0.006622528854183905 0 -0.00015112034426744162 -0.0066873819114793608 0 -0.00017608626959807113 -0.006622528854183905 0 -0.00020273981172950819 -0.0067217936243533991 0 -0.00015112034426744162 -0.0066873819114793608 0 -0.00011825270149877696 -0.0065976958151658825 0 -8.3706043637695902e-05 -0.0067635549738231044 0 2.1519706143846354e-05 -0.0066784986677658467 0 -8.976709388792426e-05 -0.006453933876430131 0 -0.00011825270149877696 -0.0065976958151658825 0 2.1519706143846354e-05 -0.0066784986677658467 0 -0.00011825270149877696 -0.0065976958151658825 0 -8.3706043637695902e-05 -0.0067635549738231044 0 0.0018252486446719829 -0.0067361013880244654 0 0.0012483051674064304 -0.0073200333016447709 0 0.00054221999494090585 -0.0070250891644214374 0 0.00069043484476052582 -0.0067050998892238091 0 0.00016137097848270299 -0.0067702702737346904 0 -0.00035938510451414602 -0.0066357338345135837 0 -0.00018379957231826402 -0.0065688136078301687 0 -0.00022440263322672036 -0.0066430360383017955 0 -0.00013459526068133667 -0.0065692491048447797 0 -0.00018379957231826402 -0.0065688136078301687 0 -0.00017608626959807113 -0.006622528854183905 0 -0.00018379957231826402 -0.0065688136078301687 0 -0.00017608626959807113 -0.006622528854183905 0 -0.00022440263322672036 -0.0066430360383017955 0 -0.00017608626959807113 -0.006622528854183905 0 -0.00029609912115476095 -0.0067100586554420805 0 -0.00020273981172950819 -0.0067217936243533991 0 -0.00017608626959807113 -0.006622528854183905 0 -0.0002446865890908941 -0.0067329566522624333 0 -0.00022440263322672036 -0.0066430360383017955 0 -0.00019657145045815766 -0.0066556049332523268 0 -0.00027383056142309825 -0.0067244191453881977 0 -0.00035938510451414602 -0.0066357338345135837 0 -0.0002446865890908941 -0.0067329566522624333 0 -0.00022440263322672036 -0.0066430360383017955 0 -0.00029609912115476095 -0.0067100586554420805 0 -0.00022811472886590697 -0.0068410909850385136 0 -0.00035426954315127769 -0.0069141287151154229 0 -0.00027383056142309825 -0.0067244191453881977 0 -0.00039707808645322531 -0.0068327510512594634 0 -0.00020273981172950819 -0.0067217936243533991 0 -0.00022811472886590697 -0.0068410909850385136 0 -0.00016059247503364849 -0.0067812293544864928 0 -0.00029609912115476095 -0.0067100586554420805 0 -0.00020273981172950819 -0.0067217936243533991 0 -0.00022811472886590697 -0.0068410909850385136 0 -0.00022811472886590697 -0.0068410909850385136 0 -0.00014223412623307595 -0.0068989219952346791 0 -0.0002517068437371171 -0.0069685465083206824 0 -0.00022811472886590697 -0.0068410909850385136 0 -0.0002517068437371171 -0.0069685465083206824 0 -0.00035426954315127769 -0.0069141287151154229 0 -4.8618450648616325e-05 -0.0068731268864303677 0 2.1519706143846354e-05 -0.0066784986677658467 0 -8.3706043637695902e-05 -0.0067635549738231044 0 -0.00015112034426744162 -0.0066873819114793608 0 -8.3706043637695902e-05 -0.0067635549738231044 0 -0.00016059247503364849 -0.0067812293544864928 0 -0.00015112034426744162 -0.0066873819114793608 0 -0.00020273981172950819 -0.0067217936243533991 0 -0.00016059247503364849 -0.0067812293544864928 0 -0.00022811472886590697 -0.0068410909850385136 0 -0.00016059247503364849 -0.0067812293544864928 0 -0.00014223412623307595 -0.0068989219952346791 0 -8.3706043637695902e-05 -0.0067635549738231044 0 -0.00016059247503364849 -0.0067812293544864928 0 -0.00014223412623307595 -0.0068989219952346791 0 -4.8618450648616325e-05 -0.0068731268864303677 0 -8.3706043637695902e-05 -0.0067635549738231044 0 -0.00014223412623307595 -0.0068989219952346791 0 -0.00028179010719380182 -0.0069880453980959868 0 -4.8618450648616325e-05 -0.0068731268864303677 0 -0.00011276654186720094 -0.0069282742066927114 0 -4.8618450648616325e-05 -0.0068731268864303677 0 -0.00014223412623307595 -0.0068989219952346791 0 -0.00011276654186720094 -0.0069282742066927114 0 -0.00014223412623307595 -0.0068989219952346791 0 -0.00011276654186720094 -0.0069282742066927114 0 -0.00014150911446940385 -0.007006260870548708 0 -0.00011276654186720094 -0.0069282742066927114 0 -7.9097087569089653e-05 -0.0067365940226405165 0 -0.00014150911446940385 -0.007006260870548708 0 4.9718885564764918e-05 -0.0067714471324337583 0 0.00060658204004326529 -0.0067727194494481349 0 -7.9097087569089653e-05 -0.0067365940226405165 0 0.0016000574107988491 -0.0065679554347774921 0 0.00073156622151583498 -0.00601886576746824 0 -7.9097087569089653e-05 -0.0067365940226405165 0 -1.5785577813125836e-05 -0.0058083622542721616 0 0.00073156622151583498 -0.00601886576746824 0 -0.00028179010719380182 -0.0069880453980959868 0 -7.9097087569089653e-05 -0.0067365940226405165 0 -1.5785577813125836e-05 -0.0058083622542721616 0 -0.00028179010719380182 -0.0069880453980959868 0 -0.00011276654186720094 -0.0069282742066927114 0 -7.9097087569089653e-05 -0.0067365940226405165 0 -0.0002517068437371171 -0.0069685465083206824 0 -0.00031816764860996088 -0.007124839909007287 0 -0.00041433940744424691 -0.0070544992930657562 0 -0.0002517068437371171 -0.0069685465083206824 0 -0.00041433940744424691 -0.0070544992930657562 0 -0.00035426954315127769 -0.0069141287151154229 0 -0.00014223412623307595 -0.0068989219952346791 0 -0.0002517068437371171 -0.0069685465083206824 0 -0.00014150911446940385 -0.007006260870548708 0 0.00060658204004326529 -0.0067727194494481349 0 0.0004727397455614056 -0.0068134097592446232 0 -0.0002517068437371171 -0.0069685465083206824 0 -0.00014150911446940385 -0.007006260870548708 0 -0.00031816764860996088 -0.007124839909007287 0 0.0016000574107988491 -0.0065679554347774921 0 0.0013759289908593238 -0.0064306946781731711 0 0.0015902256256077386 -0.0067695278867744724 0 0.0013759289908593238 -0.0064306946781731711 0 -0.00035040961801578697 -0.0067001116787608608 0 0.00015620685557468967 -0.0071768201886391889 0 0.0004727397455614056 -0.0068134097592446232 0 -0.00043890049626934624 -0.0070023703335154071 0 -0.00031816764860996088 -0.007124839909007287 0 -0.00052854279074644771 -0.0072310098697240342 0 -0.00041433940744424691 -0.0070544992930657562 0 -0.00052854279074644771 -0.0072310098697240342 0 -0.00056254998267787849 -0.0071035850517989106 0 -0.00041433940744424691 -0.0070544992930657562 0 -0.00056254998267787849 -0.0071035850517989106 0 -0.00041433940744424691 -0.0070544992930657562 0 -0.00054803398358103147 -0.0069193996297415728 0 -0.00041433940744424691 -0.0070544992930657562 0 -0.00035426954315127769 -0.0069141287151154229 0 -0.00054803398358103147 -0.0069193996297415728 0 -0.00035426954315127769 -0.0069141287151154229 0 -0.00054803398358103147 -0.0069193996297415728 0 -0.00040898988823016982 -0.0068026796090494808 0 -0.00054379323063123274 -0.0069539634579207452 0 -0.00039707808645322531 -0.0068327510512594634 0 -0.00053560686860211568 -0.0069868129513380988 0 -0.00051882087564176377 -0.0068480650705116507 0 -0.0003777906593298073 -0.0068613076034079274 0 -0.00042647374598246885 -0.0067575266249501782 0 -0.00051882087564176377 -0.0068480650705116507 0 -0.0003777906593298073 -0.0068613076034079274 0 -0.00029609912115476095 -0.0067100586554420805 0 -0.00035426954315127769 -0.0069141287151154229 0 -0.00040898988823016982 -0.0068026796090494808 0 -0.00042647374598246885 -0.0067575266249501782 0 -0.0002446865890908941 -0.0067329566522624333 0 -0.0003777906593298073 -0.0068613076034079274 0 -0.00067197111872534688 -0.0069077578807856654 0 -0.00081003749503684474 -0.0070043325749665052 0 -0.00083486819158797075 -0.0068383787857522306 0 -0.00058766209135626747 -0.0067288644309589224 0 -0.00067197111872534688 -0.0069077578807856654 0 -0.00083486819158797075 -0.0068383787857522306 0 -0.00058766209135626747 -0.0067288644309589224 0 -0.00051882087564176377 -0.0068480650705116507 0 -0.00067197111872534688 -0.0069077578807856654 0 -0.00053560686860211568 -0.0069868129513380988 0 -0.00051882087564176377 -0.0068480650705116507 0 -0.00067197111872534688 -0.0069077578807856654 0 -0.00053560686860211568 -0.0069868129513380988 0 -0.00067197111872534688 -0.0069077578807856654 0 -0.00070195479426458278 -0.0070905129385665355 0 -0.00054379323063123274 -0.0069539634579207452 0 -0.00066327296637816327 -0.0070483846516029031 0 -0.00067197111872534688 -0.0069077578807856654 0 -0.00081003749503684474 -0.0070043325749665052 0 -0.00070195479426458278 -0.0070905129385665355 0 -0.00081003749503684474 -0.0070043325749665052 0 -0.00070195479426458278 -0.0070905129385665355 0 -0.00087583704645242282 -0.0071617659439340564 0 -0.00070195479426458278 -0.0070905129385665355 0 -0.00077640576575833628 -0.0072119101589857267 0 -0.00087583704645242282 -0.0071617659439340564 0 -0.00070195479426458278 -0.0070905129385665355 0 -0.00066158560101167632 -0.0071945093988146401 0 -0.00077640576575833628 -0.0072119101589857267 0 -0.00056254998267787849 -0.0071035850517989106 0 -0.00070195479426458278 -0.0070905129385665355 0 -0.00066158560101167632 -0.0071945093988146401 0 -0.00056254998267787849 -0.0071035850517989106 0 -0.00054803398358103147 -0.0069193996297415728 0 -0.00070195479426458278 -0.0070905129385665355 0 -0.00052854279074644771 -0.0072310098697240342 0 -0.00056254998267787849 -0.0071035850517989106 0 -0.00066158560101167632 -0.0071945093988146401 0 -0.00035040961801578697 -0.0067001116787608608 0 -0.002180308915021753 -0.0070174252321548109 0 -0.00098722410240497543 -0.0069548552654076874 0 -0.00043890049626934624 -0.0070023703335154071 0 -0.0013443222104102394 -0.0075700771707563229 0 -0.00052854279074644771 -0.0072310098697240342 0 -0.00066158560101167632 -0.0071945093988146401 0 -0.00076365783752212852 -0.0073341560827467206 0 -0.00077640576575833628 -0.0072119101589857267 0 -0.00076365783752212852 -0.0073341560827467206 0 -0.00088443827491927352 -0.0072849528735660944 0 -0.00066158560101167632 -0.0071945093988146401 0 -0.00077640576575833628 -0.0072119101589857267 0 -0.00076365783752212852 -0.0073341560827467206 0 -0.002180308915021753 -0.0070174252321548109 0 -0.0018356210175974853 -0.0083368067820656401 0 -0.0029449010966137237 -0.0079442115533917071 0 -0.0018070878942048007 -0.0081696004934307398 0 -0.002559063578741506 -0.0094903570837257308 0 -0.0016418761021171062 -0.0091933163589015144 0 -0.0017168834467443308 -0.0083100224326717476 0 -0.0020889708354413748 -0.0098133244050023338 0 -0.0018356210175974853 -0.0083368067820656401 0 -0.0029449010966137237 -0.0079442115533917071 0 -0.0029184871013555169 -0.008601004279095199 0 -0.0018356210175974853 -0.0083368067820656401 0 -0.0027550682470740169 -0.0096609725924453101 0 -0.0029184871013555169 -0.008601004279095199 0 -0.001019690759179525 -0.0090075012369814546 0 -0.00098690282677927959 -0.0081874066680170457 0 -0.00049518549816085066 -0.0088640633026989251 0 -0.001019690759179525 -0.0090075012369814546 0 -0.00098690282677927959 -0.0081874066680170457 0 -0.0016418761021171062 -0.0091933163589015144 0 -0.0018070878942048007 -0.0081696004934307398 0 -0.00098690282677927959 -0.0081874066680170457 0 -0.0016418761021171062 -0.0091933163589015144 0 -0.002180308915021753 -0.0070174252321548109 0 -0.0018356210175974853 -0.0083368067820656401 0 -0.00098722410240497543 -0.0069548552654076874 0 -0.00098690282677927959 -0.0081874066680170457 0 -0.00098722410240497543 -0.0069548552654076874 0 -0.00050646047030694641 -0.0073833793422363649 0 -0.0017168834467443308 -0.0083100224326717476 0 -0.0011307808448187526 -0.0073147354836597964 0 -0.0018070878942048007 -0.0081696004934307398 0 -0.00098690282677927959 -0.0081874066680170457 0 -0.00098722410240497543 -0.0069548552654076874 0 -0.00035040961801578697 -0.0067001116787608608 0 -0.00098722410240497543 -0.0069548552654076874 0 -0.00050646047030694641 -0.0073833793422363649 0 -0.00035040961801578697 -0.0067001116787608608 0 0.00015620685557468967 -0.0071768201886391889 0 -0.00050646047030694641 -0.0073833793422363649 0 0.00015620685557468967 -0.0071768201886391889 0 0.00058719308313594741 -0.0076076741799108415 0 -0.00035862456028483902 -0.0078901711998030193 0 0.00015620685557468967 -0.0071768201886391889 0 -0.00050646047030694641 -0.0073833793422363649 0 -0.00035862456028483902 -0.0078901711998030193 0 -0.00098690282677927959 -0.0081874066680170457 0 -0.00050646047030694641 -0.0073833793422363649 0 -0.00035862456028483902 -0.0078901711998030193 0 0.0013759289908593238 -0.0064306946781731711 0 0.00015620685557468967 -0.0071768201886391889 0 0.00058719308313594741 -0.0076076741799108415 0 0.00058719308313594741 -0.0076076741799108415 0 0.00082330380682346411 -0.008630782071512277 0 0.0012755425837196186 -0.0076227232944426114 0 0.00058719308313594741 -0.0076076741799108415 0 0.00027685460609932317 -0.0087360908409337881 0 -9.0454138669145473e-06 -0.0082827484722016974 0 0.00058719308313594741 -0.0076076741799108415 0 0.00027685460609932317 -0.0087360908409337881 0 0.00082330380682346411 -0.008630782071512277 0 0.00058719308313594741 -0.0076076741799108415 0 -0.00035862456028483902 -0.0078901711998030193 0 -9.0454138669145473e-06 -0.0082827484722016974 0 -0.00035862456028483902 -0.0078901711998030193 0 -9.0454138669145473e-06 -0.0082827484722016974 0 -0.00049518549816085066 -0.0088640633026989251 0 -0.00098690282677927959 -0.0081874066680170457 0 -0.00035862456028483902 -0.0078901711998030193 0 -0.00049518549816085066 -0.0088640633026989251 0 0.00027685460609932317 -0.0087360908409337881 0 -9.0454138669145473e-06 -0.0082827484722016974 0 -0.00049518549816085066 -0.0088640633026989251 0 -0.00049518549816085066 -0.0088640633026989251 0 -0.00014702676944053708 -0.0098321778802644474 0 -0.00096259957185304795 -0.0098081635876300262 0 0.00027685460609932317 -0.0087360908409337881 0 -0.00049518549816085066 -0.0088640633026989251 0 -0.00014702676944053708 -0.0098321778802644474 0 -0.00014702676944053708 -0.0098321778802644474 0 -0.00056986589935569161 -0.010333486140316341 0 -0.00096259957185304795 -0.0098081635876300262 0 0.00082330380682346411 -0.008630782071512277 0 0.00041787037029888263 -0.0095963292995922631 0 0.0010413915900551731 -0.0095157345803961978 0 0.00027685460609932317 -0.0087360908409337881 0 -0.00014702676944053708 -0.0098321778802644474 0 0.00041787037029888263 -0.0095963292995922631 0 0.00027685460609932317 -0.0087360908409337881 0 0.00082330380682346411 -0.008630782071512277 0 0.00041787037029888263 -0.0095963292995922631 0 -0.00014702676944053708 -0.0098321778802644474 0 0.00041787037029888263 -0.0095963292995922631 0 0.00047483166365576499 -0.010604081594098109 0 0.00041787037029888263 -0.0095963292995922631 0 0.0007362476796226381 -0.010058474596360277 0 0.00047483166365576499 -0.010604081594098109 0 0.0007362476796226381 -0.010058474596360277 0 0.0010413915900551731 -0.0095157345803961978 0 0.0010377684704646062 -0.010501219071773942 0 0.00041787037029888263 -0.0095963292995922631 0 0.0007362476796226381 -0.010058474596360277 0 0.0010413915900551731 -0.0095157345803961978 0 0.00047483166365576499 -0.010604081594098109 0 0.0009741666294682199 -0.011465476014971832 0 0.00017190498995015097 -0.011824766936885452 0 0.0007362476796226381 -0.010058474596360277 0 0.00047483166365576499 -0.010604081594098109 0 0.0010377684704646062 -0.010501219071773942 0 0.00047483166365576499 -0.010604081594098109 0 0.0010377684704646062 -0.010501219071773942 0 0.0009741666294682199 -0.011465476014971832 0 0.00047483166365576499 -0.010604081594098109 0 -0.00022939262845311979 -0.010843824980878139 0 0.00017190498995015097 -0.011824766936885452 0 -0.00014702676944053708 -0.0098321778802644474 0 -0.00056986589935569161 -0.010333486140316341 0 -0.00022939262845311979 -0.010843824980878139 0 -0.00056986589935569161 -0.010333486140316341 0 -0.00022939262845311979 -0.010843824980878139 0 -0.00092507007373290905 -0.01084114225485314 0 -0.00014702676944053708 -0.0098321778802644474 0 0.00047483166365576499 -0.010604081594098109 0 -0.00022939262845311979 -0.010843824980878139 0 -0.00022939262845311979 -0.010843824980878139 0 -0.00092507007373290905 -0.01084114225485314 0 -0.00044068008867659481 -0.011587892491392948 0 -0.00056986589935569161 -0.010333486140316341 0 -0.00092507007373290905 -0.01084114225485314 0 -0.00096259957185304795 -0.0098081635876300262 0 -0.00092507007373290905 -0.01084114225485314 0 -0.0017472874657213212 -0.011199190566652101 0 -0.001669892422989031 -0.010239699620473532 0 -0.00092507007373290905 -0.01084114225485314 0 -0.001669892422989031 -0.010239699620473532 0 -0.00096259957185304795 -0.0098081635876300262 0 -0.00092507007373290905 -0.01084114225485314 0 -0.0017472874657213212 -0.011199190566652101 0 -0.0010345260385405299 -0.011900322409436365 0 -0.0017472874657213212 -0.011199190566652101 0 -0.0023836187331755382 -0.010615552437218291 0 -0.0025220693107500616 -0.011398668268431276 0 -0.0017472874657213212 -0.011199190566652101 0 -0.0023836187331755382 -0.010615552437218291 0 -0.001669892422989031 -0.010239699620473532 0 -0.0023836187331755382 -0.010615552437218291 0 -0.001669892422989031 -0.010239699620473532 0 -0.002559063578741506 -0.0094903570837257308 0 -0.001669892422989031 -0.010239699620473532 0 -0.002559063578741506 -0.0094903570837257308 0 -0.0016418761021171062 -0.0091933163589015144 0 -0.001019690759179525 -0.0090075012369814546 0 -0.0016418761021171062 -0.0091933163589015144 0 -0.00096259957185304795 -0.0098081635876300262 0 -0.001019690759179525 -0.0090075012369814546 0 -0.00049518549816085066 -0.0088640633026989251 0 -0.00096259957185304795 -0.0098081635876300262 0 -0.001669892422989031 -0.010239699620473532 0 -0.0016418761021171062 -0.0091933163589015144 0 -0.00096259957185304795 -0.0098081635876300262 0 -0.00022223058318806408 -0.0044921183428734178 0 7.1588245989091543e-05 -0.0047269298838976681 0 -0.00033980290284543394 -0.0047705124557220766 0 7.1588245989091543e-05 -0.0047269298838976681 0 -0.00033980290284543394 -0.0047705124557220766 0 0.00043294186313487889 -0.0052798792582785647 0 -0.00033980290284543394 -0.0047705124557220766 0 -1.5785577813125836e-05 -0.0058083622542721616 0 0.00043294186313487889 -0.0052798792582785647 0 -0.00035156150331459217 -0.0040693115925934491 0 -0.00046507997632645975 -0.0034923142100607399 0 -0.00033980290284543394 -0.0047705124557220766 0 -0.00028179010719380182 -0.0069880453980959868 0 -0.00033980290284543394 -0.0047705124557220766 0 -1.5785577813125836e-05 -0.0058083622542721616 0 -0.00029968037972105758 -0.0051824419276677485 0 -0.00032604338217292946 -0.0048096227688858347 0 -1.5785577813125836e-05 -0.0058083622542721616 0 0.00043294186313487889 -0.0052798792582785647 0 0.00073156622151583498 -0.00601886576746824 0 0.0016000574107988491 -0.0065679554347774921 0 0.00073156622151583498 -0.00601886576746824 0 0.0012400715622012813 -0.0060403438025705778 0 0.00043294186313487889 -0.0052798792582785647 0 0.00073156622151583498 -0.00601886576746824 0 0.0012400715622012813 -0.0060403438025705778 0 7.1588245989091543e-05 -0.0047269298838976681 0 0.00091321397130939464 -0.0052770049004751182 0 0.00044892701805054571 -0.0042076979735686058 0 7.1588245989091543e-05 -0.0047269298838976681 0 0.00043294186313487889 -0.0052798792582785647 0 0.00091321397130939464 -0.0052770049004751182 0 0.00043294186313487889 -0.0052798792582785647 0 0.0012400715622012813 -0.0060403438025705778 0 0.00091321397130939464 -0.0052770049004751182 0 0.00091321397130939464 -0.0052770049004751182 0 0.0020142309145363985 -0.0065443714595043584 0 0.0019972180436749472 -0.0049013600796692786 0 0.0019651560338017032 -0.0067032791405064948 0 0.0018468763208573677 -0.0068772650835896504 0 0.0012400715622012813 -0.0060403438025705778 0 0.00091321397130939464 -0.0052770049004751182 0 0.0020142309145363985 -0.0065443714595043584 0 0.0020142309145363985 -0.0065443714595043584 0 0.0015511508555762924 -0.0084310542802354255 0 0.0026468860327118634 -0.0086547814674129003 0 0.0016000574107988491 -0.0065679554347774921 0 0.0012400715622012813 -0.0060403438025705778 0 0.0020142309145363985 -0.0065443714595043584 0 0.0016000574107988491 -0.0065679554347774921 0 0.0020142309145363985 -0.0065443714595043584 0 0.0015902256256077386 -0.0067695278867744724 0 0.0020142309145363985 -0.0065443714595043584 0 0.0015902256256077386 -0.0067695278867744724 0 0.0012755425837196186 -0.0076227232944426114 0 0.00058719308313594741 -0.0076076741799108415 0 0.0015902256256077386 -0.0067695278867744724 0 0.0012755425837196186 -0.0076227232944426114 0 0.0013759289908593238 -0.0064306946781731711 0 0.00058719308313594741 -0.0076076741799108415 0 0.0015902256256077386 -0.0067695278867744724 0 0.0020142309145363985 -0.0065443714595043584 0 0.0012755425837196186 -0.0076227232944426114 0 0.0015511508555762924 -0.0084310542802354255 0 0.00082330380682346411 -0.008630782071512277 0 0.0012755425837196186 -0.0076227232944426114 0 0.0015511508555762924 -0.0084310542802354255 0 0.00082330380682346411 -0.008630782071512277 0 0.0015511508555762924 -0.0084310542802354255 0 0.0010413915900551731 -0.0095157345803961978 0 0.0015511508555762924 -0.0084310542802354255 0 0.001795390030403142 -0.0094930848125919943 0 0.0010413915900551731 -0.0095157345803961978 0 0.0015511508555762924 -0.0084310542802354255 0 0.001795390030403142 -0.0094930848125919943 0 0.0026468860327118634 -0.0086547814674129003 0 0.001795390030403142 -0.0094930848125919943 0 0.001787186923374595 -0.010567340254512347 0 0.0027166341142885841 -0.010330466965509768 0 0.001795390030403142 -0.0094930848125919943 0 0.0014221014846936665 -0.010114901509166444 0 0.001787186923374595 -0.010567340254512347 0 0.001795390030403142 -0.0094930848125919943 0 0.0014221014846936665 -0.010114901509166444 0 0.0010413915900551731 -0.0095157345803961978 0 0.0014221014846936665 -0.010114901509166444 0 0.0010413915900551731 -0.0095157345803961978 0 0.0010377684704646062 -0.010501219071773942 0 0.0013628847363776014 -0.01101788332706858 0 0.001787186923374595 -0.010567340254512347 0 0.001698921470765842 -0.012141775054806981 0 0.0014221014846936665 -0.010114901509166444 0 0.0010377684704646062 -0.010501219071773942 0 0.0013628847363776014 -0.01101788332706858 0 0.0010377684704646062 -0.010501219071773942 0 0.0013628847363776014 -0.01101788332706858 0 0.0009741666294682199 -0.011465476014971832 0 0.0014221014846936665 -0.010114901509166444 0 0.0013628847363776014 -0.01101788332706858 0 0.001787186923374595 -0.010567340254512347 0 0.001787186923374595 -0.010567340254512347 0 0.0022097982825619159 -0.010462594225641551 0 0.001698921470765842 -0.012141775054806981 0 -0.00057614123704993715 -0.0076364702392506794 0 -8.1617016577844337e-05 -0.00796904141730349 0 -0.00057391516914089382 -0.0085116855057303601 0 0.0010894561533914685 -0.0081181608145636346 0 0.00056006676386216592 -0.010321357064789869 0 0.001338613005806711 -0.008481252475545327 0 0.0010894561533914685 -0.0081181608145636346 0 0.001927881189359295 -0.003886865048141452 0 0.0019972180436749472 -0.0049013600796692786 0 0.00044892701805054571 -0.0042076979735686058 0 0.001795390030403142 -0.0094930848125919943 0 0.0027166341142885841 -0.010330466965509768 0 0.0026468860327118634 -0.0086547814674129003 0 0.0010894561533914685 -0.0081181608145636346 0 0.0018468763208573677 -0.0068772650835896504 0 0.0010894561533914685 -0.0081181608145636346 0 0.00044482416232223949 -0.0061593631432077835 0 0.00091321397130939464 -0.0052770049004751182 0 0.0019972180436749472 -0.0049013600796692786 0 0.00044892701805054571 -0.0042076979735686058 0 0.00019412908366779364 -0.0074845898870331915 0 -8.1617016577844337e-05 -0.00796904141730349 0 0.00040580756639000239 -0.0080801540482754574 0 -0.00057614123704993715 -0.0076364702392506794 0 0.00019412908366779364 -0.0074845898870331915 0 -8.1617016577844337e-05 -0.00796904141730349 0 0.00078549621375860977 -0.0078114479516826459 0 0.00019412908366779364 -0.0074845898870331915 0 0.00040580756639000239 -0.0080801540482754574 0 0.00078549621375860977 -0.0078114479516826459 0 0.0007043195595454715 -0.0082279154117404513 0 0.00040580756639000239 -0.0080801540482754574 0 0.00079823741693365083 -0.0073656749567943287 0 0.00078549621375860977 -0.0078114479516826459 0 0.00019412908366779364 -0.0074845898870331915 0 -0.00023051862226926824 -0.0045507006991829402 0 7.1588245989091543e-05 -0.0047269298838976681 0 0.00044892701805054571 -0.0042076979735686058 0 0.00034965841914263925 -0.0059422869035207554 0 0.00044482416232223949 -0.0061593631432077835 0 0.00084442077694887169 -0.0089525265519613227 0 0.00048366495851506845 -0.0090732450220481538 0 0.00063556715675169102 -0.0088187772398885412 0 0.00048366495851506845 -0.0090732450220481538 0 0.00063556715675169102 -0.0088187772398885412 0 0.00049005042528998488 -0.0086027075663887131 0 0.00048366495851506845 -0.0090732450220481538 0 0.00049005042528998488 -0.0086027075663887131 0 0.00011019909645964783 -0.0090105605080234314 0 0.00084442077694887169 -0.0089525265519613227 0 0.00063556715675169102 -0.0088187772398885412 0 0.00074646202512781566 -0.0085431723376704558 0 0.00063556715675169102 -0.0088187772398885412 0 0.00074646202512781566 -0.0085431723376704558 0 0.00049005042528998488 -0.0086027075663887131 0 0.00074646202512781566 -0.0085431723376704558 0 0.0007043195595454715 -0.0082279154117404513 0 0.00049005042528998488 -0.0086027075663887131 0 0.0007043195595454715 -0.0082279154117404513 0 0.00040580756639000239 -0.0080801540482754574 0 0.00049005042528998488 -0.0086027075663887131 0 0.00040580756639000239 -0.0080801540482754574 0 0.00049005042528998488 -0.0086027075663887131 0 8.221857676896457e-05 -0.0084225356652811983 0 -8.1617016577844337e-05 -0.00796904141730349 0 8.221857676896457e-05 -0.0084225356652811983 0 -0.00057391516914089382 -0.0085116855057303601 0 8.221857676896457e-05 -0.0084225356652811983 0 0.00011019909645964783 -0.0090105605080234314 0 -0.00057391516914089382 -0.0085116855057303601 0 -8.1617016577844337e-05 -0.00796904141730349 0 0.00040580756639000239 -0.0080801540482754574 0 8.221857676896457e-05 -0.0084225356652811983 0 0.00049005042528998488 -0.0086027075663887131 0 8.221857676896457e-05 -0.0084225356652811983 0 0.00011019909645964783 -0.0090105605080234314 0 0.00011019909645964783 -0.0090105605080234314 0 -0.00057391516914089382 -0.0085116855057303601 0 -0.00048560629508952744 -0.0096660714258189027 0 0.001698921470765842 -0.012141775054806981 0 0.00079487891727225159 -0.012895203093740664 0 0.00064118257240443224 -0.012937841433919047 0 0.00056006676386216592 -0.010321357064789869 0 0.00017570692728454594 -0.011085933890093243 0 0.0013628847363776014 -0.01101788332706858 0 0.001698921470765842 -0.012141775054806981 0 0.0009741666294682199 -0.011465476014971832 0 0.001698921470765842 -0.012141775054806981 0 0.0009741666294682199 -0.011465476014971832 0 0.00066213826046683381 -0.012468671762058145 0 0.001698921470765842 -0.012141775054806981 0 0.00079487891727225159 -0.012895203093740664 0 0.00066213826046683381 -0.012468671762058145 0 0.00079487891727225159 -0.012895203093740664 0 0.0005308875781440956 -0.012855557883779621 0 0.00064118257240443224 -0.012937841433919047 0 0.00079487891727225159 -0.012895203093740664 0 0.0005308875781440956 -0.012855557883779621 0 0.00040053057622834495 -0.013496391457971591 0 0.0005308875781440956 -0.012855557883779621 0 -1.614911067936345e-08 -0.011293700344028424 0 1.0563685437228389e-06 -0.013341063400615742 0 -2.7331965806485924e-06 -0.01128467013279485 0 -0.00048560629508952744 -0.0096660714258189027 0 2.4341855638643626e-06 -0.010839734793422387 0 0.0005308875781440956 -0.012855557883779621 0 -1.614911067936345e-08 -0.011293700344028424 0 0.00064118257240443224 -0.012937841433919047 0 8.9536069787982747e-08 -0.011290263768684281 0 0.00017570692728454594 -0.011085933890093243 0 0.00011019909645964783 -0.0090105605080234314 0 -0.00048560629508952744 -0.0096660714258189027 0 0.00045907961723752773 -0.0098960735634714414 0 0.00048366495851506845 -0.0090732450220481538 0 0.00011019909645964783 -0.0090105605080234314 0 0.00045907961723752773 -0.0098960735634714414 0 6.0009769672200822e-08 -0.010833349855546228 0 0.00033264129783427341 -0.0094447478996843512 0 -1.0582705791034911e-06 -0.01083194818696482 0 5.1745036102651145e-07 -0.0093452317112610872 0 -6.6618129729648673e-05 -0.0087785562754725734 0 -0.00048560629508952744 -0.0096660714258189027 0 2.4341855638643626e-06 -0.010839734793422387 0 0.00045907961723752773 -0.0098960735634714414 0 0.00026983870204421535 -0.008392567994246836 0 5.1745036102651145e-07 -0.0093452317112610872 0 -6.6618129729648673e-05 -0.0087785562754725734 0 0.00058596511179458122 -0.008725519444220094 0 0.00033264129783427341 -0.0094447478996843512 0 0.00084442077694887169 -0.0089525265519613227 0 0.00048366495851506845 -0.0090732450220481538 0 0.00045907961723752773 -0.0098960735634714414 0 0.00032459416295330497 -0.0084026613057953635 0 0.00026983870204421535 -0.008392567994246836 0 -6.6618129729648673e-05 -0.0087785562754725734 0 0.00032459416295330497 -0.0084026613057953635 0 0.00031933488337785253 -0.0083416759613820345 0 -6.6618129729648673e-05 -0.0087785562754725734 0 -0.00085055417555546372 -0.013094853983971172 0 -0.0004114050388852159 -0.012349094355099668 0 8.3781236001361916e-05 -0.012983850906135316 0 -0.00085055417555546372 -0.013094853983971172 0 8.3781236001361916e-05 -0.012983850906135316 0 -0.00016128997831998964 -0.014516317685381877 0 -0.00085055417555546372 -0.013094853983971172 0 -0.0018332913194693964 -0.012254166248574089 0 -0.0021110651087731199 -0.014346247021604093 0 -0.00085055417555546372 -0.013094853983971172 0 -0.0018332913194693964 -0.012254166248574089 0 -0.0010345260385405299 -0.011900322409436365 0 -0.0017472874657213212 -0.011199190566652101 0 -0.0018332913194693964 -0.012254166248574089 0 -0.0025220693107500616 -0.011398668268431276 0 -0.0017472874657213212 -0.011199190566652101 0 -0.0018332913194693964 -0.012254166248574089 0 -0.0010345260385405299 -0.011900322409436365 0 -0.00085055417555546372 -0.013094853983971172 0 -0.0010345260385405299 -0.011900322409436365 0 -0.0004114050388852159 -0.012349094355099668 0 -0.0010345260385405299 -0.011900322409436365 0 -0.0004114050388852159 -0.012349094355099668 0 -0.00044068008867659481 -0.011587892491392948 0 -0.00092507007373290905 -0.01084114225485314 0 -0.0010345260385405299 -0.011900322409436365 0 -0.00044068008867659481 -0.011587892491392948 0 -0.0004114050388852159 -0.012349094355099668 0 0.00017190498995015097 -0.011824766936885452 0 8.3781236001361916e-05 -0.012983850906135316 0 -0.00022939262845311979 -0.010843824980878139 0 -0.00044068008867659481 -0.011587892491392948 0 0.00017190498995015097 -0.011824766936885452 0 -0.0004114050388852159 -0.012349094355099668 0 -0.00044068008867659481 -0.011587892491392948 0 0.00017190498995015097 -0.011824766936885452 0 0.0009741666294682199 -0.011465476014971832 0 0.00017190498995015097 -0.011824766936885452 0 0.00066213826046683381 -0.012468671762058145 0 0.00079487891727225159 -0.012895203093740664 0 0.00066213826046683381 -0.012468671762058145 0 0.00040053057622834495 -0.013496391457971591 0 0.00017190498995015097 -0.011824766936885452 0 0.00066213826046683381 -0.012468671762058145 0 8.3781236001361916e-05 -0.012983850906135316 0 0.00066213826046683381 -0.012468671762058145 0 8.3781236001361916e-05 -0.012983850906135316 0 0.00040053057622834495 -0.013496391457971591 0 8.3781236001361916e-05 -0.012983850906135316 0 0.00040053057622834495 -0.013496391457971591 0 -0.00016128997831998964 -0.014516317685381877 0 0.0005308875781440956 -0.012855557883779621 0 0.00040053057622834495 -0.013496391457971591 0 1.0563685437228389e-06 -0.013341063400615742 0 0.00040053057622834495 -0.013496391457971591 0 1.0563685437228389e-06 -0.013341063400615742 0 1.2619088798766582e-06 -0.015393259612859074 0 0.00040053057622834495 -0.013496391457971591 0 1.2619088798766582e-06 -0.015393259612859074 0 -0.00016128997831998964 -0.014516317685381877 0 1.2619088798766582e-06 -0.015393259612859074 0 -0.00016128997831998964 -0.014516317685381877 0 -4.9319207758243992e-06 -0.017440160004407217 0 -0.00085055417555546372 -0.013094853983971172 0 -0.00016128997831998964 -0.014516317685381877 0 -0.0021110651087731199 -0.014346247021604093 0 -0.00016128997831998964 -0.014516317685381877 0 -4.9319207758243992e-06 -0.017440160004407217 0 -0.0021110651087731199 -0.014346247021604093 0 -2.0931069822128238e-06 -0.017447443590248798 0 -9.908055043244182e-05 -0.01855954741644671 0 6.6112996746793507e-07 -0.019019240996764337 0 -2.0931069822128238e-06 -0.017447443590248798 0 -9.908055043244182e-05 -0.01855954741644671 0 -0.00066950708034246506 -0.02021066909326745 0 -9.253135278184422e-07 -0.017444387190917534 0 -0.0011695946781019823 -0.017118203000599755 0 -9.908055043244182e-05 -0.01855954741644671 0 3.0222897254405434e-05 -0.0198443570926055 0 -0.00015635724615875048 -0.019747879832621919 0 -9.908055043244182e-05 -0.01855954741644671 0 6.6112996746793507e-07 -0.019019240996764337 0 3.0222897254405434e-05 -0.0198443570926055 0 6.6112996746793507e-07 -0.019019240996764337 0 3.0222897254405434e-05 -0.0198443570926055 0 0.0001117239589079105 -0.020198568452354751 0 3.0222897254405434e-05 -0.0198443570926055 0 0.00015565978652625376 -0.020647124544107047 0 0.0001117239589079105 -0.020198568452354751 0 3.0222897254405434e-05 -0.0198443570926055 0 -0.00013282373174925232 -0.020179988991732976 0 -0.00015635724615875048 -0.019747879832621919 0 3.0222897254405434e-05 -0.0198443570926055 0 -0.00013282373174925232 -0.020179988991732976 0 3.424034225674766e-05 -0.020492468557307065 0 -0.00013282373174925232 -0.020179988991732976 0 3.424034225674766e-05 -0.020492468557307065 0 -0.0001577032792837967 -0.020684500768512908 0 3.0222897254405434e-05 -0.0198443570926055 0 3.424034225674766e-05 -0.020492468557307065 0 0.00015565978652625376 -0.020647124544107047 0 -0.00037669390399901713 -0.019035362696752222 0 -0.00046086248401389492 -0.020655896689008704 0 -9.908055043244182e-05 -0.01855954741644671 0 -0.00066950708034246506 -0.02021066909326745 0 -0.00043517458631553722 -0.020554923783250332 0 -9.908055043244182e-05 -0.01855954741644671 0 -0.00015635724615875048 -0.019747879832621919 0 -0.00056518526820254107 -0.020476027868384209 0 -0.00013282373174925232 -0.020179988991732976 0 -0.00015635724615875048 -0.019747879832621919 0 -0.00056518526820254107 -0.020476027868384209 0 -0.00013282373174925232 -0.020179988991732976 0 -0.00056518526820254107 -0.020476027868384209 0 -0.0001577032792837967 -0.020684500768512908 0 -0.00056518526820254107 -0.020476027868384209 0 -0.0001577032792837967 -0.020684500768512908 0 -0.00036833360263518675 -0.02109420341640722 0 -0.0018332913194693964 -0.012254166248574089 0 -0.0021110651087731199 -0.014346247021604093 0 -0.0031063140462701463 -0.01220786226569542 0 -0.0011695946781019823 -0.017118203000599755 0 -0.0013291189001073127 -0.018007807793101335 0 -0.00046086248401389492 -0.020655896689008704 0 -0.0013291189001073127 -0.018007807793101335 0 -0.00066950708034246506 -0.02021066909326745 0 -0.00043517458631553722 -0.020554923783250332 0 -0.00033325372102171829 -0.022199055242386696 0 3.424034225674766e-05 -0.020492468557307065 0 0.0001543726749447339 -0.020937392399193192 0 0.00015565978652625376 -0.020647124544107047 0 3.424034225674766e-05 -0.020492468557307065 0 -0.0001577032792837967 -0.020684500768512908 0 0.0001543726749447339 -0.020937392399193192 0 -0.0001577032792837967 -0.020684500768512908 0 -0.00036833360263518675 -0.02109420341640722 0 0.0001543726749447339 -0.020937392399193192 0 -0.00061994148549356586 -0.021148107790054861 0 -0.001749763133264028 -0.017125050708515329 0 0.0001543726749447339 -0.020937392399193192 0 0.00021914974122664937 -0.020825834183531296 0 0.00014679060058128999 -0.020860321531710108 0 -0.00036833360263518675 -0.02109420341640722 0 0.0001543726749447339 -0.020937392399193192 0 -0.00028339724256342953 -0.021477295593354855 0 -0.0013291189001073127 -0.018007807793101335 0 -0.0017865866642415692 -0.01456439083039226 0 -0.0018332913194693964 -0.012254166248574089 0 -0.0031063140462701463 -0.01220786226569542 0 -0.0025220693107500616 -0.011398668268431276 0 -0.0031063140462701463 -0.01220786226569542 0 -0.0033534209997969134 -0.010774889352740779 0 -0.0025220693107500616 -0.011398668268431276 0 -0.0013291189001073127 -0.018007807793101335 0 -0.001749763133264028 -0.017125050708515329 0 6.732187678636011e-05 -0.020948020889829114 0 -2.6180154557318787e-05 -0.020925170775341173 0 2.5947338526025524e-05 -0.020850581286467485 0 6.732187678636011e-05 -0.020948020889829114 0 0.00010065414184003119 -0.020886071045138413 0 2.5947338526025524e-05 -0.020850581286467485 0 0.00010065414184003119 -0.020886071045138413 0 0.0001543726749447339 -0.020937392399193192 0 0.00014679060058128999 -0.020860321531710108 0 6.732187678636011e-05 -0.020948020889829114 0 0.00010065414184003119 -0.020886071045138413 0 0.0001543726749447339 -0.020937392399193192 0 0.0001543726749447339 -0.020937392399193192 0 0.00013494042461726955 -0.02110321854445675 0 0.00015565978652625376 -0.020647124544107047 0 6.732187678636011e-05 -0.020948020889829114 0 0.0001543726749447339 -0.020937392399193192 0 0.00013494042461726955 -0.02110321854445675 0 0.00014439906198748659 -0.021371596527192505 0 8.5305610939199997e-05 -0.021571361567204819 0 6.732187678636011e-05 -0.020948020889829114 0 0.00013494042461726955 -0.02110321854445675 0 -6.1405501094972942e-05 -0.021041680115785402 0 0.00013494042461726955 -0.02110321854445675 0 0.00012556764559855323 -0.021303222655459246 0 5.1768509122063487e-05 -0.022008798794066458 0 0.00013494042461726955 -0.02110321854445675 0 0.00012556764559855323 -0.021303222655459246 0 0.00015565978652625376 -0.020647124544107047 0 0.00012556764559855323 -0.021303222655459246 0 0.00015565978652625376 -0.020647124544107047 0 0.0001117239589079105 -0.020198568452354751 0 0.00012556764559855323 -0.021303222655459246 0 3.2340555589713154e-07 -0.020595778611495332 0 0.0001117239589079105 -0.020198568452354751 0 6.6112996746793507e-07 -0.019019240996764337 0 3.2340555589713154e-07 -0.020595778611495332 0 0.0001117239589079105 -0.020198568452354751 0 0.00012556764559855323 -0.021303222655459246 0 3.2340555589713154e-07 -0.020595778611495332 0 7.4915520538011108e-08 -0.022167061601542713 0 0.00012556764559855323 -0.021303222655459246 0 7.4915520538011108e-08 -0.022167061601542713 0 1.8781765590588249e-05 -0.021931834270549448 0 2.744701642610167e-07 -0.022170792676376571 0 0.00021613862130040966 -0.023110111612851571 0 7.4915520538011108e-08 -0.022167061601542713 0 1.8781765590588249e-05 -0.021931834270549448 0 9.8564259797779874e-05 -0.022026254395679869 0 -3.313811238492573e-07 -0.022170818697347824 0 -4.5820070705380999e-08 -0.024048723823513057 0 -5.5057677416621629e-05 -0.024102123403374913 0 1.8781765590588249e-05 -0.021931834270549448 0 9.8564259797779874e-05 -0.022026254395679869 0 0.00011928784791968704 -0.022183246525254927 0 1.8781765590588249e-05 -0.021931834270549448 0 0.00011928784791968704 -0.022183246525254927 0 7.6247302949567549e-05 -0.021965038331320273 0 0.00011928784791968704 -0.022183246525254927 0 0.00021552309902509649 -0.022426261565663259 0 7.6247302949567549e-05 -0.021965038331320273 0 0.00012556764559855323 -0.021303222655459246 0 1.8781765590588249e-05 -0.021931834270549448 0 7.6247302949567549e-05 -0.021965038331320273 0 0.00012556764559855323 -0.021303222655459246 0 7.6247302949567549e-05 -0.021965038331320273 0 5.1768509122063487e-05 -0.022008798794066458 0 1.7392601395515626e-06 -0.025926478170594215 0 0.00014990933311193058 -0.025415245419055488 0 0.00036653567831065181 -0.025230321557768054 0 -4.5820070705380999e-08 -0.024048723823513057 0 -5.5057677416621629e-05 -0.024102123403374913 0 0.00036653567831065181 -0.025230321557768054 0 9.8564259797779874e-05 -0.022026254395679869 0 0.00011928784791968704 -0.022183246525254927 0 0.0004282832827715488 -0.02285819454583839 0 -4.5820070705380999e-08 -0.024048723823513057 0 1.7392601395515626e-06 -0.025926478170594215 0 0.00036653567831065181 -0.025230321557768054 0 0.00021613862130040966 -0.023110111612851571 0 0.00023718714944701957 -0.023847812729920675 0 0.00011928784791968704 -0.022183246525254927 0 0.00021552309902509649 -0.022426261565663259 0 0.0004282832827715488 -0.02285819454583839 0 0.00021552309902509649 -0.022426261565663259 0 0.0004282832827715488 -0.02285819454583839 0 0.00039657579625701554 -0.022952497020533626 0 0.00023718714944701957 -0.023847812729920675 0 -4.1857785784603465e-05 -0.024068681132599311 0 0.0004282832827715488 -0.02285819454583839 0 0.00027037325037866596 -0.023580271181969224 0 3.3617834182795783e-05 -0.024398967183346817 0 0.00014990933311193058 -0.025415245419055488 0 0.00036653567831065181 -0.025230321557768054 0 3.3617834182795783e-05 -0.024398967183346817 0 0.0004282832827715488 -0.02285819454583839 0 0.00027037325037866596 -0.023580271181969224 0 0.00039657579625701554 -0.022952497020533626 0 0.00024719459829342045 -0.02303982920319533 0 0.00039657579625701554 -0.022952497020533626 0 0.00034907255356887961 -0.022875576464242563 0 0.00024719459829342045 -0.02303982920319533 0 0.00027037325037866596 -0.023580271181969224 0 0.00039657579625701554 -0.022952497020533626 0 0.00021552309902509649 -0.022426261565663259 0 0.00039657579625701554 -0.022952497020533626 0 0.00027625076777940745 -0.022703197844891481 0 -0.00023676987506577067 -0.020926907387395291 0 -0.00032723757785943622 -0.020959040986567808 0 -0.00019443778692471308 -0.020997885940029139 0 -0.00038679500970020857 -0.022721806677906738 0 3.5345991770026484e-05 -0.021942043651936919 0 0.00039657579625701554 -0.022952497020533626 0 0.00034907255356887961 -0.022875576464242563 0 0.00027625076777940745 -0.022703197844891481 0 -0.0011541993861662926 -0.02355832735082955 0 -0.00084421953820078114 -0.024164415315306727 0 -0.00033218928528530708 -0.023911582945793486 0 -0.00021619557221019432 -0.023850669110352551 0 -0.0003094738445068742 -0.023856345771503345 0 -0.00025741084951290058 -0.023823825021330954 0 -0.00038679500970020857 -0.022721806677906738 0 -0.00027681253498258095 -0.023314907743953173 0 -0.0003094738445068742 -0.023856345771503345 0 -0.00033218928528530708 -0.023911582945793486 0 -0.00025741084951290058 -0.023823825021330954 0 -0.0001724310301451759 -0.023386626311134792 0 -0.00038679500970020857 -0.022721806677906738 0 0.00021552309902509649 -0.022426261565663259 0 5.1768509122063487e-05 -0.022008798794066458 0 0.00027625076777940745 -0.022703197844891481 0 8.5305610939199997e-05 -0.021571361567204819 0 3.5345991770026484e-05 -0.021942043651936919 0 0.00021552309902509649 -0.022426261565663259 0 7.6247302949567549e-05 -0.021965038331320273 0 5.1768509122063487e-05 -0.022008798794066458 0 -0.00023676987506577067 -0.020926907387395291 0 -0.00019443778692471308 -0.020997885940029139 0 -0.00015832421317242762 -0.020896371322761675 0 -0.00019443778692471308 -0.020997885940029139 0 -9.936420549218267e-05 -0.020948492657286918 0 -0.00015832421317242762 -0.020896371322761675 0 -6.1405501094972942e-05 -0.021041680115785402 0 -0.00019443778692471308 -0.020997885940029139 0 -9.936420549218267e-05 -0.020948492657286918 0 -6.1405501094972942e-05 -0.021041680115785402 0 -9.936420549218267e-05 -0.020948492657286918 0 -2.6180154557318787e-05 -0.020925170775341173 0 -9.936420549218267e-05 -0.020948492657286918 0 -2.6180154557318787e-05 -0.020925170775341173 0 -6.8673625980755469e-05 -0.020857415456493729 0 6.732187678636011e-05 -0.020948020889829114 0 -6.1405501094972942e-05 -0.021041680115785402 0 -2.6180154557318787e-05 -0.020925170775341173 0 -2.6180154557318787e-05 -0.020925170775341173 0 -6.8673625980755469e-05 -0.020857415456493729 0 2.5947338526025524e-05 -0.020850581286467485 0 -6.8673625980755469e-05 -0.020857415456493729 0 -2.9363719366316071e-05 -0.020791098250331579 0 -7.8255245040615364e-05 -0.020785452230489273 0 -6.8673625980755469e-05 -0.020857415456493729 0 -2.9363719366316071e-05 -0.020791098250331579 0 2.5947338526025524e-05 -0.020850581286467485 0 -6.8673625980755469e-05 -0.020857415456493729 0 -0.0001238174780491321 -0.020805933461386372 0 -7.8255245040615364e-05 -0.020785452230489273 0 -9.936420549218267e-05 -0.020948492657286918 0 -6.8673625980755469e-05 -0.020857415456493729 0 -0.00015832421317242762 -0.020896371322761675 0 -0.00015832421317242762 -0.020896371322761675 0 -0.0001238174780491321 -0.020805933461386372 0 -0.00022327528019121709 -0.020836775234510916 0 -0.00023676987506577067 -0.020926907387395291 0 -0.00015832421317242762 -0.020896371322761675 0 -0.00022327528019121709 -0.020836775234510916 0 -6.8673625980755469e-05 -0.020857415456493729 0 -0.00015832421317242762 -0.020896371322761675 0 -0.0001238174780491321 -0.020805933461386372 0 -0.0032588605841860989 -0.02604558626879264 0 -0.0022272736642201061 -0.024769791277332226 0 -0.0022988208661899124 -0.025767780792383031 0 -0.0001238174780491321 -0.020805933461386372 0 -0.00012132571295312081 -0.020729140502979207 0 -0.00022327528019121709 -0.020836775234510916 0 -0.0007198119062376793 -0.023886917103052904 0 -0.0010797107021001645 -0.022948128766746088 0 -0.0001238174780491321 -0.020805933461386372 0 -0.00012132571295312081 -0.020729140502979207 0 -9.4121476498396244e-05 -0.020737559283180204 0 -0.0007198119062376793 -0.023886917103052904 0 -0.00075982994673113333 -0.023679046155341683 0 -0.00011897333484711142 -0.020732351946762526 0 -9.4121476498396244e-05 -0.020737559283180204 0 -6.4120291651083549e-05 -0.02072351309320053 0 -9.4121476498396244e-05 -0.020737559283180204 0 -5.7286097353786796e-05 -0.020754656793523625 0 -7.8255245040615364e-05 -0.020785452230489273 0 -9.4121476498396244e-05 -0.020737559283180204 0 -5.7286097353786796e-05 -0.020754656793523625 0 -6.4120291651083549e-05 -0.02072351309320053 0 -5.7286097353786796e-05 -0.020754656793523625 0 -2.9363719366316071e-05 -0.020791098250331579 0 -2.0021926146534243e-05 -0.020737302039421736 0 -5.7286097353786796e-05 -0.020754656793523625 0 -6.4120291651083549e-05 -0.02072351309320053 0 -2.0021926146534243e-05 -0.020737302039421736 0 -5.7286097353786796e-05 -0.020754656793523625 0 -2.9363719366316071e-05 -0.020791098250331579 0 -7.8255245040615364e-05 -0.020785452230489273 0 -0.0001238174780491321 -0.020805933461386372 0 -9.4121476498396244e-05 -0.020737559283180204 0 -7.8255245040615364e-05 -0.020785452230489273 0 -0.0011541993861662926 -0.02355832735082955 0 -0.00084421953820078114 -0.024164415315306727 0 -0.001303503176973611 -0.024593801060741965 0 -0.0005756025191887297 -0.024687152439334732 0 -0.00084421953820078114 -0.024164415315306727 0 -0.00033218928528530708 -0.023911582945793486 0 -0.0005756025191887297 -0.024687152439334732 0 -0.00084421953820078114 -0.024164415315306727 0 -0.001303503176973611 -0.024593801060741965 0 -0.00038679500970020857 -0.022721806677906738 0 -0.0010797107021001645 -0.022948128766746088 0 -0.00023676987506577067 -0.020926907387395291 0 -0.00032723757785943622 -0.020959040986567808 0 -0.00022327528019121709 -0.020836775234510916 0 -0.0011541993861662926 -0.02355832735082955 0 -0.001303503176973611 -0.024593801060741965 0 -0.0022272736642201061 -0.024769791277332226 0 -0.001303503176973611 -0.024593801060741965 0 -0.0022272736642201061 -0.024769791277332226 0 -0.0015261756070647466 -0.025808721980948142 0 -0.0022272736642201061 -0.024769791277332226 0 -0.0022988208661899124 -0.025767780792383031 0 -0.0015261756070647466 -0.025808721980948142 0 -0.0022988208661899124 -0.025767780792383031 0 -0.0015261756070647466 -0.025808721980948142 0 -0.0022015744025170275 -0.026419513552474745 0 -0.0005756025191887297 -0.024687152439334732 0 -0.001303503176973611 -0.024593801060741965 0 -0.0015261756070647466 -0.025808721980948142 0 -0.00081336817604314368 -0.025320352018643758 0 -0.0015261756070647466 -0.025808721980948142 0 -0.00080670295211914531 -0.026072396417915051 0 -0.00074438129401828488 -0.025096223352196103 0 -0.001314348207987634 -0.025624175539416226 0 -0.00076890285882802087 -0.026629410457317686 0 -0.001248064598147822 -0.026712900917496611 0 -0.00030173911174689817 -0.027087844408773157 0 -0.0015261756070647466 -0.025808721980948142 0 -0.00080670295211914531 -0.026072396417915051 0 -0.0012738762187470617 -0.026731262950521376 0 -0.00080670295211914531 -0.026072396417915051 0 -0.00076890285882802087 -0.026629410457317686 0 -0.0012738762187470617 -0.026731262950521376 0 -0.00062129344923233967 -0.028080163603865879 0 -0.00040724644511067038 -0.02852011023355755 0 -0.00043882347894368123 -0.026757631233897683 0 -0.00036549375449546268 -0.026771627118874288 0 -0.00032242137466313768 -0.02672080955955047 0 -0.00040724644511067038 -0.02852011023355755 0 0.00021694148638158842 -0.029890631017675817 0 -0.00040724644511067038 -0.02852011023355755 0 -0.0011873314384179296 -0.026296958811879909 0 -0.0015261756070647466 -0.025808721980948142 0 -0.0012738762187470617 -0.026731262950521376 0 -0.0022015744025170275 -0.026419513552474745 0 0.0004217645668488331 -0.034842723133822577 0 0.00105008487931472 -0.034726898364666553 0 0.00072920571527920937 -0.03435762152277877 0 -0.00040724644511067038 -0.02852011023355755 0 -8.6601273488828446e-05 -0.03064553015939836 0 0.0004217645668488331 -0.034842723133822577 0 -6.4932565920568092e-05 -0.034682534750013594 0 0.00014953910375602327 -0.034304072195620393 0 0.0004217645668488331 -0.034842723133822577 0 0.00014953910375602327 -0.034304072195620393 0 0.00072920571527920937 -0.03435762152277877 0 -0.00011897333484711142 -0.020732351946762526 0 -6.4120291651083549e-05 -0.02072351309320053 0 -2.604139016116683e-05 -0.020681455514118784 0 -0.00028939581948368281 -0.026791246012419254 0 -0.00032242137466313768 -0.02672080955955047 0 -0.00019912021522132791 -0.026688913416114492 0 -0.0007198119062376793 -0.023886917103052904 0 -8.752605718541881e-05 -0.025317404984808993 0 -0.00011897333484711142 -0.020732351946762526 0 -2.3859005512302525e-05 -0.020617271416760483 0 -2.604139016116683e-05 -0.020681455514118784 0 -6.4120291651083549e-05 -0.02072351309320053 0 -2.604139016116683e-05 -0.020681455514118784 0 -2.0021926146534243e-05 -0.020737302039421736 0 -0.00028939581948368281 -0.026791246012419254 0 -0.00036549375449546268 -0.026771627118874288 0 -0.00032242137466313768 -0.02672080955955047 0 -0.0007198119062376793 -0.023886917103052904 0 -0.0011873314384179296 -0.026296958811879909 0 -0.0032588605841860989 -0.02604558626879264 0 -0.0022988208661899124 -0.025767780792383031 0 -0.0022015744025170275 -0.026419513552474745 0 0.00105008487931472 -0.034726898364666553 0 0.0012861638913165686 -0.034210025828884841 0 0.00072920571527920937 -0.03435762152277877 0 0.00105008487931472 -0.034726898364666553 0 0.0017080879707263104 -0.034586151177346203 0 0.0012861638913165686 -0.034210025828884841 0 0.00021694148638158842 -0.029890631017675817 0 -8.752605718541881e-05 -0.025317404984808993 0 -0.00071892130948143047 -0.021567692609916169 0 -0.00087866910604762977 -0.021571501204417313 0 -0.00083077051077846628 -0.0216860586081335 0 -8.752605718541881e-05 -0.025317404984808993 0 -0.00042090642811476621 -0.020975051710733994 0 -8.752605718541881e-05 -0.025317404984808993 0 -0.0002362771371915813 -0.027335640551330732 0 -2.3859005512302525e-05 -0.020617271416760483 0 7.3062439930605142e-05 -0.020656809955796801 0 6.8385983476766568e-05 -0.020586349569643374 0 -2.604139016116683e-05 -0.020681455514118784 0 3.2077914418808961e-05 -0.020714271214272082 0 7.3062439930605142e-05 -0.020656809955796801 0 -2.3859005512302525e-05 -0.020617271416760483 0 -2.604139016116683e-05 -0.020681455514118784 0 7.3062439930605142e-05 -0.020656809955796801 0 -2.604139016116683e-05 -0.020681455514118784 0 3.2077914418808961e-05 -0.020714271214272082 0 -2.0021926146534243e-05 -0.020737302039421736 0 7.3062439930605142e-05 -0.020656809955796801 0 0.0001927520822633056 -0.020696159316130825 0 9.8899217355872493e-05 -0.020740037195710333 0 3.2077914418808961e-05 -0.020714271214272082 0 7.3062439930605142e-05 -0.020656809955796801 0 9.8899217355872493e-05 -0.020740037195710333 0 -0.00042090642811476621 -0.020975051710733994 0 -0.0014767506077720063 -0.016529278612857974 0 7.3062439930605142e-05 -0.020656809955796801 0 6.8385983476766568e-05 -0.020586349569643374 0 0.00015610398044165017 -0.020555154804764938 0 -0.00087866910604762977 -0.021571501204417313 0 -0.00097847586997084224 -0.021595175003532266 0 -0.0010626307380282882 -0.021561054175376092 0 -0.00090877052876067494 -0.021636837836838133 0 -0.00087866910604762977 -0.021571501204417313 0 -0.00083077051077846628 -0.0216860586081335 0 -0.00090877052876067494 -0.021636837836838133 0 -0.00087866910604762977 -0.021571501204417313 0 -0.00097847586997084224 -0.021595175003532266 0 -0.00097847586997084224 -0.021595175003532266 0 -0.0010626307380282882 -0.021561054175376092 0 -0.0010579975923070944 -0.021582471290704591 0 -0.0015973457309512136 -0.015044743013659552 0 -0.0023681474293799094 -0.01509782563151593 0 -0.001490980065344214 -0.015520564464283758 0 -0.00097847586997084224 -0.021595175003532266 0 -0.0010652560942206416 -0.021591480294352337 0 -0.0010526766130868521 -0.021648886321356774 0 -0.0046130496947291069 -0.0074514054296832537 0 -0.0039879114982255756 -0.0080088268406768269 0 -0.0042310576944451801 -0.0086195701739240019 0 -0.0014767506077720063 -0.016529278612857974 0 -0.0030307296204905346 -0.011961173666372681 0 -0.0013953369963474523 -0.016816603374581265 0 -0.0014763303194507576 -0.01609308611117604 0 -0.0014763303194507576 -0.01609308611117604 0 -0.00153232156443017 -0.017625402950811331 0 -0.0046130496947291069 -0.0074514054296832537 0 -0.0046421418716856315 -0.007314954461190991 0 -0.0041311029009119798 -0.0072653948271580388 0 -0.0014767506077720063 -0.016529278612857974 0 -0.0014763303194507576 -0.01609308611117604 0 -0.0046130496947291069 -0.0074514054296832537 0 -0.0040397684490782564 -0.0073687188445624736 0 -0.0038684305291811745 -0.0076651581894616357 0 -0.0046130496947291069 -0.0074514054296832537 0 -0.0041311029009119798 -0.0072653948271580388 0 -0.0040397684490782564 -0.0073687188445624736 0 -0.0014763303194507576 -0.01609308611117604 0 -0.0029193107525081604 -0.01279404002274028 0 -0.0029193107525081604 -0.01279404002274028 0 -0.0030325026214731996 -0.012615976469891566 0 -0.0046130496947291069 -0.0074514054296832537 0 -0.0039879114982255756 -0.0080088268406768269 0 -0.0038684305291811745 -0.0076651581894616357 0 -0.002180308915021753 -0.0070174252321548109 0 -0.0041347757138806172 -0.0072623957628997196 0 -0.0034723259438685945 -0.0075261964511912603 0 -0.0013443222104102394 -0.0075700771707563229 0 -0.0029193107525081604 -0.01279404002274028 0 -0.002180308915021753 -0.0070174252321548109 0 -0.0034723259438685945 -0.0075261964511912603 0 -0.0029449010966137237 -0.0079442115533917071 0 -0.0040397684490782564 -0.0073687188445624736 0 -0.0034723259438685945 -0.0075261964511912603 0 -0.0038684305291811745 -0.0076651581894616357 0 -0.0041347757138806172 -0.0072623957628997196 0 -0.0040397684490782564 -0.0073687188445624736 0 -0.0034723259438685945 -0.0075261964511912603 0 -0.0034723259438685945 -0.0075261964511912603 0 -0.0036599818617029036 -0.0079012256893458005 0 -0.0038684305291811745 -0.0076651581894616357 0 -0.0039879114982255756 -0.0080088268406768269 0 -0.0036599818617029036 -0.0079012256893458005 0 -0.0038684305291811745 -0.0076651581894616357 0 -0.0039879114982255756 -0.0080088268406768269 0 -0.00373131681925992 -0.0081309598231105642 0 -0.0038320945881455105 -0.0083734346397474711 0 -0.0039879114982255756 -0.0080088268406768269 0 -0.0036599818617029036 -0.0079012256893458005 0 -0.00373131681925992 -0.0081309598231105642 0 -0.0036599818617029036 -0.0079012256893458005 0 -0.00373131681925992 -0.0081309598231105642 0 -0.0034458813645278927 -0.0082401518494943319 0 -0.0036599818617029036 -0.0079012256893458005 0 -0.0029449010966137237 -0.0079442115533917071 0 -0.0034458813645278927 -0.0082401518494943319 0 -0.0034723259438685945 -0.0075261964511912603 0 -0.0036599818617029036 -0.0079012256893458005 0 -0.0029449010966137237 -0.0079442115533917071 0 -0.0036598722504068348 -0.0091066586421399993 0 -0.0039461293527562119 -0.0086735318262152489 0 -0.0038423484590819463 -0.0098571507277913292 0 -0.003599893480842989 -0.0091440750590040063 0 -0.0031036288803559906 -0.01133489429937287 0 -0.0029449010966137237 -0.0079442115533917071 0 -0.0029184871013555169 -0.008601004279095199 0 -0.0034458813645278927 -0.0082401518494943319 0 -0.0029184871013555169 -0.008601004279095199 0 -0.0035279068342168414 -0.0086605269021343637 0 -0.0034458813645278927 -0.0082401518494943319 0 -0.0035279068342168414 -0.0086605269021343637 0 -0.0034458813645278927 -0.0082401518494943319 0 -0.0038320945881455105 -0.0083734346397474711 0 -0.00373131681925992 -0.0081309598231105642 0 -0.0034458813645278927 -0.0082401518494943319 0 -0.0038320945881455105 -0.0083734346397474711 0 -0.0035279068342168414 -0.0086605269021343637 0 -0.0038320945881455105 -0.0083734346397474711 0 -0.0039461293527562119 -0.0086735318262152489 0 -0.0035279068342168414 -0.0086605269021343637 0 -0.0036598722504068348 -0.0091066586421399993 0 -0.0039461293527562119 -0.0086735318262152489 0 -0.0036598722504068348 -0.0091066586421399993 0 -0.0033069968026534862 -0.009058774141482609 0 -0.003451114993265321 -0.0096009190946800219 0 -0.0035279068342168414 -0.0086605269021343637 0 -0.0036598722504068348 -0.0091066586421399993 0 -0.0033069968026534862 -0.009058774141482609 0 -0.0029184871013555169 -0.008601004279095199 0 -0.0035279068342168414 -0.0086605269021343637 0 -0.0033069968026534862 -0.009058774141482609 0 -0.0027550682470740169 -0.0096609725924453101 0 -0.0029184871013555169 -0.008601004279095199 0 -0.0033069968026534862 -0.009058774141482609 0 -0.0018634270656616467 -0.015149549971681399 0 -0.001854684675190377 -0.015305664882598824 0 -0.0019841444179551091 -0.015000814847783556 0 -0.0017053283540144001 -0.015612139897840372 0 -0.0018634270656616467 -0.015149549971681399 0 -0.001854684675190377 -0.015305664882598824 0 -0.0039461293527562119 -0.0086735318262152489 0 -0.0042310576944451801 -0.0086195701739240019 0 -0.0038172089203581385 -0.010024905048979694 0 -0.0014767506077720063 -0.016529278612857974 0 -0.0008716802306498806 -0.018232018484008902 0 -0.0030307296204905346 -0.011961173666372681 0 -0.0031036288803559906 -0.01133489429937287 0 7.3062439930605142e-05 -0.020656809955796801 0 0.00015610398044165017 -0.020555154804764938 0 0.0001927520822633056 -0.020696159316130825 0 -0.0039879114982255756 -0.0080088268406768269 0 -0.0038320945881455105 -0.0083734346397474711 0 -0.0042310576944451801 -0.0086195701739240019 0 -0.0038320945881455105 -0.0083734346397474711 0 -0.0039461293527562119 -0.0086735318262152489 0 -0.0042310576944451801 -0.0086195701739240019 0 -0.0018634270656616467 -0.015149549971681399 0 -0.0019841444179551091 -0.015000814847783556 0 -0.0020056960487943409 -0.014697660714507883 0 -0.0008716802306498806 -0.018232018484008902 0 -0.001749763133264028 -0.017125050708515329 0 0.0001927520822633056 -0.020696159316130825 0 0.00014988869714050183 -0.020788236111615913 0 9.8899217355872493e-05 -0.020740037195710333 0 0.0001927520822633056 -0.020696159316130825 0 0.00014988869714050183 -0.020788236111615913 0 0.00021914974122664937 -0.020825834183531296 0 -0.0027550682470740169 -0.0096609725924453101 0 -0.003687831870522895 -0.010340875039619717 0 -0.003715430896956706 -0.010991361663550166 0 -0.0020889708354413748 -0.0098133244050023338 0 -0.0017865866642415692 -0.01456439083039226 0 -0.0027550682470740169 -0.0096609725924453101 0 -0.0033069968026534862 -0.009058774141482609 0 -0.003451114993265321 -0.0096009190946800219 0 -0.0027550682470740169 -0.0096609725924453101 0 -0.003451114993265321 -0.0096009190946800219 0 -0.003687831870522895 -0.010340875039619717 0 -0.0036598722504068348 -0.0091066586421399993 0 -0.003451114993265321 -0.0096009190946800219 0 -0.0038423484590819463 -0.0098571507277913292 0 -0.0038411445789941702 -0.0098645875843133522 0 -0.003687831870522895 -0.010340875039619717 0 -0.003715430896956706 -0.010991361663550166 0 -0.003451114993265321 -0.0096009190946800219 0 -0.0038423484590819463 -0.0098571507277913292 0 -0.003687831870522895 -0.010340875039619717 0 -0.0031036288803559906 -0.01133489429937287 0 -0.0017865866642415692 -0.01456439083039226 0 -0.0031036288803559906 -0.01133489429937287 0 -0.0032652067367979739 -0.010916445815591185 0 -0.0023836187331755382 -0.010615552437218291 0 -0.002559063578741506 -0.0094903570837257308 0 -0.0033534209997969134 -0.010774889352740779 0 -0.001653161730805895 -0.017742578716124925 0 -0.0017942905889945808 -0.016291088201077754 0 -0.0019249497987139888 -0.016463880941783877 0 -0.0019841444179551091 -0.015000814847783556 0 -0.0020336562930894095 -0.014737052404063321 0 -0.0020056960487943409 -0.014697660714507883 0 -0.0017865866642415692 -0.01456439083039226 0 -0.001749763133264028 -0.017125050708515329 0 -0.0023836187331755382 -0.010615552437218291 0 -0.0033534209997969134 -0.010774889352740779 0 -0.0025220693107500616 -0.011398668268431276 0 0.00014988869714050183 -0.020788236111615913 0 0.00021914974122664937 -0.020825834183531296 0 0.00014679060058128999 -0.020860321531710108 0 0.00014988869714050183 -0.020788236111615913 0 0.00014679060058128999 -0.020860321531710108 0 8.8632611511750201e-05 -0.020812865089864799 0 0.00010065414184003119 -0.020886071045138413 0 0.00014679060058128999 -0.020860321531710108 0 8.8632611511750201e-05 -0.020812865089864799 0 0.00010065414184003119 -0.020886071045138413 0 8.8632611511750201e-05 -0.020812865089864799 0 2.5947338526025524e-05 -0.020850581286467485 0 -2.9363719366316071e-05 -0.020791098250331579 0 2.5947338526025524e-05 -0.020850581286467485 0 3.3317314592739601e-05 -0.020774068885858893 0 8.8632611511750201e-05 -0.020812865089864799 0 2.5947338526025524e-05 -0.020850581286467485 0 3.3317314592739601e-05 -0.020774068885858893 0 -2.9363719366316071e-05 -0.020791098250331579 0 3.3317314592739601e-05 -0.020774068885858893 0 -2.0021926146534243e-05 -0.020737302039421736 0 3.2077914418808961e-05 -0.020714271214272082 0 3.3317314592739601e-05 -0.020774068885858893 0 -2.0021926146534243e-05 -0.020737302039421736 0 3.2077914418808961e-05 -0.020714271214272082 0 3.3317314592739601e-05 -0.020774068885858893 0 9.8899217355872493e-05 -0.020740037195710333 0 0.00014988869714050183 -0.020788236111615913 0 8.8632611511750201e-05 -0.020812865089864799 0 9.8899217355872493e-05 -0.020740037195710333 0 8.8632611511750201e-05 -0.020812865089864799 0 3.3317314592739601e-05 -0.020774068885858893 0 9.8899217355872493e-05 -0.020740037195710333 0 1.4391551355493031e-06 -0.034996027228669568 0 0.0001835254553075713 -0.034207477082510644 0 9.4106299138061418e-05 -0.03477508478520961 0 1.4391551355493031e-06 -0.034996027228669568 0 -4.4029554714013232e-07 -0.035000598646351445 0 9.4106299138061418e-05 -0.03477508478520961 0 0.0001835254553075713 -0.034207477082510644 0 -1.5462804565788157e-05 -0.03453905861274139 0 9.4106299138061418e-05 -0.03477508478520961 0 -0.0001302260009235037 -0.034467287144441999 0 8.0257102413130385e-07 -0.034766247916692139 0 1.4391551355493031e-06 -0.034996027228669568 0 0.0001835254553075713 -0.034207477082510644 0 -2.1454505157951566e-06 -0.031256804997047666 0 0.0001835254553075713 -0.034207477082510644 0 -0.00025765375402162237 -0.033319609536883052 0 -0.00036228877219403305 -0.034068232589537263 0 0.0001835254553075713 -0.034207477082510644 0 -2.1454505157951566e-06 -0.031256804997047666 0 -0.00025765375402162237 -0.033319609536883052 0 -1.3986492187734764e-07 -0.031249233291704044 0 -0.00036429701652784352 -0.031345451275479608 0 -2.1454505157951566e-06 -0.031256804997047666 0 -0.00025765375402162237 -0.033319609536883052 0 -0.0011483204824208001 -0.033424673800126287 0 -0.00025765375402162237 -0.033319609536883052 0 -0.00036228877219403305 -0.034068232589537263 0 -0.0011483204824208001 -0.033424673800126287 0 -0.00036228877219403305 -0.034068232589537263 0 -0.0004859155250334578 -0.034427818309897142 0 -0.00080933068380731864 -0.034153485878814956 0 -0.00032975695567824455 -0.034196225715852395 0 -0.0001302260009235037 -0.034467287144441999 0 0.0001835254553075713 -0.034207477082510644 0 -0.00036228877219403305 -0.034068232589537263 0 -1.5462804565788157e-05 -0.03453905861274139 0 -0.00017260899523271358 -0.03442052142876828 0 -0.0004859155250334578 -0.034427818309897142 0 -0.00023561703029190633 -0.034692018442862106 0 -0.00036228877219403305 -0.034068232589537263 0 -0.00017260899523271358 -0.03442052142876828 0 -0.0004859155250334578 -0.034427818309897142 0 -0.0004859155250334578 -0.034427818309897142 0 -0.00091705183427252747 -0.034341118142402871 0 -0.00080933068380731864 -0.034153485878814956 0 -0.0004859155250334578 -0.034427818309897142 0 -0.00091705183427252747 -0.034341118142402871 0 -0.00052490034946601192 -0.034733763062096419 0 -0.00091705183427252747 -0.034341118142402871 0 -0.0010618539535961269 -0.034174639544767654 0 -0.00080933068380731864 -0.034153485878814956 0 -0.0008174966986548149 -0.031888170870942263 0 -0.00014475202940158571 -0.02869877159200742 0 -0.00091705183427252747 -0.034341118142402871 0 -0.0010618539535961269 -0.034174639544767654 0 -0.00095618047342910944 -0.03436038654396939 0 2.5916166759680358e-05 -0.029359098961706763 0 3.2637197925681696e-05 -0.029364999670396408 0 3.6215865126107577e-05 -0.02937961565338492 0 2.5916166759680358e-05 -0.029359098961706763 0 3.2637197925681696e-05 -0.029364999670396408 0 6.2095279137593527e-05 -0.029341691606116466 0 -0.00036228877219403305 -0.034068232589537263 0 -0.00080933068380731864 -0.034153485878814956 0 -0.0011483204824208001 -0.033424673800126287 0 -0.0010618539535961269 -0.034174639544767654 0 -0.00080933068380731864 -0.034153485878814956 0 -0.0011483204824208001 -0.033424673800126287 0 -0.0008174966986548149 -0.031888170870942263 0 -0.00036429701652784352 -0.031345451275479608 0 -1.1172915981194334e-06 -0.031246910597950761 0 3.6215865126107577e-05 -0.02937961565338492 0 1.0814364400373768e-06 -0.029527203601687847 0 1.0814364400373768e-06 -0.029527203601687847 0 0.00012057866000561926 -0.02909881615470233 0 -1.0613245846122584e-06 -0.027807294795203791 0 3.6215865126107577e-05 -0.02937961565338492 0 1.0814364400373768e-06 -0.029527203601687847 0 0.00012057866000561926 -0.02909881615470233 0 3.2637197925681696e-05 -0.029364999670396408 0 3.6215865126107577e-05 -0.02937961565338492 0 0.00012057866000561926 -0.02909881615470233 0 3.2637197925681696e-05 -0.029364999670396408 0 0.00012057866000561926 -0.02909881615470233 0 -0.00023236900579529432 -0.029215200327344756 0 -0.0010612591009407752 -0.024778957692152218 0 -9.1127352717540745e-05 -0.025110974386730215 0 -0.00041993335775087606 -0.02418011550046531 0 -0.0010612591009407752 -0.024778957692152218 0 -3.0618709604414596e-06 -0.027801596604523915 0 -2.0080817554739532e-05 -0.026051969684267602 0 0.00012057866000561926 -0.02909881615470233 0 -0.00023236900579529432 -0.029215200327344756 0 -1.0613245846122584e-06 -0.027807294795203791 0 -0.00038132192954377074 -0.027013962375425873 0 -4.210226603061309e-07 -0.027804371452208584 0 1.7392601395515626e-06 -0.025926478170594215 0 -3.0618709604414596e-06 -0.027801596604523915 0 -2.0080817554739532e-05 -0.026051969684267602 0 1.7392601395515626e-06 -0.025926478170594215 0 0.00014990933311193058 -0.025415245419055488 0 -2.0080817554739532e-05 -0.026051969684267602 0 0.00014990933311193058 -0.025415245419055488 0 -9.1127352717540745e-05 -0.025110974386730215 0 3.3617834182795783e-05 -0.024398967183346817 0 0.00014990933311193058 -0.025415245419055488 0 -2.0080817554739532e-05 -0.026051969684267602 0 -9.1127352717540745e-05 -0.025110974386730215 0 -0.0010612591009407752 -0.024778957692152218 0 -2.0080817554739532e-05 -0.026051969684267602 0 -9.1127352717540745e-05 -0.025110974386730215 0 -9.1127352717540745e-05 -0.025110974386730215 0 3.3617834182795783e-05 -0.024398967183346817 0 -0.00041993335775087606 -0.02418011550046531 0 -0.00014464872935682579 -0.024107583533037172 0 3.3617834182795783e-05 -0.024398967183346817 0 -0.00041993335775087606 -0.02418011550046531 0 0.00027037325037866596 -0.023580271181969224 0 -0.00014464872935682579 -0.024107583533037172 0 3.3617834182795783e-05 -0.024398967183346817 0 0.00024719459829342045 -0.02303982920319533 0 0.00027037325037866596 -0.023580271181969224 0 -0.00014464872935682579 -0.024107583533037172 0 -0.0001724310301451759 -0.023386626311134792 0 -0.00022257575848770375 -0.023728444495291729 0 -0.00021619557221019432 -0.023850669110352551 0 -0.00030539802746393436 -0.023852073691189964 0 -0.00025741084951290058 -0.023823825021330954 0 -0.00021619557221019432 -0.023850669110352551 0 -0.00014464872935682579 -0.024107583533037172 0 -0.00030539802746393436 -0.023852073691189964 0 -0.00014464872935682579 -0.024107583533037172 0 -0.00030539802746393436 -0.023852073691189964 0 -0.00041993335775087606 -0.02418011550046531 0 3.2637197925681696e-05 -0.029364999670396408 0 -0.00023236900579529432 -0.029215200327344756 0 -0.00015403632643385667 -0.029534310637414071 0 -0.00038132192954377074 -0.027013962375425873 0 -0.00013234824436225153 -0.026719600720796623 0 -0.0010612591009407752 -0.024778957692152218 0 -0.00041993335775087606 -0.02418011550046531 0 -0.00065197023757655574 -0.023723123297550767 0 -0.00069699135822028969 -0.028549511738857395 0 -0.00013234824436225153 -0.026719600720796623 0 -0.00030539802746393436 -0.023852073691189964 0 -0.00041993335775087606 -0.02418011550046531 0 -0.00065197023757655574 -0.023723123297550767 0 2.5916166759680358e-05 -0.029359098961706763 0 6.2095279137593527e-05 -0.029341691606116466 0 6.1563738724183773e-05 -0.029297413529750606 0 -0.00013234824436225153 -0.026719600720796623 0 -0.00014475202940158571 -0.02869877159200742 0 0.00031840996202669731 -0.024322351756139157 0 -0.00021054142555581283 -0.024818412747609157 0 0.00036285719234283964 -0.024959176587462491 0 -0.00013234824436225153 -0.026719600720796623 0 4.1976982446628519e-05 -0.024603006634536073 0 -0.00030539802746393436 -0.023852073691189964 0 -0.000166497455565802 -0.023794366319732842 0 -0.00025741084951290058 -0.023823825021330954 0 -0.00030539802746393436 -0.023852073691189964 0 -0.00065197023757655574 -0.023723123297550767 0 -0.000166497455565802 -0.023794366319732842 0 -0.000166497455565802 -0.023794366319732842 0 -0.00033218928528530708 -0.023911582945793486 0 -0.00025741084951290058 -0.023823825021330954 0 -0.00021992610552595842 -0.025244916605360802 0 0.00036285719234283964 -0.024959176587462491 0 -0.00024439772597157369 -0.025894191020297684 0 -0.00081336817604314368 -0.025320352018643758 0 -0.00021054142555581283 -0.024818412747609157 0 -0.00021992610552595842 -0.025244916605360802 0 -0.0005756025191887297 -0.024687152439334732 0 -0.000166497455565802 -0.023794366319732842 0 -0.00033218928528530708 -0.023911582945793486 0 -0.00074438129401828488 -0.025096223352196103 0 4.1976982446628519e-05 -0.024603006634536073 0 -0.00021054142555581283 -0.024818412747609157 0 -0.00021992610552595842 -0.025244916605360802 0 0.00036285719234283964 -0.024959176587462491 0 -0.00014475202940158571 -0.02869877159200742 0 0.00056001974763627248 -0.025137313149308817 0 -0.00014475202940158571 -0.02869877159200742 0 -7.3802130558888891e-05 -0.030332983047558767 0 0.00047364375324975108 -0.024943384136596108 0 0.0005631657162201687 -0.026148940759344708 0 -0.00024439772597157369 -0.025894191020297684 0 -0.00081336817604314368 -0.025320352018643758 0 -0.00021992610552595842 -0.025244916605360802 0 -0.00024439772597157369 -0.025894191020297684 0 -0.00081336817604314368 -0.025320352018643758 0 -0.00080670295211914531 -0.026072396417915051 0 -0.00024439772597157369 -0.025894191020297684 0 -0.00080670295211914531 -0.026072396417915051 0 -0.00076890285882802087 -0.026629410457317686 0 -0.00020045393230901418 -0.02649179962579494 0 0.0005631657162201687 -0.026148940759344708 0 -0.00024439772597157369 -0.025894191020297684 0 -0.00020045393230901418 -0.02649179962579494 0 -0.00080670295211914531 -0.026072396417915051 0 -0.00024439772597157369 -0.025894191020297684 0 -0.00020045393230901418 -0.02649179962579494 0 -0.00076890285882802087 -0.026629410457317686 0 -0.00020045393230901418 -0.02649179962579494 0 -0.00030173911174689817 -0.027087844408773157 0 -0.00020045393230901418 -0.02649179962579494 0 -0.00030173911174689817 -0.027087844408773157 0 0.00065565815907233066 -0.027475478710690567 0 -8.6601273488828446e-05 -0.03064553015939836 0 0.00063744623898222231 -0.03169563673586432 0 -6.4932565920568092e-05 -0.034682534750013594 0 -0.00050151603248780458 -0.034552912155187375 0 -0.00034249722487464558 -0.034356952182285801 0 0.00063744623898222231 -0.03169563673586432 0 0.00055398260376673524 -0.031834475772858008 0 -0.0005007008229430443 -0.034572762173455882 0 -0.00050460980076539263 -0.034499067663840047 0 -0.00061774820466489603 -0.034526512377047271 0 0.00063744623898222231 -0.03169563673586432 0 0.00062167287516175956 -0.031923805761609775 0 0.0005631657162201687 -0.026148940759344708 0 -0.00020045393230901418 -0.02649179962579494 0 0.00065565815907233066 -0.027475478710690567 0 -7.3802130558888891e-05 -0.030332983047558767 0 0.00063744623898222231 -0.03169563673586432 0 -0.00081823658106782793 -0.034488465656394046 0 -0.0006849790121323271 -0.034552893854798046 0 -0.00072855738220220566 -0.034516001724978478 0 -0.00081823658106782793 -0.034488465656394046 0 -0.00063815668196402027 -0.034529210113979088 0 -0.0006849790121323271 -0.034552893854798046 0 -0.0006849790121323271 -0.034552893854798046 0 -0.00068509935588605532 -0.034537582658180313 0 -0.00064961818197836567 -0.034500565679459777 0 -0.0006849790121323271 -0.034552893854798046 0 -0.00061774820466489603 -0.034526512377047271 0 -0.00064961818197836567 -0.034500565679459777 0 -0.00063815668196402027 -0.034529210113979088 0 -0.0006849790121323271 -0.034552893854798046 0 -0.00061774820466489603 -0.034526512377047271 0 -0.0006849790121323271 -0.034552893854798046 0 -0.00065663983394045476 -0.03460359247923786 0 -0.00068509935588605532 -0.034537582658180313 0 -0.0006849790121323271 -0.034552893854798046 0 -0.00072855738220220566 -0.034516001724978478 0 -0.00065663983394045476 -0.03460359247923786 0 -0.00072855738220220566 -0.034516001724978478 0 -0.00083302754174927529 -0.034420522395115928 0 -0.00066403244036677847 -0.034388667642139562 0 -0.00095618047342910944 -0.03436038654396939 0 -0.00081823658106782793 -0.034488465656394046 0 -0.00083302754174927529 -0.034420522395115928 0 -0.00081823658106782793 -0.034488465656394046 0 -0.00072855738220220566 -0.034516001724978478 0 -0.00083302754174927529 -0.034420522395115928 0 -0.00091705183427252747 -0.034341118142402871 0 -0.00095618047342910944 -0.03436038654396939 0 -0.00083302754174927529 -0.034420522395115928 0 -0.00083862570405732954 -0.03438605157188375 0 -0.00059564927077785388 -0.034551046036050949 0 -0.00091705183427252747 -0.034341118142402871 0 -0.00083302754174927529 -0.034420522395115928 0 -0.00066403244036677847 -0.034388667642139562 0 -0.0004859155250334578 -0.034427818309897142 0 -0.00052490034946601192 -0.034733763062096419 0 -0.00023561703029190633 -0.034692018442862106 0 -0.00052490034946601192 -0.034733763062096419 0 -0.00023561703029190633 -0.034692018442862106 0 -0.00018629151302917618 -0.034916654036765374 0 -0.00059564927077785388 -0.034551046036050949 0 -0.00033088989531244713 -0.034712857101775359 0 -0.00066403244036677847 -0.034388667642139562 0 -0.00044603403434785891 -0.034491531572334456 0 -0.00061041888968860051 -0.034537905785391974 0 -0.00072855738220220566 -0.034516001724978478 0 -0.00066403244036677847 -0.034388667642139562 0 -0.00061041888968860051 -0.034537905785391974 0 -0.00072855738220220566 -0.034516001724978478 0 -0.00061041888968860051 -0.034537905785391974 0 -0.00065663983394045476 -0.03460359247923786 0 -0.00061041888968860051 -0.034537905785391974 0 -0.00065663983394045476 -0.03460359247923786 0 -0.00048510441251214156 -0.034705703693953309 0 -0.00065663983394045476 -0.03460359247923786 0 -0.00059363206203875334 -0.034678081790672763 0 -0.00068509935588605532 -0.034537582658180313 0 -0.00065663983394045476 -0.03460359247923786 0 -0.00048510441251214156 -0.034705703693953309 0 -0.00059363206203875334 -0.034678081790672763 0 -0.00048510441251214156 -0.034705703693953309 0 -0.00033670431553953261 -0.034899473181808076 0 -0.00059363206203875334 -0.034678081790672763 0 -0.00044603403434785891 -0.034491531572334456 0 -0.00061041888968860051 -0.034537905785391974 0 -0.00048510441251214156 -0.034705703693953309 0 -0.00033088989531244713 -0.034712857101775359 0 -0.0001684824282913704 -0.034834810807601493 0 -0.00044603403434785891 -0.034491531572334456 0 -0.00048510441251214156 -0.034705703693953309 0 -0.00012187629304695656 -0.034876934199399176 0 -0.00048510441251214156 -0.034705703693953309 0 -0.00012187629304695656 -0.034876934199399176 0 -0.00033670431553953261 -0.034899473181808076 0 -9.3653280877850754e-08 -0.034999993191382132 0 -0.00012187629304695656 -0.034876934199399176 0 -0.00033670431553953261 -0.034899473181808076 0 -9.3653280877850754e-08 -0.034999993191382132 0 -1.2299716871747097e-07 -0.034999841547619849 0 -0.00012187629304695656 -0.034876934199399176 0 -1.2299716871747097e-07 -0.034999841547619849 0 -0.00012187629304695656 -0.034876934199399176 0 7.1576853179111591e-08 -0.034999599928637458 0 -0.00018629151302917618 -0.034916654036765374 0 7.1576853179111591e-08 -0.034999599928637458 0 -5.3568484519336327e-05 -0.034743659955034145 0 -0.00018629151302917618 -0.034916654036765374 0 -0.00012187629304695656 -0.034876934199399176 0 7.1576853179111591e-08 -0.034999599928637458 0 -0.00023561703029190633 -0.034692018442862106 0 -0.00018629151302917618 -0.034916654036765374 0 -5.3568484519336327e-05 -0.034743659955034145 0 -0.00017260899523271358 -0.03442052142876828 0 -0.00023561703029190633 -0.034692018442862106 0 -5.3568484519336327e-05 -0.034743659955034145 0 7.4707374180624577e-08 -0.034999852738400332 0 8.0257102413130385e-07 -0.034766247916692139 0 -1.0315177307915081e-08 -0.034999949985331444 0 -2.348598017378841e-05 -0.03495011379418031 0 -1.5077019216797407e-05 -0.03496484829467611 0 -2.348598017378841e-05 -0.03495011379418031 0 -3.6101662642135491e-05 -0.034923717674775673 0 -1.5077019216797407e-05 -0.03496484829467611 0 -1.0315177307915081e-08 -0.034999949985331444 0 -2.348598017378841e-05 -0.03495011379418031 0 -1.6863694946255455e-08 -0.034999945337299901 0 -2.1885049625041836e-09 -0.034999969233644318 0 -1.6863694946255455e-08 -0.034999945337299901 0 -2.0972353790688228e-05 -0.034956760572441452 0 -5.7356620629787413e-08 -0.034999914898449037 0 -0.00016211016408222096 -0.034903741684292527 0 -2.348598017378841e-05 -0.03495011379418031 0 -1.6863694946255455e-08 -0.034999945337299901 0 -2.0972353790688228e-05 -0.034956760572441452 0 -2.348598017378841e-05 -0.03495011379418031 0 -2.0972353790688228e-05 -0.034956760572441452 0 -4.9204623158239832e-05 -0.034904108955237372 0 -0.00016211016408222096 -0.034903741684292527 0 -0.00031380759938658495 -0.034753561615866638 0 -0.00033670431553953261 -0.034899473181808076 0 -0.00059363206203875334 -0.034678081790672763 0 -0.00064527783968093392 -0.034644215157498021 0 -0.00059363206203875334 -0.034678081790672763 0 -0.00064527783968093392 -0.034644215157498021 0 -0.00068509935588605532 -0.034537582658180313 0 -4.9204623158239832e-05 -0.034904108955237372 0 -5.2111261657929986e-05 -0.034899898817750567 0 -8.928806008150145e-05 -0.034853298379126187 0 -2.348598017378841e-05 -0.03495011379418031 0 -4.9204623158239832e-05 -0.034904108955237372 0 -5.2111261657929986e-05 -0.034899898817750567 0 -2.348598017378841e-05 -0.03495011379418031 0 -5.2111261657929986e-05 -0.034899898817750567 0 -3.6101662642135491e-05 -0.034923717674775673 0 -5.2111261657929986e-05 -0.034899898817750567 0 -3.6101662642135491e-05 -0.034923717674775673 0 -7.1737310426918093e-05 -0.0348625966308427 0 -3.6101662642135491e-05 -0.034923717674775673 0 -7.1737310426918093e-05 -0.0348625966308427 0 -5.1471736266193909e-05 -0.03489625265475111 0 -7.1737310426918093e-05 -0.0348625966308427 0 -0.00011660094895741958 -0.034793136667982456 0 -8.7635270674480141e-05 -0.034827815412614253 0 -0.00011660094895741958 -0.034793136667982456 0 -8.928806008150145e-05 -0.034853298379126187 0 -0.00011178433163351328 -0.0348216473765788 0 -0.00035091731150729897 -0.034532768679648281 0 -0.00020663068415342444 -0.034268739472928487 0 -5.2111261657929986e-05 -0.034899898817750567 0 -7.1737310426918093e-05 -0.0348625966308427 0 -8.928806008150145e-05 -0.034853298379126187 0 -7.1737310426918093e-05 -0.0348625966308427 0 -0.00011660094895741958 -0.034793136667982456 0 -8.928806008150145e-05 -0.034853298379126187 0 -0.00064527783968093392 -0.034644215157498021 0 -0.0007015186596340885 -0.034232557391390236 0 -0.00068509935588605532 -0.034537582658180313 0 -0.00031380759938658495 -0.034753561615866638 0 -0.00035091731150729897 -0.034532768679648281 0 -0.00068509935588605532 -0.034537582658180313 0 -0.00064961818197836567 -0.034500565679459777 0 -0.00058665460841216108 -0.034337929492600228 0 -0.00057420139350596879 -0.034437806477293227 0 -0.00064961818197836567 -0.034500565679459777 0 -0.00058665460841216108 -0.034337929492600228 0 -0.00061774820466489603 -0.034526512377047271 0 -0.00057420139350596879 -0.034437806477293227 0 -0.00064961818197836567 -0.034500565679459777 0 -0.00050460980076539263 -0.034499067663840047 0 -0.00061774820466489603 -0.034526512377047271 0 -0.00057420139350596879 -0.034437806477293227 0 -0.00057420139350596879 -0.034437806477293227 0 -0.00058665460841216108 -0.034337929492600228 0 -0.00050234629753897575 -0.034406209940221373 0 -0.0007015186596340885 -0.034232557391390236 0 -0.00058665460841216108 -0.034337929492600228 0 -0.0004227822131921469 -0.034090923374501987 0 -0.0007015186596340885 -0.034232557391390236 0 -0.00068509935588605532 -0.034537582658180313 0 -0.00058665460841216108 -0.034337929492600228 0 -0.0007015186596340885 -0.034232557391390236 0 -0.0004227822131921469 -0.034090923374501987 0 -0.00038839343044799881 -0.033705209718084703 0 -0.0004227822131921469 -0.034090923374501987 0 -0.00018276737263183575 -0.034037514404672446 0 -0.00038839343044799881 -0.033705209718084703 0 -0.0004227822131921469 -0.034090923374501987 0 -0.00034249722487464558 -0.034356952182285801 0 -0.00018276737263183575 -0.034037514404672446 0 -0.00058665460841216108 -0.034337929492600228 0 -0.00034249722487464558 -0.034356952182285801 0 -0.00050234629753897575 -0.034406209940221373 0 -0.00058665460841216108 -0.034337929492600228 0 -0.0004227822131921469 -0.034090923374501987 0 -0.00034249722487464558 -0.034356952182285801 0 -0.00050460980076539263 -0.034499067663840047 0 -0.00034249722487464558 -0.034356952182285801 0 -0.00050234629753897575 -0.034406209940221373 0 -0.00050151603248780458 -0.034552912155187375 0 -0.00050460980076539263 -0.034499067663840047 0 -0.00034249722487464558 -0.034356952182285801 0 -0.00050460980076539263 -0.034499067663840047 0 -0.00057420139350596879 -0.034437806477293227 0 -0.00050234629753897575 -0.034406209940221373 0 -6.4932565920568092e-05 -0.034682534750013594 0 -0.00034249722487464558 -0.034356952182285801 0 0.00014953910375602327 -0.034304072195620393 0 -0.00034249722487464558 -0.034356952182285801 0 -0.00018276737263183575 -0.034037514404672446 0 0.00014953910375602327 -0.034304072195620393 0 -0.00018276737263183575 -0.034037514404672446 0 -0.00038839343044799881 -0.033705209718084703 0 0.00015509465476848505 -0.033745195459656901 0 -0.00018276737263183575 -0.034037514404672446 0 0.00014953910375602327 -0.034304072195620393 0 0.00015509465476848505 -0.033745195459656901 0 -0.00020663068415342444 -0.034268739472928487 0 0.00012847901767401408 -0.034000918531861372 0 -0.00038839343044799881 -0.033705209718084703 0 0.00015509465476848505 -0.033745195459656901 0 0.00016694550904877557 -0.033222559924382923 0 -0.00011660094895741958 -0.034793136667982456 0 -0.00011178433163351328 -0.0348216473765788 0 -0.00014927795481517179 -0.034661580377543764 0 -0.00011178433163351328 -0.0348216473765788 0 -0.00014927795481517179 -0.034661580377543764 0 2.033096897507378e-05 -0.034775955189486056 0 -0.00014927795481517179 -0.034661580377543764 0 2.033096897507378e-05 -0.034775955189486056 0 5.1398123037023385e-05 -0.034512055877564861 0 -0.00014927795481517179 -0.034661580377543764 0 -3.3973898415178794e-05 -0.03415214594033792 0 5.1398123037023385e-05 -0.034512055877564861 0 -0.00011660094895741958 -0.034793136667982456 0 -0.00014927795481517179 -0.034661580377543764 0 -8.7635270674480141e-05 -0.034827815412614253 0 -0.00014927795481517179 -0.034661580377543764 0 -0.00012969779066697852 -0.034796531043427045 0 -8.7635270674480141e-05 -0.034827815412614253 0 -0.00012969779066697852 -0.034796531043427045 0 -0.00013237709239560306 -0.034858441019125323 0 -0.00010210728528999293 -0.034846791195642546 0 -0.00012969779066697852 -0.034796531043427045 0 -0.00021630533094090109 -0.034797586132820309 0 -0.00016767593162301793 -0.034836041914628205 0 -0.00014927795481517179 -0.034661580377543764 0 -0.00012969779066697852 -0.034796531043427045 0 -0.00021630533094090109 -0.034797586132820309 0 -0.00016124093311418802 -0.034547940373958134 0 -0.00024640860565789519 -0.034510810717485026 0 -0.00021630533094090109 -0.034797586132820309 0 -0.00019648141095075076 -0.034847180856928048 0 -0.00016767593162301793 -0.034836041914628205 0 -0.00019648141095075076 -0.034847180856928048 0 -0.00016767593162301793 -0.034836041914628205 0 -0.00016351815349921928 -0.034868015630976204 0 -0.00019648141095075076 -0.034847180856928048 0 -0.00016351815349921928 -0.034868015630976204 0 -0.00018641633250046833 -0.034878078950371885 0 -0.00016351815349921928 -0.034868015630976204 0 -0.00018641633250046833 -0.034878078950371885 0 -0.00015449989993854231 -0.034901876581029168 0 -0.00018641633250046833 -0.034878078950371885 0 -0.00015449989993854231 -0.034901876581029168 0 -0.00018236126770892295 -0.034913909730384982 0 -0.00013193826880674147 -0.034918389911732642 0 -0.00013122579189563455 -0.034890751658994759 0 -0.00010252829495126204 -0.034916833592958302 0 -0.00015449989993854231 -0.034901876581029168 0 -0.00013193826880674147 -0.034918389911732642 0 -0.00013909993380281917 -0.034927020072015875 0 -0.00015449989993854231 -0.034901876581029168 0 -0.00013193826880674147 -0.034918389911732642 0 -0.00013122579189563455 -0.034890751658994759 0 -0.00016351815349921928 -0.034868015630976204 0 -0.00015449989993854231 -0.034901876581029168 0 -0.00013122579189563455 -0.034890751658994759 0 -0.00013122579189563455 -0.034890751658994759 0 -0.00013237709239560306 -0.034858441019125323 0 -0.00010621826020636559 -0.034882108843068034 0 -0.00016351815349921928 -0.034868015630976204 0 -0.00013122579189563455 -0.034890751658994759 0 -0.00013237709239560306 -0.034858441019125323 0 -0.00012969779066697852 -0.034796531043427045 0 -0.00016767593162301793 -0.034836041914628205 0 -0.00013237709239560306 -0.034858441019125323 0 -0.00016767593162301793 -0.034836041914628205 0 -0.00016351815349921928 -0.034868015630976204 0 -0.00013237709239560306 -0.034858441019125323 0 -0.00013237709239560306 -0.034858441019125323 0 -0.00010621826020636559 -0.034882108843068034 0 -0.00010210728528999293 -0.034846791195642546 0 -0.00010621826020636559 -0.034882108843068034 0 -0.00010252829495126204 -0.034916833592958302 0 -7.6404533623314124e-05 -0.034892950840168746 0 -0.00010621826020636559 -0.034882108843068034 0 -7.6404533623314124e-05 -0.034892950840168746 0 -0.00010210728528999293 -0.034846791195642546 0 -0.00013122579189563455 -0.034890751658994759 0 -0.00010621826020636559 -0.034882108843068034 0 -0.00010252829495126204 -0.034916833592958302 0 -0.00013193826880674147 -0.034918389911732642 0 -0.00010252829495126204 -0.034916833592958302 0 -0.00011587176083354225 -0.0349308647207794 0 -0.00010252829495126204 -0.034916833592958302 0 -6.7139350814815466e-05 -0.034934970117757251 0 -9.1003538917840512e-05 -0.034941010241337854 0 -0.00010252829495126204 -0.034916833592958302 0 -6.7139350814815466e-05 -0.034934970117757251 0 -7.6404533623314124e-05 -0.034892950840168746 0 -6.7139350814815466e-05 -0.034934970117757251 0 -7.6404533623314124e-05 -0.034892950840168746 0 -4.3134704564711753e-05 -0.034933853000617521 0 -7.6404533623314124e-05 -0.034892950840168746 0 -8.7635270674480141e-05 -0.034827815412614253 0 -5.1697035622657212e-05 -0.034904436221634624 0 -8.7635270674480141e-05 -0.034827815412614253 0 -5.1471736266193909e-05 -0.03489625265475111 0 -5.1697035622657212e-05 -0.034904436221634624 0 -0.00012969779066697852 -0.034796531043427045 0 -0.00010210728528999293 -0.034846791195642546 0 -8.7635270674480141e-05 -0.034827815412614253 0 -7.6404533623314124e-05 -0.034892950840168746 0 -0.00010210728528999293 -0.034846791195642546 0 -8.7635270674480141e-05 -0.034827815412614253 0 -7.1737310426918093e-05 -0.0348625966308427 0 -8.7635270674480141e-05 -0.034827815412614253 0 -5.1471736266193909e-05 -0.03489625265475111 0 -3.6101662642135491e-05 -0.034923717674775673 0 -5.1471736266193909e-05 -0.03489625265475111 0 -2.5148401431367731e-05 -0.034943160565437718 0 -5.1471736266193909e-05 -0.03489625265475111 0 -2.5148401431367731e-05 -0.034943160565437718 0 -5.1697035622657212e-05 -0.034904436221634624 0 -7.6404533623314124e-05 -0.034892950840168746 0 -5.1697035622657212e-05 -0.034904436221634624 0 -4.3134704564711753e-05 -0.034933853000617521 0 -2.5148401431367731e-05 -0.034943160565437718 0 -5.1697035622657212e-05 -0.034904436221634624 0 -4.3134704564711753e-05 -0.034933853000617521 0 -6.7139350814815466e-05 -0.034934970117757251 0 -4.3134704564711753e-05 -0.034933853000617521 0 -3.8927445005900505e-05 -0.034965665929654069 0 -4.3134704564711753e-05 -0.034933853000617521 0 -2.0392860953516844e-05 -0.03496578704925548 0 -3.8927445005900505e-05 -0.034965665929654069 0 -2.5148401431367731e-05 -0.034943160565437718 0 -4.3134704564711753e-05 -0.034933853000617521 0 -2.0392860953516844e-05 -0.03496578704925548 0 -2.5148401431367731e-05 -0.034943160565437718 0 -2.0392860953516844e-05 -0.03496578704925548 0 -1.0184287845402234e-05 -0.034974654348212897 0 -2.0392860953516844e-05 -0.03496578704925548 0 -1.0184287845402234e-05 -0.034974654348212897 0 -5.287247147075513e-06 -0.034986852525847059 0 -2.0392860953516844e-05 -0.03496578704925548 0 -5.287247147075513e-06 -0.034986852525847059 0 -1.1715792252118881e-05 -0.034987048581571881 0 -5.287247147075513e-06 -0.034986852525847059 0 -4.6717642930049659e-09 -0.034999968688904717 0 -8.9671264920934801e-10 -0.034999986027217024 0 -1.0184287845402234e-05 -0.034974654348212897 0 -5.287247147075513e-06 -0.034986852525847059 0 -4.6717642930049659e-09 -0.034999968688904717 0 -1.0184287845402234e-05 -0.034974654348212897 0 -4.6717642930049659e-09 -0.034999968688904717 0 -6.1071868367025072e-09 -0.034999953624094582 0 -2.5148401431367731e-05 -0.034943160565437718 0 -1.0184287845402234e-05 -0.034974654348212897 0 -6.1071868367025072e-09 -0.034999953624094582 0 -2.5148401431367731e-05 -0.034943160565437718 0 -6.1071868367025072e-09 -0.034999953624094582 0 -1.5077019216797407e-05 -0.03496484829467611 0 -3.6101662642135491e-05 -0.034923717674775673 0 -2.5148401431367731e-05 -0.034943160565437718 0 -1.5077019216797407e-05 -0.03496484829467611 0 -1.0315177307915081e-08 -0.034999949985331444 0 -6.1071868367025072e-09 -0.034999953624094582 0 -1.5077019216797407e-05 -0.03496484829467611 0 -0.0010831133740843576 -0.030468800838802729 0 0.00048192910048874029 -0.030520695344609855 0 -0.0014562937440018326 -0.028086020685738861 0 -0.0010831133740843576 -0.030468800838802729 0 -0.001413089746191147 -0.031270027545761643 0 -0.0022311786238751264 -0.027886700338236405 0 -0.00089702718413549039 -0.022239211848968227 0 -0.00027957300544384809 -0.020265520182206495 0 -0.00089702718413549039 -0.022239211848968227 0 -0.0018241808885533963 -0.024687744949630899 0 -0.0010831133740843576 -0.030468800838802729 0 -0.001413089746191147 -0.031270027545761643 0 -0.00023925912917677531 -0.030731086023381333 0 -0.0009703617856387911 -0.031026044716185228 0 -0.00023925912917677531 -0.030731086023381333 0 -0.00019431524056848633 -0.031503040093670845 0 0.0019155427410641962 -0.033279658466875375 0 0.0019473059383790167 -0.033623064454897988 0 0.0015947931520082516 -0.033567418989253778 0 0.00048192910048874029 -0.030520695344609855 0 -0.00023925912917677531 -0.030731086023381333 0 0.00040794553564046292 -0.031439611651991342 0 -0.0010831133740843576 -0.030468800838802729 0 0.00048192910048874029 -0.030520695344609855 0 -0.00023925912917677531 -0.030731086023381333 0 -0.00019431524056848633 -0.031503040093670845 0 0.00040794553564046292 -0.031439611651991342 0 0.00045786798675375763 -0.031978531786835809 0 0.00040794553564046292 -0.031439611651991342 0 0.00045786798675375763 -0.031978531786835809 0 0.0013698866744772332 -0.032595805343448282 0 0.00048192910048874029 -0.030520695344609855 0 0.00040794553564046292 -0.031439611651991342 0 0.0013698866744772332 -0.032595805343448282 0 -0.00023925912917677531 -0.030731086023381333 0 -0.00019431524056848633 -0.031503040093670845 0 0.00040794553564046292 -0.031439611651991342 0 0.00045786798675375763 -0.031978531786835809 0 -0.00061034556393321218 -0.032277694034903041 0 0.00039685797226090587 -0.032549041455882395 0 -0.00019431524056848633 -0.031503040093670845 0 0.00045786798675375763 -0.031978531786835809 0 -0.00061034556393321218 -0.032277694034903041 0 -0.00010408764859479264 -0.012835365572660726 0 7.5954512509963042e-05 -0.012482882884813215 0 -0.00018612405070762958 -0.012404210449522465 0 -0.0009703617856387911 -0.031026044716185228 0 -0.00019431524056848633 -0.031503040093670845 0 -0.00061034556393321218 -0.032277694034903041 0 -0.00089702718413549039 -0.022239211848968227 0 -0.0002117228597453881 -0.022283244799237725 0 -0.00089702718413549039 -0.022239211848968227 0 0.00098952904840938724 -0.01464996360431085 0 -0.00010408764859479264 -0.012835365572660726 0 7.5954512509963042e-05 -0.012482882884813215 0 0.00034835460740987781 -0.012614440843101555 0 7.5954512509963042e-05 -0.012482882884813215 0 0.00034835460740987781 -0.012614440843101555 0 0.00024032664254006308 -0.012240308113411586 0 0.00034835460740987781 -0.012614440843101555 0 0.0004965415862919749 -0.012271900430354244 0 0.00024032664254006308 -0.012240308113411586 0 0.00098952904840938724 -0.01464996360431085 0 0.0016087519855129339 -0.010357879407714448 0 0.00034835460740987781 -0.012614440843101555 0 0.00076206336238543969 -0.012374135982326428 0 0.0004965415862919749 -0.012271900430354244 0 0.00083914446438200833 -0.014859488815947262 0 0.003531798476097206 -0.013868672941708059 0 0.0012183162082367864 -0.016570505395675051 0 0.0016087519855129339 -0.010357879407714448 0 0.00095398097565603361 -0.011955047136060619 0 -0.00081003749503684474 -0.0070043325749665052 0 -0.00098264679830684337 -0.007018705639957476 0 -0.00087583704645242282 -0.0071617659439340564 0 -0.00081003749503684474 -0.0070043325749665052 0 -0.00083486819158797075 -0.0068383787857522306 0 -0.00098264679830684337 -0.007018705639957476 0 -0.0018531171566075436 -0.01584767693954011 0 0.00083914446438200833 -0.014859488815947262 0 0.0012183162082367864 -0.016570505395675051 0 0.00095398097565603361 -0.011955047136060619 0 -0.00027957300544384809 -0.020265520182206495 0 -0.0018531171566075436 -0.01584767693954011 0 0.0012183162082367864 -0.016570505395675051 0 -0.0010974191345727246 -0.019257056320086507 0 -0.00098264679830684337 -0.007018705639957476 0 -0.0010125063925477799 -0.0071913495308771423 0 -0.0011353171430837027 -0.0072246928530651216 0 -0.0010125063925477799 -0.0071913495308771423 0 -0.0011088003800775962 -0.0073315941397452756 0 -0.0011353171430837027 -0.0072246928530651216 0 -0.0020005577232562861 -0.017284689672955697 0 -0.00027957300544384809 -0.020265520182206495 0 -0.00098264679830684337 -0.007018705639957476 0 -0.0010125063925477799 -0.0071913495308771423 0 -0.00087583704645242282 -0.0071617659439340564 0 -0.0010125063925477799 -0.0071913495308771423 0 -0.00087583704645242282 -0.0071617659439340564 0 -0.00099228329680191448 -0.0073014188915002561 0 -0.00076365783752212852 -0.0073341560827467206 0 -0.0010165205886267482 -0.0074225192149038723 0 -0.00088443827491927352 -0.0072849528735660944 0 -0.00077640576575833628 -0.0072119101589857267 0 -0.00087583704645242282 -0.0071617659439340564 0 -0.00088443827491927352 -0.0072849528735660944 0 -0.00087583704645242282 -0.0071617659439340564 0 -0.00088443827491927352 -0.0072849528735660944 0 -0.00099228329680191448 -0.0073014188915002561 0 -0.0010165205886267482 -0.0074225192149038723 0 -0.00088443827491927352 -0.0072849528735660944 0 -0.00099228329680191448 -0.0073014188915002561 0 -0.0018311385706937266 -0.018508052147922623 0 -0.0014302178691395675 -0.01897861329338172 0 -0.00093889365887562897 -0.022458979303720018 0 -0.0017975592401086472 -0.017915877271508403 0 -0.0017899390222816426 -0.017920336843112599 0 -0.0018191048729086737 -0.017892013130237017 0 -0.0020005577232562861 -0.017284689672955697 0 -0.0014378845511037568 -0.019379467262958326 0 -0.0010125063925477799 -0.0071913495308771423 0 -0.0011088003800775962 -0.0073315941397452756 0 -0.00099228329680191448 -0.0073014188915002561 0 -0.0010165205886267482 -0.0074225192149038723 0 -0.0011088003800775962 -0.0073315941397452756 0 -0.00099228329680191448 -0.0073014188915002561 0 -0.0020005577232562861 -0.017284689672955697 0 -0.00153232156443017 -0.017625402950811331 0 -0.0023681474293799094 -0.01509782563151593 0 -0.0013051859357439606 -0.016353342083641993 0 -0.001490980065344214 -0.015520564464283758 0 -0.0029193107525081604 -0.01279404002274028 0 -0.0020005577232562861 -0.017284689672955697 0 -0.0014378845511037568 -0.019379467262958326 0 -0.00153232156443017 -0.017625402950811331 0 -0.00097847586997084224 -0.021595175003532266 0 -0.0010526766130868521 -0.021648886321356774 0 -0.00095329022813438397 -0.021695878164913054 0 0.002351917048207015 -0.033813631885515491 0 0.0019111750910781526 -0.033830411406912654 0 0.002038137120520072 -0.03420184672246291 0 -0.0010154423775736064 -0.021761734986335539 0 -0.0010526766130868521 -0.021648886321356774 0 -0.00095329022813438397 -0.021695878164913054 0 -0.00090877052876067494 -0.021636837836838133 0 -0.00097847586997084224 -0.021595175003532266 0 -0.00095329022813438397 -0.021695878164913054 0 -0.00090877052876067494 -0.021636837836838133 0 -0.00095329022813438397 -0.021695878164913054 0 -0.00083077051077846628 -0.0216860586081335 0 -0.00095329022813438397 -0.021695878164913054 0 -0.00095306584026694382 -0.021837579251211148 0 -0.00083077051077846628 -0.0216860586081335 0 -0.00054049221712386506 -0.025393127582792274 0 -0.0002362771371915813 -0.027335640551330732 0 -0.0010154423775736064 -0.021761734986335539 0 -0.00095329022813438397 -0.021695878164913054 0 -0.00095306584026694382 -0.021837579251211148 0 -0.0014378845511037568 -0.019379467262958326 0 -0.00054049221712386506 -0.025393127582792274 0 -0.0014378845511037568 -0.019379467262958326 0 -0.00075696193045970614 -0.023014939052308281 0 -0.00019098241868259662 -0.029870174319754389 0 -0.00075696193045970614 -0.023014939052308281 0 -0.0010831133740843576 -0.030468800838802729 0 -0.0020111236287595488 -0.027629932041058475 0 -0.0022311786238751264 -0.027886700338236405 0 -0.0014302178691395675 -0.01897861329338172 0 -0.00047731801682846024 -0.021924688909397128 0 -0.00093889365887562897 -0.022458979303720018 0 0.0017021498025545387 -0.032265427522318695 0 -0.00054049221712386506 -0.025393127582792274 0 -0.0017286481715494387 -0.021415299131129807 0 -0.00074019349392469064 -0.02449818892303213 0 8.1060836642427782e-05 -0.023549725853006555 0 -0.0010831133740843576 -0.030468800838802729 0 -0.0017289112069859567 -0.028398579733184173 0 -0.0014562937440018326 -0.028086020685738861 0 -0.00075696193045970614 -0.023014939052308281 0 -0.00054049221712386506 -0.025393127582792274 0 -0.00075696193045970614 -0.023014939052308281 0 -0.00027957300544384809 -0.020265520182206495 0 0.0019111750910781526 -0.033830411406912654 0 0.001647738301801825 -0.034042672972705128 0 0.0015947931520082516 -0.033567418989253778 0 0.002351917048207015 -0.033813631885515491 0 0.0019473059383790167 -0.033623064454897988 0 0.0019111750910781526 -0.033830411406912654 0 0.0019155427410641962 -0.033279658466875375 0 0.002351917048207015 -0.033813631885515491 0 0.0019473059383790167 -0.033623064454897988 0 0.0019473059383790167 -0.033623064454897988 0 0.0019111750910781526 -0.033830411406912654 0 0.0015947931520082516 -0.033567418989253778 0 0.0017080879707263104 -0.034586151177346203 0 0.002038137120520072 -0.03420184672246291 0 0.001647738301801825 -0.034042672972705128 0 0.0019111750910781526 -0.033830411406912654 0 0.002038137120520072 -0.03420184672246291 0 0.001647738301801825 -0.034042672972705128 0 0.0017080879707263104 -0.034586151177346203 0 0.001647738301801825 -0.034042672972705128 0 0.0012861638913165686 -0.034210025828884841 0 0.001647738301801825 -0.034042672972705128 0 0.0012861638913165686 -0.034210025828884841 0 0.0013478513408795351 -0.03384598169147298 0 0.0012861638913165686 -0.034210025828884841 0 0.00094143875811334235 -0.033904495539718742 0 0.0013478513408795351 -0.03384598169147298 0 0.0012861638913165686 -0.034210025828884841 0 0.00094143875811334235 -0.033904495539718742 0 0.00072920571527920937 -0.03435762152277877 0 0.00094143875811334235 -0.033904495539718742 0 0.00070173899378496299 -0.03346331151107422 0 0.0011771382707680828 -0.033463877507033488 0 0.00094143875811334235 -0.033904495539718742 0 0.0013478513408795351 -0.03384598169147298 0 0.0011771382707680828 -0.033463877507033488 0 0.0015947931520082516 -0.033567418989253778 0 0.0013478513408795351 -0.03384598169147298 0 0.0011771382707680828 -0.033463877507033488 0 0.001647738301801825 -0.034042672972705128 0 0.0015947931520082516 -0.033567418989253778 0 0.0013478513408795351 -0.03384598169147298 0 0.00014953910375602327 -0.034304072195620393 0 0.00072920571527920937 -0.03435762152277877 0 0.00051584387646237803 -0.033988338009091353 0 0.00094143875811334235 -0.033904495539718742 0 0.00072920571527920937 -0.03435762152277877 0 0.00051584387646237803 -0.033988338009091353 0 0.00094143875811334235 -0.033904495539718742 0 0.00051584387646237803 -0.033988338009091353 0 0.00070173899378496299 -0.03346331151107422 0 0.00051584387646237803 -0.033988338009091353 0 0.00015509465476848505 -0.033745195459656901 0 0.00070173899378496299 -0.03346331151107422 0 0.00014953910375602327 -0.034304072195620393 0 0.00051584387646237803 -0.033988338009091353 0 0.00015509465476848505 -0.033745195459656901 0 0.00015509465476848505 -0.033745195459656901 0 0.00070173899378496299 -0.03346331151107422 0 0.00016694550904877557 -0.033222559924382923 0 0.00049232706216457685 -0.034669695435794401 0 2.033096897507378e-05 -0.034775955189486056 0 0.00024016929556540392 -0.034518493542757343 0 0.00073614921143304811 -0.033649433544541259 0 0.00012847901767401408 -0.034000918531861372 0 0.00070173899378496299 -0.03346331151107422 0 0.00086236930252234169 -0.032768938606021147 0 0.00016694550904877557 -0.033222559924382923 0 2.033096897507378e-05 -0.034775955189486056 0 5.1398123037023385e-05 -0.034512055877564861 0 0.00024016929556540392 -0.034518493542757343 0 0.0015947931520082516 -0.033567418989253778 0 0.0014290619150717603 -0.033174778754413284 0 0.0011771382707680828 -0.033463877507033488 0 0.0019155427410641962 -0.033279658466875375 0 0.0015947931520082516 -0.033567418989253778 0 0.0014290619150717603 -0.033174778754413284 0 0.00070173899378496299 -0.03346331151107422 0 0.0011771382707680828 -0.033463877507033488 0 0.001110344486709795 -0.033063873427285895 0 0.0014290619150717603 -0.033174778754413284 0 0.0011771382707680828 -0.033463877507033488 0 0.001110344486709795 -0.033063873427285895 0 0.00086236930252234169 -0.032768938606021147 0 0.001110344486709795 -0.033063873427285895 0 0.0013698866744772332 -0.032595805343448282 0 0.00070173899378496299 -0.03346331151107422 0 0.00086236930252234169 -0.032768938606021147 0 0.001110344486709795 -0.033063873427285895 0 0.0014290619150717603 -0.033174778754413284 0 0.001110344486709795 -0.033063873427285895 0 0.0013698866744772332 -0.032595805343448282 0 0.0017021498025545387 -0.032265427522318695 0 0.0012706832048707275 -0.032237347695432086 0 0.00045786798675375763 -0.031978531786835809 0 0.0013698866744772332 -0.032595805343448282 0 0.00092352608921428519 -0.032441096920745587 0 0.0019155427410641962 -0.033279658466875375 0 0.0014290619150717603 -0.033174778754413284 0 0.0013698866744772332 -0.032595805343448282 0 0.0013698866744772332 -0.032595805343448282 0 0.0013571143991453903 -0.032631598792664911 0 0.00092352608921428519 -0.032441096920745587 0 0.0013571143991453903 -0.032631598792664911 0 0.00092352608921428519 -0.032441096920745587 0 0.00039685797226090587 -0.032549041455882395 0 0.00049232706216457685 -0.034669695435794401 0 0.0012263544374171136 -0.034343612038594325 0 0.00048450355088748836 -0.034392246343983787 0 0.0012263544374171136 -0.034343612038594325 0 0.0012125663902017886 -0.03408602114720579 0 0.00048450355088748836 -0.034392246343983787 0 0.00086236930252234169 -0.032768938606021147 0 0.0013698866744772332 -0.032595805343448282 0 0.0013571143991453903 -0.032631598792664911 0 0.0023457271734563271 -0.032942199388595238 0 0.00078757723150996162 -0.03410284966775598 0 0.00073614921143304811 -0.033649433544541259 0 0.0004831515785681331 -0.033044887290597472 0 0.0036380711834192829 -0.033811986422249807 0 0.0020372688116126443 -0.033376144537806463 0 0.00048450355088748836 -0.034392246343983787 0 0.0020372688116126443 -0.033376144537806463 0 0.0010343144566252417 -0.03358598296890581 0 0.00048450355088748836 -0.034392246343983787 0 0.0020372688116126443 -0.033376144537806463 0 0.0010343144566252417 -0.03358598296890581 0 0.00089710975423796353 -0.032632292275256707 0 0.0010343144566252417 -0.03358598296890581 0 0.00089710975423796353 -0.032632292275256707 0 0.00047692111280596736 -0.034001841570114141 0 0.0020372688116126443 -0.033376144537806463 0 0.00089710975423796353 -0.032632292275256707 0 0.0016492246628549458 -0.031459403830038486 0 0.0020372688116126443 -0.033376144537806463 0 0.0031582636463979804 -0.032465499398330773 0 0.0016492246628549458 -0.031459403830038486 0 0.0031582636463979804 -0.032465499398330773 0 0.0042409986754426846 -0.032798050909992479 0 0.0048724592390647133 -0.031586575346246475 0 0.0036380711834192829 -0.033811986422249807 0 0.0042409986754426846 -0.032798050909992479 0 0.0032646596274700677 -0.033113805827698781 0 0.0020372688116126443 -0.033376144537806463 0 0.0031582636463979804 -0.032465499398330773 0 0.0032646596274700677 -0.033113805827698781 0 0.0036380711834192829 -0.033811986422249807 0 0.0020372688116126443 -0.033376144537806463 0 0.0032646596274700677 -0.033113805827698781 0 0.0031582636463979804 -0.032465499398330773 0 0.0042409986754426846 -0.032798050909992479 0 0.0032646596274700677 -0.033113805827698781 0 5.1398123037023385e-05 -0.034512055877564861 0 0.00021490821512060054 -0.034325355795436108 0 0.00024016929556540392 -0.034518493542757343 0 5.1398123037023385e-05 -0.034512055877564861 0 0.00021490821512060054 -0.034325355795436108 0 0.00012509749290684122 -0.034256874259752802 0 0.00031237021048744179 -0.034276825404865159 0 0.00024016929556540392 -0.034518493542757343 0 0.00048450355088748836 -0.034392246343983787 0 0.00031237021048744179 -0.034276825404865159 0 0.00047692111280596736 -0.034001841570114141 0 0.00029225326107643155 -0.034126277652097636 0 0.00021490821512060054 -0.034325355795436108 0 0.00031237021048744179 -0.034276825404865159 0 0.00024016929556540392 -0.034518493542757343 0 0.00021490821512060054 -0.034325355795436108 0 0.00031237021048744179 -0.034276825404865159 0 0.00029225326107643155 -0.034126277652097636 0 0.00049232706216457685 -0.034669695435794401 0 0.00024016929556540392 -0.034518493542757343 0 0.00048450355088748836 -0.034392246343983787 0 0.00031237021048744179 -0.034276825404865159 0 0.00048450355088748836 -0.034392246343983787 0 0.00047692111280596736 -0.034001841570114141 0 0.0010343144566252417 -0.03358598296890581 0 0.00048450355088748836 -0.034392246343983787 0 0.00047692111280596736 -0.034001841570114141 0 0.00047692111280596736 -0.034001841570114141 0 0.00029225326107643155 -0.034126277652097636 0 0.00025665809444732962 -0.034071275890481728 0 0.00089710975423796353 -0.032632292275256707 0 0.00047692111280596736 -0.034001841570114141 0 -0.00099888468724608492 -0.031685978651724268 0 0.00089710975423796353 -0.032632292275256707 0 -0.00099888468724608492 -0.031685978651724268 0 0.0016492246628549458 -0.031459403830038486 0 0.00048614666608839686 -0.033555709672807334 0 0.00038239028384425905 -0.032588608244187252 0 0.00029225326107643155 -0.034126277652097636 0 0.00024210117096867053 -0.034099601494451369 0 0.00025665809444732962 -0.034071275890481728 0 0.00017801628515744109 -0.033008746067917018 0 0.00038239028384425905 -0.032588608244187252 0 -3.3973898415178794e-05 -0.03415214594033792 0 5.1398123037023385e-05 -0.034512055877564861 0 0.00012509749290684122 -0.034256874259752802 0 -3.3973898415178794e-05 -0.03415214594033792 0 0.00024210117096867053 -0.034099601494451369 0 0.00019754444713960019 -0.033794951970803414 0 0.00021863496147147109 -0.034186420753246793 0 0.00024210117096867053 -0.034099601494451369 0 0.00012509749290684122 -0.034256874259752802 0 0.00021490821512060054 -0.034325355795436108 0 0.00021863496147147109 -0.034186420753246793 0 0.00012509749290684122 -0.034256874259752802 0 0.00021490821512060054 -0.034325355795436108 0 0.00029225326107643155 -0.034126277652097636 0 0.00021863496147147109 -0.034186420753246793 0 0.00029225326107643155 -0.034126277652097636 0 0.00021863496147147109 -0.034186420753246793 0 0.00024210117096867053 -0.034099601494451369 0 -3.3973898415178794e-05 -0.03415214594033792 0 0.00024210117096867053 -0.034099601494451369 0 0.00012509749290684122 -0.034256874259752802 0 -0.00024640860565789519 -0.034510810717485026 0 0.00055107115165700107 -0.032674705030172543 0 -0.00021630533094090109 -0.034797586132820309 0 -0.00019648141095075076 -0.034847180856928048 0 -0.00023675945402443758 -0.034855070822873944 0 0.00024210117096867053 -0.034099601494451369 0 0.00019754444713960019 -0.033794951970803414 0 0.00031949703761489608 -0.033995508573168409 0 -0.00019648141095075076 -0.034847180856928048 0 -0.00018641633250046833 -0.034878078950371885 0 -0.00023675945402443758 -0.034855070822873944 0 0.00055107115165700107 -0.032674705030172543 0 0.00038239028384425905 -0.032588608244187252 0 0.00038239028384425905 -0.032588608244187252 0 0.0011700520445462094 -0.029859677417455939 0 0.00083035574934317785 -0.031015124671311626 0 0.0009172824214020419 -0.031162643815617452 0 0.0011166635477556565 -0.030877470799312749 0 -0.00099888468724608492 -0.031685978651724268 0 0.0016492246628549458 -0.031459403830038486 0 0.00096610828859568351 -0.02898451270577113 0 0.00055107115165700107 -0.032674705030172543 0 0.001299387127121893 -0.030575443885546782 0 0.00083035574934317785 -0.031015124671311626 0 0.0010269032268482962 -0.030760756942894756 0 0.0011166635477556565 -0.030877470799312749 0 0.0012191567113833198 -0.030517707517871747 0 0.0011972707747107821 -0.030545412299426502 0 0.0012205123021062389 -0.030549941361891431 0 -0.00018641633250046833 -0.034878078950371885 0 -0.00023675945402443758 -0.034855070822873944 0 -0.00018236126770892295 -0.034913909730384982 0 0.0012191567113833198 -0.030517707517871747 0 0.0012205123021062389 -0.030549941361891431 0 0.0012493837878359321 -0.030528605272521939 0 0.00055107115165700107 -0.032674705030172543 0 0.00054250037222429513 -0.032719667475597125 0 0.0031582636463979804 -0.032465499398330773 0 0.0036356343147199398 -0.029645452356166915 0 0.0016492246628549458 -0.031459403830038486 0 0.0031582636463979804 -0.032465499398330773 0 0.0036356343147199398 -0.029645452356166915 0 0.0048724592390647133 -0.031586575346246475 0 0.0036356343147199398 -0.029645452356166915 0 0.0016492246628549458 -0.031459403830038486 0 0.00096610828859568351 -0.02898451270577113 0 0.0011700520445462094 -0.029859677417455939 0 0.0013954594184020942 -0.028626604069980906 0 0.0036356343147199398 -0.029645452356166915 0 0.00096610828859568351 -0.02898451270577113 0 0.0029127178569236774 -0.026277277314020717 0 0.0010269032268482962 -0.030760756942894756 0 0.0011166635477556565 -0.030877470799312749 0 0.0012630091994281225 -0.030642936176540625 0 0.0036356343147199398 -0.029645452356166915 0 0.0056063328069926891 -0.026758129941716821 0 0.0029127178569236774 -0.026277277314020717 0 0.0031135396821596597 -0.020761615854842947 0 0.0029384343627673905 -0.018913312579983067 0 0.00065208688110139743 -0.0115505243670629 0 0.000609574835586981 -0.011632918057101491 0 0.00065911471546706041 -0.011554215807051987 0 0.0036356343147199398 -0.029645452356166915 0 0.0062849944015149701 -0.029935413759712721 0 0.0056063328069926891 -0.026758129941716821 0 0.00065208688110139743 -0.0115505243670629 0 0.00065919518851641971 -0.011592626723403983 0 0.000609574835586981 -0.011632918057101491 0 0.00065208688110139743 -0.0115505243670629 0 0.00065919518851641971 -0.011592626723403983 0 0.00067904477721583006 -0.011513600114017112 0 0.00065919518851641971 -0.011592626723403983 0 0.00064958286380601424 -0.011665683838229598 0 0.000609574835586981 -0.011632918057101491 0 0.00064958286380601424 -0.011665683838229598 0 0.000609574835586981 -0.011632918057101491 0 0.00060778822399819201 -0.011771345685929828 0 0.00065919518851641971 -0.011592626723403983 0 0.00064958286380601424 -0.011665683838229598 0 0.00067812397656977176 -0.01162482014825379 0 0.0036356343147199398 -0.029645452356166915 0 0.0062849944015149701 -0.029935413759712721 0 0.0048724592390647133 -0.031586575346246475 0 0.0062849944015149701 -0.029935413759712721 0 0.0048724592390647133 -0.031586575346246475 0 0.006955472408993451 -0.033071473408166324 0 0.0031135396821596597 -0.020761615854842947 0 0.0015373625971658999 -0.024182387510295146 0 0.0023457271734563271 -0.032942199388595238 0 0.0015373625971658999 -0.024182387510295146 0 0.0042409986754426846 -0.032798050909992479 0 0.0048724592390647133 -0.031586575346246475 0 0.006955472408993451 -0.033071473408166324 0 0.0036380711834192829 -0.033811986422249807 0 0.0042409986754426846 -0.032798050909992479 0 0.006955472408993451 -0.033071473408166324 0 0.0012125663902017886 -0.03408602114720579 0 0.0021556387714042765 -0.033755514962372758 0 0.0021763780674428036 -0.033852905502574422 0 0.00064958286380601424 -0.011665683838229598 0 0.000656420343570664 -0.011730741340890543 0 0.00060778822399819201 -0.011771345685929828 0 0.00064958286380601424 -0.011665683838229598 0 0.000656420343570664 -0.011730741340890543 0 0.00067759667197125851 -0.011704131438754234 0 0.0017633243861187064 -0.019225861346086143 0 0.0012697772470303304 -0.024127554885566522 0 6.9011065653329897e-06 -0.01186555058621044 0 -0.00026520704157841351 -0.012011895721694079 0 4.8158767231376838e-06 -0.012172630683342614 0 0.0022019102850281049 -0.021482783086213278 0 0.00072169758393187658 -0.021799056671508658 0 0.00079129842431846628 -0.022113738158293657 0 0.0017633243861187064 -0.019225861346086143 0 0.0015373625971658999 -0.024182387510295146 0 0.0015373625971658999 -0.024182387510295146 0 0.0012697772470303304 -0.024127554885566522 0 0.0012697772470303304 -0.024127554885566522 0 -0.0002117228597453881 -0.022283244799237725 0 -0.00026520704157841351 -0.012011895721694079 0 4.8158767231376838e-06 -0.012172630683342614 0 -0.00018612405070762958 -0.012404210449522465 0 -0.00028848761555084595 -0.033393209113414625 0 -0.00061034556393321218 -0.032277694034903041 0 0.00039685797226090587 -0.032549041455882395 0 7.5954512509963042e-05 -0.012482882884813215 0 4.8158767231376838e-06 -0.012172630683342614 0 -0.00018612405070762958 -0.012404210449522465 0 0.0013571143991453903 -0.032631598792664911 0 -0.00028848761555084595 -0.033393209113414625 0 0.00039685797226090587 -0.032549041455882395 0 0.0012263544374171136 -0.034343612038594325 0 0.0012125663902017886 -0.03408602114720579 0 0.0021763780674428036 -0.033852905502574422 0 0.0004831515785681331 -0.033044887290597472 0 0.0012697772470303304 -0.024127554885566522 0 0.00045786798675375763 -0.031978531786835809 0 0.00092352608921428519 -0.032441096920745587 0 0.00039685797226090587 -0.032549041455882395 0 0.00043751051742270939 -0.01200831479798644 0 0.00068969294795232471 -0.012036220278729484 0 0.0004965415862919749 -0.012271900430354244 0 0.00076206336238543969 -0.012374135982326428 0 0.00068969294795232471 -0.012036220278729484 0 0.0004965415862919749 -0.012271900430354244 0 0.00043751051742270939 -0.01200831479798644 0 0.0004965415862919749 -0.012271900430354244 0 0.00024032664254006308 -0.012240308113411586 0 7.5954512509963042e-05 -0.012482882884813215 0 4.8158767231376838e-06 -0.012172630683342614 0 0.00024032664254006308 -0.012240308113411586 0 6.9011065653329897e-06 -0.01186555058621044 0 4.8158767231376838e-06 -0.012172630683342614 0 0.00017898002428653689 -0.012020675698423293 0 4.8158767231376838e-06 -0.012172630683342614 0 0.00024032664254006308 -0.012240308113411586 0 0.00017898002428653689 -0.012020675698423293 0 0.00043751051742270939 -0.01200831479798644 0 0.00024032664254006308 -0.012240308113411586 0 0.00017898002428653689 -0.012020675698423293 0 0.00043751051742270939 -0.01200831479798644 0 0.00017898002428653689 -0.012020675698423293 0 0.0002029162557086898 -0.011805620104780423 0 0.0017633243861187064 -0.019225861346086143 0 0.0012651066370713004 -0.015903880985666932 0 6.9011065653329897e-06 -0.01186555058621044 0 0.00017898002428653689 -0.012020675698423293 0 0.0002029162557086898 -0.011805620104780423 0 0.0012651066370713004 -0.015903880985666932 0 0.0009594006639195836 -0.013308857993142485 0 0.00043751051742270939 -0.01200831479798644 0 0.0002029162557086898 -0.011805620104780423 0 0.0006982381084912879 -0.011684994160306767 0 0.00043751051742270939 -0.01200831479798644 0 0.00068969294795232471 -0.012036220278729484 0 0.0006982381084912879 -0.011684994160306767 0 0.00067759667197125851 -0.011704131438754234 0 0.0006982381084912879 -0.011684994160306767 0 0.00070372303217848455 -0.011601305412050173 0 0.0006982381084912879 -0.011684994160306767 0 0.00070372303217848455 -0.011601305412050173 0 0.00076565850172118923 -0.011520071748181211 0 0.00070372303217848455 -0.011601305412050173 0 0.00076565850172118923 -0.011520071748181211 0 0.00070187767240929551 -0.01155015421920768 0 0.00065919518851641971 -0.011592626723403983 0 0.00067812397656977176 -0.01162482014825379 0 0.00070187767240929551 -0.01155015421920768 0 0.00067759667197125851 -0.011704131438754234 0 0.00070372303217848455 -0.011601305412050173 0 0.00067812397656977176 -0.01162482014825379 0 0.00064958286380601424 -0.011665683838229598 0 0.00067759667197125851 -0.011704131438754234 0 0.00067812397656977176 -0.01162482014825379 0 0.00070372303217848455 -0.011601305412050173 0 0.00067812397656977176 -0.01162482014825379 0 0.00070187767240929551 -0.01155015421920768 0 0.00065919518851641971 -0.011592626723403983 0 0.00070187767240929551 -0.01155015421920768 0 0.00067904477721583006 -0.011513600114017112 0 0.00070187767240929551 -0.01155015421920768 0 0.00067904477721583006 -0.011513600114017112 0 0.00074920932745982567 -0.011433831203425742 0 0.0008357697054599565 -0.011374674780265073 0 0.00076565850172118923 -0.011520071748181211 0 0.00074920932745982567 -0.011433831203425742 0 0.00076565850172118923 -0.011520071748181211 0 0.00070187767240929551 -0.01155015421920768 0 0.00074920932745982567 -0.011433831203425742 0 0.0008357697054599565 -0.011374674780265073 0 0.00074920932745982567 -0.011433831203425742 0 0.00081010609134042199 -0.011334543139774918 0 0.00074920932745982567 -0.011433831203425742 0 0.00075223695195935096 -0.011361676949076074 0 0.00081010609134042199 -0.011334543139774918 0 0.00074920932745982567 -0.011433831203425742 0 0.00069478023071102124 -0.011442582364320436 0 0.00075223695195935096 -0.011361676949076074 0 0.00067904477721583006 -0.011513600114017112 0 0.00074920932745982567 -0.011433831203425742 0 0.00069478023071102124 -0.011442582364320436 0 0.00067904477721583006 -0.011513600114017112 0 0.00069478023071102124 -0.011442582364320436 0 0.00065629422995669439 -0.011517345382180213 0 0.00070359517357991683 -0.01139535231102236 0 0.00074667818856820963 -0.011321870214887744 0 0.00069015811002228963 -0.011419613729564657 0 0.00069478023071102124 -0.011442582364320436 0 0.00070359517357991683 -0.01139535231102236 0 0.00075223695195935096 -0.011361676949076074 0 0.00070359517357991683 -0.01139535231102236 0 0.00075223695195935096 -0.011361676949076074 0 0.00074667818856820963 -0.011321870214887744 0 0.00075223695195935096 -0.011361676949076074 0 0.00080264413396366821 -0.011314898189312604 0 0.00081010609134042199 -0.011334543139774918 0 0.00075223695195935096 -0.011361676949076074 0 0.00080264413396366821 -0.011314898189312604 0 0.00074667818856820963 -0.011321870214887744 0 0.0013676109195836965 -0.011671542900682315 0 0.0017794804080082955 -0.011421033895806659 0 0.0017296114604570332 -0.012176982764227601 0 0.0012645207842209489 -0.011602162214437011 0 0.00093319705676455603 -0.011410682268514822 0 0.00080264413396366821 -0.011314898189312604 0 0.00074667818856820963 -0.011321870214887744 0 0.00084948958899677001 -0.011279597194393264 0 0.0013676109195836965 -0.011671542900682315 0 0.0017794804080082955 -0.011421033895806659 0 0.0010170179368351473 -0.01136813435127002 0 0.0017794804080082955 -0.011421033895806659 0 0.0010170179368351473 -0.01136813435127002 0 0.00084948958899677001 -0.011279597194393264 0 0.0013676109195836965 -0.011671542900682315 0 0.0017296114604570332 -0.012176982764227601 0 0.0007987919347345559 -0.011646778990044097 0 0.0012475168745119632 -0.014136600293769688 0 0.00091162958603484832 -0.012342867448640545 0 0.0012645207842209489 -0.011602162214437011 0 0.0017302984868143745 -0.012769347369765625 0 0.0017794804080082955 -0.011421033895806659 0 0.0024617987846573771 -0.01178174539569701 0 0.0027238730649453034 -0.011471438256581413 0 0.0017794804080082955 -0.011421033895806659 0 0.0024617987846573771 -0.01178174539569701 0 0.002323561630572968 -0.012094662158153304 0 0.0017794804080082955 -0.011421033895806659 0 0.002323561630572968 -0.012094662158153304 0 0.0017296114604570332 -0.012176982764227601 0 0.0012475168745119632 -0.014136600293769688 0 0.0028340383227801352 -0.018294831769459008 0 0.0013216556837098122 -0.015634709600731826 0 0.0015688846478107469 -0.015764023832082925 0 0.0013536689182264347 -0.015799712195277014 0 0.002323561630572968 -0.012094662158153304 0 0.0017296114604570332 -0.012176982764227601 0 0.0026151520620450596 -0.012656387347577293 0 0.0013216556837098122 -0.015634709600731826 0 0.001084081618772582 -0.015513405539609417 0 0.0011651262273063489 -0.015697819961785809 0 0.0013216556837098122 -0.015634709600731826 0 0.0012535510053864399 -0.015765182343956564 0 0.0013536689182264347 -0.015799712195277014 0 0.0013216556837098122 -0.015634709600731826 0 0.0012535510053864399 -0.015765182343956564 0 0.0011651262273063489 -0.015697819961785809 0 0.0012535510053864399 -0.015765182343956564 0 0.0011651262273063489 -0.015697819961785809 0 0.0011670385285093214 -0.015797042845893082 0 0.0051686072854964238 -0.023482920597040498 0 0.0060848209300538129 -0.02394670203375231 0 0.0055002583000755478 -0.024227961188637435 0 0.0051686072854964238 -0.023482920597040498 0 0.0055002583000755478 -0.024227961188637435 0 0.0049483622014110029 -0.024290723201706419 0 0.0051686072854964238 -0.023482920597040498 0 0.0060848209300538129 -0.02394670203375231 0 0.0060966619852678627 -0.02298707395879393 0 0.0060848209300538129 -0.02394670203375231 0 0.0060966619852678627 -0.02298707395879393 0 0.0067406932341756119 -0.023462200634839041 0 0.0060848209300538129 -0.02394670203375231 0 0.0059478207866782732 -0.024657930615930093 0 0.0070446279182874725 -0.024854598312431309 0 0.0060848209300538129 -0.02394670203375231 0 0.0059478207866782732 -0.024657930615930093 0 0.0055002583000755478 -0.024227961188637435 0 0.0059478207866782732 -0.024657930615930093 0 0.0055002583000755478 -0.024227961188637435 0 0.0053740473805166692 -0.024849557531739962 0 0.0055002583000755478 -0.024227961188637435 0 0.0050034227841794674 -0.024558738374922465 0 0.0049483622014110029 -0.024290723201706419 0 0.0053740473805166692 -0.024849557531739962 0 0.0050034227841794674 -0.024558738374922465 0 0.0048968271887410977 -0.024915496914775941 0 0.0055002583000755478 -0.024227961188637435 0 0.0053740473805166692 -0.024849557531739962 0 0.0050034227841794674 -0.024558738374922465 0 0.0045504693495036818 -0.017934053621691981 0 0.00406589773693868 -0.020597666501477565 0 0.0051686072854964238 -0.023482920597040498 0 0.0049483622014110029 -0.024290723201706419 0 0.0041170675123560598 -0.024892696325829532 0 0.0050034227841794674 -0.024558738374922465 0 0.0049483622014110029 -0.024290723201706419 0 0.0041170675123560598 -0.024892696325829532 0 0.0050034227841794674 -0.024558738374922465 0 0.0041170675123560598 -0.024892696325829532 0 0.0048968271887410977 -0.024915496914775941 0 0.0028340383227801352 -0.018294831769459008 0 0.0040615550602959077 -0.015017753030809402 0 0.0026151520620450596 -0.012656387347577293 0 0.0026204350519932395 -0.012279996484159545 0 0.0029051947909773447 -0.012278493987641675 0 0.0026000096477938662 -0.012735736130011515 0 0.0029051947909773447 -0.012278493987641675 0 0.0027050032824646776 -0.012782289308438007 0 0.0028340383227801352 -0.018294831769459008 0 0.00406589773693868 -0.020597666501477565 0 0.002323561630572968 -0.012094662158153304 0 0.0026151520620450596 -0.012656387347577293 0 0.0026204350519932395 -0.012279996484159545 0 0.002636938442794189 -0.012089579020558974 0 0.0029051947909773447 -0.012278493987641675 0 0.0028316769835320553 -0.011909620267957517 0 0.0026204350519932395 -0.012279996484159545 0 0.002636938442794189 -0.012089579020558974 0 0.0029051947909773447 -0.012278493987641675 0 0.002323561630572968 -0.012094662158153304 0 0.0026204350519932395 -0.012279996484159545 0 0.002636938442794189 -0.012089579020558974 0 0.003182497653626039 -0.01206290529767896 0 0.0029051947909773447 -0.012278493987641675 0 0.0027050032824646776 -0.012782289308438007 0 0.003182497653626039 -0.01206290529767896 0 0.0029051947909773447 -0.012278493987641675 0 0.0028316769835320553 -0.011909620267957517 0 0.003182497653626039 -0.01206290529767896 0 0.0028316769835320553 -0.011909620267957517 0 0.0030083756522531419 -0.011793887801847812 0 0.0028316769835320553 -0.011909620267957517 0 0.0030083756522531419 -0.011793887801847812 0 0.0027238730649453034 -0.011471438256581413 0 0.003182497653626039 -0.01206290529767896 0 0.0030083756522531419 -0.011793887801847812 0 0.0031770500161589976 -0.011670014678019478 0 0.0024617987846573771 -0.01178174539569701 0 0.0028316769835320553 -0.011909620267957517 0 0.0027238730649453034 -0.011471438256581413 0 0.0024617987846573771 -0.01178174539569701 0 0.002636938442794189 -0.012089579020558974 0 0.0028316769835320553 -0.011909620267957517 0 0.0024617987846573771 -0.01178174539569701 0 0.002323561630572968 -0.012094662158153304 0 0.002636938442794189 -0.012089579020558974 0 0.0030083756522531419 -0.011793887801847812 0 0.0027238730649453034 -0.011471438256581413 0 0.0031770500161589976 -0.011670014678019478 0 0.0017302984868143745 -0.012769347369765625 0 0.0031122898382088251 -0.019481526793843719 0 0.0027238730649453034 -0.011471438256581413 0 0.0031770500161589976 -0.011670014678019478 0 0.0036176861501686832 -0.011493101909194595 0 0.003182497653626039 -0.01206290529767896 0 0.0031770500161589976 -0.011670014678019478 0 0.0036176861501686832 -0.011493101909194595 0 0.0045504693495036818 -0.017934053621691981 0 0.0031122898382088251 -0.019481526793843719 0 0.0060966619852678627 -0.02298707395879393 0 0.0064231537254966576 -0.022065290403646264 0 0.0067406932341756119 -0.023462200634839041 0 0.0051686072854964238 -0.023482920597040498 0 0.0060966619852678627 -0.02298707395879393 0 0.006195909253113821 -0.022075394373035025 0 0.0060966619852678627 -0.02298707395879393 0 0.006195909253113821 -0.022075394373035025 0 0.0064231537254966576 -0.022065290403646264 0 0.0031122898382088251 -0.019481526793843719 0 0.0029192689789626948 -0.021209933164836634 0 0.0016365259940420611 -0.020097280310352246 0 0.0016486146198067628 -0.02009756444377089 0 0.0016451399352027558 -0.020085101275857234 0 0.0026753030155453701 -0.020584222679954831 0 0.0029384343627673905 -0.018913312579983067 0 0.00077124250603777874 -0.011496382094701177 0 0.00078075351869376787 -0.011489771286261547 0 0.00069886232451810051 -0.011414361691879921 0 0.0026753030155453701 -0.020584222679954831 0 -0.00019281789636296375 -0.012901251386464124 0 0.00071497882724811507 -0.011645684079834635 0 0.0006511857557582897 -0.011563785693057813 0 0.00065911471546706041 -0.011554215807051987 0 0.0029192689789626948 -0.021209933164836634 0 0.0026753030155453701 -0.020584222679954831 0 0.0031122898382088251 -0.019481526793843719 0 0.0026753030155453701 -0.020584222679954831 0 0.00044554025225794643 -0.012093597623894869 0 -0.00019281789636296375 -0.012901251386464124 0 0.00070359517357991683 -0.01139535231102236 0 0.00069015811002228963 -0.011419613729564657 0 0.00069886232451810051 -0.011414361691879921 0 0.00069478023071102124 -0.011442582364320436 0 0.00070359517357991683 -0.01139535231102236 0 0.00069886232451810051 -0.011414361691879921 0 0.00069015811002228963 -0.011419613729564657 0 0.00077124250603777874 -0.011496382094701177 0 0.00069886232451810051 -0.011414361691879921 0 0.00069478023071102124 -0.011442582364320436 0 0.0006511857557582897 -0.011563785693057813 0 0.00065629422995669439 -0.011517345382180213 0 0.00065208688110139743 -0.0115505243670629 0 0.00065629422995669439 -0.011517345382180213 0 0.00065911471546706041 -0.011554215807051987 0 0.0006511857557582897 -0.011563785693057813 0 0.00065629422995669439 -0.011517345382180213 0 0.00065911471546706041 -0.011554215807051987 0 0.00065208688110139743 -0.0115505243670629 0 0.00067904477721583006 -0.011513600114017112 0 0.00065629422995669439 -0.011517345382180213 0 0.0049014233596736331 -0.023548466561998362 0 0.0056063328069926891 -0.026758129941716821 0 0.0029127178569236774 -0.026277277314020717 0 0.001299387127121893 -0.030575443885546782 0 0.0011716320355637539 -0.030631055283966709 0 0.0010269032268482962 -0.030760756942894756 0 0.0012630091994281225 -0.030642936176540625 0 0.0011887973943611047 -0.030573088061291775 0 0.0012630091994281225 -0.030642936176540625 0 0.0011887973943611047 -0.030573088061291775 0 0.0012589100462355848 -0.030528848901685311 0 0.0011887973943611047 -0.030573088061291775 0 0.0011837633652114416 -0.030569014674488155 0 0.0011913214432753207 -0.03057506593639412 0 0.0011887973943611047 -0.030573088061291775 0 0.0011837633652114416 -0.030569014674488155 0 0.0012014241918556167 -0.030545707098778373 0 0.0011837633652114416 -0.030569014674488155 0 0.0012014241918556167 -0.030545707098778373 0 0.0011704033838945036 -0.030576435160400296 0 0.0012014241918556167 -0.030545707098778373 0 0.0012589100462355848 -0.030528848901685311 0 0.001257813376752309 -0.030496186032582664 0 0.0011887973943611047 -0.030573088061291775 0 0.0012014241918556167 -0.030545707098778373 0 0.0012589100462355848 -0.030528848901685311 0 0.0013540548366053758 -0.030470593508285106 0 0.0012630091994281225 -0.030642936176540625 0 0.0012589100462355848 -0.030528848901685311 0 0.0026753030155453701 -0.020584222679954831 0 0.0013954594184020942 -0.028626604069980906 0 0.0012589100462355848 -0.030528848901685311 0 0.0013196414710618071 -0.030464711248391542 0 0.001257813376752309 -0.030496186032582664 0 0.0013540548366053758 -0.030470593508285106 0 0.0012589100462355848 -0.030528848901685311 0 0.0013196414710618071 -0.030464711248391542 0 0.0026753030155453701 -0.020584222679954831 0 0.002608195611491337 -0.022912487682205773 0 0.0012493254061918949 -0.030583385218145364 0 0.0012205123021062389 -0.030549941361891431 0 0.0012493837878359321 -0.030528605272521939 0 0.0012493254061918949 -0.030583385218145364 0 0.0012205123021062389 -0.030549941361891431 0 0.001216098499949296 -0.03058344010268409 0 0.0011972707747107821 -0.030545412299426502 0 0.0011887973943611047 -0.030573088061291775 0 0.0011984302973684522 -0.030565603619175302 0 0.0012205123021062389 -0.030549941361891431 0 0.0011984302973684522 -0.030565603619175302 0 0.001216098499949296 -0.03058344010268409 0 0.0011972707747107821 -0.030545412299426502 0 0.0012205123021062389 -0.030549941361891431 0 0.0011984302973684522 -0.030565603619175302 0 0.0011887973943611047 -0.030573088061291775 0 0.0011984302973684522 -0.030565603619175302 0 0.0011913214432753207 -0.03057506593639412 0 0.0011837633652114416 -0.030569014674488155 0 0.0011960189093619406 -0.030590756920240977 0 0.0011704033838945036 -0.030576435160400296 0 0.0011837633652114416 -0.030569014674488155 0 0.0011913214432753207 -0.03057506593639412 0 0.0011960189093619406 -0.030590756920240977 0 0.0011960189093619406 -0.030590756920240977 0 0.0012302772323144094 -0.030606855978312277 0 0.0012222767621141762 -0.03062447279695751 0 0.0011960189093619406 -0.030590756920240977 0 0.001216098499949296 -0.03058344010268409 0 0.0012302772323144094 -0.030606855978312277 0 0.0011913214432753207 -0.03057506593639412 0 0.0011960189093619406 -0.030590756920240977 0 0.001216098499949296 -0.03058344010268409 0 0.0011984302973684522 -0.030565603619175302 0 0.0011913214432753207 -0.03057506593639412 0 0.001216098499949296 -0.03058344010268409 0 0.001216098499949296 -0.03058344010268409 0 0.0012302772323144094 -0.030606855978312277 0 0.0012566844075577658 -0.030609712873243579 0 0.0012302772323144094 -0.030606855978312277 0 0.0012566844075577658 -0.030609712873243579 0 0.0012631081273080933 -0.030640350133781059 0 0.0012566844075577658 -0.030609712873243579 0 0.0012631081273080933 -0.030640350133781059 0 0.0013029743124752815 -0.030634997606405586 0 0.0012493254061918949 -0.030583385218145364 0 0.0012566844075577658 -0.030609712873243579 0 0.0012760175854735342 -0.03061096923661873 0 0.0012493254061918949 -0.030583385218145364 0 0.001216098499949296 -0.03058344010268409 0 0.0012566844075577658 -0.030609712873243579 0 0.0012631081273080933 -0.030640350133781059 0 0.0012381989240570471 -0.030673889904941128 0 0.0012817439623815314 -0.030694922550192107 0 0.0012302772323144094 -0.030606855978312277 0 0.0012631081273080933 -0.030640350133781059 0 0.0012222767621141762 -0.03062447279695751 0 0.0012222767621141762 -0.03062447279695751 0 0.0012381989240570471 -0.030673889904941128 0 0.0011979970965389089 -0.030625223304818237 0 0.0012631081273080933 -0.030640350133781059 0 0.0012222767621141762 -0.03062447279695751 0 0.0012381989240570471 -0.030673889904941128 0 0.0012861999179936293 -0.030421520689633653 0 0.0014806628504873346 -0.028898570136297125 0 0.0011979970965389089 -0.030625223304818237 0 0.0012046633213749524 -0.030698302000764538 0 0.0011312149582905944 -0.03061909319086998 0 0.0012381989240570471 -0.030673889904941128 0 0.0011979970965389089 -0.030625223304818237 0 0.0012046633213749524 -0.030698302000764538 0 0.0011960189093619406 -0.030590756920240977 0 0.0012222767621141762 -0.03062447279695751 0 0.0011979970965389089 -0.030625223304818237 0 0.0011979970965389089 -0.030625223304818237 0 0.0011704033838945036 -0.030576435160400296 0 0.0011312149582905944 -0.03061909319086998 0 0.0011960189093619406 -0.030590756920240977 0 0.0011979970965389089 -0.030625223304818237 0 0.0011704033838945036 -0.030576435160400296 0 0.00091930370462449558 -0.030812078545334205 0 0.0010344937899401635 -0.030791608993998566 0 0.00085621163212100631 -0.030701394486486372 0 0.00091930370462449558 -0.030812078545334205 0 0.00098325978171265316 -0.030906643640650464 0 0.00084382070174287085 -0.030898851377209068 0 0.00091930370462449558 -0.030812078545334205 0 0.00098325978171265316 -0.030906643640650464 0 0.0010344937899401635 -0.030791608993998566 0 0.0012381989240570471 -0.030673889904941128 0 0.0012817439623815314 -0.030694922550192107 0 0.0012675326690147848 -0.030792684815732472 0 0.00098325978171265316 -0.030906643640650464 0 0.0010344937899401635 -0.030791608993998566 0 0.0012124554346623882 -0.030870605090774893 0 0.0012861999179936293 -0.030421520689633653 0 0.0012890714460528198 -0.030765878157187062 0 0.0012381989240570471 -0.030673889904941128 0 0.0012046633213749524 -0.030698302000764538 0 0.0012675326690147848 -0.030792684815732472 0 0.002608195611491337 -0.022912487682205773 0 0.0014806628504873346 -0.028898570136297125 0 0.0022241547859692071 -0.025558455819404885 0 0.0032912210394063818 -0.026061093215965114 0 0.0021775970633562763 -0.026289704881404578 0 0.0012956390579341739 -0.030466577012444106 0 0.001257813376752309 -0.030496186032582664 0 0.0011960351783757458 -0.030509971181310859 0 0.0029192689789626948 -0.021209933164836634 0 0.0034942400713391087 -0.02503341432656972 0 0.0020195101514001498 -0.025564227625342925 0 0.0022241547859692071 -0.025558455819404885 0 0.0021775970633562763 -0.026289704881404578 0 0.0029192689789626948 -0.021209933164836634 0 0.002608195611491337 -0.022912487682205773 0 0.0029409565095130396 -0.02215082960815053 0 0.0029977499607681426 -0.022396810935986441 0 0.0024995888013149567 -0.022172599686684728 0 0.002608195611491337 -0.022912487682205773 0 0.0018036842294339788 -0.024261013397575585 0 0.0012014241918556167 -0.030545707098778373 0 0.001257813376752309 -0.030496186032582664 0 0.0011960351783757458 -0.030509971181310859 0 0.0012014241918556167 -0.030545707098778373 0 0.0011704033838945036 -0.030576435160400296 0 0.0011960351783757458 -0.030509971181310859 0 0.0010531500274114441 -0.029592968796148953 0 0.0014806628504873346 -0.028898570136297125 0 0.00091930370462449558 -0.030812078545334205 0 0.00085621163212100631 -0.030701394486486372 0 0.00084382070174287085 -0.030898851377209068 0 0.0014806628504873346 -0.028898570136297125 0 0.0024856483828093836 -0.028113861881167306 0 0.00085621163212100631 -0.030701394486486372 0 0.00084382070174287085 -0.030898851377209068 0 0.00065859564891839568 -0.030898784447961593 0 0.0032912210394063818 -0.026061093215965114 0 0.0021775970633562763 -0.026289704881404578 0 0.002335605477361329 -0.027008657447353333 0 0.0034942400713391087 -0.02503341432656972 0 0.0024856483828093836 -0.028113861881167306 0 0.0060848209300538129 -0.02394670203375231 0 0.0067406932341756119 -0.023462200634839041 0 0.0070446279182874725 -0.024854598312431309 0 0.00065859564891839568 -0.030898784447961593 0 0.00077338190073816349 -0.030999055842757695 0 0.00070947142611306111 -0.03112280597189351 0 0.00068686612160579342 -0.030932413271857893 0 0.00063671430039253596 -0.031093473440725272 0 0.00070947142611306111 -0.03112280597189351 0 0.0024856483828093836 -0.028113861881167306 0 0.0016351806938287819 -0.031118580819087395 0 0.00084382070174287085 -0.030898851377209068 0 0.00065859564891839568 -0.030898784447961593 0 0.00077338190073816349 -0.030999055842757695 0 0.00087494843989313652 -0.031072029290674957 0 0.00077338190073816349 -0.030999055842757695 0 0.00070947142611306111 -0.03112280597189351 0 0.00098325978171265316 -0.030906643640650464 0 0.00084382070174287085 -0.030898851377209068 0 0.00087494843989313652 -0.031072029290674957 0 0.00084382070174287085 -0.030898851377209068 0 0.00087494843989313652 -0.031072029290674957 0 0.00077338190073816349 -0.030999055842757695 0 0.00087494843989313652 -0.031072029290674957 0 0.00089094462370786244 -0.03124672052242717 0 0.00074658395654240918 -0.031240273423489024 0 0.00087494843989313652 -0.031072029290674957 0 0.00070947142611306111 -0.03112280597189351 0 0.00074658395654240918 -0.031240273423489024 0 0.00070947142611306111 -0.03112280597189351 0 0.00074658395654240918 -0.031240273423489024 0 0.00062169963913906781 -0.031203802852374833 0 0.00063671430039253596 -0.031093473440725272 0 0.00070947142611306111 -0.03112280597189351 0 0.00062169963913906781 -0.031203802852374833 0 0.00098325978171265316 -0.030906643640650464 0 0.0010396577041748018 -0.031020844753370545 0 0.0012124554346623882 -0.030870605090774893 0 0.0010396577041748018 -0.031020844753370545 0 0.0011444187694306487 -0.031083307162062652 0 0.0012124554346623882 -0.030870605090774893 0 0.0011444187694306487 -0.031083307162062652 0 0.0012124554346623882 -0.030870605090774893 0 0.0012576059916083598 -0.031045587136045216 0 0.00098325978171265316 -0.030906643640650464 0 0.00087494843989313652 -0.031072029290674957 0 0.0010396577041748018 -0.031020844753370545 0 0.00087494843989313652 -0.031072029290674957 0 0.0010396577041748018 -0.031020844753370545 0 0.0010077981348218534 -0.031164667451511186 0 0.00087494843989313652 -0.031072029290674957 0 0.0010077981348218534 -0.031164667451511186 0 0.00089094462370786244 -0.03124672052242717 0 0.0010396577041748018 -0.031020844753370545 0 0.0010077981348218534 -0.031164667451511186 0 0.0011444187694306487 -0.031083307162062652 0 0.0010077981348218534 -0.031164667451511186 0 0.0011373384006380964 -0.031224991111675125 0 0.0011444187694306487 -0.031083307162062652 0 0.0011373384006380964 -0.031224991111675125 0 0.0011444187694306487 -0.031083307162062652 0 0.0012311949134001996 -0.031160965923832568 0 0.0011342400222673953 -0.031347527586869504 0 0.0010129838919173649 -0.031370452557992777 0 0.00118599500467438 -0.031458554482453688 0 0.0010077981348218534 -0.031164667451511186 0 0.0011373384006380964 -0.031224991111675125 0 0.0010129838919173649 -0.031370452557992777 0 0.0011342400222673953 -0.031347527586869504 0 0.00118599500467438 -0.031458554482453688 0 0.0012674862952318016 -0.031306260884892551 0 0.0011373384006380964 -0.031224991111675125 0 0.0011342400222673953 -0.031347527586869504 0 0.0012674862952318016 -0.031306260884892551 0 0.0011373384006380964 -0.031224991111675125 0 0.0011342400222673953 -0.031347527586869504 0 0.0010129838919173649 -0.031370452557992777 0 0.00089094462370786244 -0.03124672052242717 0 0.0010129838919173649 -0.031370452557992777 0 0.00082109104015750539 -0.03136694222908161 0 0.0010077981348218534 -0.031164667451511186 0 0.00089094462370786244 -0.03124672052242717 0 0.0010129838919173649 -0.031370452557992777 0 0.00091468777170385768 -0.031449554838017521 0 0.0010815155374800127 -0.0315327608558197 0 0.00095507138715834731 -0.031568883812762766 0 0.0010129838919173649 -0.031370452557992777 0 0.00091468777170385768 -0.031449554838017521 0 0.00082109104015750539 -0.03136694222908161 0 0.0010129838919173649 -0.031370452557992777 0 0.00091468777170385768 -0.031449554838017521 0 0.0010815155374800127 -0.0315327608558197 0 0.00091468777170385768 -0.031449554838017521 0 0.00079520219209069357 -0.031479975380033179 0 0.00095507138715834731 -0.031568883812762766 0 0.0010129838919173649 -0.031370452557992777 0 0.0010815155374800127 -0.0315327608558197 0 0.00118599500467438 -0.031458554482453688 0 0.0010815155374800127 -0.0315327608558197 0 0.00118599500467438 -0.031458554482453688 0 0.001299529839642947 -0.031561834887619253 0 0.00063577172641920868 -0.031312475338378547 0 0.00074658395654240918 -0.031240273423489024 0 0.00062169963913906781 -0.031203802852374833 0 0.00070135000728815814 -0.031346756519442645 0 0.00063577172641920868 -0.031312475338378547 0 0.00062161364269136771 -0.031398597243850614 0 0.00070135000728815814 -0.031346756519442645 0 0.00063577172641920868 -0.031312475338378547 0 0.00074658395654240918 -0.031240273423489024 0 0.00089094462370786244 -0.03124672052242717 0 0.00074658395654240918 -0.031240273423489024 0 0.00082109104015750539 -0.03136694222908161 0 0.00070135000728815814 -0.031346756519442645 0 0.00074658395654240918 -0.031240273423489024 0 0.00082109104015750539 -0.03136694222908161 0 0.00070135000728815814 -0.031346756519442645 0 0.00082109104015750539 -0.03136694222908161 0 0.00070017438285283496 -0.031453957719142979 0 0.00082109104015750539 -0.03136694222908161 0 0.00079520219209069357 -0.031479975380033179 0 0.00070017438285283496 -0.031453957719142979 0 0.00091468777170385768 -0.031449554838017521 0 0.00082109104015750539 -0.03136694222908161 0 0.00079520219209069357 -0.031479975380033179 0 0.00079520219209069357 -0.031479975380033179 0 0.00070017438285283496 -0.031453957719142979 0 0.0007299277118565017 -0.031522017856432855 0 0.00070135000728815814 -0.031346756519442645 0 0.00070017438285283496 -0.031453957719142979 0 0.00062161364269136771 -0.031398597243850614 0 0.00070017438285283496 -0.031453957719142979 0 0.00060665435087488805 -0.031491097298591647 0 0.00066846495413759035 -0.031537942667026309 0 0.00070017438285283496 -0.031453957719142979 0 0.00062161364269136771 -0.031398597243850614 0 0.00060665435087488805 -0.031491097298591647 0 0.00060665435087488805 -0.031491097298591647 0 0.00053239485713481912 -0.031447166478111424 0 0.00052844998684571079 -0.031538723186846702 0 0.00053239485713481912 -0.031447166478111424 0 0.00047901653780950079 -0.031518521270537003 0 0.00052844998684571079 -0.031538723186846702 0 0.00062161364269136771 -0.031398597243850614 0 0.00060665435087488805 -0.031491097298591647 0 0.00053239485713481912 -0.031447166478111424 0 0.00062161364269136771 -0.031398597243850614 0 0.00053239485713481912 -0.031447166478111424 0 0.00056346930278052877 -0.031328970128180221 0 0.00063577172641920868 -0.031312475338378547 0 0.00062161364269136771 -0.031398597243850614 0 0.00056346930278052877 -0.031328970128180221 0 0.00056346930278052877 -0.031328970128180221 0 0.0005214338750092471 -0.031266316853773013 0 0.00049549664005176029 -0.031369621860253452 0 0.00053239485713481912 -0.031447166478111424 0 0.00056346930278052877 -0.031328970128180221 0 0.00049549664005176029 -0.031369621860253452 0 0.00056346930278052877 -0.031328970128180221 0 0.0005214338750092471 -0.031266316853773013 0 0.00062169963913906781 -0.031203802852374833 0 0.00063577172641920868 -0.031312475338378547 0 0.00056346930278052877 -0.031328970128180221 0 0.00062169963913906781 -0.031203802852374833 0 0.0005214338750092471 -0.031266316853773013 0 0.0004028933081674116 -0.031300884034737422 0 0.00049549664005176029 -0.031369621860253452 0 0.0004028933081674116 -0.031300884034737422 0 0.00049549664005176029 -0.031369621860253452 0 0.00044415521938140579 -0.031434430619783855 0 0.00053239485713481912 -0.031447166478111424 0 0.00049549664005176029 -0.031369621860253452 0 0.00044415521938140579 -0.031434430619783855 0 0.00053239485713481912 -0.031447166478111424 0 0.00044415521938140579 -0.031434430619783855 0 0.00047901653780950079 -0.031518521270537003 0 0.00044415521938140579 -0.031434430619783855 0 0.00043092224864035839 -0.031537192698954171 0 0.00047901653780950079 -0.031518521270537003 0 0.0004028933081674116 -0.031300884034737422 0 0.00044415521938140579 -0.031434430619783855 0 0.00037077289160014057 -0.031495086238639065 0 0.00066692699645428831 -0.031351014557894914 0 0.00052897751628807569 -0.031579215578012299 0 0.00049462605873893545 -0.031534133361000236 0 0.00044415521938140579 -0.031434430619783855 0 0.00037077289160014057 -0.031495086238639065 0 0.00043092224864035839 -0.031537192698954171 0 0.00052897751628807569 -0.031579215578012299 0 0.00049462605873893545 -0.031534133361000236 0 0.00045428322956428689 -0.031639854781063237 0 0.0027999758071086439 -0.029139714148080097 0 0.0019170778084708676 -0.029511520973130225 0 0.0016438636325275873 -0.030407506811070531 0 0.0016421596301145348 -0.030323332931571731 0 0.0010426695075069019 -0.031001348747311142 0 0.0027999758071086439 -0.029139714148080097 0 0.0019170778084708676 -0.029511520973130225 0 0.0022672109524205027 -0.028633022355984424 0 0.0019170778084708676 -0.029511520973130225 0 0.0015550455940015035 -0.028628879755166033 0 0.0022672109524205027 -0.028633022355984424 0 0.0013868829030064948 -0.022437853322399989 0 0.0019305064211091328 -0.021458298823222425 0 0.0015550455940015035 -0.028628879755166033 0 0.0025171669375939395 -0.027926798596146312 0 0.0028275912095590047 -0.02673366888570226 0 0.0011663069896842185 -0.016251753717462968 0 0.0013599255172992417 -0.016020100988460816 0 0.0011820009203354985 -0.016067044344777199 0 0.0015550455940015035 -0.028628879755166033 0 0.0022672109524205027 -0.028633022355984424 0 0.0025171669375939395 -0.027926798596146312 0 0.0027999758071086439 -0.029139714148080097 0 0.0022672109524205027 -0.028633022355984424 0 0.0025171669375939395 -0.027926798596146312 0 0.0039979397501869315 -0.027843870280571479 0 0.0027999758071086439 -0.029139714148080097 0 0.0025171669375939395 -0.027926798596146312 0 0.0039979397501869315 -0.027843870280571479 0 0.0025171669375939395 -0.027926798596146312 0 0.003028396474270138 -0.027384974306441528 0 0.0022426581242869989 -0.029550079931375609 0 0.00047744773294115095 -0.031744343333608559 0 0.0022426581242869989 -0.029550079931375609 0 0.0016421596301145348 -0.030323332931571731 0 0.0039979397501869315 -0.027843870280571479 0 0.0034233943452551437 -0.027020775957926464 0 0.0040518326641834782 -0.026708520814319087 0 0.0039979397501869315 -0.027843870280571479 0 0.0034233943452551437 -0.027020775957926464 0 0.003028396474270138 -0.027384974306441528 0 0.0034233943452551437 -0.027020775957926464 0 0.003028396474270138 -0.027384974306441528 0 0.0028275912095590047 -0.02673366888570226 0 0.0025171669375939395 -0.027926798596146312 0 0.003028396474270138 -0.027384974306441528 0 0.0028275912095590047 -0.02673366888570226 0 0.0034233943452551437 -0.027020775957926464 0 0.0028275912095590047 -0.02673366888570226 0 0.003333774138963584 -0.026409453176666233 0 0.0034233943452551437 -0.027020775957926464 0 0.003333774138963584 -0.026409453176666233 0 0.0040518326641834782 -0.026708520814319087 0 0.003333774138963584 -0.026409453176666233 0 0.0039217677043148829 -0.026294829587137452 0 0.0040518326641834782 -0.026708520814319087 0 0.0013599255172992417 -0.016020100988460816 0 0.0011820009203354985 -0.016067044344777199 0 0.0012664007794032151 -0.01596446763096801 0 0.0013599255172992417 -0.016020100988460816 0 0.0012664007794032151 -0.01596446763096801 0 0.0013565497128956306 -0.01589629677579165 0 0.0011820009203354985 -0.016067044344777199 0 0.0012664007794032151 -0.01596446763096801 0 0.0011789612288086056 -0.015958746529701306 0 0.0012491492664880742 -0.015884633934982198 0 0.001123561973542206 -0.015883390576442131 0 0.0011670385285093214 -0.015797042845893082 0 0.0011789612288086056 -0.015958746529701306 0 0.0012491492664880742 -0.015884633934982198 0 0.001123561973542206 -0.015883390576442131 0 0.0012664007794032151 -0.01596446763096801 0 0.0011789612288086056 -0.015958746529701306 0 0.0012491492664880742 -0.015884633934982198 0 0.0012664007794032151 -0.01596446763096801 0 0.0012491492664880742 -0.015884633934982198 0 0.0013565497128956306 -0.01589629677579165 0 0.0012491492664880742 -0.015884633934982198 0 0.0013565497128956306 -0.01589629677579165 0 0.0013536689182264347 -0.015799712195277014 0 0.0012491492664880742 -0.015884633934982198 0 0.0012535510053864399 -0.015765182343956564 0 0.0013536689182264347 -0.015799712195277014 0 0.0012491492664880742 -0.015884633934982198 0 0.0012535510053864399 -0.015765182343956564 0 0.0011670385285093214 -0.015797042845893082 0 0.0015688846478107469 -0.015764023832082925 0 0.0013565497128956306 -0.01589629677579165 0 0.0013536689182264347 -0.015799712195277014 0 0.0028340383227801352 -0.018294831769459008 0 0.0019305064211091328 -0.021458298823222425 0 0.0015688846478107469 -0.015764023832082925 0 0.0013599255172992417 -0.016020100988460816 0 0.0013565497128956306 -0.01589629677579165 0 0.003333774138963584 -0.026409453176666233 0 0.0043221204376661711 -0.02505157420107524 0 0.0040580569746875269 -0.025908753339171663 0 0.0043056878277799348 -0.024567335171281818 0 0.0028275912095590047 -0.02673366888570226 0 0.003333774138963584 -0.026409453176666233 0 0.002552501735991902 -0.025966134945072255 0 0.00406589773693868 -0.020597666501477565 0 0.003333774138963584 -0.026409453176666233 0 0.0039217677043148829 -0.026294829587137452 0 0.0040580569746875269 -0.025908753339171663 0 0.0043221204376661711 -0.02505157420107524 0 0.0044290058286733016 -0.025554901214262554 0 0.0040580569746875269 -0.025908753339171663 0 0.0043056878277799348 -0.024567335171281818 0 0.003333774138963584 -0.026409453176666233 0 0.004513208817826261 -0.024661939721847111 0 0.0043221204376661711 -0.02505157420107524 0 0.0044290058286733016 -0.025554901214262554 0 0.0046371044776160903 -0.025371194122653214 0 0.0042430667074258395 -0.026155442165252975 0 0.0049125565795776682 -0.025706109325022524 0 0.0040518326641834782 -0.026708520814319087 0 0.0044290058286733016 -0.025554901214262554 0 0.0040580569746875269 -0.025908753339171663 0 0.0044394449226365937 -0.025857600436717278 0 0.0040580569746875269 -0.025908753339171663 0 0.0044394449226365937 -0.025857600436717278 0 0.0042430667074258395 -0.026155442165252975 0 0.0039217677043148829 -0.026294829587137452 0 0.0040580569746875269 -0.025908753339171663 0 0.0042430667074258395 -0.026155442165252975 0 0.0044394449226365937 -0.025857600436717278 0 0.0042430667074258395 -0.026155442165252975 0 0.0049125565795776682 -0.025706109325022524 0 0.0044394449226365937 -0.025857600436717278 0 0.0046171328673729351 -0.025674740951418615 0 0.0049125565795776682 -0.025706109325022524 0 0.0044290058286733016 -0.025554901214262554 0 0.0044394449226365937 -0.025857600436717278 0 0.0046171328673729351 -0.025674740951418615 0 0.0046171328673729351 -0.025674740951418615 0 0.0049125565795776682 -0.025706109325022524 0 0.0047147873343648776 -0.025512941485224424 0 0.0041170675123560598 -0.024892696325829532 0 0.0048968271887410977 -0.024915496914775941 0 0.0050899726592862704 -0.02536056109385007 0 0.0043221204376661711 -0.02505157420107524 0 0.0046371044776160903 -0.025371194122653214 0 0.0050899726592862704 -0.02536056109385007 0 0.0047147873343648776 -0.025512941485224424 0 0.0046371044776160903 -0.025371194122653214 0 0.0050899726592862704 -0.02536056109385007 0 0.0049125565795776682 -0.025706109325022524 0 0.0047147873343648776 -0.025512941485224424 0 0.0050899726592862704 -0.02536056109385007 0 0.00406589773693868 -0.020597666501477565 0 0.0052721917710835042 -0.022275496209498626 0 0.0044290058286733016 -0.025554901214262554 0 0.0047147873343648776 -0.025512941485224424 0 0.0046371044776160903 -0.025371194122653214 0 0.0044290058286733016 -0.025554901214262554 0 0.0046171328673729351 -0.025674740951418615 0 0.0047147873343648776 -0.025512941485224424 0 0.0070446279182874725 -0.024854598312431309 0 0.0057862436896179651 -0.025400327394163071 0 0.0053804041882879973 -0.026566307926610543 0 0.0053740473805166692 -0.024849557531739962 0 0.0048968271887410977 -0.024915496914775941 0 0.0050899726592862704 -0.02536056109385007 0 0.0059478207866782732 -0.024657930615930093 0 0.0053740473805166692 -0.024849557531739962 0 0.0057862436896179651 -0.025400327394163071 0 0.00068686612160579342 -0.030932413271857893 0 0.00063671430039253596 -0.031093473440725272 0 0.00052780124919615931 -0.031115413309767168 0 0.0053740473805166692 -0.024849557531739962 0 0.0057862436896179651 -0.025400327394163071 0 0.0050899726592862704 -0.02536056109385007 0 0.0024856483828093836 -0.028113861881167306 0 0.0029439783156970682 -0.028723461562052643 0 0.0049125565795776682 -0.025706109325022524 0 0.0050899726592862704 -0.02536056109385007 0 0.0052891523822332365 -0.02575295035223521 0 0.0057862436896179651 -0.025400327394163071 0 0.0050899726592862704 -0.02536056109385007 0 0.0052891523822332365 -0.02575295035223521 0 0.0059478207866782732 -0.024657930615930093 0 0.0070446279182874725 -0.024854598312431309 0 0.0057862436896179651 -0.025400327394163071 0 0.0057862436896179651 -0.025400327394163071 0 0.0052891523822332365 -0.02575295035223521 0 0.0053804041882879973 -0.026566307926610543 0 0.0049125565795776682 -0.025706109325022524 0 0.0052891523822332365 -0.02575295035223521 0 0.0053804041882879973 -0.026566307926610543 0 0.00063671430039253596 -0.031093473440725272 0 0.00052780124919615931 -0.031115413309767168 0 0.00062169963913906781 -0.031203802852374833 0 0.0005214338750092471 -0.031266316853773013 0 0.00052780124919615931 -0.031115413309767168 0 0.00062169963913906781 -0.031203802852374833 0 0.0035362325844132832 -0.028384233134467515 0 0.0049125565795776682 -0.025706109325022524 0 0.0053804041882879973 -0.026566307926610543 0 0.0022426581242869989 -0.029550079931375609 0 0.0029439783156970682 -0.028723461562052643 0 0.0005214338750092471 -0.031266316853773013 0 0.0004028933081674116 -0.031300884034737422 0 0.00052780124919615931 -0.031115413309767168 0 0.0022426581242869989 -0.029550079931375609 0 0.0049337262028559042 -0.025536387065551728 0 0.0039979397501869315 -0.027843870280571479 0 0.0049125565795776682 -0.025706109325022524 0 0.0040518326641834782 -0.026708520814319087 0 0.0039217677043148829 -0.026294829587137452 0 0.0042430667074258395 -0.026155442165252975 0 0.0040518326641834782 -0.026708520814319087 0 5.1349790757522326e-10 -0.035000006355929064 0 6.8616846900765777e-07 -0.034999572475335548 0 7.3523700338448807e-10 -0.034999994301548008 0 1.272501119488881e-06 -0.034998360196873989 0 6.8616846900765777e-07 -0.034999572475335548 0 7.3523700338448807e-10 -0.034999994301548008 0 1.272501119488881e-06 -0.034998360196873989 0 5.0808277709242394e-06 -0.034998576455946735 0 1.0502539426896174e-05 -0.034994587374707259 0 1.272501119488881e-06 -0.034998360196873989 0 5.0808277709242394e-06 -0.034998576455946735 0 6.8616846900765777e-07 -0.034999572475335548 0 2.1597063859586859e-06 -0.035001005019264023 0 6.8616846900765777e-07 -0.034999572475335548 0 -1.5850431510263199e-06 -0.035000628068145731 0 5.0808277709242394e-06 -0.034998576455946735 0 2.1597063859586859e-06 -0.035001005019264023 0 6.8616846900765777e-07 -0.034999572475335548 0 5.1349790757522326e-10 -0.035000006355929064 0 6.8616846900765777e-07 -0.034999572475335548 0 -1.5850431510263199e-06 -0.035000628068145731 0 5.1349790757522326e-10 -0.035000006355929064 0 -2.4769635015027617e-06 -0.034995825451567208 0 -8.9671264920934801e-10 -0.034999986027217024 0 5.1349790757522326e-10 -0.035000006355929064 0 -2.4769635015027617e-06 -0.034995825451567208 0 -1.5850431510263199e-06 -0.035000628068145731 0 -5.287247147075513e-06 -0.034986852525847059 0 -2.4769635015027617e-06 -0.034995825451567208 0 -8.9671264920934801e-10 -0.034999986027217024 0 -5.287247147075513e-06 -0.034986852525847059 0 -2.4769635015027617e-06 -0.034995825451567208 0 -1.1715792252118881e-05 -0.034987048581571881 0 -1.1715792252118881e-05 -0.034987048581571881 0 -1.5850431510263199e-06 -0.035000628068145731 0 -2.577658005360026e-05 -0.034996047787371809 0 2.1597063859586859e-06 -0.035001005019264023 0 -1.5850431510263199e-06 -0.035000628068145731 0 3.4747829503723167e-06 -0.035000350821853134 0 -2.4769635015027617e-06 -0.034995825451567208 0 -1.1715792252118881e-05 -0.034987048581571881 0 -1.5850431510263199e-06 -0.035000628068145731 0 -3.2565925695912598e-06 -0.034999217145093853 0 -1.1399378617892176e-05 -0.034996262484579842 0 2.1597063859586859e-06 -0.035001005019264023 0 3.4747829503723167e-06 -0.035000350821853134 0 4.813150063140852e-06 -0.034997522515696995 0 -2.0392860953516844e-05 -0.03496578704925548 0 -1.1715792252118881e-05 -0.034987048581571881 0 -2.4426227396552193e-05 -0.034978529554095507 0 -2.577658005360026e-05 -0.034996047787371809 0 -2.4426227396552193e-05 -0.034978529554095507 0 -3.8927445005900505e-05 -0.034965665929654069 0 -2.0392860953516844e-05 -0.03496578704925548 0 -2.4426227396552193e-05 -0.034978529554095507 0 -3.8927445005900505e-05 -0.034965665929654069 0 -1.1715792252118881e-05 -0.034987048581571881 0 -2.577658005360026e-05 -0.034996047787371809 0 -2.4426227396552193e-05 -0.034978529554095507 0 -3.8927445005900505e-05 -0.034965665929654069 0 -6.0458164111131717e-05 -0.034983717856217671 0 -6.7782159013998823e-05 -0.034956797409933876 0 -6.7139350814815466e-05 -0.034934970117757251 0 -3.8927445005900505e-05 -0.034965665929654069 0 -6.7782159013998823e-05 -0.034956797409933876 0 -1.1399378617892176e-05 -0.034996262484579842 0 -2.2262797929394665e-05 -0.034986311959846812 0 4.813150063140852e-06 -0.034997522515696995 0 7.8189616168881078e-06 -0.034994487683689034 0 6.5788026566401476e-06 -0.03499842152489379 0 3.4747829503723167e-06 -0.035000350821853134 0 4.813150063140852e-06 -0.034997522515696995 0 6.5788026566401476e-06 -0.03499842152489379 0 -2.577658005360026e-05 -0.034996047787371809 0 -3.8927445005900505e-05 -0.034965665929654069 0 -6.0458164111131717e-05 -0.034983717856217671 0 4.5511825104278008e-06 -0.034993367393691549 0 4.813150063140852e-06 -0.034997522515696995 0 7.8189616168881078e-06 -0.034994487683689034 0 1.2241899852224256e-05 -0.034992367283791417 0 -3.2309080227508656e-05 -0.034981772293944696 0 2.1597063859586859e-06 -0.035001005019264023 0 4.5511825104278008e-06 -0.034993367393691549 0 4.813150063140852e-06 -0.034997522515696995 0 5.0808277709242394e-06 -0.034998576455946735 0 2.1597063859586859e-06 -0.035001005019264023 0 2.2799027596025843e-05 -0.035001490459632634 0 5.0808277709242394e-06 -0.034998576455946735 0 2.2799027596025843e-05 -0.035001490459632634 0 1.0502539426896174e-05 -0.034994587374707259 0 2.2799027596025843e-05 -0.035001490459632634 0 3.8361533014107211e-05 -0.034985351907144857 0 2.8575745047296278e-05 -0.034987371002413531 0 2.2799027596025843e-05 -0.035001490459632634 0 2.0330454802359459e-05 -0.034990759295374221 0 2.8575745047296278e-05 -0.034987371002413531 0 2.2799027596025843e-05 -0.035001490459632634 0 1.0502539426896174e-05 -0.034994587374707259 0 2.0330454802359459e-05 -0.034990759295374221 0 4.5511825104278008e-06 -0.034993367393691549 0 1.1207183937041379e-05 -0.034984899862205876 0 8.8078420714462216e-06 -0.034991477517769536 0 -3.2309080227508656e-05 -0.034981772293944696 0 -1.7729258444437721e-05 -0.034352877531298689 0 2.2799027596025843e-05 -0.035001490459632634 0 4.8373161873331124e-05 -0.034989623419471448 0 3.8361533014107211e-05 -0.034985351907144857 0 1.1207183937041379e-05 -0.034984899862205876 0 1.2137935313707456e-05 -0.034993319258177426 0 8.8078420714462216e-06 -0.034991477517769536 0 0.00038409152957356201 -0.033364160002570038 0 0.0006286504984270709 -0.032942889236016674 0 -1.7729258444437721e-05 -0.034352877531298689 0 -5.6989605112578906e-05 -0.034936590858239615 0 -0.00021423375653488569 -0.03473855249054951 0 -0.00018528231764046826 -0.034723805622810335 0 -0.00019861235339631466 -0.034849030269178995 0 -0.00018528231764046826 -0.034723805622810335 0 -0.00019861235339631466 -0.034849030269178995 0 -0.00012747631550416794 -0.034841368326363691 0 -1.7729258444437721e-05 -0.034352877531298689 0 0.00038409152957356201 -0.033364160002570038 0 -0.00019861235339631466 -0.034849030269178995 0 -0.00014791411905889205 -0.034897163479959963 0 -0.00012747631550416794 -0.034841368326363691 0 1.2137935313707456e-05 -0.034993319258177426 0 8.8078420714462216e-06 -0.034991477517769536 0 7.8189616168881078e-06 -0.034994487683689034 0 1.2137935313707456e-05 -0.034993319258177426 0 7.8189616168881078e-06 -0.034994487683689034 0 9.7116224837129695e-06 -0.034996039598044058 0 4.5511825104278008e-06 -0.034993367393691549 0 8.8078420714462216e-06 -0.034991477517769536 0 7.8189616168881078e-06 -0.034994487683689034 0 7.8189616168881078e-06 -0.034994487683689034 0 9.7116224837129695e-06 -0.034996039598044058 0 6.5788026566401476e-06 -0.03499842152489379 0 -6.0458164111131717e-05 -0.034983717856217671 0 -8.6586093839908365e-05 -0.034960424828528285 0 -0.00011442794246225411 -0.034966889953958809 0 -2.2262797929394665e-05 -0.034986311959846812 0 -8.8894364024568701e-05 -0.034942058048035608 0 9.7116224837129695e-06 -0.034996039598044058 0 6.5788026566401476e-06 -0.03499842152489379 0 1.2273729666205044e-05 -0.034998682772305653 0 -6.0458164111131717e-05 -0.034983717856217671 0 -6.7782159013998823e-05 -0.034956797409933876 0 -8.6586093839908365e-05 -0.034960424828528285 0 -6.7782159013998823e-05 -0.034956797409933876 0 -8.6586093839908365e-05 -0.034960424828528285 0 -9.1003538917840512e-05 -0.034941010241337854 0 -6.7139350814815466e-05 -0.034934970117757251 0 -6.7782159013998823e-05 -0.034956797409933876 0 -9.1003538917840512e-05 -0.034941010241337854 0 -0.00010252829495126204 -0.034916833592958302 0 -9.1003538917840512e-05 -0.034941010241337854 0 -0.00011587176083354225 -0.0349308647207794 0 -9.1003538917840512e-05 -0.034941010241337854 0 -0.00011587176083354225 -0.0349308647207794 0 -0.00011835459841120222 -0.034945847888082089 0 -8.6586093839908365e-05 -0.034960424828528285 0 -0.00011835459841120222 -0.034945847888082089 0 -0.00011442794246225411 -0.034966889953958809 0 -8.6586093839908365e-05 -0.034960424828528285 0 -9.1003538917840512e-05 -0.034941010241337854 0 -0.00011835459841120222 -0.034945847888082089 0 -0.00011587176083354225 -0.0349308647207794 0 -0.00011835459841120222 -0.034945847888082089 0 -0.00013155240284458929 -0.034931658832526122 0 -5.6989605112578906e-05 -0.034936590858239615 0 -8.8894364024568701e-05 -0.034942058048035608 0 -0.00011835459841120222 -0.034945847888082089 0 -0.00011970010397106113 -0.034949221701556808 0 -0.00013835068242418387 -0.034936125493503369 0 -0.00017878819005042511 -0.034935021992849015 0 -0.00014791411905889205 -0.034897163479959963 0 -0.00013835068242418387 -0.034936125493503369 0 -8.8894364024568701e-05 -0.034942058048035608 0 -0.00011557220830693948 -0.03493948869375927 0 -0.00019861235339631466 -0.034849030269178995 0 -0.00017878819005042511 -0.034935021992849015 0 -0.00014791411905889205 -0.034897163479959963 0 1.2137935313707456e-05 -0.034993319258177426 0 9.7116224837129695e-06 -0.034996039598044058 0 1.2273729666205044e-05 -0.034998682772305653 0 -9.1367489525137922e-05 -0.034943117279494097 0 -8.8894364024568701e-05 -0.034942058048035608 0 -0.00014791411905889205 -0.034897163479959963 0 -0.00012518336945032175 -0.03492901714160896 0 -0.00012747631550416794 -0.034841368326363691 0 -0.00014791411905889205 -0.034897163479959963 0 -0.00013835068242418387 -0.034936125493503369 0 -0.00012518336945032175 -0.03492901714160896 0 0.00060389787401726844 -0.032807536204125937 0 0.0006286504984270709 -0.032942889236016674 0 -0.00013835068242418387 -0.034936125493503369 0 -0.00013909993380281917 -0.034927020072015875 0 -0.00013155240284458929 -0.034931658832526122 0 -0.00011835459841120222 -0.034945847888082089 0 -0.00013835068242418387 -0.034936125493503369 0 -0.00013155240284458929 -0.034931658832526122 0 -0.00013835068242418387 -0.034936125493503369 0 -0.00013909993380281917 -0.034927020072015875 0 -0.00012518336945032175 -0.03492901714160896 0 -0.00013193826880674147 -0.034918389911732642 0 -0.00011587176083354225 -0.0349308647207794 0 -0.00013155240284458929 -0.034931658832526122 0 -0.00013193826880674147 -0.034918389911732642 0 -0.00013909993380281917 -0.034927020072015875 0 -0.00013155240284458929 -0.034931658832526122 0 0.00054250037222429513 -0.032719667475597125 0 0.00060389787401726844 -0.032807536204125937 0 -0.00013909993380281917 -0.034927020072015875 0 -0.00018236126770892295 -0.034913909730384982 0 -0.00012518336945032175 -0.03492901714160896 0 0.0012493837878359321 -0.030528605272521939 0 0.0012925490136231432 -0.030612690125860199 0 0.0013594533063300256 -0.030676724932476127 0 -0.00015449989993854231 -0.034901876581029168 0 -0.00013909993380281917 -0.034927020072015875 0 -0.00018236126770892295 -0.034913909730384982 0 0.0012493254061918949 -0.030583385218145364 0 0.0012493837878359321 -0.030528605272521939 0 0.0012925490136231432 -0.030612690125860199 0 0.0012925490136231432 -0.030612690125860199 0 0.0012760175854735342 -0.03061096923661873 0 0.0013029743124752815 -0.030634997606405586 0 0.0012925490136231432 -0.030612690125860199 0 0.0013029743124752815 -0.030634997606405586 0 0.001382874347235876 -0.030668882183445961 0 0.0012925490136231432 -0.030612690125860199 0 0.0013594533063300256 -0.030676724932476127 0 0.0013933103634954655 -0.030973004590557979 0 0.0012493254061918949 -0.030583385218145364 0 0.0012925490136231432 -0.030612690125860199 0 0.0012760175854735342 -0.03061096923661873 0 0.0013108297690512072 -0.030691777200712353 0 0.0012459649218968215 -0.030768627509830067 0 0.0012566844075577658 -0.030609712873243579 0 0.0012760175854735342 -0.03061096923661873 0 0.0013029743124752815 -0.030634997606405586 0 0.0012631081273080933 -0.030640350133781059 0 0.0013029743124752815 -0.030634997606405586 0 0.0013117523275469893 -0.030670096230079401 0 0.0012631081273080933 -0.030640350133781059 0 0.0013117523275469893 -0.030670096230079401 0 0.0012817439623815314 -0.030694922550192107 0 0.0013117523275469893 -0.030670096230079401 0 0.0012817439623815314 -0.030694922550192107 0 0.0013375833554653063 -0.030725913508688144 0 0.0013117523275469893 -0.030670096230079401 0 0.001382874347235876 -0.030668882183445961 0 0.0013375833554653063 -0.030725913508688144 0 0.0013029743124752815 -0.030634997606405586 0 0.0013117523275469893 -0.030670096230079401 0 0.001382874347235876 -0.030668882183445961 0 0.0013594533063300256 -0.030676724932476127 0 0.0015165025192937303 -0.030989927828192397 0 0.0013933103634954655 -0.030973004590557979 0 0.0012459649218968215 -0.030768627509830067 0 0.00074147126428951741 -0.032622240988477616 0 0.001382874347235876 -0.030668882183445961 0 0.0014595159927542351 -0.030825583073941905 0 0.0013375833554653063 -0.030725913508688144 0 0.0017250321274922191 -0.031372152017786578 0 0.0013933103634954655 -0.030973004590557979 0 0.0015849937536799277 -0.031443393858826746 0 0.0014595159927542351 -0.030825583073941905 0 0.0013537044422077601 -0.030805606950721643 0 0.0013375833554653063 -0.030725913508688144 0 0.001382874347235876 -0.030668882183445961 0 0.0014595159927542351 -0.030825583073941905 0 0.0015234630071573104 -0.030902737154412437 0 0.0017250321274922191 -0.031372152017786578 0 0.0015165025192937303 -0.030989927828192397 0 0.0013933103634954655 -0.030973004590557979 0 0.0014595159927542351 -0.030825583073941905 0 0.001404561187438593 -0.030851755310506462 0 0.0013537044422077601 -0.030805606950721643 0 0.0014595159927542351 -0.030825583073941905 0 0.001404561187438593 -0.030851755310506462 0 0.0014851716565860542 -0.030939138443882228 0 0.001404561187438593 -0.030851755310506462 0 0.0013537044422077601 -0.030805606950721643 0 0.0014043033735331196 -0.030934802407734621 0 0.0013537044422077601 -0.030805606950721643 0 0.0012675326690147848 -0.030792684815732472 0 0.0014043033735331196 -0.030934802407734621 0 0.0012817439623815314 -0.030694922550192107 0 0.0012675326690147848 -0.030792684815732472 0 0.0013375833554653063 -0.030725913508688144 0 0.0013537044422077601 -0.030805606950721643 0 0.0012675326690147848 -0.030792684815732472 0 0.0013375833554653063 -0.030725913508688144 0 0.0012124554346623882 -0.030870605090774893 0 0.0013270693179129429 -0.030993745449275658 0 0.0012576059916083598 -0.031045587136045216 0 0.0012890714460528198 -0.030765878157187062 0 0.0013868656629185258 -0.030875749730443509 0 0.0012124554346623882 -0.030870605090774893 0 0.0013270693179129429 -0.030993745449275658 0 0.0014043033735331196 -0.030934802407734621 0 0.0013270693179129429 -0.030993745449275658 0 0.001418208759478808 -0.030982481594936544 0 0.0013525540861964865 -0.031146003850583161 0 0.0013270693179129429 -0.030993745449275658 0 0.0012576059916083598 -0.031045587136045216 0 0.0013525540861964865 -0.031146003850583161 0 0.0013270693179129429 -0.030993745449275658 0 0.0014043033735331196 -0.030934802407734621 0 0.001418208759478808 -0.030982481594936544 0 0.0014858909453841862 -0.030950184955874333 0 0.001418208759478808 -0.030982481594936544 0 0.0015233399086230334 -0.031223412535584111 0 0.001404561187438593 -0.030851755310506462 0 0.0014043033735331196 -0.030934802407734621 0 0.0014851716565860542 -0.030939138443882228 0 0.0014043033735331196 -0.030934802407734621 0 0.0014851716565860542 -0.030939138443882228 0 0.001418208759478808 -0.030982481594936544 0 0.00085905484219420103 -0.032353463819978182 0 0.001178812764491814 -0.032071502356972065 0 0.00092323054338519863 -0.031450200118163699 0 0.00085905484219420103 -0.032353463819978182 0 0.0014595159927542351 -0.030825583073941905 0 0.0015234630071573104 -0.030902737154412437 0 0.001477151546940712 -0.030928045118158706 0 0.00074147126428951741 -0.032622240988477616 0 0.00085905484219420103 -0.032353463819978182 0 0.001418208759478808 -0.030982481594936544 0 0.0015233399086230334 -0.031223412535584111 0 0.0013525540861964865 -0.031146003850583161 0 0.00085905484219420103 -0.032353463819978182 0 0.00073438538296310876 -0.032983845343446019 0 0.0015233399086230334 -0.031223412535584111 0 0.0013525540861964865 -0.031146003850583161 0 0.0014120667899659681 -0.031341094248461716 0 0.0012576059916083598 -0.031045587136045216 0 0.0013525540861964865 -0.031146003850583161 0 0.0012311949134001996 -0.031160965923832568 0 0.0011444187694306487 -0.031083307162062652 0 0.0012576059916083598 -0.031045587136045216 0 0.0012311949134001996 -0.031160965923832568 0 0.0011373384006380964 -0.031224991111675125 0 0.0012311949134001996 -0.031160965923832568 0 0.0012674862952318016 -0.031306260884892551 0 0.0013525540861964865 -0.031146003850583161 0 0.0012311949134001996 -0.031160965923832568 0 0.0012674862952318016 -0.031306260884892551 0 0.0013525540861964865 -0.031146003850583161 0 0.0012674862952318016 -0.031306260884892551 0 0.0014120667899659681 -0.031341094248461716 0 0.0012674862952318016 -0.031306260884892551 0 0.0013090418495331389 -0.031439929339004115 0 0.0014120667899659681 -0.031341094248461716 0 0.00118599500467438 -0.031458554482453688 0 0.0012674862952318016 -0.031306260884892551 0 0.0013090418495331389 -0.031439929339004115 0 0.00118599500467438 -0.031458554482453688 0 0.0013090418495331389 -0.031439929339004115 0 0.001299529839642947 -0.031561834887619253 0 0.0013090418495331389 -0.031439929339004115 0 0.001299529839642947 -0.031561834887619253 0 0.0014235277393421343 -0.031467040805408235 0 0.0014351119162028061 -0.031563608017019712 0 0.0014235277393421343 -0.031467040805408235 0 0.0015448458525008848 -0.031492040565181539 0 0.0014351119162028061 -0.031563608017019712 0 0.0015448458525008848 -0.031492040565181539 0 0.0015571058744717114 -0.031582445807207052 0 0.001299529839642947 -0.031561834887619253 0 0.0014351119162028061 -0.031563608017019712 0 0.0014235277393421343 -0.031467040805408235 0 0.0013090418495331389 -0.031439929339004115 0 0.0014235277393421343 -0.031467040805408235 0 0.0014120667899659681 -0.031341094248461716 0 0.0014235277393421343 -0.031467040805408235 0 0.0014120667899659681 -0.031341094248461716 0 0.0015572411425795215 -0.031491950694175479 0 0.0012230508984359884 -0.032646830412890911 0 0.00093206169971366481 -0.033131776775687273 0 0.0015233399086230334 -0.031223412535584111 0 0.0014120667899659681 -0.031341094248461716 0 0.0015572411425795215 -0.031491950694175479 0 0.00073438538296310876 -0.032983845343446019 0 0.00093206169971366481 -0.033131776775687273 0 -0.00019543219052210416 -0.034720198417622611 0 -6.8358416638536875e-05 -0.034773574121521718 0 -6.4201474757644185e-05 -0.034878535966093006 0 -0.00019543219052210416 -0.034720198417622611 0 -6.4201474757644185e-05 -0.034878535966093006 0 -0.00011648206034716967 -0.034986525901792853 0 -6.8358416638536875e-05 -0.034773574121521718 0 -1.010980826251181e-05 -0.034822126875429855 0 -6.4201474757644185e-05 -0.034878535966093006 0 -1.010980826251181e-05 -0.034822126875429855 0 7.6174826466195915e-05 -0.034683170231153283 0 -4.4740198949559421e-06 -0.034742066113458835 0 -6.8358416638536875e-05 -0.034773574121521718 0 -1.010980826251181e-05 -0.034822126875429855 0 -4.4740198949559421e-06 -0.034742066113458835 0 -1.010980826251181e-05 -0.034822126875429855 0 -6.4201474757644185e-05 -0.034878535966093006 0 3.3214731832639049e-05 -0.034935609046352574 0 -6.4201474757644185e-05 -0.034878535966093006 0 -0.00011648206034716967 -0.034986525901792853 0 9.3475790252126363e-06 -0.034978537595732308 0 -6.4201474757644185e-05 -0.034878535966093006 0 9.3475790252126363e-06 -0.034978537595732308 0 3.3214731832639049e-05 -0.034935609046352574 0 0.00093206169971366481 -0.033131776775687273 0 0.00021789876953712801 -0.03421012678347523 0 0.00020434537807707503 -0.034790412225873105 0 0.00028720868579152682 -0.034741263676925635 0 0.00023885404377249012 -0.034690305742315887 0 0.00021789876953712801 -0.03421012678347523 0 0.00093172413075444144 -0.033422665137922747 0 0.00090246542896535832 -0.03374142097630476 0 0.00060402289149664057 -0.033699498714344182 0 0.00087227221080639263 -0.033524239995128012 0 0.00093206169971366481 -0.033131776775687273 0 0.00093172413075444144 -0.033422665137922747 0 9.3475790252126363e-06 -0.034978537595732308 0 3.3214731832639049e-05 -0.034935609046352574 0 3.8970404928745965e-05 -0.034950570007691972 0 0.00021789876953712801 -0.03421012678347523 0 4.5920820894057076e-05 -0.034812268683687413 0 0.00020434537807707503 -0.034790412225873105 0 3.9447656400659267e-05 -0.03477612828940943 0 0.00010869170165048377 -0.034692264268237183 0 0.00021789876953712801 -0.03421012678347523 0 -0.00013255896493170839 -0.034925951103735996 0 3.9292161129773291e-05 -0.034946329804790635 0 3.8970404928745965e-05 -0.034950570007691972 0 3.2945065213025088e-05 -0.034953069156156383 0 -1.010980826251181e-05 -0.034822126875429855 0 3.3214731832639049e-05 -0.034935609046352574 0 7.6174826466195915e-05 -0.034683170231153283 0 8.6937121123299363e-05 -0.034876868637336557 0 0.00011512390447677092 -0.034792773819790568 0 3.3214731832639049e-05 -0.034935609046352574 0 3.7042882153560366e-05 -0.034954716196390831 0 3.8970404928745965e-05 -0.034950570007691972 0 3.3214731832639049e-05 -0.034935609046352574 0 3.7042882153560366e-05 -0.034954716196390831 0 4.7270823428807195e-05 -0.034961544873224289 0 3.7042882153560366e-05 -0.034954716196390831 0 3.9021442210193517e-05 -0.034963418287973898 0 2.9764712302590424e-05 -0.034971749193464761 0 4.5458586770055644e-05 -0.034972867471055498 0 4.7270823428807195e-05 -0.034961544873224289 0 4.7816457900234715e-05 -0.034976958819219979 0 3.7042882153560366e-05 -0.034954716196390831 0 3.9021442210193517e-05 -0.034963418287973898 0 4.7270823428807195e-05 -0.034961544873224289 0 0.00011512390447677092 -0.034792773819790568 0 0.00021584102439108774 -0.03445450674380799 0 3.9780986830879716e-05 -0.034969135161825302 0 3.6396872169521109e-05 -0.034977831851010679 0 2.9764712302590424e-05 -0.034971749193464761 0 3.9021442210193517e-05 -0.034963418287973898 0 3.9780986830879716e-05 -0.034969135161825302 0 2.9764712302590424e-05 -0.034971749193464761 0 3.9780986830879716e-05 -0.034969135161825302 0 4.5458586770055644e-05 -0.034972867471055498 0 3.6396872169521109e-05 -0.034977831851010679 0 3.9780986830879716e-05 -0.034969135161825302 0 4.5458586770055644e-05 -0.034972867471055498 0 4.7270823428807195e-05 -0.034961544873224289 0 3.9021442210193517e-05 -0.034963418287973898 0 3.9780986830879716e-05 -0.034969135161825302 0 4.7270823428807195e-05 -0.034961544873224289 0 -4.4740198949559421e-06 -0.034742066113458835 0 -8.3568148857764748e-05 -0.034658328264295248 0 -7.4503189450127598e-05 -0.034521681677668607 0 -0.00025814478432569556 -0.034318025046806352 0 -0.00019543219052210416 -0.034720198417622611 0 -7.4503189450127598e-05 -0.034521681677668607 0 7.6174826466195915e-05 -0.034683170231153283 0 -4.4740198949559421e-06 -0.034742066113458835 0 -0.00014614761308132381 -0.034458710194933524 0 0.00022552361442406237 -0.034504798180112109 0 0.00034553179321511121 -0.034214446881130643 0 7.6174826466195915e-05 -0.034683170231153283 0 -0.00014614761308132381 -0.034458710194933524 0 3.8368256193956792e-05 -0.034339081961116007 0 -6.8358416638536875e-05 -0.034773574121521718 0 -4.4740198949559421e-06 -0.034742066113458835 0 -8.3568148857764748e-05 -0.034658328264295248 0 -0.00019543219052210416 -0.034720198417622611 0 -6.8358416638536875e-05 -0.034773574121521718 0 -8.3568148857764748e-05 -0.034658328264295248 0 -0.00019543219052210416 -0.034720198417622611 0 -8.3568148857764748e-05 -0.034658328264295248 0 -7.4503189450127598e-05 -0.034521681677668607 0 -0.00014614761308132381 -0.034458710194933524 0 3.8368256193956792e-05 -0.034339081961116007 0 -0.00013036437987331347 -0.034252872282977 0 0.00074147126428951741 -0.032622240988477616 0 0.00034553179321511121 -0.034214446881130643 0 -0.00018234519376239796 -0.034278678995226283 0 -0.00025814478432569556 -0.034318025046806352 0 -7.4503189450127598e-05 -0.034521681677668607 0 -0.00029345850107415116 -0.034149438583016972 0 -0.00014614761308132381 -0.034458710194933524 0 -0.00013036437987331347 -0.034252872282977 0 0.00038409152957356201 -0.033364160002570038 0 0.00074147126428951741 -0.032622240988477616 0 -0.00012124019139548868 -0.034063403955917483 0 -0.00029345850107415116 -0.034149438583016972 0 -0.00013036437987331347 -0.034252872282977 0 0.00038409152957356201 -0.033364160002570038 0 0.00021584102439108774 -0.03445450674380799 0 -1.7729258444437721e-05 -0.034352877531298689 0 0.00021584102439108774 -0.03445450674380799 0 -0.00012124019139548868 -0.034063403955917483 0 3.8368256193956792e-05 -0.034339081961116007 0 -0.00013036437987331347 -0.034252872282977 0 0.00028325031412546834 -0.033622775533044151 0 4.3790753017429132e-05 -0.033743382741168428 0 0.00039329147324636043 -0.034312558920234736 0 4.8373161873331124e-05 -0.034989623419471448 0 4.7155599903486179e-05 -0.034976822099282802 0 3.8361533014107211e-05 -0.034985351907144857 0 3.8361533014107211e-05 -0.034985351907144857 0 3.6396872169521109e-05 -0.034977831851010679 0 2.8575745047296278e-05 -0.034987371002413531 0 3.8361533014107211e-05 -0.034985351907144857 0 3.6396872169521109e-05 -0.034977831851010679 0 4.1763817204815638e-05 -0.034978085946615556 0 4.5458586770055644e-05 -0.034972867471055498 0 3.6396872169521109e-05 -0.034977831851010679 0 4.1763817204815638e-05 -0.034978085946615556 0 4.7155599903486179e-05 -0.034976822099282802 0 3.8361533014107211e-05 -0.034985351907144857 0 4.1763817204815638e-05 -0.034978085946615556 0 4.5458586770055644e-05 -0.034972867471055498 0 4.7155599903486179e-05 -0.034976822099282802 0 4.1763817204815638e-05 -0.034978085946615556 0 0.00023658771096303046 -0.034544427866680917 0 0.00021584102439108774 -0.03445450674380799 0 2.5672934394725298e-05 -0.034982458652342348 0 1.5153997726332534e-05 -0.034983911972342928 0 2.9764712302590424e-05 -0.034971749193464761 0 3.6396872169521109e-05 -0.034977831851010679 0 2.5672934394725298e-05 -0.034982458652342348 0 2.8575745047296278e-05 -0.034987371002413531 0 3.6396872169521109e-05 -0.034977831851010679 0 2.5672934394725298e-05 -0.034982458652342348 0 2.9764712302590424e-05 -0.034971749193464761 0 2.0330454802359459e-05 -0.034990759295374221 0 2.5672934394725298e-05 -0.034982458652342348 0 2.8575745047296278e-05 -0.034987371002413531 0 2.0330454802359459e-05 -0.034990759295374221 0 2.5672934394725298e-05 -0.034982458652342348 0 1.5153997726332534e-05 -0.034983911972342928 0 1.0502539426896174e-05 -0.034994587374707259 0 2.0330454802359459e-05 -0.034990759295374221 0 1.5153997726332534e-05 -0.034983911972342928 0 1.0502539426896174e-05 -0.034994587374707259 0 1.5153997726332534e-05 -0.034983911972342928 0 6.0782740987101124e-06 -0.034990271515356552 0 1.5153997726332534e-05 -0.034983911972342928 0 2.4844172016230407e-05 -0.034969197927048716 0 1.3047480215571749e-05 -0.034979333355098827 0 1.5153997726332534e-05 -0.034983911972342928 0 2.9764712302590424e-05 -0.034971749193464761 0 2.4844172016230407e-05 -0.034969197927048716 0 3.7042882153560366e-05 -0.034954716196390831 0 2.9764712302590424e-05 -0.034971749193464761 0 2.4844172016230407e-05 -0.034969197927048716 0 3.7042882153560366e-05 -0.034954716196390831 0 2.4844172016230407e-05 -0.034969197927048716 0 3.8970404928745965e-05 -0.034950570007691972 0 2.4844172016230407e-05 -0.034969197927048716 0 3.8970404928745965e-05 -0.034950570007691972 0 2.333987514414134e-05 -0.034964909779201497 0 3.8970404928745965e-05 -0.034950570007691972 0 3.2945065213025088e-05 -0.034953069156156383 0 2.333987514414134e-05 -0.034964909779201497 0 4.5920820894057076e-05 -0.034812268683687413 0 -2.3443965762259131e-05 -0.03490221556948133 0 3.2945065213025088e-05 -0.034953069156156383 0 2.333987514414134e-05 -0.034964909779201497 0 1.0303615537411846e-05 -0.034973962965211956 0 1.3047480215571749e-05 -0.034979333355098827 0 2.333987514414134e-05 -0.034964909779201497 0 1.0303615537411846e-05 -0.034973962965211956 0 2.4844172016230407e-05 -0.034969197927048716 0 1.3047480215571749e-05 -0.034979333355098827 0 2.333987514414134e-05 -0.034964909779201497 0 1.3047480215571749e-05 -0.034979333355098827 0 5.3259608166598832e-06 -0.034989661758820172 0 1.0303615537411846e-05 -0.034973962965211956 0 -8.6831805903040959e-11 -0.034999989807341814 0 5.3259608166598832e-06 -0.034989661758820172 0 1.0303615537411846e-05 -0.034973962965211956 0 -8.6831805903040959e-11 -0.034999989807341814 0 4.617826872919923e-09 -0.034999973540306234 0 1.0303615537411846e-05 -0.034973962965211956 0 -8.6831805903040959e-11 -0.034999989807341814 0 5.3259608166598832e-06 -0.034989661758820172 0 7.6638150269808455e-09 -0.03499997475813113 0 1.3889025714826939e-09 -0.034999994098192905 0 3.5925015164113187e-06 -0.034995094888589248 0 5.3259608166598832e-06 -0.034989661758820172 0 7.6638150269808455e-09 -0.03499997475813113 0 6.0782740987101124e-06 -0.034990271515356552 0 1.5153997726332534e-05 -0.034983911972342928 0 1.3047480215571749e-05 -0.034979333355098827 0 6.0782740987101124e-06 -0.034990271515356552 0 1.3047480215571749e-05 -0.034979333355098827 0 5.3259608166598832e-06 -0.034989661758820172 0 6.0782740987101124e-06 -0.034990271515356552 0 8.8699974965546643e-06 -0.034996107129102109 0 3.5925015164113187e-06 -0.034995094888589248 0 1.272501119488881e-06 -0.034998360196873989 0 1.0502539426896174e-05 -0.034994587374707259 0 1.470047735332169e-06 -0.034997483134609091 0 2.5405883402745907e-10 -0.034999999632195335 0 1.470047735332169e-06 -0.034997483134609091 0 7.3523700338448807e-10 -0.034999994301548008 0 1.272501119488881e-06 -0.034998360196873989 0 1.470047735332169e-06 -0.034997483134609091 0 7.3523700338448807e-10 -0.034999994301548008 0 3.4432890435357953e-05 -0.034969534375015154 0 1.9072685502012274e-08 -0.034999925608868707 0 2.2730666663944376e-05 -0.03499829384616588 0 3.4432890435357953e-05 -0.034969534375015154 0 7.2393231802966805e-05 -0.034989571100297018 0 2.2730666663944376e-05 -0.03499829384616588 0 3.4432890435357953e-05 -0.034969534375015154 0 2.7474690778831026e-05 -0.03496025734833496 0 5.3505241450486568e-05 -0.034929259512055881 0 3.4432890435357953e-05 -0.034969534375015154 0 1.9072685502012274e-08 -0.034999925608868707 0 2.7474690778831026e-05 -0.03496025734833496 0 0.00014876403720364285 -0.034942639176941695 0 7.2393231802966805e-05 -0.034989571100297018 0 0.00023416219956857239 -0.03503577159802114 0 0.00034423328168920191 -0.034795625614251514 0 6.023358844526584e-05 -0.034861194776743459 0 7.1568920547959491e-05 -0.034887635404608146 0 3.4432890435357953e-05 -0.034969534375015154 0 5.3505241450486568e-05 -0.034929259512055881 0 7.3772673972256217e-05 -0.034943087306009431 0 5.3505241450486568e-05 -0.034929259512055881 0 7.9056104795329204e-05 -0.034914452840358288 0 7.1568920547959491e-05 -0.034887635404608146 0 5.3505241450486568e-05 -0.034929259512055881 0 7.9056104795329204e-05 -0.034914452840358288 0 7.3772673972256217e-05 -0.034943087306009431 0 7.9056104795329204e-05 -0.034914452840358288 0 0.00013014744159352168 -0.034902653603655992 0 7.1568920547959491e-05 -0.034887635404608146 0 7.9056104795329204e-05 -0.034914452840358288 0 0.00013014744159352168 -0.034902653603655992 0 7.3772673972256217e-05 -0.034943087306009431 0 0.00013014744159352168 -0.034902653603655992 0 0.00014876403720364285 -0.034942639176941695 0 7.3772673972256217e-05 -0.034943087306009431 0 0.00014876403720364285 -0.034942639176941695 0 7.3772673972256217e-05 -0.034943087306009431 0 7.2393231802966805e-05 -0.034989571100297018 0 3.4432890435357953e-05 -0.034969534375015154 0 7.3772673972256217e-05 -0.034943087306009431 0 7.2393231802966805e-05 -0.034989571100297018 0 2.6872996029984117e-05 -0.034874229124832845 0 0.00012045804448704998 -0.034743499415934971 0 -7.8795926244577287e-05 -0.034728288278940762 0 -3.6706386486972008e-05 -0.034638388535272562 0 -5.0357802743519639e-05 -0.034502578311101539 0 7.2393231802966805e-05 -0.034989571100297018 0 2.2730666663944376e-05 -0.03499829384616588 0 4.2549689872226391e-05 -0.035043354232701544 0 7.2393231802966805e-05 -0.034989571100297018 0 4.2549689872226391e-05 -0.035043354232701544 0 0.00023416219956857239 -0.03503577159802114 0 1.7222336957804897e-08 -0.035000044080806605 0 2.2730666663944376e-05 -0.03499829384616588 0 4.2549689872226391e-05 -0.035043354232701544 0 1.9072685502012274e-08 -0.034999925608868707 0 1.7222336957804897e-08 -0.035000044080806605 0 2.2730666663944376e-05 -0.03499829384616588 0 -1.1340769556183137e-07 -0.034999795945820922 0 -4.2955922998162829e-05 -0.034860470373924826 0 -7.8795926244577287e-05 -0.034728288278940762 0 1.7222336957804897e-08 -0.035000044080806605 0 1.5694040826229593e-09 -0.035000030204377447 0 4.2549689872226391e-05 -0.035043354232701544 0 2.0742396092325177e-08 -0.034999888754877743 0 2.6872996029984117e-05 -0.034874229124832845 0 -1.1340769556183137e-07 -0.034999795945820922 0 -5.7687461748437828e-09 -0.034999899052843945 0 -4.2955922998162829e-05 -0.034860470373924826 0 -5.7687461748437828e-09 -0.034999899052843945 0 -4.2955922998162829e-05 -0.034860470373924826 0 -4.7851236434220604e-05 -0.034809815026886411 0 -3.8233329489848707e-08 -0.034999919301949754 0 -2.3443965762259131e-05 -0.03490221556948133 0 -4.2955922998162829e-05 -0.034860470373924826 0 -4.7851236434220604e-05 -0.034809815026886411 0 -2.4719146036848475e-05 -0.034725412668243617 0 -7.8795926244577287e-05 -0.034728288278940762 0 -3.6706386486972008e-05 -0.034638388535272562 0 -2.4719146036848475e-05 -0.034725412668243617 0 -4.2955922998162829e-05 -0.034860470373924826 0 -7.8795926244577287e-05 -0.034728288278940762 0 -2.4719146036848475e-05 -0.034725412668243617 0 -3.6706386486972008e-05 -0.034638388535272562 0 -2.4719146036848475e-05 -0.034725412668243617 0 2.2866868203285528e-05 -0.034587806280542435 0 3.9447656400659267e-05 -0.03477612828940943 0 -4.7851236434220604e-05 -0.034809815026886411 0 -2.4719146036848475e-05 -0.034725412668243617 0 3.9447656400659267e-05 -0.03477612828940943 0 6.2330842771523678e-05 -0.034653593540200985 0 0.00010869170165048377 -0.034692264268237183 0 3.9447656400659267e-05 -0.03477612828940943 0 -2.4719146036848475e-05 -0.034725412668243617 0 6.2330842771523678e-05 -0.034653593540200985 0 -2.4719146036848475e-05 -0.034725412668243617 0 6.2330842771523678e-05 -0.034653593540200985 0 2.2866868203285528e-05 -0.034587806280542435 0 6.2330842771523678e-05 -0.034653593540200985 0 8.5502135348388471e-05 -0.03452245584575149 0 0.00012243279236410704 -0.034556759885170402 0 6.2330842771523678e-05 -0.034653593540200985 0 2.2866868203285528e-05 -0.034587806280542435 0 8.5502135348388471e-05 -0.03452245584575149 0 2.2866868203285528e-05 -0.034587806280542435 0 8.5502135348388471e-05 -0.03452245584575149 0 4.3487925550055779e-05 -0.034461604774038791 0 2.2866868203285528e-05 -0.034587806280542435 0 4.3487925550055779e-05 -0.034461604774038791 0 -5.0357802743519639e-05 -0.034502578311101539 0 8.5502135348388471e-05 -0.03452245584575149 0 4.3487925550055779e-05 -0.034461604774038791 0 0.00011217011377462047 -0.034388889134718693 0 -3.6706386486972008e-05 -0.034638388535272562 0 2.2866868203285528e-05 -0.034587806280542435 0 -5.0357802743519639e-05 -0.034502578311101539 0 0.00034423328168920191 -0.034795625614251514 0 0.00065698960393597086 -0.034752894154778495 0 0.00030569373761042017 -0.034542891769259815 0 0.0002669589866908187 -0.034829056553537428 0 3.8676985131752643e-05 -0.034814143190244992 0 0.00013014744159352168 -0.034902653603655992 0 0.00034423328168920191 -0.034795625614251514 0 7.1568920547959491e-05 -0.034887635404608146 0 0.00023416219956857239 -0.03503577159802114 0 0.00034423328168920191 -0.034795625614251514 0 0.00065698960393597086 -0.034752894154778495 0 0.00014876403720364285 -0.034942639176941695 0 0.00023416219956857239 -0.03503577159802114 0 0.00034423328168920191 -0.034795625614251514 0 0.00013014744159352168 -0.034902653603655992 0 0.00014876403720364285 -0.034942639176941695 0 0.00034423328168920191 -0.034795625614251514 0 0.00012045804448704998 -0.034743499415934971 0 0.0003530144932809119 -0.034490705527265519 0 4.3487925550055779e-05 -0.034461604774038791 0 -5.0357802743519639e-05 -0.034502578311101539 0 4.8062070165710571e-05 -0.034296966207302194 0 4.3487925550055779e-05 -0.034461604774038791 0 4.8062070165710571e-05 -0.034296966207302194 0 0.00011217011377462047 -0.034388889134718693 0 0.00014504211634692974 -0.034268786163045344 0 0.0001894457432403688 -0.034314930600440552 0 0.00011217011377462047 -0.034388889134718693 0 4.8062070165710571e-05 -0.034296966207302194 0 0.00014504211634692974 -0.034268786163045344 0 0.00011217011377462047 -0.034388889134718693 0 0.0001894457432403688 -0.034314930600440552 0 0.00027022009217508018 -0.034231019404783569 0 0.00020487651305678203 -0.03420518470593932 0 0.00014504211634692974 -0.034268786163045344 0 0.0001894457432403688 -0.034314930600440552 0 0.00020487651305678203 -0.03420518470593932 0 0.0001894457432403688 -0.034314930600440552 0 0.00024489087388179358 -0.0343968776267728 0 0.00027022009217508018 -0.034231019404783569 0 0.0001894457432403688 -0.034314930600440552 0 0.00024489087388179358 -0.0343968776267728 0 0.00016349058626707451 -0.034454702681198823 0 0.00024489087388179358 -0.0343968776267728 0 0.00021180827825290484 -0.034474421589776746 0 0.00024770756366447019 -0.034508557883226675 0 0.00024489087388179358 -0.0343968776267728 0 0.00016349058626707451 -0.034454702681198823 0 0.00021180827825290484 -0.034474421589776746 0 0.00016349058626707451 -0.034454702681198823 0 0.00017082147522166495 -0.034527436321667659 0 0.00021180827825290484 -0.034474421589776746 0 0.0001894457432403688 -0.034314930600440552 0 0.00016349058626707451 -0.034454702681198823 0 0.00011217011377462047 -0.034388889134718693 0 8.5502135348388471e-05 -0.03452245584575149 0 0.00016349058626707451 -0.034454702681198823 0 0.00011217011377462047 -0.034388889134718693 0 8.5502135348388471e-05 -0.03452245584575149 0 0.00016349058626707451 -0.034454702681198823 0 0.00012243279236410704 -0.034556759885170402 0 0.00012243279236410704 -0.034556759885170402 0 0.00017082147522166495 -0.034527436321667659 0 0.0001362867925066019 -0.034613911075305689 0 0.00016349058626707451 -0.034454702681198823 0 0.00012243279236410704 -0.034556759885170402 0 0.00017082147522166495 -0.034527436321667659 0 0.0001362867925066019 -0.034613911075305689 0 0.00016749115891306473 -0.034647630197413029 0 0.00019757970375749228 -0.034578947729910096 0 0.00017082147522166495 -0.034527436321667659 0 0.0001362867925066019 -0.034613911075305689 0 0.00019757970375749228 -0.034578947729910096 0 6.2330842771523678e-05 -0.034653593540200985 0 0.00012243279236410704 -0.034556759885170402 0 0.0001362867925066019 -0.034613911075305689 0 0.0001362867925066019 -0.034613911075305689 0 0.00010869170165048377 -0.034692264268237183 0 0.00016749115891306473 -0.034647630197413029 0 0.00020434537807707503 -0.034790412225873105 0 0.00010869170165048377 -0.034692264268237183 0 0.00018768717714238699 -0.034698810419983211 0 6.2330842771523678e-05 -0.034653593540200985 0 0.0001362867925066019 -0.034613911075305689 0 0.00010869170165048377 -0.034692264268237183 0 0.00010869170165048377 -0.034692264268237183 0 0.00016749115891306473 -0.034647630197413029 0 0.00018768717714238699 -0.034698810419983211 0 0.00016749115891306473 -0.034647630197413029 0 0.00018768717714238699 -0.034698810419983211 0 0.00021373508382099455 -0.034648011300081882 0 0.00028720868579152682 -0.034741263676925635 0 0.00023885404377249012 -0.034690305742315887 0 0.00027672062004348411 -0.034623586157954314 0 0.00093172413075444144 -0.033422665137922747 0 0.00065888362692552752 -0.034148281066335787 0 0.00020434537807707503 -0.034790412225873105 0 0.00018768717714238699 -0.034698810419983211 0 0.00023885404377249012 -0.034690305742315887 0 0.00023885404377249012 -0.034690305742315887 0 0.00021373508382099455 -0.034648011300081882 0 0.00027672062004348411 -0.034623586157954314 0 0.00018768717714238699 -0.034698810419983211 0 0.00023885404377249012 -0.034690305742315887 0 0.00021373508382099455 -0.034648011300081882 0 0.00016749115891306473 -0.034647630197413029 0 0.00021373508382099455 -0.034648011300081882 0 0.00019757970375749228 -0.034578947729910096 0 0.00021373508382099455 -0.034648011300081882 0 0.00027672062004348411 -0.034623586157954314 0 0.00023130176260824408 -0.034591590506191219 0 0.00027672062004348411 -0.034623586157954314 0 0.00023130176260824408 -0.034591590506191219 0 0.00024770756366447019 -0.034508557883226675 0 0.00065888362692552752 -0.034148281066335787 0 0.00058942154243186475 -0.034357868777975087 0 0.00024924091493348181 -0.034543933371365035 0 0.00024770756366447019 -0.034508557883226675 0 0.00029736104373505535 -0.034511122197836842 0 0.00021373508382099455 -0.034648011300081882 0 0.00023130176260824408 -0.034591590506191219 0 0.00019757970375749228 -0.034578947729910096 0 0.00023130176260824408 -0.034591590506191219 0 0.00019757970375749228 -0.034578947729910096 0 0.00024770756366447019 -0.034508557883226675 0 0.00019757970375749228 -0.034578947729910096 0 0.00021180827825290484 -0.034474421589776746 0 0.00024770756366447019 -0.034508557883226675 0 0.00017082147522166495 -0.034527436321667659 0 0.00019757970375749228 -0.034578947729910096 0 0.00021180827825290484 -0.034474421589776746 0 0.00024489087388179358 -0.0343968776267728 0 0.00024770756366447019 -0.034508557883226675 0 0.00031911923246220051 -0.034444804521745254 0 0.00031911923246220051 -0.034444804521745254 0 0.00029736104373505535 -0.034511122197836842 0 0.00039154811954531194 -0.034560132245171543 0 0.00024770756366447019 -0.034508557883226675 0 0.00031911923246220051 -0.034444804521745254 0 0.00029736104373505535 -0.034511122197836842 0 0.00024924091493348181 -0.034543933371365035 0 0.00029736104373505535 -0.034511122197836842 0 0.00039154811954531194 -0.034560132245171543 0 0.00093172413075444144 -0.033422665137922747 0 0.00083796718845438611 -0.033709741536600113 0 0.00065888362692552752 -0.034148281066335787 0 0.00083796718845438611 -0.033709741536600113 0 0.00078421237695412455 -0.033776842144018701 0 0.00078420983670581164 -0.033780146493696858 0 0.00078146715061517841 -0.033779422657112299 0 0.0014351119162028061 -0.031563608017019712 0 0.0015571058744717114 -0.031582445807207052 0 0.0013468177599605701 -0.031717514007263213 0 0.001299529839642947 -0.031561834887619253 0 0.0013468177599605701 -0.031717514007263213 0 0.0010840107914583778 -0.031686727883097641 0 0.00083796718845438611 -0.033709741536600113 0 0.00089298547572193656 -0.033129477679635762 0 0.001299529839642947 -0.031561834887619253 0 0.0014351119162028061 -0.031563608017019712 0 0.0013468177599605701 -0.031717514007263213 0 0.00083796718845438611 -0.033709741536600113 0 0.00035393152554388839 -0.034493142342679542 0 0.00039154811954531194 -0.034560132245171543 0 0.00042616762799624396 -0.034372862446470205 0 0.00059936941755110457 -0.034417856030784892 0 0.00031911923246220051 -0.034444804521745254 0 0.00039154811954531194 -0.034560132245171543 0 0.00042616762799624396 -0.034372862446470205 0 0.00042616762799624396 -0.034372862446470205 0 0.00032464776890947039 -0.034331679866311998 0 0.00038156757952014615 -0.034213562765367682 0 0.00042616762799624396 -0.034372862446470205 0 0.00038156757952014615 -0.034213562765367682 0 0.00051327925616430543 -0.034219386775007257 0 0.00031911923246220051 -0.034444804521745254 0 0.00042616762799624396 -0.034372862446470205 0 0.00032464776890947039 -0.034331679866311998 0 0.00024489087388179358 -0.0343968776267728 0 0.00032464776890947039 -0.034331679866311998 0 0.00027022009217508018 -0.034231019404783569 0 0.00024489087388179358 -0.0343968776267728 0 0.00031911923246220051 -0.034444804521745254 0 0.00032464776890947039 -0.034331679866311998 0 0.00027022009217508018 -0.034231019404783569 0 0.00038156757952014615 -0.034213562765367682 0 0.00033584270861536472 -0.034053678392804397 0 0.00032464776890947039 -0.034331679866311998 0 0.00027022009217508018 -0.034231019404783569 0 0.00038156757952014615 -0.034213562765367682 0 0.00038156757952014615 -0.034213562765367682 0 0.00045196085092332481 -0.034030210024423982 0 0.00033584270861536472 -0.034053678392804397 0 0.00038156757952014615 -0.034213562765367682 0 0.00045196085092332481 -0.034030210024423982 0 0.00051327925616430543 -0.034219386775007257 0 0.00045196085092332481 -0.034030210024423982 0 0.00035013802809807205 -0.033832504782587376 0 0.00046469741739477047 -0.033715215580056669 0 0.00045196085092332481 -0.034030210024423982 0 0.00033584270861536472 -0.034053678392804397 0 0.00035013802809807205 -0.033832504782587376 0 0.00033584270861536472 -0.034053678392804397 0 0.00026534666590207547 -0.033896138365308484 0 0.00019710110385190742 -0.033959025024583714 0 0.00027022009217508018 -0.034231019404783569 0 0.00033584270861536472 -0.034053678392804397 0 0.00025969963328714306 -0.034136741492316991 0 0.00031656332541727506 -0.034079125847112875 0 0.00024162147607391775 -0.03408369826395604 0 0.00026534666590207547 -0.033896138365308484 0 0.00020835785381671768 -0.033879218061148089 0 0.00019710110385190742 -0.033959025024583714 0 0.00033584270861536472 -0.034053678392804397 0 0.00026534666590207547 -0.033896138365308484 0 0.00035013802809807205 -0.033832504782587376 0 0.00026534666590207547 -0.033896138365308484 0 0.00026923453231206777 -0.033783250204829245 0 0.00035013802809807205 -0.033832504782587376 0 0.00026534666590207547 -0.033896138365308484 0 0.00026923453231206777 -0.033783250204829245 0 0.00020835785381671768 -0.033879218061148089 0 0.00026923453231206777 -0.033783250204829245 0 0.00035013802809807205 -0.033832504782587376 0 0.00034890904469177275 -0.033669246117039975 0 0.00035013802809807205 -0.033832504782587376 0 0.00034890904469177275 -0.033669246117039975 0 0.00046469741739477047 -0.033715215580056669 0 0.00034890904469177275 -0.033669246117039975 0 0.00030802120315439599 -0.033704551558642999 0 0.00046627972501471504 -0.033445028629565582 0 0.00036320845799955734 -0.03360682884451717 0 0.00030802120315439599 -0.033704551558642999 0 0.00046627972501471504 -0.033445028629565582 0 0.00026923453231206777 -0.033783250204829245 0 0.00030802120315439599 -0.033704551558642999 0 0.00018152476298060005 -0.033845627094548747 0 0.00026923453231206777 -0.033783250204829245 0 0.00034890904469177275 -0.033669246117039975 0 0.00030802120315439599 -0.033704551558642999 0 0.00030802120315439599 -0.033704551558642999 0 0.00018152476298060005 -0.033845627094548747 0 0.0001582794673230762 -0.03379489839481789 0 0.00025961731826579026 -0.033870522938415235 0 0.00030802120315439599 -0.033704551558642999 0 0.00017966757923086675 -0.034036701312804542 0 0.00026668312406584785 -0.033789636204219237 0 0.00016161883856576767 -0.033905120871891424 0 0.00016161883856576767 -0.033905120871891424 0 8.5966844773123914e-05 -0.034029450706184475 0 0.00018152476298060005 -0.033845627094548747 0 0.0001582794673230762 -0.03379489839481789 0 0.00010546434994501419 -0.033912592206545425 0 0.0001582794673230762 -0.03379489839481789 0 0.00010546434994501419 -0.033912592206545425 0 6.8971345719556526e-05 -0.033928893285875499 0 0.00018152476298060005 -0.033845627094548747 0 0.00010546434994501419 -0.033912592206545425 0 0.00013029634448760089 -0.033920718555656648 0 0.00013029634448760089 -0.033920718555656648 0 0.00014574048135411601 -0.033936217888963068 0 8.0819706825876596e-05 -0.033974391018530267 0 0.00013029634448760089 -0.033920718555656648 0 0.00015919856896281075 -0.033920382083529051 0 0.00014574048135411601 -0.033936217888963068 0 0.00026923453231206777 -0.033783250204829245 0 0.00018152476298060005 -0.033845627094548747 0 0.00020835785381671768 -0.033879218061148089 0 0.00018152476298060005 -0.033845627094548747 0 0.00013029634448760089 -0.033920718555656648 0 0.00015919856896281075 -0.033920382083529051 0 0.00018152476298060005 -0.033845627094548747 0 0.00020835785381671768 -0.033879218061148089 0 0.00015919856896281075 -0.033920382083529051 0 0.00024162147607391775 -0.03408369826395604 0 0.0003675626726066623 -0.034202031334297681 0 0.00015919856896281075 -0.033920382083529051 0 0.00019710110385190742 -0.033959025024583714 0 0.00014195679009049172 -0.033934352855221062 0 0.00025969963328714306 -0.034136741492316991 0 0.00020487651305678203 -0.03420518470593932 0 0.00016733679804621673 -0.034143645464882466 0 0.00034889460772120933 -0.034175939870355804 0 0.0003675626726066623 -0.034202031334297681 0 0.00020835785381671768 -0.033879218061148089 0 0.00015919856896281075 -0.033920382083529051 0 0.00019710110385190742 -0.033959025024583714 0 0.00027022009217508018 -0.034231019404783569 0 0.00025969963328714306 -0.034136741492316991 0 0.00020487651305678203 -0.03420518470593932 0 0.0003675626726066623 -0.034202031334297681 0 0.00030661902203083538 -0.034134631286120931 0 0.0003530144932809119 -0.034490705527265519 0 0.0003675626726066623 -0.034202031334297681 0 4.8062070165710571e-05 -0.034296966207302194 0 0.00014504211634692974 -0.034268786163045344 0 0.00016733679804621673 -0.034143645464882466 0 0.00014504211634692974 -0.034268786163045344 0 0.00020487651305678203 -0.03420518470593932 0 0.00016733679804621673 -0.034143645464882466 0 0.00065698960393597086 -0.034752894154778495 0 0.0010628271482699362 -0.034420409564483272 0 0.00050124509683474561 -0.034279757499655311 0 0.00065698960393597086 -0.034752894154778495 0 0.00030569373761042017 -0.034542891769259815 0 0.00050124509683474561 -0.034279757499655311 0 0.00030569373761042017 -0.034542891769259815 0 0.00019926362402112338 -0.034332055367796523 0 0.00050124509683474561 -0.034279757499655311 0 0.00034423328168920191 -0.034795625614251514 0 0.00030569373761042017 -0.034542891769259815 0 -1.2926507811499664e-05 -0.034545223927453003 0 0.00030569373761042017 -0.034542891769259815 0 0.00019926362402112338 -0.034332055367796523 0 0.00011348283962911414 -0.034425926574937461 0 0.00030661902203083538 -0.034134631286120931 0 5.245579871410964e-05 -0.034078949981799965 0 0.00019926362402112338 -0.034332055367796523 0 0.00050124509683474561 -0.034279757499655311 0 3.6420354167564017e-05 -0.034080784656913839 0 8.0819706825876596e-05 -0.033974391018530267 0 6.882081203590264e-05 -0.03398501765086899 0 3.6420354167564017e-05 -0.034080784656913839 0 0.00010546434994501419 -0.033912592206545425 0 0.00013029634448760089 -0.033920718555656648 0 8.0819706825876596e-05 -0.033974391018530267 0 0.00010546434994501419 -0.033912592206545425 0 8.0819706825876596e-05 -0.033974391018530267 0 6.882081203590264e-05 -0.03398501765086899 0 0.00010546434994501419 -0.033912592206545425 0 6.8971345719556526e-05 -0.033928893285875499 0 6.882081203590264e-05 -0.03398501765086899 0 8.0948767959827402e-05 -0.034185495492804273 0 0.00017966757923086675 -0.034036701312804542 0 6.3357632012471258e-05 -0.034173038221626248 0 6.3357632012471258e-05 -0.034173038221626248 0 8.6335121698259955e-05 -0.034089471827460693 0 7.6421133278658081e-05 -0.034165332073289562 0 5.6295808388687955e-05 -0.03423608356670365 0 6.3357632012471258e-05 -0.034173038221626248 0 7.6421133278658081e-05 -0.034165332073289562 0 8.0948767959827402e-05 -0.034185495492804273 0 5.6295808388687955e-05 -0.03423608356670365 0 6.3357632012471258e-05 -0.034173038221626248 0 8.5966844773123914e-05 -0.034029450706184475 0 0.00010277785839499615 -0.034068775240856858 0 6.8971345719556526e-05 -0.033928893285875499 0 6.882081203590264e-05 -0.03398501765086899 0 5.5939355056645991e-05 -0.034041265684163241 0 6.8971345719556526e-05 -0.033928893285875499 0 5.5939355056645991e-05 -0.034041265684163241 0 8.6335121698259955e-05 -0.034089471827460693 0 8.6335121698259955e-05 -0.034089471827460693 0 0.00013836627563109784 -0.034112433959624426 0 1.1321987033849965e-07 -0.034044967745144657 0 6.2905010511956047e-05 -0.034573631526937341 0 1.383570000749408e-05 -0.03455998932706035 0 5.5939355056645991e-05 -0.034041265684163241 0 8.6335121698259955e-05 -0.034089471827460693 0 1.1321987033849965e-07 -0.034044967745144657 0 8.6335121698259955e-05 -0.034089471827460693 0 7.6421133278658081e-05 -0.034165332073289562 0 0.00013836627563109784 -0.034112433959624426 0 0.00011594276640618816 -0.034241564984305424 0 7.6421133278658081e-05 -0.034165332073289562 0 0.00013836627563109784 -0.034112433959624426 0 5.6295808388687955e-05 -0.03423608356670365 0 0.00011594276640618816 -0.034241564984305424 0 7.6421133278658081e-05 -0.034165332073289562 0 0.00023367490229496413 -0.034351528457286402 0 0.00011594276640618816 -0.034241564984305424 0 0.00013836627563109784 -0.034112433959624426 0 9.6266133217398555e-05 -0.034678300131075659 0 6.2905010511956047e-05 -0.034573631526937341 0 -3.1804432825579303e-10 -0.035000062650461773 0 5.3422135749979443e-06 -0.035001265738246405 0 5.8638737510092612e-09 -0.034999986767596365 0 5.8638737510092612e-09 -0.034999986767596365 0 1.8926946111755414e-06 -0.035000230662015547 0 2.1485726897177938e-10 -0.03500000344947727 0 5.3422135749979443e-06 -0.035001265738246405 0 1.8926946111755414e-06 -0.035000230662015547 0 5.7421437199744278e-08 -0.034998851170403064 0 5.3422135749979443e-06 -0.035001265738246405 0 5.8638737510092612e-09 -0.034999986767596365 0 1.8926946111755414e-06 -0.035000230662015547 0 1.8926946111755414e-06 -0.035000230662015547 0 5.7421437199744278e-08 -0.034998851170403064 0 2.1485726897177938e-10 -0.03500000344947727 0 6.882081203590264e-05 -0.03398501765086899 0 5.5939355056645991e-05 -0.034041265684163241 0 3.6420354167564017e-05 -0.034080784656913839 0 5.5939355056645991e-05 -0.034041265684163241 0 3.6420354167564017e-05 -0.034080784656913839 0 1.1321987033849965e-07 -0.034044967745144657 0 0.00019926362402112338 -0.034332055367796523 0 3.6420354167564017e-05 -0.034080784656913839 0 5.9185423533415428e-05 -0.034280248054769605 0 1.1321987033849965e-07 -0.034044967745144657 0 5.9185423533415428e-05 -0.034280248054769605 0 3.2283056790785591e-05 -0.034354231872246586 0 3.6420354167564017e-05 -0.034080784656913839 0 1.1321987033849965e-07 -0.034044967745144657 0 5.9185423533415428e-05 -0.034280248054769605 0 0.00030569373761042017 -0.034542891769259815 0 0.00011348283962911414 -0.034425926574937461 0 -1.2926507811499664e-05 -0.034545223927453003 0 1.1321987033849965e-07 -0.034044967745144657 0 3.2283056790785591e-05 -0.034354231872246586 0 -1.2926507811499664e-05 -0.034545223927453003 0 1.383570000749408e-05 -0.03455998932706035 0 3.8676985131752643e-05 -0.034814143190244992 0 0.00019926362402112338 -0.034332055367796523 0 5.9185423533415428e-05 -0.034280248054769605 0 0.00011348283962911414 -0.034425926574937461 0 3.2283056790785591e-05 -0.034354231872246586 0 0.00011348283962911414 -0.034425926574937461 0 -1.2926507811499664e-05 -0.034545223927453003 0 5.9185423533415428e-05 -0.034280248054769605 0 3.2283056790785591e-05 -0.034354231872246586 0 0.00011348283962911414 -0.034425926574937461 0 3.8676985131752643e-05 -0.034814143190244992 0 4.0605468126623709e-05 -0.034821994827885568 0 2.7474690778831026e-05 -0.03496025734833496 0 5.3505241450486568e-05 -0.034929259512055881 0 6.5152075345403326e-05 -0.034904307317806603 0 5.3505241450486568e-05 -0.034929259512055881 0 6.5152075345403326e-05 -0.034904307317806603 0 7.1568920547959491e-05 -0.034887635404608146 0 1.9072685502012274e-08 -0.034999925608868707 0 2.7474690778831026e-05 -0.03496025734833496 0 7.7046744271351262e-09 -0.03499992887467919 0 3.8676985131752643e-05 -0.034814143190244992 0 8.7640848232879693e-08 -0.034999944571348474 0 5.7421437199744278e-08 -0.034998851170403064 0 -6.4096600490063649e-07 -0.034997239308102543 0 2.1485726897177938e-10 -0.03500000344947727 0 2.7474690778831026e-05 -0.03496025734833496 0 6.5152075345403326e-05 -0.034904307317806603 0 7.7046744271351262e-09 -0.03499992887467919 0 0.00045887087064014809 -0.031690911736167587 0 0.00045309523095113597 -0.031808900213915858 0 0.00038990563190221888 -0.031750549723651753 0 0.00045887087064014809 -0.031690911736167587 0 0.00040128826156931723 -0.031689848649182478 0 0.00043806738736048591 -0.031640535156570004 0 0.00045887087064014809 -0.031690911736167587 0 0.00038990563190221888 -0.031750549723651753 0 0.00040128826156931723 -0.031689848649182478 0 0.00045887087064014809 -0.031690911736167587 0 0.00054626525108008065 -0.031712547052802402 0 0.00045309523095113597 -0.031808900213915858 0 0.00045887087064014809 -0.031690911736167587 0 0.00054626525108008065 -0.031712547052802402 0 0.00056369458075571576 -0.031638113561010456 0 0.00045309523095113597 -0.031808900213915858 0 0.00038990563190221888 -0.031750549723651753 0 0.00033821219155435247 -0.031829396464286626 0 0.00038990563190221888 -0.031750549723651753 0 0.00033748272753748843 -0.031743622959879356 0 0.00033821219155435247 -0.031829396464286626 0 0.00033748272753748843 -0.031743622959879356 0 0.00037795279731681102 -0.03172240215475236 0 0.00039918573347909195 -0.031703963649051661 0 0.00038990563190221888 -0.031750549723651753 0 0.00033748272753748843 -0.031743622959879356 0 0.00037795279731681102 -0.03172240215475236 0 0.00033748272753748843 -0.031743622959879356 0 0.00039238040850554434 -0.031701616373556639 0 0.00039918573347909195 -0.031703963649051661 0 0.00039238040850554434 -0.031701616373556639 0 0.00040724845607102678 -0.031668004881950346 0 0.00045103550640986827 -0.031674961336156389 0 0.00033748272753748843 -0.031743622959879356 0 0.00039238040850554434 -0.031701616373556639 0 0.00035767052975413952 -0.031706015419749718 0 0.00039238040850554434 -0.031701616373556639 0 0.00040724845607102678 -0.031668004881950346 0 0.00035767052975413952 -0.031706015419749718 0 0.00039238040850554434 -0.031701616373556639 0 0.00044254347599519313 -0.031701086482329228 0 0.00039918573347909195 -0.031703963649051661 0 0.00039238040850554434 -0.031701616373556639 0 0.00044254347599519313 -0.031701086482329228 0 0.00045103550640986827 -0.031674961336156389 0 0.00044254347599519313 -0.031701086482329228 0 0.00039918573347909195 -0.031703963649051661 0 0.00045750821088246641 -0.031688809094629483 0 0.00039918573347909195 -0.031703963649051661 0 0.00045750821088246641 -0.031688809094629483 0 0.00043152160404001221 -0.031667580966672083 0 0.00038990563190221888 -0.031750549723651753 0 0.00037795279731681102 -0.03172240215475236 0 0.00040128826156931723 -0.031689848649182478 0 0.00037795279731681102 -0.03172240215475236 0 0.00039918573347909195 -0.031703963649051661 0 0.00040128826156931723 -0.031689848649182478 0 0.00039918573347909195 -0.031703963649051661 0 0.00040128826156931723 -0.031689848649182478 0 0.00043152160404001221 -0.031667580966672083 0 0.00040128826156931723 -0.031689848649182478 0 0.00042062236550066521 -0.031646434753294365 0 0.00043806738736048591 -0.031640535156570004 0 0.00040128826156931723 -0.031689848649182478 0 0.00042062236550066521 -0.031646434753294365 0 0.00043152160404001221 -0.031667580966672083 0 0.00042062236550066521 -0.031646434753294365 0 0.00043959007195400722 -0.031632235665483552 0 0.00042212911652272765 -0.031600548984240598 0 0.00042062236550066521 -0.031646434753294365 0 0.00042212911652272765 -0.031600548984240598 0 0.00043806738736048591 -0.031640535156570004 0 0.00045750821088246641 -0.031688809094629483 0 0.00047383252405895778 -0.031649891334807681 0 0.00043152160404001221 -0.031667580966672083 0 0.00042062236550066521 -0.031646434753294365 0 0.00043152160404001221 -0.031667580966672083 0 0.00043959007195400722 -0.031632235665483552 0 0.00047383252405895778 -0.031649891334807681 0 0.00043152160404001221 -0.031667580966672083 0 0.00043959007195400722 -0.031632235665483552 0 0.00047383252405895778 -0.031649891334807681 0 0.00043959007195400722 -0.031632235665483552 0 0.00049025597280691552 -0.031604370314485382 0 0.00052897751628807569 -0.031579215578012299 0 0.00043959007195400722 -0.031632235665483552 0 0.00045428322956428689 -0.031639854781063237 0 0.00043959007195400722 -0.031632235665483552 0 0.00045428322956428689 -0.031639854781063237 0 0.00049025597280691552 -0.031604370314485382 0 0.00047744773294115095 -0.031744343333608559 0 0.00048675259760789212 -0.031575351087588854 0 0.00037077289160014057 -0.031495086238639065 0 0.00043959007195400722 -0.031632235665483552 0 0.00041113214515357479 -0.031569033467498724 0 0.00043959007195400722 -0.031632235665483552 0 0.00042212911652272765 -0.031600548984240598 0 0.00041113214515357479 -0.031569033467498724 0 0.00042212911652272765 -0.031600548984240598 0 0.00041113214515357479 -0.031569033467498724 0 0.00043092224864035839 -0.031537192698954171 0 0.00037077289160014057 -0.031495086238639065 0 0.00041113214515357479 -0.031569033467498724 0 0.00043092224864035839 -0.031537192698954171 0 0.00043092224864035839 -0.031537192698954171 0 0.00047901653780950079 -0.031518521270537003 0 0.00046281776547193906 -0.031580540435959724 0 0.00047901653780950079 -0.031518521270537003 0 0.00046281776547193906 -0.031580540435959724 0 0.00052844998684571079 -0.031538723186846702 0 0.00046281776547193906 -0.031580540435959724 0 0.00050254225075946465 -0.031613884714084259 0 0.00052844998684571079 -0.031538723186846702 0 0.00042212911652272765 -0.031600548984240598 0 0.00043092224864035839 -0.031537192698954171 0 0.00046281776547193906 -0.031580540435959724 0 0.00042212911652272765 -0.031600548984240598 0 0.00046281776547193906 -0.031580540435959724 0 0.00043806738736048591 -0.031640535156570004 0 0.00045887087064014809 -0.031690911736167587 0 0.00043806738736048591 -0.031640535156570004 0 0.00050254225075946465 -0.031613884714084259 0 0.00046281776547193906 -0.031580540435959724 0 0.00043806738736048591 -0.031640535156570004 0 0.00050254225075946465 -0.031613884714084259 0 0.00045887087064014809 -0.031690911736167587 0 0.00056369458075571576 -0.031638113561010456 0 0.00050254225075946465 -0.031613884714084259 0 0.00056369458075571576 -0.031638113561010456 0 0.00050254225075946465 -0.031613884714084259 0 0.00058276930990494591 -0.031571233065999099 0 0.00050254225075946465 -0.031613884714084259 0 0.00058276930990494591 -0.031571233065999099 0 0.00052844998684571079 -0.031538723186846702 0 0.00060665435087488805 -0.031491097298591647 0 0.00058276930990494591 -0.031571233065999099 0 0.00052844998684571079 -0.031538723186846702 0 0.00060665435087488805 -0.031491097298591647 0 0.00058276930990494591 -0.031571233065999099 0 0.00066846495413759035 -0.031537942667026309 0 0.00058276930990494591 -0.031571233065999099 0 0.00066846495413759035 -0.031537942667026309 0 0.00063283748908856742 -0.031596651270779312 0 0.00066846495413759035 -0.031537942667026309 0 0.00070320358060467708 -0.031589862158904886 0 0.00063283748908856742 -0.031596651270779312 0 0.00066846495413759035 -0.031537942667026309 0 0.00071176196760340928 -0.031552384178885146 0 0.00070320358060467708 -0.031589862158904886 0 0.00066846495413759035 -0.031537942667026309 0 0.0007299277118565017 -0.031522017856432855 0 0.00071176196760340928 -0.031552384178885146 0 0.00070017438285283496 -0.031453957719142979 0 0.00066846495413759035 -0.031537942667026309 0 0.0007299277118565017 -0.031522017856432855 0 0.00079520219209069357 -0.031479975380033179 0 0.0007299277118565017 -0.031522017856432855 0 0.00075588928039162998 -0.031560068044308755 0 0.0007299277118565017 -0.031522017856432855 0 0.00075588928039162998 -0.031560068044308755 0 0.0007423227512165394 -0.031558059226637215 0 0.0007299277118565017 -0.031522017856432855 0 0.00071176196760340928 -0.031552384178885146 0 0.0007423227512165394 -0.031558059226637215 0 0.00060448590884317626 -0.031647673368606966 0 0.00052901210679384908 -0.032553276777476811 0 0.00079520219209069357 -0.031479975380033179 0 0.00080270189255719402 -0.031659156058805399 0 0.00095507138715834731 -0.031568883812762766 0 0.00052901210679384908 -0.032553276777476811 0 0.0005373622750022561 -0.032539939855182276 0 0.00071176196760340928 -0.031552384178885146 0 0.0007423227512165394 -0.031558059226637215 0 0.00070320358060467708 -0.031589862158904886 0 0.00075221837000534497 -0.031558390377115011 0 0.0007423227512165394 -0.031558059226637215 0 0.00070320358060467708 -0.031589862158904886 0 0.00052901210679384908 -0.032553276777476811 0 0.00077840633449228027 -0.033071785183692845 0 0.00075221837000534497 -0.031558390377115011 0 0.00070320358060467708 -0.031589862158904886 0 0.00074828003906333735 -0.031676736862761803 0 0.00070320358060467708 -0.031589862158904886 0 0.00065095871185594473 -0.03165722169428424 0 0.00074828003906333735 -0.031676736862761803 0 0.00085138506927004919 -0.034574331354642392 0 0.00073479800747152334 -0.034460159065683074 0 0.00085429528504045503 -0.034370041882654793 0 0.00054626525108008065 -0.031712547052802402 0 0.00056369458075571576 -0.031638113561010456 0 0.00065095871185594473 -0.03165722169428424 0 0.00056369458075571576 -0.031638113561010456 0 0.00058276930990494591 -0.031571233065999099 0 0.00063283748908856742 -0.031596651270779312 0 0.00056369458075571576 -0.031638113561010456 0 0.00065095871185594473 -0.03165722169428424 0 0.00063283748908856742 -0.031596651270779312 0 0.00070320358060467708 -0.031589862158904886 0 0.00065095871185594473 -0.03165722169428424 0 0.00063283748908856742 -0.031596651270779312 0 0.0010815155374800127 -0.0315327608558197 0 0.001299529839642947 -0.031561834887619253 0 0.0010840107914583778 -0.031686727883097641 0 0.00080270189255719402 -0.031659156058805399 0 0.0010840107914583778 -0.031686727883097641 0 0.00095507138715834731 -0.031568883812762766 0 0.00052901210679384908 -0.032553276777476811 0 0.00089298547572193656 -0.033129477679635762 0 0.00085138506927004919 -0.034574331354642392 0 0.00062376881362264215 -0.034555119977151973 0 0.00073479800747152334 -0.034460159065683074 0 0.0010815155374800127 -0.0315327608558197 0 0.0010840107914583778 -0.031686727883097641 0 0.00095507138715834731 -0.031568883812762766 0 0.00042772597259591125 -0.034529768455150003 0 0.00062376881362264215 -0.034555119977151973 0 0.00059936941755110457 -0.034417856030784892 0 0.00062376881362264215 -0.034555119977151973 0 0.00073479800747152334 -0.034460159065683074 0 0.00059936941755110457 -0.034417856030784892 0 0.00042616762799624396 -0.034372862446470205 0 0.00059936941755110457 -0.034417856030784892 0 0.00051327925616430543 -0.034219386775007257 0 0.00059936941755110457 -0.034417856030784892 0 0.00070153438306563528 -0.034275756831835869 0 0.00051327925616430543 -0.034219386775007257 0 0.00073479800747152334 -0.034460159065683074 0 0.00059936941755110457 -0.034417856030784892 0 0.00070153438306563528 -0.034275756831835869 0 0.00070153438306563528 -0.034275756831835869 0 0.00085429528504045503 -0.034370041882654793 0 0.00087675420896113896 -0.034119287103922695 0 0.00073479800747152334 -0.034460159065683074 0 0.00070153438306563528 -0.034275756831835869 0 0.00085429528504045503 -0.034370041882654793 0 0.00070153438306563528 -0.034275756831835869 0 0.00087675420896113896 -0.034119287103922695 0 0.00062250282510762907 -0.033976564608583143 0 0.00070153438306563528 -0.034275756831835869 0 0.00051327925616430543 -0.034219386775007257 0 0.00062250282510762907 -0.033976564608583143 0 0.00045196085092332481 -0.034030210024423982 0 0.00051327925616430543 -0.034219386775007257 0 0.00062250282510762907 -0.033976564608583143 0 0.00054626525108008065 -0.031712547052802402 0 0.00065095871185594473 -0.03165722169428424 0 0.0006320570921531176 -0.03176619338390823 0 0.00074828003906333735 -0.031676736862761803 0 0.00079581991536719363 -0.031847753307881511 0 0.0006320570921531176 -0.03176619338390823 0 0.00077840633449228027 -0.033071785183692845 0 0.0008309017782108844 -0.032984825233788755 0 0.00065095871185594473 -0.03165722169428424 0 0.00074828003906333735 -0.031676736862761803 0 0.0006320570921531176 -0.03176619338390823 0 0.00079581991536719363 -0.031847753307881511 0 0.0006320570921531176 -0.03176619338390823 0 0.00057765736807105809 -0.032012623024618971 0 0.00045309523095113597 -0.031808900213915858 0 0.0006320570921531176 -0.03176619338390823 0 0.00057765736807105809 -0.032012623024618971 0 0.00054626525108008065 -0.031712547052802402 0 0.00045309523095113597 -0.031808900213915858 0 0.0006320570921531176 -0.03176619338390823 0 0.0008309017782108844 -0.032984825233788755 0 0.00084706625786036896 -0.032989405657525686 0 0.00079581991536719363 -0.031847753307881511 0 0.00057765736807105809 -0.032012623024618971 0 0.00088270264950888761 -0.032192008846989091 0 0.00057765736807105809 -0.032012623024618971 0 0.00061766152451182821 -0.032453948449732595 0 0.00088270264950888761 -0.032192008846989091 0 0.00061766152451182821 -0.032453948449732595 0 0.00088270264950888761 -0.032192008846989091 0 0.0007553080575792517 -0.033062378768706852 0 0.00084706625786036896 -0.032989405657525686 0 0.00081327451782384512 -0.033032308088923788 0 0.00057765736807105809 -0.032012623024618971 0 0.00061766152451182821 -0.032453948449732595 0 0.00047095614084187958 -0.032285215896652057 0 0.00057765736807105809 -0.032012623024618971 0 0.00047095614084187958 -0.032285215896652057 0 0.00038935061079873457 -0.031995318907456841 0 0.00045196085092332481 -0.034030210024423982 0 0.00062250282510762907 -0.033976564608583143 0 0.00046469741739477047 -0.033715215580056669 0 0.00087675420896113896 -0.034119287103922695 0 0.00089336492421719302 -0.033766648160662924 0 0.00062250282510762907 -0.033976564608583143 0 0.00089336492421719302 -0.033766648160662924 0 0.00061598444791328261 -0.033537754178370384 0 0.0007553080575792517 -0.033062378768706852 0 0.00089336492421719302 -0.033766648160662924 0 0.00062250282510762907 -0.033976564608583143 0 0.00061598444791328261 -0.033537754178370384 0 0.00062250282510762907 -0.033976564608583143 0 0.00061598444791328261 -0.033537754178370384 0 0.00046469741739477047 -0.033715215580056669 0 0.00034890904469177275 -0.033669246117039975 0 0.00046469741739477047 -0.033715215580056669 0 0.00046627972501471504 -0.033445028629565582 0 0.00061598444791328261 -0.033537754178370384 0 0.00046469741739477047 -0.033715215580056669 0 0.00046627972501471504 -0.033445028629565582 0 0.00061598444791328261 -0.033537754178370384 0 0.00046627972501471504 -0.033445028629565582 0 0.0007553080575792517 -0.033062378768706852 0 0.00048822299705351073 -0.033342178945450496 0 0.00046627972501471504 -0.033445028629565582 0 0.0007553080575792517 -0.033062378768706852 0 0.00053015311209909141 -0.033107043393452482 0 0.00048822299705351073 -0.033342178945450496 0 0.0007553080575792517 -0.033062378768706852 0 0.00048822299705351073 -0.033342178945450496 0 0.00036320845799955734 -0.03360682884451717 0 0.00046627972501471504 -0.033445028629565582 0 0.00047095614084187958 -0.032285215896652057 0 0.00053766055148205569 -0.032717271326969395 0 0.00034879721182787976 -0.032225920529401014 0 0.00061766152451182821 -0.032453948449732595 0 0.00047095614084187958 -0.032285215896652057 0 0.00053766055148205569 -0.032717271326969395 0 0.00053766055148205569 -0.032717271326969395 0 0.00043295363831091809 -0.032643474927573163 0 0.00034879721182787976 -0.032225920529401014 0 0.00061766152451182821 -0.032453948449732595 0 0.00053766055148205569 -0.032717271326969395 0 0.0007553080575792517 -0.033062378768706852 0 0.00053015311209909141 -0.033107043393452482 0 0.00053766055148205569 -0.032717271326969395 0 0.0007553080575792517 -0.033062378768706852 0 0.00053015311209909141 -0.033107043393452482 0 0.00053766055148205569 -0.032717271326969395 0 0.00043295363831091809 -0.032643474927573163 0 0.00043149055226655446 -0.032928088816428024 0 0.00043295363831091809 -0.032643474927573163 0 0.00034284215396155444 -0.032608595906456192 0 0.00043295363831091809 -0.032643474927573163 0 0.00034284215396155444 -0.032608595906456192 0 0.00026290387262047662 -0.032218045070750927 0 0.00034284215396155444 -0.032608595906456192 0 0.00019216866766754562 -0.032280569221541072 0 0.00026290387262047662 -0.032218045070750927 0 0.00024714954704981685 -0.032736904329654294 0 0.00034284215396155444 -0.032608595906456192 0 0.00019216866766754562 -0.032280569221541072 0 0.00019216866766754562 -0.032280569221541072 0 0.00026290387262047662 -0.032218045070750927 0 0.00011939731272226191 -0.031941998657766348 0 0.00026290387262047662 -0.032218045070750927 0 0.00022010253188731185 -0.031987188487792098 0 0.00034879721182787976 -0.032225920529401014 0 0.00026290387262047662 -0.032218045070750927 0 0.00022010253188731185 -0.031987188487792098 0 0.00011939731272226191 -0.031941998657766348 0 0.00043295363831091809 -0.032643474927573163 0 0.00026290387262047662 -0.032218045070750927 0 0.00034879721182787976 -0.032225920529401014 0 0.00047095614084187958 -0.032285215896652057 0 0.00034879721182787976 -0.032225920529401014 0 0.00038935061079873457 -0.031995318907456841 0 0.00034879721182787976 -0.032225920529401014 0 0.0002789130201807292 -0.03192428978716394 0 0.00038935061079873457 -0.031995318907456841 0 0.00022010253188731185 -0.031987188487792098 0 0.00034879721182787976 -0.032225920529401014 0 0.0002789130201807292 -0.03192428978716394 0 0.00022010253188731185 -0.031987188487792098 0 0.0002789130201807292 -0.03192428978716394 0 0.00023299960043532148 -0.031854130287334928 0 0.0002789130201807292 -0.03192428978716394 0 0.00028982998022194785 -0.031801408684667166 0 0.00023299960043532148 -0.031854130287334928 0 0.0002789130201807292 -0.03192428978716394 0 0.00033821219155435247 -0.031829396464286626 0 0.00028982998022194785 -0.031801408684667166 0 0.0002789130201807292 -0.03192428978716394 0 0.00033821219155435247 -0.031829396464286626 0 0.00038935061079873457 -0.031995318907456841 0 0.00045309523095113597 -0.031808900213915858 0 0.00033821219155435247 -0.031829396464286626 0 0.00038935061079873457 -0.031995318907456841 0 0.00045309523095113597 -0.031808900213915858 0 0.00057765736807105809 -0.032012623024618971 0 0.00038935061079873457 -0.031995318907456841 0 0.00036242875267690987 -0.031674260526960117 0 0.00031287509708687175 -0.031688102148303768 0 0.00038554764000364364 -0.031615847597019714 0 0.00036242875267690987 -0.031674260526960117 0 0.0003135204048621673 -0.03173417795956586 0 0.00031287509708687175 -0.031688102148303768 0 0.00036242875267690987 -0.031674260526960117 0 0.00038554764000364364 -0.031615847597019714 0 0.00043929169215618899 -0.03160509586675677 0 0.00036242875267690987 -0.031674260526960117 0 0.00040724845607102678 -0.031668004881950346 0 0.00043929169215618899 -0.03160509586675677 0 0.00036242875267690987 -0.031674260526960117 0 0.00035767052975413952 -0.031706015419749718 0 0.0003135204048621673 -0.03173417795956586 0 0.00036242875267690987 -0.031674260526960117 0 0.00040724845607102678 -0.031668004881950346 0 0.00035767052975413952 -0.031706015419749718 0 0.00033748272753748843 -0.031743622959879356 0 0.00035767052975413952 -0.031706015419749718 0 0.0003135204048621673 -0.03173417795956586 0 0.00033748272753748843 -0.031743622959879356 0 0.00033821219155435247 -0.031829396464286626 0 0.00028982998022194785 -0.031801408684667166 0 0.00033748272753748843 -0.031743622959879356 0 0.00028982998022194785 -0.031801408684667166 0 0.0003135204048621673 -0.03173417795956586 0 0.0003135204048621673 -0.03173417795956586 0 0.00026577873819754312 -0.031771971251018702 0 0.00031287509708687175 -0.031688102148303768 0 0.00028982998022194785 -0.031801408684667166 0 0.0003135204048621673 -0.03173417795956586 0 0.00026577873819754312 -0.031771971251018702 0 0.00026577873819754312 -0.031771971251018702 0 0.00024738770585164456 -0.031694160849611359 0 0.00031287509708687175 -0.031688102148303768 0 0.00028982998022194785 -0.031801408684667166 0 0.00026577873819754312 -0.031771971251018702 0 0.00023299960043532148 -0.031854130287334928 0 0.00026577873819754312 -0.031771971251018702 0 0.00023299960043532148 -0.031854130287334928 0 0.00018177364850126116 -0.031820535754079143 0 0.00022010253188731185 -0.031987188487792098 0 0.00023299960043532148 -0.031854130287334928 0 0.00018177364850126116 -0.031820535754079143 0 0.00026577873819754312 -0.031771971251018702 0 0.00024738770585164456 -0.031694160849611359 0 0.00018177364850126116 -0.031820535754079143 0 0.0003287285853077874 -0.031629876260826813 0 0.00024738770585164456 -0.031694160849611359 0 0.00031287509708687175 -0.031688102148303768 0 0.0003287285853077874 -0.031629876260826813 0 0.00024738770585164456 -0.031694160849611359 0 0.00039972760801029294 -0.031512024313410478 0 0.0003287285853077874 -0.031629876260826813 0 0.00031287509708687175 -0.031688102148303768 0 0.00038554764000364364 -0.031615847597019714 0 0.00038554764000364364 -0.031615847597019714 0 0.00039972760801029294 -0.031512024313410478 0 0.00048745597101030707 -0.031507299406070909 0 0.0003287285853077874 -0.031629876260826813 0 0.00038554764000364364 -0.031615847597019714 0 0.00039972760801029294 -0.031512024313410478 0 0.00024738770585164456 -0.031694160849611359 0 0.00025930731726831911 -0.031590666803319158 0 0.00010965674404524253 -0.031774881890571816 0 0.00024738770585164456 -0.031694160849611359 0 0.00039972760801029294 -0.031512024313410478 0 0.00025930731726831911 -0.031590666803319158 0 0.00039972760801029294 -0.031512024313410478 0 0.00025930731726831911 -0.031590666803319158 0 0.00039974232824653631 -0.031361442680746615 0 0.00022010253188731185 -0.031987188487792098 0 0.00018177364850126116 -0.031820535754079143 0 0.00011939731272226191 -0.031941998657766348 0 0.00024738770585164456 -0.031694160849611359 0 0.00018177364850126116 -0.031820535754079143 0 0.00010965674404524253 -0.031774881890571816 0 0.00010965674404524253 -0.031774881890571816 0 0.00011939731272226191 -0.031941998657766348 0 -3.0159956073385998e-05 -0.031844516074837341 0 0.00018177364850126116 -0.031820535754079143 0 0.00010965674404524253 -0.031774881890571816 0 0.00011939731272226191 -0.031941998657766348 0 6.0567164998869004e-05 -0.030721950476108803 0 -3.0159956073385998e-05 -0.031844516074837341 0 0.00019564843915730488 -0.031398298783977104 0 0.00019216866766754562 -0.032280569221541072 0 0.00011939731272226191 -0.031941998657766348 0 -3.0159956073385998e-05 -0.031844516074837341 0 0.00010965674404524253 -0.031774881890571816 0 -3.0159956073385998e-05 -0.031844516074837341 0 0.00019564843915730488 -0.031398298783977104 0 2.9198567657852799e-05 -0.032494988517229581 0 0.00019216866766754562 -0.032280569221541072 0 -3.0159956073385998e-05 -0.031844516074837341 0 0.00039974232824653631 -0.031361442680746615 0 0.00019564843915730488 -0.031398298783977104 0 0.00043103446128703896 -0.031132108725965855 0 0.00025930731726831911 -0.031590666803319158 0 0.00010965674404524253 -0.031774881890571816 0 0.00019564843915730488 -0.031398298783977104 0 0.00025930731726831911 -0.031590666803319158 0 0.00039974232824653631 -0.031361442680746615 0 0.00019564843915730488 -0.031398298783977104 0 0.00034307856999265732 -0.031012776651419292 0 0.00019564843915730488 -0.031398298783977104 0 0.00043103446128703896 -0.031132108725965855 0 0.00034307856999265732 -0.031012776651419292 0 0.00047106558501270137 -0.030873469550457389 0 0.00043103446128703896 -0.031132108725965855 0 0.00043103446128703896 -0.031132108725965855 0 0.00057727418157362442 -0.030955053066241005 0 0.00059544249091977202 -0.031110856659651069 0 0.00047106558501270137 -0.030873469550457389 0 0.00043103446128703896 -0.031132108725965855 0 0.00057727418157362442 -0.030955053066241005 0 0.00039974232824653631 -0.031361442680746615 0 0.00043103446128703896 -0.031132108725965855 0 0.00059544249091977202 -0.031110856659651069 0 0.00059544249091977202 -0.031110856659651069 0 0.00084461577600231205 -0.030912353685806616 0 0.00067917206349302239 -0.031160025332284146 0 0.00057727418157362442 -0.030955053066241005 0 0.00059544249091977202 -0.031110856659651069 0 0.00075005063468015266 -0.030829859358911232 0 0.00099593302461241525 -0.030656994206677144 0 0.00084461577600231205 -0.030912353685806616 0 0.0011652189902116598 -0.030711591288967572 0 0.00099593302461241525 -0.030656994206677144 0 0.00075005063468015266 -0.030829859358911232 0 0.00084461577600231205 -0.030912353685806616 0 0.00084461577600231205 -0.030912353685806616 0 0.00091372018008794393 -0.030990644224192527 0 0.0011652189902116598 -0.030711591288967572 0 0.00059544249091977202 -0.031110856659651069 0 0.00075005063468015266 -0.030829859358911232 0 0.00084461577600231205 -0.030912353685806616 0 0.00084461577600231205 -0.030912353685806616 0 0.00091372018008794393 -0.030990644224192527 0 0.00067917206349302239 -0.031160025332284146 0 0.00091372018008794393 -0.030990644224192527 0 0.00074700631995744447 -0.031186971576653792 0 0.00082261629108097906 -0.031196808404536099 0 0.00091372018008794393 -0.030990644224192527 0 0.00074700631995744447 -0.031186971576653792 0 0.00067917206349302239 -0.031160025332284146 0 0.00074700631995744447 -0.031186971576653792 0 0.00067917206349302239 -0.031160025332284146 0 0.0005618173153135751 -0.031370584590530382 0 0.00051904520034201792 -0.031315023910269912 0 0.00067917206349302239 -0.031160025332284146 0 0.0005618173153135751 -0.031370584590530382 0 0.00039972760801029294 -0.031512024313410478 0 0.00051904520034201792 -0.031315023910269912 0 0.0005618173153135751 -0.031370584590530382 0 0.00039972760801029294 -0.031512024313410478 0 0.00039974232824653631 -0.031361442680746615 0 0.00051904520034201792 -0.031315023910269912 0 0.00039974232824653631 -0.031361442680746615 0 0.00059544249091977202 -0.031110856659651069 0 0.00051904520034201792 -0.031315023910269912 0 0.00059544249091977202 -0.031110856659651069 0 0.00051904520034201792 -0.031315023910269912 0 0.00067917206349302239 -0.031160025332284146 0 0.0014026619462207944 -0.030500184580785732 0 0.0014127646831764778 -0.030608013620747596 0 0.0011652189902116598 -0.030711591288967572 0 0.0014127646831764778 -0.030608013620747596 0 0.0011652189902116598 -0.030711591288967572 0 0.0013081472216221091 -0.03067721855097108 0 0.00091372018008794393 -0.030990644224192527 0 0.0011652189902116598 -0.030711591288967572 0 0.0011206957357761422 -0.030882699607340119 0 0.0011652189902116598 -0.030711591288967572 0 0.0011206957357761422 -0.030882699607340119 0 0.0013081472216221091 -0.03067721855097108 0 0.00091372018008794393 -0.030990644224192527 0 0.0011206957357761422 -0.030882699607340119 0 0.00082261629108097906 -0.031196808404536099 0 0.0011206957357761422 -0.030882699607340119 0 0.0013081472216221091 -0.03067721855097108 0 0.0014624495329977557 -0.030558521680643904 0 0.0014127646831764778 -0.030608013620747596 0 0.0013081472216221091 -0.03067721855097108 0 0.0014624495329977557 -0.030558521680643904 0 0.0014127646831764778 -0.030608013620747596 0 0.0014624495329977557 -0.030558521680643904 0 0.0015344714459269932 -0.030563977825884093 0 0.0014624495329977557 -0.030558521680643904 0 0.0012754879455112197 -0.030933500989675042 0 0.001843770270335993 -0.03015573907819492 0 0.0011206957357761422 -0.030882699607340119 0 0.0014624495329977557 -0.030558521680643904 0 0.0012754879455112197 -0.030933500989675042 0 0.0012754879455112197 -0.030933500989675042 0 0.00095442178219391348 -0.031166474522049133 0 0.0010091421131449814 -0.031334146620008337 0 0.0011206957357761422 -0.030882699607340119 0 0.0012754879455112197 -0.030933500989675042 0 0.00095442178219391348 -0.031166474522049133 0 0.0011206957357761422 -0.030882699607340119 0 0.00095442178219391348 -0.031166474522049133 0 0.00082261629108097906 -0.031196808404536099 0 0.00095442178219391348 -0.031166474522049133 0 0.0010091421131449814 -0.031334146620008337 0 0.00082104658872059633 -0.03137679649888233 0 0.00082528476001901899 -0.03148188740293071 0 0.0010091421131449814 -0.031334146620008337 0 0.00082104658872059633 -0.03137679649888233 0 0.00082528476001901899 -0.03148188740293071 0 0.0010091421131449814 -0.031334146620008337 0 0.0010594399582503856 -0.031514272867171886 0 0.0010091421131449814 -0.031334146620008337 0 0.001276782145339364 -0.031285514306612951 0 0.0010594399582503856 -0.031514272867171886 0 0.0012754879455112197 -0.030933500989675042 0 0.001276782145339364 -0.031285514306612951 0 0.0018025591030913788 -0.03113221954826648 0 0.0012754879455112197 -0.030933500989675042 0 0.0010091421131449814 -0.031334146620008337 0 0.001276782145339364 -0.031285514306612951 0 0.00061634754283477783 -0.031390297966660291 0 0.00048745597101030707 -0.031507299406070909 0 0.00054950480683629876 -0.031523156945711353 0 0.00061634754283477783 -0.031390297966660291 0 0.00069702200847111709 -0.031374983889551587 0 0.00054950480683629876 -0.031523156945711353 0 0.00039972760801029294 -0.031512024313410478 0 0.00048745597101030707 -0.031507299406070909 0 0.0005618173153135751 -0.031370584590530382 0 0.00061634754283477783 -0.031390297966660291 0 0.00048745597101030707 -0.031507299406070909 0 0.0005618173153135751 -0.031370584590530382 0 0.00074700631995744447 -0.031186971576653792 0 0.00061634754283477783 -0.031390297966660291 0 0.0005618173153135751 -0.031370584590530382 0 0.00074700631995744447 -0.031186971576653792 0 0.00061634754283477783 -0.031390297966660291 0 0.00082261629108097906 -0.031196808404536099 0 0.00095442178219391348 -0.031166474522049133 0 0.00082261629108097906 -0.031196808404536099 0 0.00069702200847111709 -0.031374983889551587 0 0.00061634754283477783 -0.031390297966660291 0 0.00082261629108097906 -0.031196808404536099 0 0.00069702200847111709 -0.031374983889551587 0 0.00069702200847111709 -0.031374983889551587 0 0.00065759473182031502 -0.031510823961687986 0 0.00054950480683629876 -0.031523156945711353 0 0.00069702200847111709 -0.031374983889551587 0 0.00082104658872059633 -0.03137679649888233 0 0.00065759473182031502 -0.031510823961687986 0 0.00095442178219391348 -0.031166474522049133 0 0.00069702200847111709 -0.031374983889551587 0 0.00082104658872059633 -0.03137679649888233 0 0.00082528476001901899 -0.03148188740293071 0 0.00065759473182031502 -0.031510823961687986 0 0.00070537630700470428 -0.031553902925815176 0 0.00082528476001901899 -0.03148188740293071 0 0.00082104658872059633 -0.03137679649888233 0 0.00065759473182031502 -0.031510823961687986 0 0.00065759473182031502 -0.031510823961687986 0 0.00055892719914035468 -0.03158418364481199 0 0.00054950480683629876 -0.031523156945711353 0 0.00055892719914035468 -0.03158418364481199 0 0.00054950480683629876 -0.031523156945711353 0 0.00048078078330338406 -0.03162025017410211 0 0.00038554764000364364 -0.031615847597019714 0 0.00048745597101030707 -0.031507299406070909 0 0.00043929169215618899 -0.03160509586675677 0 0.00048745597101030707 -0.031507299406070909 0 0.00054950480683629876 -0.031523156945711353 0 0.00043929169215618899 -0.03160509586675677 0 0.00040724845607102678 -0.031668004881950346 0 0.00043929169215618899 -0.03160509586675677 0 0.00048078078330338406 -0.03162025017410211 0 0.00054950480683629876 -0.031523156945711353 0 0.00043929169215618899 -0.03160509586675677 0 0.00048078078330338406 -0.03162025017410211 0 0.00040724845607102678 -0.031668004881950346 0 0.00048078078330338406 -0.03162025017410211 0 0.00045103550640986827 -0.031674961336156389 0 0.00048078078330338406 -0.03162025017410211 0 0.00045103550640986827 -0.031674961336156389 0 0.00052300320969379983 -0.031646124892203607 0 0.00055892719914035468 -0.03158418364481199 0 0.00048078078330338406 -0.03162025017410211 0 0.00052300320969379983 -0.031646124892203607 0 0.00055892719914035468 -0.03158418364481199 0 0.00052300320969379983 -0.031646124892203607 0 0.00061195260422083973 -0.031597514430339417 0 0.00052300320969379983 -0.031646124892203607 0 0.00049066430138125993 -0.031693875863954536 0 0.00057677821633961496 -0.031677093767683032 0 0.00044254347599519313 -0.031701086482329228 0 0.00045103550640986827 -0.031674961336156389 0 0.00049066430138125993 -0.031693875863954536 0 0.00045103550640986827 -0.031674961336156389 0 0.00052300320969379983 -0.031646124892203607 0 0.00049066430138125993 -0.031693875863954536 0 0.00044254347599519313 -0.031701086482329228 0 0.00045750821088246641 -0.031688809094629483 0 0.00048238210750227813 -0.031713300288702263 0 0.00044254347599519313 -0.031701086482329228 0 0.00049066430138125993 -0.031693875863954536 0 0.00048238210750227813 -0.031713300288702263 0 0.00049066430138125993 -0.031693875863954536 0 0.00048238210750227813 -0.031713300288702263 0 0.00051825182956079566 -0.031721057037384599 0 0.00049066430138125993 -0.031693875863954536 0 0.00051825182956079566 -0.031721057037384599 0 0.00057677821633961496 -0.031677093767683032 0 0.00048238210750227813 -0.031713300288702263 0 0.00050240788629120695 -0.031739103794859981 0 0.00049663725399320111 -0.031700163357430595 0 0.00048238210750227813 -0.031713300288702263 0 0.00051825182956079566 -0.031721057037384599 0 0.00050240788629120695 -0.031739103794859981 0 0.00051825182956079566 -0.031721057037384599 0 0.00050240788629120695 -0.031739103794859981 0 0.00051213580839055365 -0.031771329696145753 0 0.00050240788629120695 -0.031739103794859981 0 0.00051213580839055365 -0.031771329696145753 0 0.0005000933432256783 -0.031744236804183736 0 0.00050240788629120695 -0.031739103794859981 0 0.00049663725399320111 -0.031700163357430595 0 0.0005000933432256783 -0.031744236804183736 0 0.00045750821088246641 -0.031688809094629483 0 0.00048238210750227813 -0.031713300288702263 0 0.00049663725399320111 -0.031700163357430595 0 0.0006317267349649629 -0.031757525701352353 0 0.00061385025437367261 -0.031806280787793073 0 0.00051213580839055365 -0.031771329696145753 0 0.0006317267349649629 -0.031757525701352353 0 0.00061385025437367261 -0.031806280787793073 0 0.00074075237961908108 -0.031773783959635322 0 0.00061385025437367261 -0.031806280787793073 0 0.00074075237961908108 -0.031773783959635322 0 0.00072915711143404171 -0.031827347458504157 0 0.00061385025437367261 -0.031806280787793073 0 0.00072915711143404171 -0.031827347458504157 0 0.00065945773704142411 -0.031865439158558037 0 0.00061385025437367261 -0.031806280787793073 0 0.00051213580839055365 -0.031771329696145753 0 0.0003877779900553545 -0.031817777713678753 0 0.0006317267349649629 -0.031757525701352353 0 0.00051213580839055365 -0.031771329696145753 0 0.00059266805075379523 -0.031722590363804815 0 0.00051825182956079566 -0.031721057037384599 0 0.00059266805075379523 -0.031722590363804815 0 0.00057677821633961496 -0.031677093767683032 0 0.00051825182956079566 -0.031721057037384599 0 0.00051213580839055365 -0.031771329696145753 0 0.00059266805075379523 -0.031722590363804815 0 0.00059266805075379523 -0.031722590363804815 0 0.00065832902918036703 -0.031676113740575766 0 0.00057677821633961496 -0.031677093767683032 0 0.00059266805075379523 -0.031722590363804815 0 0.00072414755282092886 -0.03170800207478857 0 0.00065832902918036703 -0.031676113740575766 0 0.0006317267349649629 -0.031757525701352353 0 0.00059266805075379523 -0.031722590363804815 0 0.00072414755282092886 -0.03170800207478857 0 0.0006317267349649629 -0.031757525701352353 0 0.00072414755282092886 -0.03170800207478857 0 0.00074075237961908108 -0.031773783959635322 0 0.00072414755282092886 -0.03170800207478857 0 0.00065832902918036703 -0.031676113740575766 0 0.00079469522811561959 -0.031620188911917979 0 0.00067199496452348048 -0.031623994028646012 0 0.00070537630700470428 -0.031553902925815176 0 0.00079469522811561959 -0.031620188911917979 0 0.00065832902918036703 -0.031676113740575766 0 0.00067199496452348048 -0.031623994028646012 0 0.00079469522811561959 -0.031620188911917979 0 0.00052300320969379983 -0.031646124892203607 0 0.00057677821633961496 -0.031677093767683032 0 0.00061195260422083973 -0.031597514430339417 0 0.00067199496452348048 -0.031623994028646012 0 0.00057677821633961496 -0.031677093767683032 0 0.00061195260422083973 -0.031597514430339417 0 0.00065832902918036703 -0.031676113740575766 0 0.00067199496452348048 -0.031623994028646012 0 0.00057677821633961496 -0.031677093767683032 0 0.00065759473182031502 -0.031510823961687986 0 0.00055892719914035468 -0.03158418364481199 0 0.00061195260422083973 -0.031597514430339417 0 0.00065759473182031502 -0.031510823961687986 0 0.00061195260422083973 -0.031597514430339417 0 0.00070537630700470428 -0.031553902925815176 0 0.00067199496452348048 -0.031623994028646012 0 0.00061195260422083973 -0.031597514430339417 0 0.00070537630700470428 -0.031553902925815176 0 0.00082528476001901899 -0.03148188740293071 0 0.00070537630700470428 -0.031553902925815176 0 0.00079469522811561959 -0.031620188911917979 0 0.00082528476001901899 -0.03148188740293071 0 0.0010594399582503856 -0.031514272867171886 0 0.00079469522811561959 -0.031620188911917979 0 0.0010594399582503856 -0.031514272867171886 0 0.00079469522811561959 -0.031620188911917979 0 0.00095934220118984101 -0.031681815461453648 0 0.0010594399582503856 -0.031514272867171886 0 0.0012584536831607572 -0.03172284641397681 0 0.00095934220118984101 -0.031681815461453648 0 0.001276782145339364 -0.031285514306612951 0 0.0010594399582503856 -0.031514272867171886 0 0.0014039238398047917 -0.031461678507999212 0 0.0010594399582503856 -0.031514272867171886 0 0.0014039238398047917 -0.031461678507999212 0 0.0012584536831607572 -0.03172284641397681 0 0.0012584536831607572 -0.03172284641397681 0 0.0012688327876319201 -0.031970687856406263 0 0.0016967292399127471 -0.031915623046965207 0 0.0012584536831607572 -0.03172284641397681 0 0.00092304883648146199 -0.031818027775858744 0 0.0012688327876319201 -0.031970687856406263 0 0.00092304883648146199 -0.031818027775858744 0 0.00079819146693161085 -0.031976445540948278 0 0.0012688327876319201 -0.031970687856406263 0 0.00072414755282092886 -0.03170800207478857 0 0.00079469522811561959 -0.031620188911917979 0 0.00083011117510725749 -0.031730342465380403 0 0.00083011117510725749 -0.031730342465380403 0 0.00095934220118984101 -0.031681815461453648 0 0.00092304883648146199 -0.031818027775858744 0 0.00079469522811561959 -0.031620188911917979 0 0.00083011117510725749 -0.031730342465380403 0 0.00095934220118984101 -0.031681815461453648 0 0.00072414755282092886 -0.03170800207478857 0 0.00083011117510725749 -0.031730342465380403 0 0.00074075237961908108 -0.031773783959635322 0 0.0012584536831607572 -0.03172284641397681 0 0.00095934220118984101 -0.031681815461453648 0 0.00092304883648146199 -0.031818027775858744 0 0.00083011117510725749 -0.031730342465380403 0 0.00092304883648146199 -0.031818027775858744 0 0.00074075237961908108 -0.031773783959635322 0 0.00092304883648146199 -0.031818027775858744 0 0.00074075237961908108 -0.031773783959635322 0 0.00072915711143404171 -0.031827347458504157 0 0.00092304883648146199 -0.031818027775858744 0 0.00072915711143404171 -0.031827347458504157 0 0.00080621232218204553 -0.031869815647868754 0 0.00092304883648146199 -0.031818027775858744 0 0.00080621232218204553 -0.031869815647868754 0 0.00079819146693161085 -0.031976445540948278 0 0.00072915711143404171 -0.031827347458504157 0 0.00076953846167266944 -0.03190445788491366 0 0.00065945773704142411 -0.031865439158558037 0 0.00072915711143404171 -0.031827347458504157 0 0.00080621232218204553 -0.031869815647868754 0 0.00076953846167266944 -0.03190445788491366 0 0.00076953846167266944 -0.03190445788491366 0 0.00079819146693161085 -0.031976445540948278 0 0.00065945773704142411 -0.031865439158558037 0 0.00080621232218204553 -0.031869815647868754 0 0.00076953846167266944 -0.03190445788491366 0 0.00079819146693161085 -0.031976445540948278 0 0.0015334421250785431 -0.026701666719765819 0 0.00093138064477976158 -0.024304191699381979 0 0.00083528275987853663 -0.016748381608811262 0 0.00070288915338549544 -0.016628217803035309 0 0.00059105446258076702 -0.016775951889987442 0 0.00083528275987853663 -0.016748381608811262 0 0.0007971783713362423 -0.016598022333450053 0 0.00086609437331175096 -0.016533525489686961 0 0.00083528275987853663 -0.016748381608811262 0 0.00070288915338549544 -0.016628217803035309 0 0.0007971783713362423 -0.016598022333450053 0 0.00059105446258076702 -0.016775951889987442 0 0.00055962487604377994 -0.016514347812561839 0 0.00038520019377514023 -0.016582696600287845 0 0.00070288915338549544 -0.016628217803035309 0 0.00059105446258076702 -0.016775951889987442 0 0.00055962487604377994 -0.016514347812561839 0 0.00055962487604377994 -0.016514347812561839 0 0.00060377817258489626 -0.016370340822420969 0 0.00074354356349779155 -0.016474473895464803 0 0.00070288915338549544 -0.016628217803035309 0 0.00055962487604377994 -0.016514347812561839 0 0.00074354356349779155 -0.016474473895464803 0 0.00055962487604377994 -0.016514347812561839 0 0.00060377817258489626 -0.016370340822420969 0 0.00043496258111992795 -0.016321203682956441 0 0.0007971783713362423 -0.016598022333450053 0 0.00074354356349779155 -0.016474473895464803 0 0.00086609437331175096 -0.016533525489686961 0 0.00070288915338549544 -0.016628217803035309 0 0.0007971783713362423 -0.016598022333450053 0 0.00074354356349779155 -0.016474473895464803 0 0.00074354356349779155 -0.016474473895464803 0 0.00086609437331175096 -0.016533525489686961 0 0.00087895271824142338 -0.016366639807638958 0 0.00086609437331175096 -0.016533525489686961 0 0.00099962641452794126 -0.016478263892216696 0 0.00087895271824142338 -0.016366639807638958 0 0.00083528275987853663 -0.016748381608811262 0 0.00086609437331175096 -0.016533525489686961 0 0.00099962641452794126 -0.016478263892216696 0 0.0016438636325275873 -0.030407506811070531 0 0.00038863635024821973 -0.030558643088113169 0 0.00057476751074240313 -0.031507968994418059 0 0.0019170778084708676 -0.029511520973130225 0 0.0016438636325275873 -0.030407506811070531 0 0.00038863635024821973 -0.030558643088113169 0 0.00045428322956428689 -0.031639854781063237 0 0.00057476751074240313 -0.031507968994418059 0 0.00049025597280691552 -0.031604370314485382 0 0.0010426695075069019 -0.031001348747311142 0 0.00067693517157774163 -0.03138860516565966 0 0.00047383252405895778 -0.031649891334807681 0 0.00049025597280691552 -0.031604370314485382 0 0.00052452879328163885 -0.031629341195569545 0 0.00057476751074240313 -0.031507968994418059 0 0.00049025597280691552 -0.031604370314485382 0 0.00052452879328163885 -0.031629341195569545 0 0.00047383252405895778 -0.031649891334807681 0 0.00052452879328163885 -0.031629341195569545 0 0.00049663725399320111 -0.031700163357430595 0 0.00045750821088246641 -0.031688809094629483 0 0.00047383252405895778 -0.031649891334807681 0 0.00049663725399320111 -0.031700163357430595 0 0.00057476751074240313 -0.031507968994418059 0 0.00052452879328163885 -0.031629341195569545 0 0.0005000933432256783 -0.031744236804183736 0 0.00052452879328163885 -0.031629341195569545 0 0.00049663725399320111 -0.031700163357430595 0 0.0005000933432256783 -0.031744236804183736 0 0.00057476751074240313 -0.031507968994418059 0 0.0005000933432256783 -0.031744236804183736 0 0.0003877779900553545 -0.031817777713678753 0 0.00051213580839055365 -0.031771329696145753 0 0.0005000933432256783 -0.031744236804183736 0 0.0003877779900553545 -0.031817777713678753 0 0.0015334421250785431 -0.026701666719765819 0 0.0009536742120189695 -0.02346292324028949 0 -0.00030769752683348098 -0.031916373721934781 0 0.00038863635024821973 -0.030558643088113169 0 0.00057476751074240313 -0.031507968994418059 0 -0.00030769752683348098 -0.031916373721934781 0 0.00057476751074240313 -0.031507968994418059 0 0.0003877779900553545 -0.031817777713678753 0 0.00061385025437367261 -0.031806280787793073 0 0.0003877779900553545 -0.031817777713678753 0 0.00065945773704142411 -0.031865439158558037 0 0.00079819146693161085 -0.031976445540948278 0 0.0003877779900553545 -0.031817777713678753 0 0.00065945773704142411 -0.031865439158558037 0 0.0015334421250785431 -0.026701666719765819 0 0.00033011109268281179 -0.028659117039396477 0 -0.0022324225952492414 -0.016563102133605602 0 -0.00098239394671117823 -0.017190801983075082 0 -0.0028743076908413425 -0.017816639512779578 0 -0.0022324225952492414 -0.016563102133605602 0 -0.00098239394671117823 -0.017190801983075082 0 -0.0014424264989604135 -0.015785942207261872 0 -0.00098239394671117823 -0.017190801983075082 0 -0.0028743076908413425 -0.017816639512779578 0 -0.0011749428225050998 -0.018612762151453039 0 -0.0028743076908413425 -0.017816639512779578 0 -0.0040920825060011927 -0.017774130885029649 0 -0.004513820043258206 -0.019466123675790356 0 -0.0040920825060011927 -0.017774130885029649 0 -0.005165265281376525 -0.017773911302606742 0 -0.004513820043258206 -0.019466123675790356 0 -0.005165265281376525 -0.017773911302606742 0 -0.0038256380504661882 -0.016150892600488798 0 -0.0057932348750160114 -0.015742252623075593 0 -0.0040920825060011927 -0.017774130885029649 0 -0.005165265281376525 -0.017773911302606742 0 -0.0038256380504661882 -0.016150892600488798 0 -0.0028743076908413425 -0.017816639512779578 0 -0.0040920825060011927 -0.017774130885029649 0 -0.0038256380504661882 -0.016150892600488798 0 -0.0022324225952492414 -0.016563102133605602 0 -0.0028743076908413425 -0.017816639512779578 0 -0.0038256380504661882 -0.016150892600488798 0 -0.0038256380504661882 -0.016150892600488798 0 -0.002193363177732539 -0.01526586094914319 0 -0.003360753398148111 -0.013735156169249968 0 -0.0038256380504661882 -0.016150892600488798 0 -0.0048102688203168435 -0.014536794997193349 0 -0.003360753398148111 -0.013735156169249968 0 -0.0038256380504661882 -0.016150892600488798 0 -0.0048102688203168435 -0.014536794997193349 0 -0.0057932348750160114 -0.015742252623075593 0 -0.0016363084468888108 -0.014334524923093315 0 -0.002193363177732539 -0.01526586094914319 0 -0.003360753398148111 -0.013735156169249968 0 -0.0016363084468888108 -0.014334524923093315 0 -0.002193363177732539 -0.01526586094914319 0 -0.0012890972213299805 -0.014898051040551325 0 -0.0022324225952492414 -0.016563102133605602 0 -0.002193363177732539 -0.01526586094914319 0 -0.0014424264989604135 -0.015785942207261872 0 -0.0022324225952492414 -0.016563102133605602 0 -0.0038256380504661882 -0.016150892600488798 0 -0.002193363177732539 -0.01526586094914319 0 -0.00098239394671117823 -0.017190801983075082 0 -0.0014424264989604135 -0.015785942207261872 0 -0.00073762560306746836 -0.015042464336322062 0 -0.002193363177732539 -0.01526586094914319 0 -0.0014424264989604135 -0.015785942207261872 0 -0.0012890972213299805 -0.014898051040551325 0 -0.0014424264989604135 -0.015785942207261872 0 -0.00073762560306746836 -0.015042464336322062 0 -0.0012890972213299805 -0.014898051040551325 0 -0.00073762560306746836 -0.015042464336322062 0 -0.0012890972213299805 -0.014898051040551325 0 -0.00085180465661351048 -0.014103237141284508 0 -0.0016363084468888108 -0.014334524923093315 0 -0.0012890972213299805 -0.014898051040551325 0 -0.00085180465661351048 -0.014103237141284508 0 -0.0016363084468888108 -0.014334524923093315 0 -0.00085180465661351048 -0.014103237141284508 0 -0.0013574616287821317 -0.013354988238458151 0 -0.00082297121539625393 -0.016817231339777524 0 0.0003432757064999848 -0.015210292585377663 0 -0.00042800364278142871 -0.014180834294627171 0 -0.00010592434872695481 -0.014389084999545269 0 -0.00018415411759792425 -0.013441508296755776 0 -0.00098239394671117823 -0.017190801983075082 0 0.00027762050751896242 -0.01619890866362432 0 0.00026180216472504019 -0.016345672395473684 0 -0.00098239394671117823 -0.017190801983075082 0 -0.00010592434872695481 -0.014389084999545269 0 0.00082060883869564875 -0.013759008550437055 0 -0.00098239394671117823 -0.017190801983075082 0 -0.00073762560306746836 -0.015042464336322062 0 -0.00010592434872695481 -0.014389084999545269 0 -0.00073762560306746836 -0.015042464336322062 0 -0.00042800364278142871 -0.014180834294627171 0 -0.00010592434872695481 -0.014389084999545269 0 -0.00073762560306746836 -0.015042464336322062 0 -0.00085180465661351048 -0.014103237141284508 0 -0.00042800364278142871 -0.014180834294627171 0 -0.00010592434872695481 -0.014389084999545269 0 0.00082060883869564875 -0.013759008550437055 0 0.00029925032482471843 -0.013606088896664231 0 0.00055962487604377994 -0.016514347812561839 0 0.00043496258111992795 -0.016321203682956441 0 0.00040007245931898076 -0.016447701796482549 0 0.00026180216472504019 -0.016345672395473684 0 0.00043496258111992795 -0.016321203682956441 0 0.00040007245931898076 -0.016447701796482549 0 0.00027762050751896242 -0.01619890866362432 0 0.00026180216472504019 -0.016345672395473684 0 0.00043496258111992795 -0.016321203682956441 0 0.00026180216472504019 -0.016345672395473684 0 0.00040007245931898076 -0.016447701796482549 0 0.00038520019377514023 -0.016582696600287845 0 0.00055962487604377994 -0.016514347812561839 0 0.00040007245931898076 -0.016447701796482549 0 0.00038520019377514023 -0.016582696600287845 0 0.00059105446258076702 -0.016775951889987442 0 0.00038520019377514023 -0.016582696600287845 0 0.00027384996400203369 -0.01682918985023224 0 0.00011616634224537631 -0.015523273159583783 0 3.0896309638843132e-06 -0.021690662924037832 0 0.00093138064477976158 -0.024304191699381979 0 3.0896309638843132e-06 -0.021690662924037832 0 0.00026180216472504019 -0.016345672395473684 0 0.00038520019377514023 -0.016582696600287845 0 0.00027384996400203369 -0.01682918985023224 0 -0.00098239394671117823 -0.017190801983075082 0 0.00058699974648770568 -0.018116419290685089 0 -0.0011749428225050998 -0.018612762151453039 0 -0.00098239394671117823 -0.017190801983075082 0 0.00026180216472504019 -0.016345672395473684 0 0.00058699974648770568 -0.018116419290685089 0 -0.00038369338905199169 -0.021685397266517536 0 0.0022665946037203821 -0.019162735911029911 0 -0.0012363457495143655 -0.019453572501977948 0 -0.00038369338905199169 -0.021685397266517536 0 0.0022665946037203821 -0.019162735911029911 0 0.0025331668287678099 -0.022710354185480376 0 3.0896309638843132e-06 -0.021690662924037832 0 -0.0012574843612216508 -0.019564656110896216 0 0.0012584536831607572 -0.03172284641397681 0 0.0016967292399127471 -0.031915623046965207 0 0.0016984657411588876 -0.03155656626053633 0 3.0896309638843132e-06 -0.021690662924037832 0 0.0017850305936333505 -0.027390675585920558 0 0.0014039238398047917 -0.031461678507999212 0 0.0016984657411588876 -0.03155656626053633 0 0.0018025591030913788 -0.03113221954826648 0 0.0014039238398047917 -0.031461678507999212 0 0.0012584536831607572 -0.03172284641397681 0 0.0016984657411588876 -0.03155656626053633 0 -0.00038369338905199169 -0.021685397266517536 0 0.0025331668287678099 -0.022710354185480376 0 0.0006977672671899445 -0.024203506825311701 0 0.0025331668287678099 -0.022710354185480376 0 0.0006977672671899445 -0.024203506825311701 0 0.0025830151314150448 -0.026457372602011892 0 -0.00038369338905199169 -0.021685397266517536 0 0.0006977672671899445 -0.024203506825311701 0 -0.0010727153835664034 -0.02389929600223123 0 -0.0010727153835664034 -0.02389929600223123 0 -0.0028842603575423898 -0.023101422761823122 0 -0.002158033462756585 -0.022094741130180954 0 -0.0010727153835664034 -0.02389929600223123 0 -0.0028842603575423898 -0.023101422761823122 0 -0.0017940462552850055 -0.025214201779474966 0 -0.0028842603575423898 -0.023101422761823122 0 -0.002158033462756585 -0.022094741130180954 0 -0.0034508214331686795 -0.021245360943911128 0 -0.00038369338905199169 -0.021685397266517536 0 -0.0010727153835664034 -0.02389929600223123 0 -0.002158033462756585 -0.022094741130180954 0 -0.0028743076908413425 -0.017816639512779578 0 -0.0011749428225050998 -0.018612762151453039 0 -0.004513820043258206 -0.019466123675790356 0 -0.00038369338905199169 -0.021685397266517536 0 -0.0023779015615773059 -0.020663473583808583 0 -0.0012363457495143655 -0.019453572501977948 0 -0.0012574843612216508 -0.019564656110896216 0 -0.0037795610451578777 -0.019510070317060948 0 -0.00038369338905199169 -0.021685397266517536 0 -0.002158033462756585 -0.022094741130180954 0 -0.0023779015615773059 -0.020663473583808583 0 -0.0023779015615773059 -0.020663473583808583 0 -0.0012363457495143655 -0.019453572501977948 0 -0.004513820043258206 -0.019466123675790356 0 -0.002158033462756585 -0.022094741130180954 0 -0.0023779015615773059 -0.020663473583808583 0 -0.0034508214331686795 -0.021245360943911128 0 -0.005165265281376525 -0.017773911302606742 0 -0.004513820043258206 -0.019466123675790356 0 -0.0053713039188450886 -0.020760769824747238 0 -0.0023779015615773059 -0.020663473583808583 0 -0.004513820043258206 -0.019466123675790356 0 -0.0034508214331686795 -0.021245360943911128 0 -0.004513820043258206 -0.019466123675790356 0 -0.0034508214331686795 -0.021245360943911128 0 -0.0053713039188450886 -0.020760769824747238 0 0.0082832545505906897 0.014508772398448406 0 0.0087445071220138716 0.013161233691619466 0 0.0094835906469478651 0.012514792648556322 0 0.0014921590964214484 -0.0032975335378194566 0 0.0031414746659381267 -0.0062060886234654705 0 -0.0028842603575423898 -0.023101422761823122 0 -0.0053713039188450886 -0.020760769824747238 0 -0.0033697863377777585 -0.02511105829826208 0 0.0082832545505906897 0.014508772398448406 0 0.0083129224792572419 0.013383886508750885 0 0.0087445071220138716 0.013161233691619466 0 -0.0028842603575423898 -0.023101422761823122 0 -0.0034508214331686795 -0.021245360943911128 0 -0.0053713039188450886 -0.020760769824747238 0 0.0083129224792572419 0.013383886508750885 0 0.0087445071220138716 0.013161233691619466 0 0.0089261455968949448 0.012263408331101391 0 0.0089261455968949448 0.012263408331101391 0 0.0094835906469478651 0.012514792648556322 0 0.010497147762062269 0.011450682186446171 0 0.0086397014004748682 0.013324520269832097 0 0.0082500183934999423 0.012566747660796981 0 0.0074396054932146681 0.013128878342900045 0 0.0087445071220138716 0.013161233691619466 0 0.0089261455968949448 0.012263408331101391 0 0.0094835906469478651 0.012514792648556322 0 -0.0028842603575423898 -0.023101422761823122 0 -0.0033697863377777585 -0.02511105829826208 0 -0.0017940462552850055 -0.025214201779474966 0 -0.0010727153835664034 -0.02389929600223123 0 -0.0017940462552850055 -0.025214201779474966 0 -0.00018082239985741494 -0.026245492608361804 0 -0.0015087410659170746 -0.027070726119331617 0 -0.00018082239985741494 -0.026245492608361804 0 -0.00041286564323745191 -0.027777093233773874 0 -0.0017940462552850055 -0.025214201779474966 0 -0.0015087410659170746 -0.027070726119331617 0 -0.00018082239985741494 -0.026245492608361804 0 -0.0033697863377777585 -0.02511105829826208 0 -0.0017940462552850055 -0.025214201779474966 0 -0.0015087410659170746 -0.027070726119331617 0 -0.0033697863377777585 -0.02511105829826208 0 -0.0015087410659170746 -0.027070726119331617 0 -0.00086012384585459727 -0.029258198147145587 0 0.0094835906469478651 0.012514792648556322 0 0.010497147762062269 0.011450682186446171 0 0.010708989449616889 0.011406727609744455 0 0.0086397014004748682 0.013324520269832097 0 0.010497147762062269 0.011450682186446171 0 0.0095019818045479522 0.011865861905868911 0 0.0088127606645917664 0.012785358052992199 0 0.010096440316388997 0.011671388328705661 0 0.0031414746659381267 -0.0062060886234654705 0 0.0052117450271221165 -0.0091042179234128648 0 -0.0015087410659170746 -0.027070726119331617 0 -0.00074093686481034138 -0.028214361620784587 0 -0.00086012384585459727 -0.029258198147145587 0 -0.0015087410659170746 -0.027070726119331617 0 -0.00074093686481034138 -0.028214361620784587 0 -0.00041286564323745191 -0.027777093233773874 0 -0.00074093686481034138 -0.028214361620784587 0 -0.00086012384585459727 -0.029258198147145587 0 -0.00022792397437569991 -0.028724470794347076 0 0.010497147762062269 0.011450682186446171 0 0.010025253971554415 0.011217924157202656 0 0.010487369391201729 0.011054254026711641 0 0.010497147762062269 0.011450682186446171 0 0.010708989449616889 0.011406727609744455 0 0.010487369391201729 0.011054254026711641 0 0.010497147762062269 0.011450682186446171 0 0.010025253971554415 0.011217924157202656 0 0.0095019818045479522 0.011865861905868911 0 0.010025253971554415 0.011217924157202656 0 0.0095019818045479522 0.011865861905868911 0 0.0094012323255307471 0.011169222961395484 0 0.0086397014004748682 0.013324520269832097 0 0.0095019818045479522 0.011865861905868911 0 0.0089015140836613167 0.012103675866240482 0 0.0095019818045479522 0.011865861905868911 0 0.0089015140836613167 0.012103675866240482 0 0.0094012323255307471 0.011169222961395484 0 0.0080838562957302566 0.011707524231851008 0 0.0089015140836613167 0.012103675866240482 0 0.0094012323255307471 0.011169222961395484 0 0.0080838562957302566 0.011707524231851008 0 0.0082500183934999423 0.012566747660796981 0 0.0089015140836613167 0.012103675866240482 0 0.0086397014004748682 0.013324520269832097 0 0.0082500183934999423 0.012566747660796981 0 0.0089015140836613167 0.012103675866240482 0 0.0017850305936333505 -0.027390675585920558 0 0.0020424838889404467 -0.028679579037928504 0 0.001276782145339364 -0.031285514306612951 0 0.0014039238398047917 -0.031461678507999212 0 0.0018025591030913788 -0.03113221954826648 0 0.0006977672671899445 -0.024203506825311701 0 0.0025830151314150448 -0.026457372602011892 0 -0.00018082239985741494 -0.026245492608361804 0 0.0025830151314150448 -0.026457372602011892 0 -0.00018082239985741494 -0.026245492608361804 0 0.0008434044653279208 -0.028303439468149894 0 0.0006977672671899445 -0.024203506825311701 0 -0.0010727153835664034 -0.02389929600223123 0 -0.00018082239985741494 -0.026245492608361804 0 -0.00041286564323745191 -0.027777093233773874 0 -0.00022792397437569991 -0.028724470794347076 0 0.0008434044653279208 -0.028303439468149894 0 -0.00018082239985741494 -0.026245492608361804 0 -0.00041286564323745191 -0.027777093233773874 0 0.0008434044653279208 -0.028303439468149894 0 -0.00074093686481034138 -0.028214361620784587 0 -0.00041286564323745191 -0.027777093233773874 0 -0.00022792397437569991 -0.028724470794347076 0 -0.00086012384585459727 -0.029258198147145587 0 -0.00015078091587270018 -0.029224284383395964 0 0.00040715088841012254 -0.029793761712650805 0 -0.00022792397437569991 -0.028724470794347076 0 0.00030345606632067163 -0.029174798444681259 0 0.0008434044653279208 -0.028303439468149894 0 -0.00086012384585459727 -0.029258198147145587 0 -0.00022792397437569991 -0.028724470794347076 0 -0.00015078091587270018 -0.029224284383395964 0 -0.00022792397437569991 -0.028724470794347076 0 -0.00015078091587270018 -0.029224284383395964 0 0.00030345606632067163 -0.029174798444681259 0 -0.00015078091587270018 -0.029224284383395964 0 0.00030345606632067163 -0.029174798444681259 0 0.00040715088841012254 -0.029793761712650805 0 0.0010687251381070945 -0.029620118683901242 0 0.0008434044653279208 -0.028303439468149894 0 0.001843770270335993 -0.03015573907819492 0 0.00030345606632067163 -0.029174798444681259 0 0.0010687251381070945 -0.029620118683901242 0 0.0008434044653279208 -0.028303439468149894 0 0.0025830151314150448 -0.026457372602011892 0 0.0008434044653279208 -0.028303439468149894 0 0.001843770270335993 -0.03015573907819492 0 0.0012754879455112197 -0.030933500989675042 0 0.0018025591030913788 -0.03113221954826648 0 0.001843770270335993 -0.03015573907819492 0 0.0020424838889404467 -0.028679579037928504 0 0.0020149784983420371 -0.0296719086649436 0 0.0014624495329977557 -0.030558521680643904 0 0.0015344714459269932 -0.030563977825884093 0 0.001843770270335993 -0.03015573907819492 0 0.0010687251381070945 -0.029620118683901242 0 0.001843770270335993 -0.03015573907819492 0 0.0014340732575961227 -0.030393097910323394 0 0.0015344714459269932 -0.030563977825884093 0 0.0014340732575961227 -0.030393097910323394 0 0.0013393127597551107 -0.03075579830483054 0 0.0015344714459269932 -0.030563977825884093 0 0.001843770270335993 -0.03015573907819492 0 0.0014340732575961227 -0.030393097910323394 0 0.010708989449616889 0.011406727609744455 0 0.012212665507434835 0.0090811501653482347 0 0.010908158088737682 0.0103667655541667 0 -0.00086012384585459727 -0.029258198147145587 0 0.00040715088841012254 -0.029793761712650805 0 0.0012013955458973456 -0.031051605785695401 0 0.0010351092469662246 -0.03038313422681416 0 0.00040715088841012254 -0.029793761712650805 0 0.0012013955458973456 -0.031051605785695401 0 0.0052117450271221165 -0.0091042179234128648 0 0.0064583579200922503 -0.0078837543565679295 0 0.0014340732575961227 -0.030393097910323394 0 0.0010351092469662246 -0.03038313422681416 0 0.0013393127597551107 -0.03075579830483054 0 0.0014340732575961227 -0.030393097910323394 0 0.0010351092469662246 -0.03038313422681416 0 0.00095250292760309149 -0.030019027812234349 0 0.0010687251381070945 -0.029620118683901242 0 0.0014340732575961227 -0.030393097910323394 0 0.00095250292760309149 -0.030019027812234349 0 0.0010351092469662246 -0.03038313422681416 0 0.00095250292760309149 -0.030019027812234349 0 0.00040715088841012254 -0.029793761712650805 0 0.00030345606632067163 -0.029174798444681259 0 0.0010687251381070945 -0.029620118683901242 0 0.00040715088841012254 -0.029793761712650805 0 0.0010687251381070945 -0.029620118683901242 0 0.00095250292760309149 -0.030019027812234349 0 0.00040715088841012254 -0.029793761712650805 0 0.012212665507434835 0.0090811501653482347 0 0.01093181775944416 0.0097497707341735011 0 0.010908158088737682 0.0103667655541667 0 0.012212665507434835 0.0090811501653482347 0 0.01093181775944416 0.0097497707341735011 0 0.010926784372042607 0.0087984711286480353 0 0.0010351092469662246 -0.03038313422681416 0 0.0012013955458973456 -0.031051605785695401 0 0.0013393127597551107 -0.03075579830483054 0 0.0014148904790158327 -0.030684770693357843 0 0.0013393127597551107 -0.03075579830483054 0 0.0014732606378128727 -0.030585773109270846 0 0.0064583579200922503 -0.0078837543565679295 0 0.0050719311713698836 -0.010022959022188669 0 0.005661811668074941 -0.014261882253135834 0 0.0064583579200922503 -0.0078837543565679295 0 0.0015495813622950355 -0.030415496474682006 0 0.0014148904790158327 -0.030684770693357843 0 0.0014732606378128727 -0.030585773109270846 0 0.0015344714459269932 -0.030563977825884093 0 0.0013393127597551107 -0.03075579830483054 0 0.0014732606378128727 -0.030585773109270846 0 0.0014026619462207944 -0.030500184580785732 0 0.0014127646831764778 -0.030608013620747596 0 0.0014732606378128727 -0.030585773109270846 0 0.0014127646831764778 -0.030608013620747596 0 0.0015344714459269932 -0.030563977825884093 0 0.0014732606378128727 -0.030585773109270846 0 0.0095415276550427225 0.010322590368468445 0 0.0085621999076518247 0.010161286512506095 0 0.010025700056374027 0.0093951001305405766 0 0.0080838562957302566 0.011707524231851008 0 0.0085621999076518247 0.010161286512506095 0 0.0094012323255307471 0.011169222961395484 0 0.0095415276550427225 0.010322590368468445 0 0.0085621999076518247 0.010161286512506095 0 0.0094012323255307471 0.011169222961395484 0 0.010025253971554415 0.011217924157202656 0 0.0094012323255307471 0.011169222961395484 0 0.010221225964619853 0.010537213445794887 0 0.0095415276550427225 0.010322590368468445 0 0.0094012323255307471 0.011169222961395484 0 0.010221225964619853 0.010537213445794887 0 0.010025253971554415 0.011217924157202656 0 0.010221225964619853 0.010537213445794887 0 0.010487369391201729 0.011054254026711641 0 0.010708989449616889 0.011406727609744455 0 0.010487369391201729 0.011054254026711641 0 0.010908158088737682 0.0103667655541667 0 0.010221225964619853 0.010537213445794887 0 0.010487369391201729 0.011054254026711641 0 0.010908158088737682 0.0103667655541667 0 0.010221225964619853 0.010537213445794887 0 0.01093181775944416 0.0097497707341735011 0 0.010025700056374027 0.0093951001305405766 0 0.010221225964619853 0.010537213445794887 0 0.01093181775944416 0.0097497707341735011 0 0.010908158088737682 0.0103667655541667 0 0.0095415276550427225 0.010322590368468445 0 0.010221225964619853 0.010537213445794887 0 0.010025700056374027 0.0093951001305405766 0 0.010533651101228296 0.0069474097632355502 0 0.010025700056374027 0.0093951001305405766 0 0.010926784372042607 0.0087984711286480353 0 0.010533651101228296 0.0069474097632355502 0 0.012212665507434835 0.0090811501653482347 0 0.010926784372042607 0.0087984711286480353 0 0.010533651101228296 0.0069474097632355502 0 0.010025700056374027 0.0093951001305405766 0 0.0088130360992014507 0.0084608887841525014 0 0.01093181775944416 0.0097497707341735011 0 0.010025700056374027 0.0093951001305405766 0 0.010926784372042607 0.0087984711286480353 0 0.0085621999076518247 0.010161286512506095 0 0.010025700056374027 0.0093951001305405766 0 0.0088130360992014507 0.0084608887841525014 0 0.0085621999076518247 0.010161286512506095 0 0.0088130360992014507 0.0084608887841525014 0 0.0070790880248576557 0.0088288022904580224 0 0.0085621999076518247 0.010161286512506095 0 0.0070790880248576557 0.0088288022904580224 0 0.0064523581650587801 0.010800165611636501 0 0.0080838562957302566 0.011707524231851008 0 0.0085621999076518247 0.010161286512506095 0 0.0064523581650587801 0.010800165611636501 0 0.0064523581650587801 0.010800165611636501 0 0.0050005664747189548 0.0099365678975872965 0 0.0042147547395520483 0.011734691782594077 0 0.0056078696603018329 0.0083248837929552795 0 0.0070790880248576557 0.0088288022904580224 0 0.0050005664747189548 0.0099365678975872965 0 0.0070790880248576557 0.0088288022904580224 0 0.0064523581650587801 0.010800165611636501 0 0.0050005664747189548 0.0099365678975872965 0 0.0050005664747189548 0.0099365678975872965 0 0.003705375842800653 0.0089917779900850724 0 0.0031056112670817433 0.011056806550608275 0 0.0056078696603018329 0.0083248837929552795 0 0.0050005664747189548 0.0099365678975872965 0 0.003705375842800653 0.0089917779900850724 0 0.003705375842800653 0.0089917779900850724 0 0.0019126316361699751 0.0091339493453364579 0 0.0031056112670817433 0.011056806550608275 0 0.0026795989851937626 0.0080564453056604403 0 0.003705375842800653 0.0089917779900850724 0 0.0019126316361699751 0.0091339493453364579 0 0.0024293489977302608 0.010059144693448397 0 0.0028211474818672197 0.010730051127343447 0 0.0028919783475419769 0.011011776384788282 0 0.0031056112670817433 0.011056806550608275 0 0.002730164968526491 0.011350876134898012 0 0.0031056112670817433 0.011056806550608275 0 0.002730164968526491 0.011350876134898012 0 0.002790206879086017 0.012214157166966364 0 0.0031056112670817433 0.011056806550608275 0 0.0042147547395520483 0.011734691782594077 0 0.002790206879086017 0.012214157166966364 0 0.0050005664747189548 0.0099365678975872965 0 0.0031056112670817433 0.011056806550608275 0 0.0042147547395520483 0.011734691782594077 0 0.0042147547395520483 0.011734691782594077 0 0.0035799694310744254 0.013087556946182291 0 0.0055114360938451103 0.012633017823134429 0 0.0041684546370454557 0.01312013907485997 0 0.0059666059050211863 0.012499572157175325 0 0.0042147547395520483 0.011734691782594077 0 0.0035799694310744254 0.013087556946182291 0 0.002790206879086017 0.012214157166966364 0 0.0046427619122772698 0.013124166579853264 0 0.0031666545881291691 0.01373534966272341 0 0.0041669006568577386 0.014506707001901282 0 0.0046427619122772698 0.013124166579853264 0 0.0062204864915824049 0.012483122502544772 0 0.005554492788314355 0.014302561629273984 0 0.0065687946761884605 0.013633383883063495 0 0.0074396054932146681 0.013128878342900045 0 0.0062204864915824049 0.012483122502544772 0 0.0065687946761884605 0.013633383883063495 0 0.0062204864915824049 0.012483122502544772 0 0.005554492788314355 0.014302561629273984 0 0.0086397014004748682 0.013324520269832097 0 0.0074396054932146681 0.013128878342900045 0 0.0070876250298972437 0.014583494026015014 0 0.0065687946761884605 0.013633383883063495 0 0.0074396054932146681 0.013128878342900045 0 0.0070876250298972437 0.014583494026015014 0 0.0080838562957302566 0.011707524231851008 0 0.0082500183934999423 0.012566747660796981 0 0.0074396054932146681 0.013128878342900045 0 0.0080838562957302566 0.011707524231851008 0 0.0074396054932146681 0.013128878342900045 0 0.0062204864915824049 0.012483122502544772 0 0.0080838562957302566 0.011707524231851008 0 0.0064523581650587801 0.010800165611636501 0 0.0055114360938451103 0.012633017823134429 0 0.0076828776033429575 0.011899285393794812 0 0.0059666059050211863 0.012499572157175325 0 0.0064523581650587801 0.010800165611636501 0 0.0042147547395520483 0.011734691782594077 0 0.0055114360938451103 0.012633017823134429 0 5.3060755033605079e-05 0.012752586779524787 0 0.00075804980580027807 0.011565786677743658 0 0.00093936281929846079 0.013058827266048827 0 0.00082348256962378331 0.011037233415111683 0 0.00032052353743765771 0.011131229619566757 0 0.00075804980580027807 0.011565786677743658 0 0.00075804980580027807 0.011565786677743658 0 0.0015475960542743734 0.012016894997116903 0 0.0018200241062670541 0.010940034900324993 0 0.00090924883993878723 0.011404940599818105 0 0.0015499343008159381 0.010903863609202084 0 0.00082348256962378331 0.011037233415111683 0 0.00075804980580027807 0.011565786677743658 0 0.001504353710299334 0.011108091839212773 0 0.00075804980580027807 0.011565786677743658 0 0.0015475960542743734 0.012016894997116903 0 0.00093936281929846079 0.013058827266048827 0 0.0015475960542743734 0.012016894997116903 0 0.002235624421686257 0.011746164944316117 0 0.0019392661821058842 0.012842884396198732 0 0.0015475960542743734 0.012016894997116903 0 0.002235624421686257 0.011746164944316117 0 0.0018200241062670541 0.010940034900324993 0 0.002235624421686257 0.011746164944316117 0 0.0018200241062670541 0.010940034900324993 0 0.0024996811350414322 0.011106124288234494 0 0.0026698807426058803 0.01051792206844963 0 0.0028919783475419769 0.011011776384788282 0 0.0024996811350414322 0.011106124288234494 0 0.0028919783475419769 0.011011776384788282 0 0.0024996811350414322 0.011106124288234494 0 0.002730164968526491 0.011350876134898012 0 0.002235624421686257 0.011746164944316117 0 0.002730164968526491 0.011350876134898012 0 0.002790206879086017 0.012214157166966364 0 0.002235624421686257 0.011746164944316117 0 0.0024996811350414322 0.011106124288234494 0 0.002730164968526491 0.011350876134898012 0 0.002790206879086017 0.012214157166966364 0 0.002489041947234932 0.013547804656368347 0 0.0019392661821058842 0.012842884396198732 0 0.0041684546370454557 0.01312013907485997 0 0.0027979269546181858 0.013684549181469845 0 0.0035799694310744254 0.013087556946182291 0 0.002790206879086017 0.012214157166966364 0 0.002489041947234932 0.013547804656368347 0 0.0027979269546181858 0.013684549181469845 0 0.0018294697683630113 0.014135708651395927 0 0.002489041947234932 0.013547804656368347 0 0.0019392661821058842 0.012842884396198732 0 0.0016841156052020548 0.014324972469543517 0 0.002235624421686257 0.011746164944316117 0 0.002790206879086017 0.012214157166966364 0 0.0019392661821058842 0.012842884396198732 0 0.0015475960542743734 0.012016894997116903 0 0.0019392661821058842 0.012842884396198732 0 0.00093936281929846079 0.013058827266048827 0 0.0019392661821058842 0.012842884396198732 0 0.00093936281929846079 0.013058827266048827 0 0.0016841156052020548 0.014324972469543517 0 -3.5159851946047305e-05 0.013790902924708203 0 0.00093936281929846079 0.013058827266048827 0 0.00059023239943775696 0.014594906498980435 0 0.00093936281929846079 0.013058827266048827 0 0.00059023239943775696 0.014594906498980435 0 0.0016841156052020548 0.014324972469543517 0 0.0010685612989016285 0.015768349780017194 0 0.0016841156052020548 0.014324972469543517 0 0.0020313369409453376 0.016285545442454349 0 0.00028007699805248759 0.015705154357854866 0 0.0010685612989016285 0.015768349780017194 0 0.00059023239943775696 0.014594906498980435 0 0.00028007699805248759 0.015705154357854866 0 0.00055568445417525001 0.01660044030904512 0 0.0010685612989016285 0.015768349780017194 0 0.0010685612989016285 0.015768349780017194 0 0.00059023239943775696 0.014594906498980435 0 0.0016841156052020548 0.014324972469543517 0 0.0016841156052020548 0.014324972469543517 0 0.0027787832715076904 0.015135136523812823 0 0.0020313369409453376 0.016285545442454349 0 0.0027787832715076904 0.015135136523812823 0 0.0028923704881337587 0.016207564738391082 0 0.0020313369409453376 0.016285545442454349 0 0.0031666545881291691 0.01373534966272341 0 0.0016841156052020548 0.014324972469543517 0 0.0027787832715076904 0.015135136523812823 0 0.0031666545881291691 0.01373534966272341 0 0.0027787832715076904 0.015135136523812823 0 0.0041669006568577386 0.014506707001901282 0 0.0027787832715076904 0.015135136523812823 0 0.0037224449560491852 0.015704839777841803 0 0.0041669006568577386 0.014506707001901282 0 0.0027787832715076904 0.015135136523812823 0 0.0037224449560491852 0.015704839777841803 0 0.0028923704881337587 0.016207564738391082 0 0.0037224449560491852 0.015704839777841803 0 0.0035035457396541099 0.016704045844796178 0 0.0028923704881337587 0.016207564738391082 0 0.0035035457396541099 0.016704045844796178 0 0.0042079726228195407 0.017111977900900185 0 0.0033160760066533262 0.017607033976988339 0 0.0035035457396541099 0.016704045844796178 0 0.0024804818224145857 0.01711465135204045 0 0.0033160760066533262 0.017607033976988339 0 0.0024804818224145857 0.01711465135204045 0 0.0026244319621863848 0.017721621208419375 0 0.0033160760066533262 0.017607033976988339 0 0.0024804818224145857 0.01711465135204045 0 0.0017754468296824581 0.017777581825093175 0 0.0026244319621863848 0.017721621208419375 0 0.0035035457396541099 0.016704045844796178 0 0.0024804818224145857 0.01711465135204045 0 0.0028923704881337587 0.016207564738391082 0 0.0024804818224145857 0.01711465135204045 0 0.0028923704881337587 0.016207564738391082 0 0.0020313369409453376 0.016285545442454349 0 0.0024804818224145857 0.01711465135204045 0 0.0020313369409453376 0.016285545442454349 0 0.0012967726164492615 0.017169793850738722 0 0.0010685612989016285 0.015768349780017194 0 0.0020313369409453376 0.016285545442454349 0 0.0012967726164492615 0.017169793850738722 0 0.0024804818224145857 0.01711465135204045 0 0.0012967726164492615 0.017169793850738722 0 0.0017754468296824581 0.017777581825093175 0 0.00060388415533947962 0.017688856762894774 0 0.0008845433585346681 0.018069214408412502 0 0.0012967726164492615 0.017169793850738722 0 0.00055568445417525001 0.01660044030904512 0 0.0010685612989016285 0.015768349780017194 0 0.0012967726164492615 0.017169793850738722 0 0.00060388415533947962 0.017688856762894774 0 0.00055568445417525001 0.01660044030904512 0 0.0012967726164492615 0.017169793850738722 0 0.0058283111935464324 0.015598181603110217 0 0.007048286963901456 0.015110371447457475 0 0.0071903323818178731 0.013840998874140489 0 0.0058283111935464324 0.015598181603110217 0 0.0070876250298972437 0.014583494026015014 0 0.005554492788314355 0.014302561629273984 0 0.0060913034928688379 0.01532854466507654 0 0.0071779991131261317 0.014245318095439387 0 0.0082832545505906897 0.014508772398448406 0 0.007048286963901456 0.015110371447457475 0 0.0071606739708652764 0.015477459409069579 0 0.0082832545505906897 0.014508772398448406 0 0.0076087133236673607 0.014356679745114186 0 0.0079047849684169211 0.01395833923825596 0 0.0082832545505906897 0.014508772398448406 0 0.007048286963901456 0.015110371447457475 0 0.0076087133236673607 0.014356679745114186 0 0.007048286963901456 0.015110371447457475 0 0.0076087133236673607 0.014356679745114186 0 0.0071903323818178731 0.013840998874140489 0 0.0083129224792572419 0.013383886508750885 0 0.0089261455968949448 0.012263408331101391 0 0.0071903323818178731 0.013840998874140489 0 0.0088127606645917664 0.012785358052992199 0 0.0071779991131261317 0.014245318095439387 0 0.0083129224792572419 0.013383886508750885 0 0.0071903323818178731 0.013840998874140489 0 0.0079047849684169211 0.01395833923825596 0 0.0076087133236673607 0.014356679745114186 0 0.0071903323818178731 0.013840998874140489 0 0.0079047849684169211 0.01395833923825596 0 0.0082832545505906897 0.014508772398448406 0 0.0083129224792572419 0.013383886508750885 0 0.0079047849684169211 0.01395833923825596 0 0.0065687946761884605 0.013633383883063495 0 0.0070876250298972437 0.014583494026015014 0 0.005554492788314355 0.014302561629273984 0 0.0046427619122772698 0.013124166579853264 0 0.005554492788314355 0.014302561629273984 0 0.0041669006568577386 0.014506707001901282 0 0.005554492788314355 0.014302561629273984 0 0.0041669006568577386 0.014506707001901282 0 0.004853281323731363 0.015476521853207135 0 0.0037224449560491852 0.015704839777841803 0 0.0041669006568577386 0.014506707001901282 0 0.004853281323731363 0.015476521853207135 0 0.0058283111935464324 0.015598181603110217 0 0.005554492788314355 0.014302561629273984 0 0.004853281323731363 0.015476521853207135 0 0.0058283111935464324 0.015598181603110217 0 0.004853281323731363 0.015476521853207135 0 0.0055416208703391598 0.016298320622947768 0 0.004853281323731363 0.015476521853207135 0 0.0055416208703391598 0.016298320622947768 0 0.0044728030709357608 0.016424553879896341 0 0.0055416208703391598 0.016298320622947768 0 0.0044728030709357608 0.016424553879896341 0 0.0049617754693988053 0.016997463011210565 0 0.0037224449560491852 0.015704839777841803 0 0.004853281323731363 0.015476521853207135 0 0.0044728030709357608 0.016424553879896341 0 0.0037224449560491852 0.015704839777841803 0 0.0035035457396541099 0.016704045844796178 0 0.0044728030709357608 0.016424553879896341 0 0.0042079726228195407 0.017111977900900185 0 0.0048435022619691169 0.017803907987916302 0 0.0033160760066533262 0.017607033976988339 0 0.0035035457396541099 0.016704045844796178 0 0.0044728030709357608 0.016424553879896341 0 0.0042079726228195407 0.017111977900900185 0 0.0044728030709357608 0.016424553879896341 0 0.0042079726228195407 0.017111977900900185 0 0.0049617754693988053 0.016997463011210565 0 0.0042079726228195407 0.017111977900900185 0 0.0049617754693988053 0.016997463011210565 0 0.0048435022619691169 0.017803907987916302 0 0.0055416208703391598 0.016298320622947768 0 0.0049617754693988053 0.016997463011210565 0 0.0057267618640164386 0.017207904954817572 0 0.0047920143215006445 0.015228783752396634 0 0.0038049487613092026 0.010433635189974359 0 0.0049617754693988053 0.016997463011210565 0 0.0057267618640164386 0.017207904954817572 0 0.0048435022619691169 0.017803907987916302 0 -0.0073058000121957846 -0.016693747595769533 0 -0.0074385454512583583 -0.014449531502003014 0 -0.0093827877695257765 -0.012909174476870615 0 -0.0008916813944415459 0.00023321396786979686 0 -0.0026161787195368691 -0.0058056024933501333 0 0.0055416208703391598 0.016298320622947768 0 0.0057267618640164386 0.017207904954817572 0 0.0066551920155997922 0.016483458318397776 0 0.0066551920155997922 0.016483458318397776 0 0.0069572853395654952 0.016358804394665506 0 0.0062612251511180109 0.01699984141693521 0 0.0061078109828925815 0.01669194255364061 0 0.0066551920155997922 0.016483458318397776 0 0.0062612251511180109 0.01699984141693521 0 0.0047920143215006445 0.015228783752396634 0 0.0057358480787775513 0.015748351446723485 0 0.0058283111935464324 0.015598181603110217 0 0.007048286963901456 0.015110371447457475 0 0.0064570805605409665 0.015916801983976065 0 0.0055416208703391598 0.016298320622947768 0 0.0066551920155997922 0.016483458318397776 0 0.0064570805605409665 0.015916801983976065 0 0.0066551920155997922 0.016483458318397776 0 0.0064570805605409665 0.015916801983976065 0 0.0069572853395654952 0.016358804394665506 0 0.007048286963901456 0.015110371447457475 0 0.0064570805605409665 0.015916801983976065 0 0.0071606739708652764 0.015477459409069579 0 0.0058283111935464324 0.015598181603110217 0 0.0055416208703391598 0.016298320622947768 0 0.0064570805605409665 0.015916801983976065 0 0.0014921590964214484 -0.0032975335378194566 0 -0.0008916813944415459 0.00023321396786979686 0 -0.005165265281376525 -0.017773911302606742 0 -0.0053713039188450886 -0.020760769824747238 0 -0.0073058000121957846 -0.016693747595769533 0 0.0082832545505906897 0.014508772398448406 0 0.0071606739708652764 0.015477459409069579 0 0.0069572853395654952 0.016358804394665506 0 0.0064570805605409665 0.015916801983976065 0 0.0071606739708652764 0.015477459409069579 0 0.0069572853395654952 0.016358804394665506 0 -0.005165265281376525 -0.017773911302606742 0 -0.0073058000121957846 -0.016693747595769533 0 -0.0057932348750160114 -0.015742252623075593 0 -0.0073058000121957846 -0.016693747595769533 0 -0.0057932348750160114 -0.015742252623075593 0 -0.0074385454512583583 -0.014449531502003014 0 -0.0048102688203168435 -0.014536794997193349 0 -0.0057854274066828542 -0.014345420462052502 0 -0.0050986580900331578 -0.012645946919615099 0 -0.0074385454512583583 -0.014449531502003014 0 -0.0057854274066828542 -0.014345420462052502 0 -0.0050986580900331578 -0.012645946919615099 0 -0.0048102688203168435 -0.014536794997193349 0 -0.0057932348750160114 -0.015742252623075593 0 -0.0057854274066828542 -0.014345420462052502 0 -0.0057932348750160114 -0.015742252623075593 0 -0.0074385454512583583 -0.014449531502003014 0 -0.0057854274066828542 -0.014345420462052502 0 -0.0074385454512583583 -0.014449531502003014 0 -0.0093827877695257765 -0.012909174476870615 0 -0.0050986580900331578 -0.012645946919615099 0 -0.0026161787195368691 -0.0058056024933501333 0 -0.0035088318467157609 -0.011950734652467345 0 -0.0012956290590137424 -0.011735222316058799 0 -0.0013240847911227369 -0.011765902001640485 0 -0.0010856084501827143 -0.012145370219526825 0 -0.0011225570870407281 -0.011969306713621997 0 -0.0012956290590137424 -0.011735222316058799 0 -0.0010856084501827143 -0.012145370219526825 0 -0.0012956290590137424 -0.011735222316058799 0 -0.0011878994356038714 -0.011807079382307399 0 -0.0012926663264089555 -0.011692931774411455 0 -0.0011225570870407281 -0.011969306713621997 0 -0.0011878994356038714 -0.011807079382307399 0 -0.0010446746040445253 -0.011893377892991292 0 -0.0011225570870407281 -0.011969306713621997 0 -0.0012956290590137424 -0.011735222316058799 0 -0.0011878994356038714 -0.011807079382307399 0 -0.0012956290590137424 -0.011735222316058799 0 -0.0014669893394546587 -0.011326395177715925 0 -0.0013842779696477861 -0.01164314255561588 0 -0.0014029276975666615 -0.011228434132141554 0 -0.0013341275823609609 -0.010945183643896133 0 -0.0012956290590137424 -0.011735222316058799 0 -0.0013240847911227369 -0.011765902001640485 0 -0.0014669893394546587 -0.011326395177715925 0 -0.0013240847911227369 -0.011765902001640485 0 -0.0014107939855123991 -0.012124680187049633 0 -0.0010856084501827143 -0.012145370219526825 0 -0.0013240847911227369 -0.011765902001640485 0 -0.0014107939855123991 -0.012124680187049633 0 -0.0014669893394546587 -0.011326395177715925 0 -0.0017180430913535901 -0.010405477599658637 0 -0.0016711039024303715 -0.010442735323069264 0 -0.0016847960863962724 -0.010448933011597227 0 0.0061078109828925815 0.01669194255364061 0 0.0062612251511180109 0.01699984141693521 0 0.0056965776256195791 0.016918285819241482 0 -0.0026161787195368691 -0.0058056024933501333 0 0.0038049487613092026 0.010433635189974359 0 0.0038049487613092026 0.010433635189974359 0 0.0039763841256960043 0.015611963935124002 0 0.0042380040890233044 0.017614333570791344 0 0.0033160760066533262 0.017607033976988339 0 0.0032219749709912994 0.018307082454884868 0 -0.0016711039024303715 -0.010442735323069264 0 -0.0016847960863962724 -0.010448933011597227 0 -0.0019362410474502035 -0.010420947691404782 0 0.0038049487613092026 0.010433635189974359 0 0.0010636380642794169 0.00419505824349876 0 -0.0016847960863962724 -0.010448933011597227 0 -0.0018114719497152724 -0.010185348311711981 0 -0.0019362410474502035 -0.010420947691404782 0 -0.0016847960863962724 -0.010448933011597227 0 -0.0016650842033245758 -0.010555376123974447 0 -0.0018114719497152724 -0.010185348311711981 0 -0.0026161787195368691 -0.0058056024933501333 0 -0.00077140796680777966 -0.011843265896396681 0 -0.0014107939855123991 -0.012124680187049633 0 -0.0014669893394546587 -0.011326395177715925 0 -0.0016650842033245758 -0.010555376123974447 0 -0.0014669893394546587 -0.011326395177715925 0 -0.0016650842033245758 -0.010555376123974447 0 -0.0011348879102416557 -0.010264156506022937 0 -0.0017180430913535901 -0.010405477599658637 0 -0.0016847960863962724 -0.010448933011597227 0 -0.0016650842033245758 -0.010555376123974447 0 -0.0016650842033245758 -0.010555376123974447 0 -0.0014317085577820734 -0.010088513957310139 0 -0.0011348879102416557 -0.010264156506022937 0 -0.0016650842033245758 -0.010555376123974447 0 -0.0014317085577820734 -0.010088513957310139 0 -0.0017328846510926161 -0.010162333327145329 0 -0.0014317085577820734 -0.010088513957310139 0 -0.0017328846510926161 -0.010162333327145329 0 -0.0015503337981474328 -0.0098563255013888948 0 -0.0016650842033245758 -0.010555376123974447 0 -0.0018114719497152724 -0.010185348311711981 0 -0.0017328846510926161 -0.010162333327145329 0 -0.0017328846510926161 -0.010162333327145329 0 -0.0018699044612345284 -0.009927322646729143 0 -0.0015503337981474328 -0.0098563255013888948 0 -0.0018114719497152724 -0.010185348311711981 0 -0.0017328846510926161 -0.010162333327145329 0 -0.0018699044612345284 -0.009927322646729143 0 -0.0018114719497152724 -0.010185348311711981 0 -0.0018699044612345284 -0.009927322646729143 0 -0.0020410446194654708 -0.0097653367614522861 0 -0.0016052262188592948 -0.0098765850039138486 0 -0.0014170552578533415 -0.01008889759265825 0 -0.0016129027854677792 -0.009471437962165527 0 -0.0016803483724932762 -0.0090651277399359832 0 -0.0010507758752542299 -0.0091107603028302633 0 -0.0016803483724932762 -0.0090651277399359832 0 -0.0010507758752542299 -0.0091107603028302633 0 -0.0015587656501934468 -0.0086719030215273041 0 -0.0016052262188592948 -0.0098765850039138486 0 -0.0011400508050275757 -0.0096750641244877419 0 -0.0016129027854677792 -0.009471437962165527 0 -0.0016803483724932762 -0.0090651277399359832 0 -0.0019495646362705974 -0.0093890057249871334 0 -0.0013948407792468164 -0.01007618662086697 0 -0.0013919041699540023 -0.010062619828208604 0 -0.0014385412132205265 -0.010075470034678935 0 -0.0014170552578533415 -0.01008889759265825 0 -0.001391587593417449 -0.010659316589316297 0 -0.0014317085577820734 -0.010088513957310139 0 -0.0015503337981474328 -0.0098563255013888948 0 -0.0010389832812967659 -0.009700030569496379 0 -0.0013507122258747499 -0.010049744131822526 0 -0.0013948407792468164 -0.01007618662086697 0 -0.0013919041699540023 -0.010062619828208604 0 -0.0011400508050275757 -0.0096750641244877419 0 -0.0013820780035249602 -0.010262040690174518 0 -0.0013948407792468164 -0.01007618662086697 0 -0.0014385412132205265 -0.010075470034678935 0 -0.0014453819230696146 -0.010104010594947773 0 -0.0013966318183723863 -0.011456502866812039 0 -0.0011972427331926208 -0.011518012169032881 0 -0.0013084348285582344 -0.011594939687495715 0 -0.001391587593417449 -0.010659316589316297 0 -0.0013820780035249602 -0.010262040690174518 0 -0.0013966318183723863 -0.011456502866812039 0 -0.0010775445755923107 -0.011308864981370225 0 -0.0011972427331926208 -0.011518012169032881 0 -0.0016119451051208511 -0.011459475901469271 0 -0.0010762927785322213 -0.011333285137013158 0 -0.0015532712819448288 -0.011210382271468476 0 -0.001391587593417449 -0.010659316589316297 0 -0.0010951572331087257 -0.011219750107332338 0 -0.0010775445755923107 -0.011308864981370225 0 -0.0011972427331926208 -0.011518012169032881 0 -0.00092585544280267566 -0.011567668729027446 0 -0.0011972427331926208 -0.011518012169032881 0 -0.001155474907506642 -0.011686424686338414 0 -0.0013084348285582344 -0.011594939687495715 0 -0.001155474907506642 -0.011686424686338414 0 -0.0012926663264089555 -0.011692931774411455 0 -0.0013084348285582344 -0.011594939687495715 0 -0.0011972427331926208 -0.011518012169032881 0 -0.001155474907506642 -0.011686424686338414 0 -0.00092585544280267566 -0.011567668729027446 0 -0.0011878994356038714 -0.011807079382307399 0 -0.001155474907506642 -0.011686424686338414 0 -0.0010446746040445253 -0.011893377892991292 0 -0.0011878994356038714 -0.011807079382307399 0 -0.001155474907506642 -0.011686424686338414 0 -0.0012926663264089555 -0.011692931774411455 0 -0.001391587593417449 -0.010659316589316297 0 -0.0013341275823609609 -0.010945183643896133 0 -0.0014317085577820734 -0.010088513957310139 0 -0.0010389832812967659 -0.009700030569496379 0 -0.0011348879102416557 -0.010264156506022937 0 -0.0012956290590137424 -0.011735222316058799 0 -0.0012926663264089555 -0.011692931774411455 0 -0.0013842779696477861 -0.01164314255561588 0 -0.0012926663264089555 -0.011692931774411455 0 -0.0013842779696477861 -0.01164314255561588 0 -0.0013084348285582344 -0.011594939687495715 0 -0.0013966318183723863 -0.011456502866812039 0 -0.0013842779696477861 -0.01164314255561588 0 -0.0013084348285582344 -0.011594939687495715 0 0.0008845433585346681 0.018069214408412502 0 0.0010262870487211413 0.018538098908433307 0 0.0015579296690787113 0.018421161672591568 0 0.0008845433585346681 0.018069214408412502 0 0.0017754468296824581 0.017777581825093175 0 0.0015579296690787113 0.018421161672591568 0 0.0008845433585346681 0.018069214408412502 0 0.0012967726164492615 0.017169793850738722 0 0.0017754468296824581 0.017777581825093175 0 0.0017754468296824581 0.017777581825093175 0 0.0015579296690787113 0.018421161672591568 0 0.0023387623059912392 0.018211926146472476 0 0.0015579296690787113 0.018421161672591568 0 0.0023387623059912392 0.018211926146472476 0 0.0020385562872014358 0.018794248439669092 0 0.0023387623059912392 0.018211926146472476 0 0.0032219749709912994 0.018307082454884868 0 0.0020385562872014358 0.018794248439669092 0 -0.0019362410474502035 -0.010420947691404782 0 -0.0021205981122742372 -0.010022843410342151 0 -0.0031279074262333855 -0.0097195731074195164 0 0.0010636380642794169 0.00419505824349876 0 -0.00054652879897724494 0.0046049031806944174 0 0.0023387623059912392 0.018211926146472476 0 0.0026244319621863848 0.017721621208419375 0 0.0032219749709912994 0.018307082454884868 0 0.0017754468296824581 0.017777581825093175 0 0.0023387623059912392 0.018211926146472476 0 0.0026244319621863848 0.017721621208419375 0 0.0026244319621863848 0.017721621208419375 0 0.0033160760066533262 0.017607033976988339 0 0.0032219749709912994 0.018307082454884868 0 -0.0018114719497152724 -0.010185348311711981 0 -0.0019362410474502035 -0.010420947691404782 0 -0.0021205981122742372 -0.010022843410342151 0 -0.0018114719497152724 -0.010185348311711981 0 -0.0021205981122742372 -0.010022843410342151 0 -0.0020410446194654708 -0.0097653367614522861 0 -0.0021205981122742372 -0.010022843410342151 0 -0.0020410446194654708 -0.0097653367614522861 0 -0.0024356285347445117 -0.0097217855566667042 0 -0.0020410446194654708 -0.0097653367614522861 0 -0.0019495646362705974 -0.0093890057249871334 0 -0.0024356285347445117 -0.0097217855566667042 0 -0.0016052262188592948 -0.0098765850039138486 0 -0.0018704143925518514 -0.0098993766988749368 0 -0.0016129027854677792 -0.009471437962165527 0 -0.0020410446194654708 -0.0097653367614522861 0 -0.0019495646362705974 -0.0093890057249871334 0 -0.0019495646362705974 -0.0093890057249871334 0 -0.0021973713870125093 -0.0090955331868314629 0 -0.0024356285347445117 -0.0097217855566667042 0 -0.0016803483724932762 -0.0090651277399359832 0 -0.0019495646362705974 -0.0093890057249871334 0 -0.0021973713870125093 -0.0090955331868314629 0 -0.0016803483724932762 -0.0090651277399359832 0 -0.0021973713870125093 -0.0090955331868314629 0 -0.0019548136224187078 -0.0087723696998511236 0 -0.0024595518087118756 -0.009366643019625108 0 -0.002739562420503328 -0.0080419590380560353 0 -0.0021973713870125093 -0.0090955331868314629 0 -0.0024356285347445117 -0.0097217855566667042 0 -0.0027816410748257216 -0.0089053294035642411 0 -0.0021205981122742372 -0.010022843410342151 0 -0.0031279074262333855 -0.0097195731074195164 0 -0.0024356285347445117 -0.0097217855566667042 0 -0.0031279074262333855 -0.0097195731074195164 0 -0.0024356285347445117 -0.0097217855566667042 0 -0.0028723945038824587 -0.0071319298291291581 0 -0.00054652879897724494 0.0046049031806944174 0 -0.0019244698909077222 0.0054190115586893184 0 0.0015579296690787113 0.018421161672591568 0 0.0020385562872014358 0.018794248439669092 0 0.0011542817841437027 0.019018060876133076 0 -0.0031279074262333855 -0.0097195731074195164 0 -0.0052091788292467425 -0.0080677168553165233 0 -0.0028723945038824587 -0.0071319298291291581 0 0.00081592694114317242 0.018746430367289058 0 0.0010262870487211413 0.018538098908433307 0 0.0011542817841437027 0.019018060876133076 0 0.0010262870487211413 0.018538098908433307 0 0.0015579296690787113 0.018421161672591568 0 0.0011542817841437027 0.019018060876133076 0 -0.0056727954866398617 -0.0047027085870000283 0 -0.0047293515087696511 -0.0049491122226543293 0 -0.0050174956289893574 -0.0038634920326270326 0 -0.0047293515087696511 -0.0049491122226543293 0 -0.0044446726106710764 -0.0042074826708593856 0 -0.0050174956289893574 -0.0038634920326270326 0 -0.0056727954866398617 -0.0047027085870000283 0 -0.0047293515087696511 -0.0049491122226543293 0 -0.0049752721965817901 -0.006119801806762709 0 -0.0061766714277890133 -0.0059384367811686732 0 -0.0056727954866398617 -0.0047027085870000283 0 -0.0049752721965817901 -0.006119801806762709 0 -0.0061766714277890133 -0.0059384367811686732 0 -0.0052091788292467425 -0.0080677168553165233 0 -0.0049752721965817901 -0.006119801806762709 0 -0.0052091788292467425 -0.0080677168553165233 0 -0.0049752721965817901 -0.006119801806762709 0 -0.0028723945038824587 -0.0071319298291291581 0 -0.0047293515087696511 -0.0049491122226543293 0 -0.0049752721965817901 -0.006119801806762709 0 -0.0028723945038824587 -0.0071319298291291581 0 -0.002159245984929256 -0.0052692619602468065 0 -0.002739562420503328 -0.0080419590380560353 0 -0.0047293515087696511 -0.0049491122226543293 0 -0.0036661896048901929 -0.004563633996686545 0 -0.0028723945038824587 -0.0071319298291291581 0 -0.0032453756256659782 -0.0078483264184648332 0 -0.0029248693042795864 -0.0081075133722056207 0 -0.0027816410748257216 -0.0089053294035642411 0 -0.0047293515087696511 -0.0049491122226543293 0 -0.0036661896048901929 -0.004563633996686545 0 -0.0044446726106710764 -0.0042074826708593856 0 -0.0032453756256659782 -0.0078483264184648332 0 -0.0031157099872794612 -0.0078237843533840046 0 -0.0030570082820963363 -0.007914928505919485 0 -0.0032453756256659782 -0.0078483264184648332 0 -0.0031157099872794612 -0.0078237843533840046 0 -0.0030338225009215497 -0.0076433454652932564 0 -0.0031157099872794612 -0.0078237843533840046 0 -0.0029600874830570372 -0.0078563712947729361 0 -0.0030338225009215497 -0.0076433454652932564 0 -0.0031157099872794612 -0.0078237843533840046 0 -0.0029600874830570372 -0.0078563712947729361 0 -0.0030570082820963363 -0.007914928505919485 0 -0.0032453756256659782 -0.0078483264184648332 0 -0.0030570082820963363 -0.007914928505919485 0 -0.0029248693042795864 -0.0081075133722056207 0 -0.0029600874830570372 -0.0078563712947729361 0 -0.0030570082820963363 -0.007914928505919485 0 -0.0029248693042795864 -0.0081075133722056207 0 -0.0027832333128414645 -0.0079509299243498768 0 -0.0027845039257637445 -0.0077322648188871542 0 -0.002420878270476691 -0.00780195343326594 0 -0.0029600874830570372 -0.0078563712947729361 0 -0.0027832333128414645 -0.0079509299243498768 0 -0.0029248693042795864 -0.0081075133722056207 0 -0.0029600874830570372 -0.0078563712947729361 0 -0.0027832333128414645 -0.0079509299243498768 0 -0.0027845039257637445 -0.0077322648188871542 0 -0.0029600874830570372 -0.0078563712947729361 0 -0.0027845039257637445 -0.0077322648188871542 0 -0.0030338225009215497 -0.0076433454652932564 0 -0.002420878270476691 -0.00780195343326594 0 -0.0025520625533559248 -0.0081152868859414289 0 -0.0021787769516891254 -0.0081266976942052076 0 -0.0027832333128414645 -0.0079509299243498768 0 -0.002420878270476691 -0.00780195343326594 0 -0.0025520625533559248 -0.0081152868859414289 0 -0.0025520625533559248 -0.0081152868859414289 0 -0.002421303288296752 -0.0086041239258434175 0 -0.0021787769516891254 -0.0081266976942052076 0 -0.0027832333128414645 -0.0079509299243498768 0 -0.0025520625533559248 -0.0081152868859414289 0 -0.0029248693042795864 -0.0081075133722056207 0 -0.0025520625533559248 -0.0081152868859414289 0 -0.0029248693042795864 -0.0081075133722056207 0 -0.002421303288296752 -0.0086041239258434175 0 -0.0021973713870125093 -0.0090955331868314629 0 -0.0027816410748257216 -0.0089053294035642411 0 -0.002421303288296752 -0.0086041239258434175 0 -0.0029248693042795864 -0.0081075133722056207 0 -0.0027816410748257216 -0.0089053294035642411 0 -0.002421303288296752 -0.0086041239258434175 0 -0.002421303288296752 -0.0086041239258434175 0 -0.0019633462507378323 -0.0084249777048575978 0 -0.0021787769516891254 -0.0081266976942052076 0 -0.002421303288296752 -0.0086041239258434175 0 -0.0019548136224187078 -0.0087723696998511236 0 -0.0019633462507378323 -0.0084249777048575978 0 -0.0021973713870125093 -0.0090955331868314629 0 -0.002421303288296752 -0.0086041239258434175 0 -0.0019548136224187078 -0.0087723696998511236 0 -0.0019548136224187078 -0.0087723696998511236 0 -0.0019633462507378323 -0.0084249777048575978 0 -0.0015587656501934468 -0.0086719030215273041 0 -0.0019023097450125441 -0.0082901428133901594 0 -0.0016209918910595239 -0.0076496386373821803 0 -0.0019633462507378323 -0.0084249777048575978 0 -0.0019189524857749188 -0.0078798659341079713 0 -0.0015903596628087868 -0.0075039854779909232 0 -0.0019633462507378323 -0.0084249777048575978 0 -0.0021787769516891254 -0.0081266976942052076 0 -0.0019189524857749188 -0.0078798659341079713 0 -0.002420878270476691 -0.00780195343326594 0 -0.0021787769516891254 -0.0081266976942052076 0 -0.0019189524857749188 -0.0078798659341079713 0 -0.0019189524857749188 -0.0078798659341079713 0 -0.0017650371581022473 -0.0072217650384465738 0 -0.0015903596628087868 -0.0075039854779909232 0 -0.0019189524857749188 -0.0078798659341079713 0 -0.0021915077882172411 -0.0073789394477820668 0 -0.0016054692447683486 -0.0068930307840286194 0 -0.0018485849900316857 -0.0076717351167469583 0 -0.0016985132179342178 -0.007062396919295201 0 -0.002420878270476691 -0.00780195343326594 0 -0.0019189524857749188 -0.0078798659341079713 0 -0.0021915077882172411 -0.0073789394477820668 0 -0.0021915077882172411 -0.0073789394477820668 0 -0.0016054692447683486 -0.0068930307840286194 0 -0.0023121104873428432 -0.006879526423589904 0 -0.0013496936624835104 -0.0058730238742732413 0 -0.0016054692447683486 -0.0068930307840286194 0 -0.001994832567299236 -0.0063299074129300947 0 -0.0016054692447683486 -0.0068930307840286194 0 -0.001994832567299236 -0.0063299074129300947 0 -0.0023121104873428432 -0.006879526423589904 0 -0.001994832567299236 -0.0063299074129300947 0 -0.0023121104873428432 -0.006879526423589904 0 -0.0027710160917322354 -0.006405801990441354 0 -0.0023121104873428432 -0.006879526423589904 0 -0.0027710160917322354 -0.006405801990441354 0 -0.0028765406694194607 -0.0070430038753922257 0 -0.0028765406694194607 -0.0070430038753922257 0 -0.0026577752119726892 -0.0073937119392824061 0 -0.0031186914816839191 -0.0073975339594392932 0 -0.0021915077882172411 -0.0073789394477820668 0 -0.0023121104873428432 -0.006879526423589904 0 -0.0026577752119726892 -0.0073937119392824061 0 -0.0023121104873428432 -0.006879526423589904 0 -0.0028765406694194607 -0.0070430038753922257 0 -0.0026577752119726892 -0.0073937119392824061 0 -0.0027845039257637445 -0.0077322648188871542 0 -0.002420878270476691 -0.00780195343326594 0 -0.0026577752119726892 -0.0073937119392824061 0 -0.002420878270476691 -0.00780195343326594 0 -0.0021915077882172411 -0.0073789394477820668 0 -0.0026577752119726892 -0.0073937119392824061 0 -0.0027845039257637445 -0.0077322648188871542 0 -0.0026577752119726892 -0.0073937119392824061 0 -0.0030338225009215497 -0.0076433454652932564 0 -0.0026577752119726892 -0.0073937119392824061 0 -0.0031186914816839191 -0.0073975339594392932 0 -0.0030338225009215497 -0.0076433454652932564 0 -0.0014288003781742823 -0.0045004851104239671 0 -0.0016706064451676686 -0.0037995254748550496 0 -0.0018146784343507285 -0.0039315011866303045 0 -0.002159245984929256 -0.0052692619602468065 0 -0.0008665720616038799 -0.0030062075629684868 0 -0.0032453756256659782 -0.0078483264184648332 0 -0.0031186914816839191 -0.0073975339594392932 0 -0.0035158927252927712 -0.0071318000921555486 0 -0.0032453756256659782 -0.0078483264184648332 0 -0.0031186914816839191 -0.0073975339594392932 0 -0.0030338225009215497 -0.0076433454652932564 0 -0.002159245984929256 -0.0052692619602468065 0 -0.0017314119747240894 -0.0033917836590392756 0 -0.0036661896048901929 -0.004563633996686545 0 -0.0044446726106710764 -0.0042074826708593856 0 -0.0044789957166094397 -0.0033713246394575236 0 -0.0008665720616038799 -0.0030062075629684868 0 -0.0017314119747240894 -0.0033917836590392756 0 -0.0028765406694194607 -0.0070430038753922257 0 -0.0031186914816839191 -0.0073975339594392932 0 -0.0035158927252927712 -0.0071318000921555486 0 0.0021573581510683929 0.00014508976379566535 0 0.0019578267704951761 0.00078810263493978776 0 0.0018844221819022447 0.00036954466627625956 0 0.0015152773369027615 0.00045214613671233438 0 0.0019578267704951761 0.00078810263493978776 0 0.0018844221819022447 0.00036954466627625956 0 -0.0027710160917322354 -0.006405801990441354 0 -0.0028765406694194607 -0.0070430038753922257 0 -0.0035158927252927712 -0.0071318000921555486 0 -0.00067233412723932337 -0.0029661882410093833 0 -0.0008665720616038799 -0.0030062075629684868 0 0.0021573581510683929 0.00014508976379566535 0 0.0020401719451726991 0.00037060785406952535 0 0.0021863609733288299 0.00028298532463412907 0 0.001110294525218859 0.00042317092406316702 0 -0.0008665720616038799 -0.0030062075629684868 0 -0.0015920530858660375 -0.0009935324822043384 0 -0.0017314119747240894 -0.0033917836590392756 0 0.0023538962237751372 0.00012332868802917692 0 0.0022466508721401619 0.00012819316745165646 0 0.0021863609733288299 0.00028298532463412907 0 -0.0015141364486229215 0.0012984733726660695 0 -0.0015920530858660375 -0.0009935324822043384 0 -0.0061801091779594723 -0.003203505964821894 0 -0.0052736820646006478 -0.0021744870532580179 0 -0.005257828903378405 -0.003035228330655003 0 -0.0061801091779594723 -0.003203505964821894 0 -0.005257828903378405 -0.003035228330655003 0 -0.0050174956289893574 -0.0038634920326270326 0 -0.0061801091779594723 -0.003203505964821894 0 -0.0056727954866398617 -0.0047027085870000283 0 -0.0050174956289893574 -0.0038634920326270326 0 -0.005257828903378405 -0.003035228330655003 0 -0.0044615151754259117 -0.0033627661823801393 0 -0.0050174956289893574 -0.0038634920326270326 0 0.0020401719451726991 0.00037060785406952535 0 0.0021863609733288299 0.00028298532463412907 0 0.0020718272509088888 0.0003995052831721605 0 -0.0052736820646006478 -0.0021744870532580179 0 -0.005257828903378405 -0.003035228330655003 0 -0.0044615151754259117 -0.0033627661823801393 0 -0.0044446726106710764 -0.0042074826708593856 0 -0.0044789957166094397 -0.0033713246394575236 0 -0.0050174956289893574 -0.0038634920326270326 0 -0.0017314119747240894 -0.0033917836590392756 0 -0.0027574826872779354 -0.0039566939111772741 0 -0.00074347148552532394 -0.0083644181214867323 0 -0.00043943504204564383 -0.0081414268244787077 0 -0.00067811148852401661 -0.0078921440481484108 0 -0.0013019109581219133 -0.0093537560024368454 0 -0.0013820780035249602 -0.010262040690174518 0 -0.00074347148552532394 -0.0083644181214867323 0 -0.0010898013677658168 -0.0082789070989874244 0 -0.00067811148852401661 -0.0078921440481484108 0 -0.00074347148552532394 -0.0083644181214867323 0 -0.00043943504204564383 -0.0081414268244787077 0 -0.00057428359075663922 -0.0088215811741020091 0 -0.0021973722250853605 -0.01038919159775829 0 -0.0014733677549976535 -0.010609459391889965 0 -0.0016270195377829603 -0.011228211956449569 0 -0.0021973722250853605 -0.01038919159775829 0 -0.0014733677549976535 -0.010609459391889965 0 -0.0013421233449023801 -0.010073725772569561 0 -0.0010762927785322213 -0.011333285137013158 0 -0.0011205415924862023 -0.010985397124096782 0 -0.0015532712819448288 -0.011210382271468476 0 -0.0021973722250853605 -0.01038919159775829 0 -0.0016270195377829603 -0.011228211956449569 0 -0.0024831426292616834 -0.011666526907016432 0 -0.0014815708547092307 -0.010978014521932054 0 -0.0013820780035249602 -0.010262040690174518 0 -0.00074347148552532394 -0.0083644181214867323 0 -0.00057428359075663922 -0.0088215811741020091 0 -0.00096509958004028433 -0.008679751192345625 0 -0.0010507758752542299 -0.0091107603028302633 0 -0.00057428359075663922 -0.0088215811741020091 0 -0.00096509958004028433 -0.008679751192345625 0 -0.00096509958004028433 -0.008679751192345625 0 -0.0015587656501934468 -0.0086719030215273041 0 -0.0010898013677658168 -0.0082789070989874244 0 -0.0010507758752542299 -0.0091107603028302633 0 -0.00096509958004028433 -0.008679751192345625 0 -0.0015587656501934468 -0.0086719030215273041 0 -0.0019633462507378323 -0.0084249777048575978 0 -0.0015587656501934468 -0.0086719030215273041 0 -0.0014941988196660832 -0.0081530063626952618 0 -0.0016803483724932762 -0.0090651277399359832 0 -0.0019548136224187078 -0.0087723696998511236 0 -0.0015587656501934468 -0.0086719030215273041 0 -0.0014567203010895538 -0.0085773333781951899 0 -0.00111237876558505 -0.0082364914454126099 0 -0.0019633462507378323 -0.0084249777048575978 0 -0.0014941988196660832 -0.0081530063626952618 0 -0.0015982133706409268 -0.0077200493261392828 0 -0.0015587656501934468 -0.0086719030215273041 0 -0.0014941988196660832 -0.0081530063626952618 0 -0.0010947577446202574 -0.0081573079054019833 0 -0.00074347148552532394 -0.0083644181214867323 0 -0.00096509958004028433 -0.008679751192345625 0 -0.0010898013677658168 -0.0082789070989874244 0 -0.0014941988196660832 -0.0081530063626952618 0 -0.0010947577446202574 -0.0081573079054019833 0 -0.001257413224336751 -0.0078336517553775787 0 -0.00111237876558505 -0.0082364914454126099 0 -0.00063752140168627121 -0.0077560748311270205 0 -0.001257413224336751 -0.0078336517553775787 0 -0.0011298002138907129 -0.0075044567651884565 0 -0.0006411821799061204 -0.0077030589477825309 0 -0.0010947577446202574 -0.0081573079054019833 0 -0.001257413224336751 -0.0078336517553775787 0 -0.0006411821799061204 -0.0077030589477825309 0 -0.001257413224336751 -0.0078336517553775787 0 -0.0015982133706409268 -0.0077200493261392828 0 -0.0011298002138907129 -0.0075044567651884565 0 -0.0014941988196660832 -0.0081530063626952618 0 -0.001257413224336751 -0.0078336517553775787 0 -0.0015982133706409268 -0.0077200493261392828 0 -0.0013797462119975764 -0.0068562127485083434 0 -0.0016930753818366136 -0.0067022290473896023 0 -0.0017650371581022473 -0.0072217650384465738 0 -0.0013142022364677521 -0.0069071040089220496 0 -0.0016209918910595239 -0.0076496386373821803 0 -0.0012880060531089204 -0.0070134453337683707 0 -0.0015982133706409268 -0.0077200493261392828 0 -0.0011298002138907129 -0.0075044567651884565 0 -0.0013797462119975764 -0.0068562127485083434 0 -0.0017650371581022473 -0.0072217650384465738 0 -0.0015903596628087868 -0.0075039854779909232 0 -0.0015374716691846731 -0.0063612243414371203 0 -0.0016985132179342178 -0.007062396919295201 0 -0.0012880060531089204 -0.0070134453337683707 0 -0.0011298002138907129 -0.0075044567651884565 0 -0.0010384784116624459 -0.0071718874763924082 0 -0.0011298002138907129 -0.0075044567651884565 0 -0.00075357749674265912 -0.0072635638901328873 0 -0.0006411821799061204 -0.0077030589477825309 0 -0.0011298002138907129 -0.0075044567651884565 0 -0.0010384784116624459 -0.0071718874763924082 0 -0.00075357749674265912 -0.0072635638901328873 0 -0.00092445318403624967 -0.0069742091807671576 0 -0.0010384784116624459 -0.0071718874763924082 0 -0.00075357749674265912 -0.0072635638901328873 0 -0.00063752140168627121 -0.0077560748311270205 0 -0.00066119563709763512 -0.0077025324634775461 0 -0.00075357749674265912 -0.0072635638901328873 0 -0.0006411821799061204 -0.0077030589477825309 0 -0.00017094848730050491 -0.0072311289611856188 0 -0.00065401920582508846 -0.0068356781826492052 0 -0.00075357749674265912 -0.0072635638901328873 0 -0.00017094848730050491 -0.0072311289611856188 0 -0.00043943504204564383 -0.0081414268244787077 0 -0.00067811148852401661 -0.0078921440481484108 0 -0.0002997106044072447 -0.0075084117971134061 0 -0.0021973722250853605 -0.01038919159775829 0 -0.0019521778260798567 -0.00906173805561304 0 -0.0013421233449023801 -0.010073725772569561 0 -0.0013019109581219133 -0.0093537560024368454 0 -0.00066119563709763512 -0.0077025324634775461 0 -0.0019521778260798567 -0.00906173805561304 0 -0.00078022045583546094 -0.0095287577686620044 0 -0.00054877123308789781 -0.0087403137762849942 0 -0.00078022045583546094 -0.0095287577686620044 0 -0.00054877123308789781 -0.0087403137762849942 0 0.00012546427964157139 -0.0094921039989802908 0 0.00047471281996672133 -0.008419126299568121 0 -0.00054877123308789781 -0.0087403137762849942 0 0.00012546427964157139 -0.0094921039989802908 0 -0.00078022045583546094 -0.0095287577686620044 0 -0.00038401530255792639 -0.010241457193780302 0 0.00012546427964157139 -0.0094921039989802908 0 -0.0019521778260798567 -0.00906173805561304 0 -0.00078022045583546094 -0.0095287577686620044 0 -0.0013421233449023801 -0.010073725772569561 0 -0.00078022045583546094 -0.0095287577686620044 0 -0.00038401530255792639 -0.010241457193780302 0 -0.0013421233449023801 -0.010073725772569561 0 -0.0014815708547092307 -0.010978014521932054 0 -0.00091271905223541943 -0.010792201857976276 0 -0.00038401530255792639 -0.010241457193780302 0 -0.0013421233449023801 -0.010073725772569561 0 -0.00070664289313964671 -0.010756967362936239 0 -0.0014733677549976535 -0.010609459391889965 0 -0.0016270195377829603 -0.011228211956449569 0 -0.00070664289313964671 -0.010756967362936239 0 -0.0014733677549976535 -0.010609459391889965 0 -0.0013421233449023801 -0.010073725772569561 0 -0.00070664289313964671 -0.010756967362936239 0 -0.00038401530255792639 -0.010241457193780302 0 -0.00070664289313964671 -0.010756967362936239 0 -0.00015297000197732303 -0.010840090224874222 0 -0.00070664289313964671 -0.010756967362936239 0 -0.00015297000197732303 -0.010840090224874222 0 -0.00047501190160551937 -0.01119571082978876 0 -0.00015297000197732303 -0.010840090224874222 0 -0.00047501190160551937 -0.01119571082978876 0 9.7843226340222747e-05 -0.011197287898222557 0 -0.0010762927785322213 -0.011333285137013158 0 -0.00047501190160551937 -0.01119571082978876 0 -0.00083449919884817138 -0.011059430887955326 0 -0.0011205415924862023 -0.010985397124096782 0 -0.00070664289313964671 -0.010756967362936239 0 -0.00083449919884817138 -0.011059430887955326 0 -0.00070664289313964671 -0.010756967362936239 0 -0.00047501190160551937 -0.01119571082978876 0 -0.00083449919884817138 -0.011059430887955326 0 -0.0010951572331087257 -0.011219750107332338 0 -0.00062147220764064185 -0.01118671651880479 0 -0.0010762927785322213 -0.011333285137013158 0 -0.0011205415924862023 -0.010985397124096782 0 -0.00083449919884817138 -0.011059430887955326 0 0.00056583760048740104 -0.011133222234578627 0 9.7843226340222747e-05 -0.011197287898222557 0 0.00035563622000176642 -0.011447054954568495 0 0.00056583760048740104 -0.011133222234578627 0 9.7843226340222747e-05 -0.011197287898222557 0 0.00051195749335096485 -0.010549519046097421 0 -0.00015297000197732303 -0.010840090224874222 0 9.7843226340222747e-05 -0.011197287898222557 0 0.00051195749335096485 -0.010549519046097421 0 -0.00038401530255792639 -0.010241457193780302 0 -0.00015297000197732303 -0.010840090224874222 0 0.00051195749335096485 -0.010549519046097421 0 0.00056583760048740104 -0.011133222234578627 0 0.00051195749335096485 -0.010549519046097421 0 0.00075362953862612126 -0.010901345658667532 0 0.00064376631771160013 -0.010534686932528837 0 0.0011000162547076108 -0.010134486460960849 0 0.00051195749335096485 -0.010549519046097421 0 0.00085795807992869737 -0.01092967771197173 0 0.00075362953862612126 -0.010901345658667532 0 0.00051195749335096485 -0.010549519046097421 0 0.00012546427964157139 -0.0094921039989802908 0 0.00151102418545391 -0.0092228137258556844 0 -0.00038401530255792639 -0.010241457193780302 0 0.00051195749335096485 -0.010549519046097421 0 0.00012546427964157139 -0.0094921039989802908 0 0.00047471281996672133 -0.008419126299568121 0 0.00012546427964157139 -0.0094921039989802908 0 0.00151102418545391 -0.0092228137258556844 0 0.001527121064279967 -0.0097515225445014286 0 0.0011000162547076108 -0.010134486460960849 0 0.00099291321759551279 -0.011241498970064503 0 0.00085795807992869737 -0.01092967771197173 0 0.00092902302584511941 -0.011146257471960854 0 0.00092902302584511941 -0.011146257471960854 0 0.00088464458058516065 -0.011018185561390285 0 0.00095856218870305127 -0.011131318525729263 0 0.00085795807992869737 -0.01092967771197173 0 0.00088464458058516065 -0.011018185561390285 0 0.00075362953862612126 -0.010901345658667532 0 0.00085795807992869737 -0.01092967771197173 0 0.00092902302584511941 -0.011146257471960854 0 0.00088464458058516065 -0.011018185561390285 0 0.0008357697054599565 -0.011374674780265073 0 0.00088187037895074761 -0.011255646303923731 0 0.00081010609134042199 -0.011334543139774918 0 0.00093367898597823478 -0.011330738875027316 0 0.00092902302584511941 -0.011146257471960854 0 0.00089648813238324377 -0.011271915066394708 0 0.0008357697054599565 -0.011374674780265073 0 0.00089648813238324377 -0.011271915066394708 0 0.00088187037895074761 -0.011255646303923731 0 0.00092902302584511941 -0.011146257471960854 0 0.00089648813238324377 -0.011271915066394708 0 0.00088187037895074761 -0.011255646303923731 0 0.00092902302584511941 -0.011146257471960854 0 0.00088187037895074761 -0.011255646303923731 0 0.00095856218870305127 -0.011131318525729263 0 0.00088187037895074761 -0.011255646303923731 0 0.00087303136987464656 -0.011238809469121156 0 0.00095856218870305127 -0.011131318525729263 0 0.00088187037895074761 -0.011255646303923731 0 0.00084489704658556044 -0.011277930633790028 0 0.00081010609134042199 -0.011334543139774918 0 0.00087303136987464656 -0.011238809469121156 0 0.00084489704658556044 -0.011277930633790028 0 0.00084948958899677001 -0.011279597194393264 0 0.00088187037895074761 -0.011255646303923731 0 0.00087303136987464656 -0.011238809469121156 0 0.00084489704658556044 -0.011277930633790028 0 0.00080264413396366821 -0.011314898189312604 0 0.00084489704658556044 -0.011277930633790028 0 0.00084948958899677001 -0.011279597194393264 0 0.00080264413396366821 -0.011314898189312604 0 0.00084489704658556044 -0.011277930633790028 0 0.00081010609134042199 -0.011334543139774918 0 0.0013676109195836965 -0.011671542900682315 0 0.0007987919347345559 -0.011646778990044097 0 0.0010170179368351473 -0.01136813435127002 0 0.00091162958603484832 -0.012342867448640545 0 0.0010534502460100882 -0.012077144658040884 0 0.00084569400750922731 -0.011315290864683468 0 0.0010170179368351473 -0.01136813435127002 0 0.00084948958899677001 -0.011279597194393264 0 0.00087303136987464656 -0.011238809469121156 0 0.00084569400750922731 -0.011315290864683468 0 0.00084948958899677001 -0.011279597194393264 0 0.00095856218870305127 -0.011131318525729263 0 0.0010418605174249134 -0.011199623169678765 0 0.0010045547659730183 -0.011196721718777303 0 0.00091162958603484832 -0.012342867448640545 0 0.00078696615994969016 -0.0114896553282212 0 0.00087303136987464656 -0.011238809469121156 0 0.00084569400750922731 -0.011315290864683468 0 0.00095856218870305127 -0.011131318525729263 0 0.0011260280453392339 -0.011167333562034615 0 0.00095856218870305127 -0.011131318525729263 0 0.0010418605174249134 -0.011199623169678765 0 0.00091162958603484832 -0.012342867448640545 0 0.00089764281527280579 -0.013578677550345477 0 0.0011260280453392339 -0.011167333562034615 0 0.0010418605174249134 -0.011199623169678765 0 0.0010914150492999702 -0.011315823747717927 0 0.0010418605174249134 -0.011199623169678765 0 0.0010045547659730183 -0.011196721718777303 0 0.0010914150492999702 -0.011315823747717927 0 0.001084081618772582 -0.015513405539609417 0 0.0011651262273063489 -0.015697819961785809 0 0.0010577708102128191 -0.015762573798090648 0 0.001084081618772582 -0.015513405539609417 0 0.0010577708102128191 -0.015762573798090648 0 0.00089396549699374817 -0.01575409651537233 0 0.0011651262273063489 -0.015697819961785809 0 0.0011670385285093214 -0.015797042845893082 0 0.0010577708102128191 -0.015762573798090648 0 0.00075362953862612126 -0.010901345658667532 0 0.00090312712104010837 -0.011070359159168599 0 0.00084047190422974303 -0.011201322900831562 0 0.00088464458058516065 -0.011018185561390285 0 0.00075362953862612126 -0.010901345658667532 0 0.00090312712104010837 -0.011070359159168599 0 0.00088464458058516065 -0.011018185561390285 0 0.00095856218870305127 -0.011131318525729263 0 0.00090312712104010837 -0.011070359159168599 0 0.00095856218870305127 -0.011131318525729263 0 0.00090312712104010837 -0.011070359159168599 0 0.0010045547659730183 -0.011196721718777303 0 0.0010045547659730183 -0.011196721718777303 0 0.00084047190422974303 -0.011201322900831562 0 0.0010291791531804606 -0.011399360814759653 0 0.00090312712104010837 -0.011070359159168599 0 0.0010045547659730183 -0.011196721718777303 0 0.00084047190422974303 -0.011201322900831562 0 0.0010045547659730183 -0.011196721718777303 0 0.0010291791531804606 -0.011399360814759653 0 0.0010914150492999702 -0.011315823747717927 0 0.00056583760048740104 -0.011133222234578627 0 0.00084047190422974303 -0.011201322900831562 0 0.00068216956397633009 -0.011373680099644156 0 0.00056583760048740104 -0.011133222234578627 0 0.00075362953862612126 -0.010901345658667532 0 0.00084047190422974303 -0.011201322900831562 0 0.00084047190422974303 -0.011201322900831562 0 0.00068216956397633009 -0.011373680099644156 0 0.0010291791531804606 -0.011399360814759653 0 0.00068216956397633009 -0.011373680099644156 0 0.0010291791531804606 -0.011399360814759653 0 0.00060270079533858564 -0.011761299066708772 0 0.0010307568764504939 -0.011457584167062549 0 0.00081951929458415492 -0.011705347931516848 0 0.0010291791531804606 -0.011399360814759653 0 0.0011581816185610981 -0.01163160014017253 0 0.0010914150492999702 -0.011315823747717927 0 0.00093137165524171555 -0.013831332122976891 0 0.00089764281527280579 -0.013578677550345477 0 0.00071855047612583254 -0.015969327505572305 0 0.00089396549699374817 -0.01575409651537233 0 0.00087131789686754977 -0.015943080625170945 0 0.00071855047612583254 -0.015969327505572305 0 0.00082436009510247136 -0.01607044476419054 0 0.00071805248188400823 -0.016133359704314038 0 0.00071855047612583254 -0.015969327505572305 0 0.00082436009510247136 -0.01607044476419054 0 0.00087131789686754977 -0.015943080625170945 0 0.0010291791531804606 -0.011399360814759653 0 0.0011581816185610981 -0.01163160014017253 0 0.0010495489938153382 -0.011713515656624634 0 0.0011581816185610981 -0.01163160014017253 0 0.0010495489938153382 -0.011713515656624634 0 0.0012149553813988094 -0.012241660961171599 0 0.001123561973542206 -0.015883390576442131 0 0.0011670385285093214 -0.015797042845893082 0 0.0010577708102128191 -0.015762573798090648 0 0.001123561973542206 -0.015883390576442131 0 0.00098269008136863431 -0.015894500620779635 0 0.0010757516736854377 -0.015991877463732467 0 0.001123561973542206 -0.015883390576442131 0 0.0010577708102128191 -0.015762573798090648 0 0.00098269008136863431 -0.015894500620779635 0 0.00098269008136863431 -0.015894500620779635 0 0.00089396549699374817 -0.01575409651537233 0 0.00087131789686754977 -0.015943080625170945 0 0.0010577708102128191 -0.015762573798090648 0 0.00098269008136863431 -0.015894500620779635 0 0.00089396549699374817 -0.01575409651537233 0 0.00082436009510247136 -0.01607044476419054 0 0.00093997270423171002 -0.016021372840984736 0 0.00092438576434709192 -0.016139347690351039 0 0.00082436009510247136 -0.01607044476419054 0 0.00087131789686754977 -0.015943080625170945 0 0.00093997270423171002 -0.016021372840984736 0 0.00098269008136863431 -0.015894500620779635 0 0.00093997270423171002 -0.016021372840984736 0 0.0010757516736854377 -0.015991877463732467 0 0.00098269008136863431 -0.015894500620779635 0 0.00087131789686754977 -0.015943080625170945 0 0.00093997270423171002 -0.016021372840984736 0 0.00093997270423171002 -0.016021372840984736 0 0.0010757516736854377 -0.015991877463732467 0 0.0010437700317241566 -0.016132419683230034 0 0.0011820009203354985 -0.016067044344777199 0 0.0010757516736854377 -0.015991877463732467 0 0.0010437700317241566 -0.016132419683230034 0 0.0011789612288086056 -0.015958746529701306 0 0.001123561973542206 -0.015883390576442131 0 0.0010757516736854377 -0.015991877463732467 0 0.0011820009203354985 -0.016067044344777199 0 0.0011789612288086056 -0.015958746529701306 0 0.0010757516736854377 -0.015991877463732467 0 0.0011663069896842185 -0.016251753717462968 0 0.0011820009203354985 -0.016067044344777199 0 0.0010437700317241566 -0.016132419683230034 0 0.0011663069896842185 -0.016251753717462968 0 0.0010437700317241566 -0.016132419683230034 0 0.00097640271555442086 -0.016261859475145204 0 0.0010437700317241566 -0.016132419683230034 0 0.00092438576434709192 -0.016139347690351039 0 0.00097640271555442086 -0.016261859475145204 0 0.00093997270423171002 -0.016021372840984736 0 0.0010437700317241566 -0.016132419683230034 0 0.00092438576434709192 -0.016139347690351039 0 0.00082436009510247136 -0.01607044476419054 0 0.00092438576434709192 -0.016139347690351039 0 0.00084024579836828933 -0.016211380086431935 0 0.00092438576434709192 -0.016139347690351039 0 0.00097640271555442086 -0.016261859475145204 0 0.00084024579836828933 -0.016211380086431935 0 0.00099962641452794126 -0.016478263892216696 0 0.00087895271824142338 -0.016366639807638958 0 0.00097640271555442086 -0.016261859475145204 0 0.00087895271824142338 -0.016366639807638958 0 0.00097640271555442086 -0.016261859475145204 0 0.00084024579836828933 -0.016211380086431935 0 0.0013868829030064948 -0.022437853322399989 0 0.0009536742120189695 -0.02346292324028949 0 0.0011663069896842185 -0.016251753717462968 0 0.00099962641452794126 -0.016478263892216696 0 0.00097640271555442086 -0.016261859475145204 0 0.0019170778084708676 -0.029511520973130225 0 0.0015550455940015035 -0.028628879755166033 0 0.00038863635024821973 -0.030558643088113169 0 0.00093137165524171555 -0.013831332122976891 0 0.00083962064057771849 -0.014256948922736523 0 0.00071855047612583254 -0.015969327505572305 0 0.00053836376706042086 -0.016149125266962834 0 0.00071805248188400823 -0.016133359704314038 0 0.00053836376706042086 -0.016149125266962834 0 0.00071805248188400823 -0.016133359704314038 0 0.00068245871364205392 -0.016267317994961866 0 0.00082436009510247136 -0.01607044476419054 0 0.00071805248188400823 -0.016133359704314038 0 0.00084024579836828933 -0.016211380086431935 0 0.00071805248188400823 -0.016133359704314038 0 0.00084024579836828933 -0.016211380086431935 0 0.00068245871364205392 -0.016267317994961866 0 0.00074354356349779155 -0.016474473895464803 0 0.00087895271824142338 -0.016366639807638958 0 0.00068245871364205392 -0.016267317994961866 0 0.00087895271824142338 -0.016366639807638958 0 0.00084024579836828933 -0.016211380086431935 0 0.00068245871364205392 -0.016267317994961866 0 0.00053836376706042086 -0.016149125266962834 0 0.00068245871364205392 -0.016267317994961866 0 0.00051059058124704128 -0.016252910465356582 0 0.00060377817258489626 -0.016370340822420969 0 0.00074354356349779155 -0.016474473895464803 0 0.00068245871364205392 -0.016267317994961866 0 0.00060377817258489626 -0.016370340822420969 0 0.00068245871364205392 -0.016267317994961866 0 0.00051059058124704128 -0.016252910465356582 0 0.00060377817258489626 -0.016370340822420969 0 0.00043496258111992795 -0.016321203682956441 0 0.00051059058124704128 -0.016252910465356582 0 0.0003432757064999848 -0.015210292585377663 0 0.00083962064057771849 -0.014256948922736523 0 0.00027762050751896242 -0.01619890866362432 0 0.00043496258111992795 -0.016321203682956441 0 0.00051059058124704128 -0.016252910465356582 0 0.00027762050751896242 -0.01619890866362432 0 0.00053836376706042086 -0.016149125266962834 0 0.00051059058124704128 -0.016252910465356582 0 0.00082060883869564875 -0.013759008550437055 0 0.0012149553813988094 -0.012241660961171599 0 0.0004891548230946313 -0.012969232197662547 0 0.0012149553813988094 -0.012241660961171599 0 0.00048766177862004389 -0.012228903146982573 0 0.0004891548230946313 -0.012969232197662547 0 0.00081951929458415492 -0.011705347931516848 0 0.00016748521663454726 -0.01226566362024018 0 0.0010495489938153382 -0.011713515656624634 0 0.0012149553813988094 -0.012241660961171599 0 0.00048766177862004389 -0.012228903146982573 0 0.00019657954390109788 -0.012140330734091313 0 -0.00099309483222186253 -0.012864445573959575 0 -0.00058950995146698733 -0.012121631573715279 0 0.00019657954390109788 -0.012140330734091313 0 -0.00058950995146698733 -0.012121631573715279 0 -0.00026345759619871321 -0.011788949224013943 0 0.00019657954390109788 -0.012140330734091313 0 -0.00099309483222186253 -0.012864445573959575 0 -0.0013574616287821317 -0.013354988238458151 0 0.00016748521663454726 -0.01226566362024018 0 -0.000996557262814509 -0.013198790387048487 0 0.00048766177862004389 -0.012228903146982573 0 0.0004891548230946313 -0.012969232197662547 0 -0.00018415411759792425 -0.013441508296755776 0 0.00048766177862004389 -0.012228903146982573 0 -0.00018415411759792425 -0.013441508296755776 0 -0.0013574616287821317 -0.013354988238458151 0 0.0004891548230946313 -0.012969232197662547 0 0.00029925032482471843 -0.013606088896664231 0 -0.00018415411759792425 -0.013441508296755776 0 0.00082060883869564875 -0.013759008550437055 0 0.0004891548230946313 -0.012969232197662547 0 0.00029925032482471843 -0.013606088896664231 0 -0.00010592434872695481 -0.014389084999545269 0 0.00029925032482471843 -0.013606088896664231 0 -0.00018415411759792425 -0.013441508296755776 0 -0.00085180465661351048 -0.014103237141284508 0 -0.00042800364278142871 -0.014180834294627171 0 -0.00018415411759792425 -0.013441508296755776 0 -0.00099309483222186253 -0.012864445573959575 0 -0.0013574616287821317 -0.013354988238458151 0 -0.003360753398148111 -0.013735156169249968 0 -0.00085180465661351048 -0.014103237141284508 0 -0.00018415411759792425 -0.013441508296755776 0 -0.0013574616287821317 -0.013354988238458151 0 -0.0016363084468888108 -0.014334524923093315 0 -0.0013574616287821317 -0.013354988238458151 0 -0.003360753398148111 -0.013735156169249968 0 -0.0012539585089969684 -0.012517651063222552 0 -0.0035088318467157609 -0.011950734652467345 0 -0.00099309483222186253 -0.012864445573959575 0 -0.0010856084501827143 -0.012145370219526825 0 -0.001008505642612934 -0.012222599882290942 0 -0.00099309483222186253 -0.012864445573959575 0 -0.0050986580900331578 -0.012645946919615099 0 -0.003360753398148111 -0.013735156169249968 0 -0.0048102688203168435 -0.014536794997193349 0 -0.0050986580900331578 -0.012645946919615099 0 -0.003360753398148111 -0.013735156169249968 0 -0.001008505642612934 -0.012222599882290942 0 -0.0010446746040445253 -0.011893377892991292 0 -0.00075055670687524203 -0.011794085283862143 0 -0.0011225570870407281 -0.011969306713621997 0 -0.0010856084501827143 -0.012145370219526825 0 -0.001008505642612934 -0.012222599882290942 0 -0.0011225570870407281 -0.011969306713621997 0 -0.001008505642612934 -0.012222599882290942 0 -0.0010446746040445253 -0.011893377892991292 0 -0.00099309483222186253 -0.012864445573959575 0 -0.001008505642612934 -0.012222599882290942 0 -0.00058950995146698733 -0.012121631573715279 0 -0.001008505642612934 -0.012222599882290942 0 -0.00058950995146698733 -0.012121631573715279 0 -0.00075055670687524203 -0.011794085283862143 0 -0.00075055670687524203 -0.011794085283862143 0 -0.00092585544280267566 -0.011567668729027446 0 -0.00046838086847916094 -0.01150394446606285 0 -0.00058950995146698733 -0.012121631573715279 0 -0.00075055670687524203 -0.011794085283862143 0 -0.00026345759619871321 -0.011788949224013943 0 -0.00075055670687524203 -0.011794085283862143 0 -0.00046838086847916094 -0.01150394446606285 0 -0.00026345759619871321 -0.011788949224013943 0 -0.001155474907506642 -0.011686424686338414 0 -0.0010446746040445253 -0.011893377892991292 0 -0.0009760262159901541 -0.011733742932755123 0 -0.0010446746040445253 -0.011893377892991292 0 -0.00075055670687524203 -0.011794085283862143 0 -0.0009760262159901541 -0.011733742932755123 0 -0.00075055670687524203 -0.011794085283862143 0 -0.0009760262159901541 -0.011733742932755123 0 -0.00092585544280267566 -0.011567668729027446 0 -0.001155474907506642 -0.011686424686338414 0 -0.0009760262159901541 -0.011733742932755123 0 -0.00092585544280267566 -0.011567668729027446 0 -0.0010775445755923107 -0.011308864981370225 0 -0.00047501190160551937 -0.01119571082978876 0 -0.00092585544280267566 -0.011567668729027446 0 -0.00047501190160551937 -0.01119571082978876 0 -0.00092585544280267566 -0.011567668729027446 0 -0.00046838086847916094 -0.01150394446606285 0 -0.00047501190160551937 -0.01119571082978876 0 9.7843226340222747e-05 -0.011197287898222557 0 -0.00046838086847916094 -0.01150394446606285 0 9.7843226340222747e-05 -0.011197287898222557 0 -2.9881352799097662e-05 -0.011527173367425989 0 0.00035563622000176642 -0.011447054954568495 0 9.7843226340222747e-05 -0.011197287898222557 0 -0.00046838086847916094 -0.01150394446606285 0 -2.9881352799097662e-05 -0.011527173367425989 0 -2.9881352799097662e-05 -0.011527173367425989 0 0.00035563622000176642 -0.011447054954568495 0 0.00018491558243354382 -0.011715923336727873 0 0.00068216956397633009 -0.011373680099644156 0 0.00060270079533858564 -0.011761299066708772 0 0.00035563622000176642 -0.011447054954568495 0 0.00056583760048740104 -0.011133222234578627 0 0.00068216956397633009 -0.011373680099644156 0 0.00035563622000176642 -0.011447054954568495 0 0.00060270079533858564 -0.011761299066708772 0 0.00019657954390109788 -0.012140330734091313 0 0.00018491558243354382 -0.011715923336727873 0 0.00060270079533858564 -0.011761299066708772 0 0.00035563622000176642 -0.011447054954568495 0 0.00018491558243354382 -0.011715923336727873 0 0.00019657954390109788 -0.012140330734091313 0 -0.00026345759619871321 -0.011788949224013943 0 0.00018491558243354382 -0.011715923336727873 0 -2.9881352799097662e-05 -0.011527173367425989 0 -0.00026345759619871321 -0.011788949224013943 0 0.00018491558243354382 -0.011715923336727873 0 -0.00046838086847916094 -0.01150394446606285 0 -2.9881352799097662e-05 -0.011527173367425989 0 -0.00026345759619871321 -0.011788949224013943 0 
</DataArray>
</PointData>
<CellData Scalars="region_id,cross_section_updated," Vectors="" Tensors="stress,">
<DataArray type="Float64" Name="region_id" format="ascii">
5 5 5 5 5 6 5 5 5 5 5 5 5 6 5 5 5 5 6 5 5 6 5 5 5 5 6 5 5 5 5 6 5 5 5 5 5 5 5 5 5 5 5 5 5 6 5 5 6 5 5 5 5 5 6 5 5 5 5 5 5 5 6 5 5 5 5 6 5 5 5 5 5 5 5 5 5 6 5 5 6 5 5 6 5 5 5 5 6 5 5 5 5 5 5 5 6 6 6 5 5 6 5 5 5 5 5 6 5 5 5 5 5 5 5 5 5 5 5 5 5 6 5 5 5 6 5 5 5 5 5 5 6 5 5 5 5 5 5 5 5 5 5 5 5 5 5 5 5 5 5 5 5 5 5 5 5 5 6 5 5 5 6 5 5 6 5 5 5 5 5 5 5 5 5 5 5 6 5 5 5 5 5 5 5 5 6 5 5 5 5 5 5 5 5 6 5 5 5 5 5 5 5 5 5 6 5 5 5 5 5 5 5 5 5 5 5 5 5 5 5 5 5 5 5 5 5 5 5 6 5 5 5 6 5 6 5 6 5 5 6 5 5 5 6 5 6 5 6 5 6 6 5 6 5 5 6 5 6 5 5 5 6 5 6 6 5 5 6 5 5 5 6 5 6 6 6 5 6 5 5 5 6 5 6 6 6 5 5 6 6 5 5 5 5 6 5 6 5 5 6 5 5 5 6 5 6 6 6 5 5 5 6 5 6 6 6 6 5 5 5 6 6 5 5 6 6 6 5 6 5 5 5 5 6 5 5 5 5 5 5 5 6 5 5 5 5 5 5 6 6 5 5 5 6 5 5 5 6 5 6 5 6 6 5 5 5 5 6 5 5 6 5 5 5 5 6 5 6 5 5 5 5 5 6 6 5 5 5 5 5 5 5 5 6 5 5 5 6 5 5 6 5 6 5 5 5 5 5 5 5 5 5 5 5 6 5 6 5 6 5 5 5 6 5 6 5 6 5 5 5 5 5 5 6 5 6 5 5 5 6 5 5 5 6 5 6 6 5 5 5 5 6 5 5 5 5 6 6 5 5 6 5 6 5 6 6 5 5 5 6 5 5 5 5 6 5 5 5 5 5 5 5 5 5 5 5 6 5 5 5 5 6 5 5 5 6 5 6 6 6 5 5 5 6 6 5 6 5 5 6 5 5 5 5 6 5 5 5 5 5 5 5 5 5 5 5 6 6 5 5 6 5 5 5 6 5 5 5 5 5 5 6 5 5 5 6 5 5 5 6 5 5 5 5 5 5 5 5 5 5 5 6 5 5 5 6 5 5 5 5 5 5 5 6 5 5 5 5 5 6 5 5 5 5 5 5 5 5 5 5 5 5 5 5 5 5 5 5 5 6 5 5 5 5 6 5 5 6 5 5 5 5 5 5 5 6 5 5 5 5 5 5 5 5 6 5 6 5 5 6 5 5 5 6 5 5 6 5 5 5 6 5 6 5 5 6 5 6 5 5 5 5 5 5 5 5 5 5 5 5 5 5 5 5 5 5 5 5 5 5 6 5 6 5 6 5 5 5 5 5 5 5 5 5 5 5 5 5 5 5 6 5 5 5 5 5 5 5 5 5 6 5 5 5 5 5 5 5 5 5 5 5 5 5 5 5 5 5 5 5 5 5 5 5 5 5 5 5 5 5 6 5 5 6 5 5 5 6 6 5 6 5 5 5 5 5 6 5 5 5 5 5 6 5 5 5 5 5 5 5 5 5 5 5 5 5 5 5 5 5 5 5 5 5 5 5 5 5 5 5 5 5 5 5 5 5 5 5 5 5 5 5 5 5 5 5 5 5 5 5 5 5 6 5 5 5 5 5 5 5 5 5 5 5 5 5 5 5 6 5 5 5 5 6 5 5 5 5 5 5 5 5 5 5 5 5 5 5 5 5 5 5 5 5 5 5 5 5 5 5 5 6 5 5 6 5 6 6 6 6 5 5 6 5 5 5 5 5 5 5 5 5 5 5 5 5 5 5 5 5 6 5 5 6 5 6 5 5 5 5 6 5 6 5 5 5 5 6 5 5 5 6 5 5 5 5 5 6 5 6 5 5 6 6 5 6 5 5 5 5 5 5 5 5 5 5 5 6 5 5 5 6 5 5 5 6 5 5 6 6 6 5 5 5 5 5 5 5 5 5 5 5 6 5 5 5 5 5 5 5 5 6 6 6 5 5 5 5 5 5 5 5 6 6 5 5 5 6 5 5 6 5 5 5 5 5 5 5 5 5 5 5 6 5 5 5 5 5 5 5 5 6 5 5 5 5 5 5 5 5 5 5 6 5 6 6 6 5 5 5 5 5 5 5 6 6 5 6 5 5 5 5 5 6 5 6 6 5 5 5 6 5 6 5 5 5 5 6 5 5 5 5 5 5 5 5 5 5 5 5 5 5 5 5 5 6 5 5 5 6 5 5 5 5 5 6 5 5 5 5 5 5 6 5 6 5 5 5 5 5 5 5 5 6 5 5 5 6 5 5 5 5 5 5 5 5 5 5 5 5 5 5 5 5 5 5 5 5 5 5 5 5 5 6 6 6 5 5 5 5 6 5 5 5 5 6 5 5 5 5 5 5 5 6 5 5 5 5 5 5 5 5 6 5 5 5 5 5 5 5 5 5 5 5 5 6 5 5 5 5 5 5 6 5 5 5 5 5 5 5 5 6 5 5 5 6 5 5 5 5 5 5 5 5 5 5 5 5 6 5 5 5 5 5 5 5 5 5 5 5 5 5 5 5 5 5 5 5 5 5 5 5 5 5 5 5 5 5 5 5 5 5 5 5 5 5 5 5 5 5 5 5 5 5 5 5 6 5 5 5 5 5 5 5 5 5 5 5 5 5 5 5 5 5 5 5 5 5 5 5 5 6 5 5 5 5 5 5 5 5 5 5 6 5 5 6 5 5 5 5 5 5 5 5 5 6 5 6 5 5 5 5 6 5 5 6 5 6 5 5 5 5 5 6 5 5 5 5 5 5 5 5 6 5 5 5 5 5 5 5 5 5 5 5 5 5 5 6 5 6 6 5 5 5 5 5 6 5 5 5 5 5 5 5 5 5 5 5 5 5 5 5 6 5 5 5 5 5 5 5 5 5 5 5 5 5 5 5 5 6 5 5 5 5 5 6 6 5 5 6 5 5 5 5 5 5 5 5 5 5 6 5 5 5 5 5 5 5 5 5 6 5 6 5 5 5 5 5 6 5 5 5 5 6 5 5 5 6 5 5 5 6 5 5 6 5 5 5 5 5 5 5 5 5 5 5 5 5 5 5 5 6 5 5 5 5 5 5 5 6 5 5 5 5 5 5 5 5 5 5 5 5 5 5 5 5 5 5 5 5 5 5 5 5 5 5 5 6 5 5 5 5 6 5 5 5 6 5 5 5 5 5 5 5 5 5 6 5 6 5 5 5 5 5 5 5 5 5 5 5 5 5 5 5 5 5 5 6 6 5 5 5 6 5 5 6 5 5 6 5 5 5 6 5 5 6 5 5 5 5 5 5 5 5 5 5 5 5 5 5 5 5 5 5 5 5 6 5 6 5 5 5 5 5 5 5 5 5 5 5 6 5 6 5 5 5 6 5 5 5 5 5 6 5 5 5 5 5 5 6 5 5 5 5 5 5 5 5 5 5 5 6 5 5 5 5 5 5 5 5 6 5 5 5 6 5 5 6 5 5 5 5 5 6 5 5 5 5 5 5 5 5 5 6 5 5 6 5 6 5 6 6 6 5 6 5 5 5 5 5 5 6 5 5 5 5 5 5 6 5 5 5 5 5 5 5 6 5 5 5 5 6 5 5 5 5 5 6 5 6 5 5 5 5 5 5 5 5 5 5 6 5 5 5 5 5 5 5 6 5 5 5 5 5 5 5 6 5 6 5 5 5 5 5 5 5 5 6 5 5 5 6 6 5 5 5 5 5 6 6 5 6 5 5 6 5 5 6 5 5 5 5 5 5 5 5 6 5 5 5 5 5 6 5 5 5 5 6 5 5 6 5 5 5 5 5 5 5 5 5 5 5 5 5 5 5 5 5 5 5 5 5 5 5 5 5 5 5 5 5 5 5 5 5 5 5 5 5 5 5 5 5 6 5 5 6 5 5 5 5 5 6 5 5 5 5 6 5 5 5 5 5 5 5 5 5 5 5 5 5 5 5 5 5 5 5 5 5 5 5 5 6 5 5 5 6 5 5 5 5 5 5 6 5 5 5 5 5 5 5 5 5 5 5 6 5 6 6 5 5 6 5 5 5 5 5 5 5 5 5 5 5 6 5 5 6 5 5 5 5 5 5 5 5 5 5 5 5 5 5 5 6 5 5 5 5 5 5 5 6 5 6 5 5 5 5 6 5 6 5 5 5 5 5 5 5 5 5 6 5 5 5 5 5 5 5 5 5 5 5 5 5 5 5 5 5 6 5 5 5 5 5 5 5 5 5 5 5 5 5 5 5 5 5 5 5 5 5 5 5 5 5 6 6 5 5 5 5 5 5 5 5 5 5 5 6 5 5 5 5 6 5 5 5 5 6 5 5 5 5 5 5 5 5 6 5 5 5 5 5 5 5 5 5 6 5 5 5 5 5 5 5 5 5 5 5 5 5 5 5 5 5 5 5 5 6 5 5 5 5 5 5 5 5 5 5 5 5 5 5 6 5 6 5 5 5 5 5 5 5 5 6 5 5 6 5 5 5 5 5 5 5 5 5 5 5 5 5 5 5 5 5 5 5 5 5 5 5 5 5 5 5 5 5 5 5 5 5 5 5 5 6 5 5 6 5 5 5 5 6 5 6 5 5 6 5 6 5 5 5 5 5 6 5 5 5 5 5 5 5 5 5 5 5 5 6 5 5 5 6 5 5 5 5 5 5 5 5 5 6 5 5 5 5 6 6 5 5 5 5 5 5 5 5 6 5 5 5 5 5 6 5 5 5 6 5 5 5 6 5 5 5 5 6 5 5 5 5 5 5 5 5 5 5 5 5 5 5 6 5 5 5 5 5 5 6 5 6 6 5 6 5 6 5 5 5 5 6 5 5 5 5 6 5 5 5 5 5 5 5 5 5 6 5 5 5 5 5 5 5 5 5 5 5 5 5 5 6 5 5 5 6 5 5 5 6 5 6 5 5 5 5 5 5 5 5 5 5 5 5 5 5 5 5 6 5 5 5 5 5 5 6 5 5 5 5 5 5 5 5 5 5 5 5 5 5 5 5 5 5 6 5 5 5 5 5 5 5 5 5 5 5 5 5 5 5 5 5 5 5 5 5 5 5 5 5 5 5 5 5 5 5 5 5 5 6 5 5 5 5 6 5 5 5 5 5 5 5 6 5 5 5 5 5 5 5 5 5 6 5 5 6 5 5 5 5 5 6 5 5 5 6 5 5 6 5 5 5 5 5 5 5 5 5 5 5 5 5 5 5 5 5 5 5 5 6 5 5 5 5 5 5 5 5 5 5 6 6 5 6 5 5 5 5 5 6 5 5 5 5 6 5 5 5 5 5 6 5 6 5 5 6 5 5 5 5 5 5 5 5 6 5 5 5 5 5 5 6 5 5 5 5 5 5 6 5 5 5 5 6 5 5 6 5 6 5 5 6 5 5 5 5 5 5 6 5 5 5 5 6 5 5 5 5 5 5 5 5 6 6 5 5 5 5 5 5 5 5 6 5 5 5 5 5 5 6 5 5 5 5 5 5 5 6 5 5 5 6 5 5 5 5 5 5 5 5 5 5 5 5 6 5 5 5 5 6 5 5 6 5 5 5 5 6 5 5 5 6 6 5 5 5 6 5 5 5 6 5 5 5 5 5 5 5 5 5 6 5 5 5 6 5 5 5 5 5 5 5 5 5 5 5 5 6 5 6 5 5 6 5 5 6 5 5 5 5 5 5 5 6 5 5 5 5 5 6 5 6 5 5 5 6 6 5 6 6 5 6 5 5 5 5 5 5 6 5 6 5 5 5 5 5 5 5 5 5 5 5 5 5 6 5 5 6 5 6 5 5 6 5 5 5 6 6 5 5 6 5 5 5 5 5 5 5 5 5 5 5 5 5 5 5 5 5 5 5 5 5 5 5 6 6 5 6 5 6 5 5 6 6 5 5 6 5 5 6 5 5 6 5 6 5 5 5 5 6 5 5 5 5 6 5 6 6 5 6 5 5 6 6 5 5 5 6 5 5 5 5 6 6 5 5 5 5 5 6 5 5 5 5 5 5 5 5 5 5 5 6 5 6 5 6 5 5 6 5 6 5 5 5 5 5 5 5 5 6 5 5 6 5 5 5 5 6 5 5 5 5 5 5 5 5 5 5 5 5 6 5 5 5 5 5 5 5 5 5 5 5 6 5 5 5 5 5 5 6 5 6 5 5 6 5 5 5 5 5 5 5 5 5 5 5 5 5 5 5 5 5 6 6 5 5 5 6 5 5 6 5 5 5 5 5 5 5 5 5 5 5 5 5 5 5 5 5 5 5 5 5 5 5 5 5 6 6 5 5 5 5 5 5 5 5 5 5 5 6 5 5 5 5 5 5 5 5 5 5 5 5 5 5 5 5 5 5 5 5 5 5 5 5 5 5 5 5 5 5 5 5 5 6 5 5 5 5 5 6 5 5 6 5 5 6 6 5 5 5 5 5 5 5 5 5 5 5 5 5 6 5 5 6 5 5 5 5 5 5 6 5 5 6 5 5 5 5 5 5 5 5 5 5 5 5 5 6 5 5 5 5 5 5 5 6 5 5 5 5 5 5 5 5 5 5 5 5 6 5 5 6 5 5 5 5 5 5 5 5 5 5 5 5 5 5 5 5 5 5 5 5 6 5 5 6 5 6 5 5 5 6 5 5 6 5 6 5 5 5 6 5 5 5 5 6 5 5 5 5 5 5 5 6 5 5 5 6 5 5 5 5 5 5 5 5 5 5 5 5 6 5 5 5 5 5 5 5 5 6 5 5 5 5 5 5 5 5 5 5 5 6 5 5 5 5 5 5 5 5 5 5 5 5 5 5 5 5 5 5 5 6 6 5 5 5 6 5 5 5 5 5 5 5 5 5 5 5 5 6 5 5 5 5 5 5 5 5 5 6 5 5 5 5 5 5 5 5 5 5 5 5 5 5 5 5 6 5 6 5 5 5 5 5 6 5 5 5 5 6 5 5 5 6 5 5 5 6 5 5 5 5 5 5 5 5 5 6 5 5 5 6 5 5 6 5 5 5 5 5 5 6 5 5 5 5 5 5 5 5 6 5 5 5 6 5 5 5 5 5 5 5 5 5 5 5 5 5 5 5 5 5 5 5 5 5 5 5 5 5 5 5 6 5 5 5 5 5 5 5 6 5 5 5 5 5 5 5 5 5 5 5 5 5 5 5 5 5 5 5 5 5 5 5 5 5 6 5 6 5 5 5 5 5 5 6 5 5 5 6 5 5 6 5 5 5 5 5 5 5 5 5 5 5 5 6 5 5 5 5 5 6 5 5 5 5 5 5 5 5 5 5 5 5 5 6 5 5 5 6 5 5 5 5 5 5 5 5 5 5 5 5 6 6 5 5 5 5 6 5 5 5 5 5 5 5 5 5 6 6 5 5 5 5 5 6 5 5 5 5 5 6 5 5 5 5 5 6 5 6 5 5 5 5 6 5 6 5 6 6 5 5 5 5 5 5 5 6 6 5 5 5 5 5 5 6 6 6 5 6 6 5 5 5 6 5 5 5 5 5 6 6 6 5 6 5 5 5 6 5 6 6 5 5 5 5 5 5 5 6 6 5 5 6 6 6 5 5 5 5 5 5 5 5 5 5 5 5 5 5 5 5 5 5 5 5 5 5 5 5 5 5 5 5 5 5 5 5 5 5 5 5 5 5 5 5 6 5 5 5 5 5 5 5 5 5 5 6 5 5 5 5 5 5 6 5 5 6 5 5 5 5 5 5 5 5 5 5 5 5 5 6 5 6 5 5 5 5 6 5 5 5 6 5 5 6 5 5 5 6 5 5 6 5 5 5 5 5 6 5 5 5 5 5 5 5 6 5 5 5 5 5 5 5 6 5 5 6 5 5 5 5 6 5 6 5 5 5 5 5 6 5 5 5 5 6 5 5 5 5 5 5 6 6 5 5 5 5 5 6 5 5 6 5 5 5 5 5 5 5 5 5 5 6 5 5 5 5 5 5 5 5 5 5 5 5 5 5 5 5 5 5 6 5 5 5 5 5 5 6 5 5 5 5 5 5 5 6 6 5 5 5 5 6 5 5 5 5 5 5 5 6 5 5 6 5 6 6 6 5 5 5 5 5 5 6 5 5 5 5 5 6 5 5 5 5 6 5 5 5 6 5 5 5 6 5 5 5 5 5 5 5 5 5 5 5 5 5 5 5 5 5 5 5 5 5 5 5 5 5 6 5 5 5 5 5 5 5 6 5 6 5 5 5 5 5 5 6 5 5 6 5 5 5 6 5 5 6 5 5 5 5 5 6 5 5 5 6 6 5 5 5 5 5 5 5 5 5 5 5 5 6 5 5 5 5 5 5 5 5 5 6 5 5 5 5 5 6 6 5 5 5 5 5 5 5 5 5 6 5 5 5 5 5 5 5 5 6 5 5 5 5 5 5 5 5 5 5 5 5 5 5 5 5 5 5 6 5 5 5 5 6 5 6 5 6 5 5 5 5 5 5 5 5 5 5 5 5 5 5 5 5 5 6 5 5 5 5 5 6 5 5 5 6 6 5 5 5 5 5 6 5 5 5 5 6 5 5 5 5 5 5 5 5 6 5 5 5 5 5 5 5 6 5 5 5 5 5 5 5 5 5 6 5 5 5 5 5 5 5 5 5 5 5 5 5 5 5 5 5 5 6 5 5 5 5 5 5 5 5 5 5 5 5 5 6 5 5 5 5 5 5 6 5 5 6 5 5 6 5 5 5 5 5 5 5 5 5 5 5 5 5 5 5 5 5 5 5 5 5 5 5 5 5 5 6 5 6 5 6 6 5 5 5 6 5 5 5 5 5 5 5 5 5 6 6 5 6 5 5 5 5 5 5 5 5 5 5 5 5 5 5 6 5 6 6 5 6 5 5 5 5 5 5 5 5 5 6 6 5 5 5 5 5 5 5 5 5 5 5 5 5 5 5 5 5 5 5 5 5 5 6 5 5 5 5 5 6 5 5 5 5 5 6 5 5 5 6 5 5 5 5 5 5 5 5 5 6 5 5 5 5 6 5 5 5 5 5 5 6 5 5 5 5 5 5 5 6 5 5 5 5 6 5 5 5 5 5 5 5 5 5 5 6 5 5 5 5 6 5 5 5 6 5 5 5 5 5 6 5 5 5 5 5 5 5 5 5 5 5 5 5 5 6 6 5 5 6 5 5 5 5 5 5 5 6 5 5 5 5 5 5 6 5 5 5 5 5 5 5 5 5 5 5 5 5 5 5 5 5 5 5 5 5 5 5 6 5 5 5 5 5 5 5 5 6 5 5 5 5 6 5 5 5 5 5 6 5 6 5 6 5 5 5 5 5 5 5 6 5 5 5 6 5 5 5 5 5 6 5 5 5 5 5 6 5 6 5 5 6 5 6 5 5 5 5 5 6 5 5 5 6 5 5 5 5 5 5 5 5 5 5 6 5 5 5 5 5 5 5 5 5 5 5 5 5 5 5 5 5 5 5 5 5 5 6 5 5 5 5 5 5 5 5 5 5 5 5 5 5 5 5 5 5 6 5 5 5 6 5 5 5 5 5 5 6 5 5 5 6 6 5 6 5 6 6 5 6 5 5 6 5 5 6 6 5 5 5 5 5 5 5 5 6 5 6 5 5 5 5 5 5 5 5 5 5 5 5 5 5 5 5 5 5 5 5 5 5 6 5 5 5 5 5 5 5 5 6 5 5 6 5 5 6 6 5 5 6 5 5 5 5 5 5 5 5 5 5 5 5 5 5 5 5 5 5 5 5 5 5 5 5 5 5 5 5 5 5 5 5 5 5 5 5 5 5 5 6 5 6 5 5 5 5 5 5 5 5 5 5 5 5 5 5 5 5 5 5 5 5 5 5 5 5 5 5 5 5 5 5 5 5 5 5 5 5 5 5 5 5 6 5 5 6 5 5 5 5 5 6 5 6 5 5 6 5 5 5 5 5 5 6 5 5 5 5 5 5 5 5 5 5 5 6 5 5 6 6 5 6 5 5 6 5 5 5 5 6 5 5 5 5 5 5 5 5 5 6 5 6 5 5 5 5 5 5 5 6 5 6 5 5 5 5 5 5 5 5 5 6 5 6 5 5 5 5 5 5 5 5 5 5 6 5 5 5 6 5 5 6 5 5 6 5 5 5 5 6 5 5 5 6 5 5 5 5 5 5 5 5 5 5 5 5 5 5 6 5 5 5 5 5 5 6 5 6 5 6 5 5 5 6 5 5 5 5 5 5 5 5 6 5 5 5 5 5 6 5 5 6 5 5 5 5 5 5 5 5 5 6 5 5 5 6 5 5 5 5 5 5 6 5 5 5 5 5 5 5 5 5 5 5 5 5 5 5 5 5 5 5 5 5 5 5 5 5 5 5 5 5 5 5 6 5 5 5 5 5 6 5 5 6 6 5 5 5 5 6 5 5 5 5 5 6 5 5 5 5 5 5 5 5 5 5 5 5 5 5 5 5 6 5 5 5 5 5 5 5 5 6 6 5 5 5 5 5 5 6 5 5 5 5 6 5 5 5 5 5 5 5 5 5 5 5 5 5 5 5 5 5 5 5 5 5 5 5 5 6 5 5 6 5 5 5 5 5 5 5 5 5 5 5 5 5 5 5 5 5 5 5 5 5 5 5 5 5 5 5 6 5 6 5 5 5 5 5 6 5 5 5 5 5 5 5 5 5 5 5 5 5 5 5 5 5 5 5 5 6 6 5 6 5 5 5 5 5 5 5 5 5 5 5 5 5 5 5 5 6 5 5 5 6 5 5 5 5 5 5 5 5 5 5 5 5 5 6 5 5 5 5 5 5 5 5 5 5 5 5 5 5 5 5 5 5 5 5 5 5 6 5 5 5 5 5 5 5 5 5 5 5 5 5 6 5 6 5 5 6 6 5 5 5 5 5 5 5 5 5 5 5 5 5 5 5 5 5 5 5 5 6 5 5 6 5 5 5 6 5 5 5 5 5 5 6 5 5 5 6 5 5 5 5 5 5 5 5 6 5 5 6 5 5 6 5 6 5 5 5 5 6 6 5 5 6 6 5 5 6 5 5 5 5 6 5 5 6 6 5 6 5 5 5 5 5 5 5 5 5 5 5 5 5 5 5 5 5 5 5 5 6 5 5 5 5 6 5 5 5 5 6 6 5 5 5 5 5 5 5 5 5 5 5 5 6 5 5 5 6 5 5 5 5 5 5 5 6 5 5 5 6 5 5 6 6 5 5 5 6 5 5 5 6 5 5 5 5 5 5 5 5 5 5 5 5 5 5 5 5 5 5 6 5 5 5 5 5 5 5 5 5 5 5 5 5 5 5 5 5 5 6 6 5 5 5 5 5 6 6 5 6 5 5 5 5 5 5 5 5 5 6 5 5 5 6 5 5 5 5 5 5 5 5 5 5 5 5 5 5 6 5 5 5 5 5 5 5 6 5 5 6 5 5 5 5 5 5 6 5 5 5 5 6 5 5 5 5 5 5 6 5 5 5 5 5 5 5 5 6 6 5 5 5 6 6 5 5 5 5 5 6 5 5 5 5 5 5 6 5 5 5 5 6 5 5 5 5 5 6 5 5 5 5 6 5 5 5 5 5 5 5 5 5 5 5 5 5 5 5 5 5 5 5 5 5 5 5 5 5 6 5 5 5 5 6 5 6 5 6 5 5 6 5 5 6 5 5 6 5 5 5 5 5 5 6 5 5 6 5 6 6 6 5 5 6 5 6 6 5 5 5 6 5 6 5 5 5 5 5 5 6 5 5 5 6 5 5 5 5 5 5 5 6 5 5 5 6 5 6 6 5 5 5 5 5 5 5 6 5 5 5 5 5 5 5 5 6 6 5 5 5 5 6 5 5 6 5 5 5 6 5 5 5 6 6 5 5 5 5 6 5 5 5 5 5 6 6 5 5 5 5 5 5 5 5 5 5 5 5 5 5 5 5 5 5 5 5 5 5 5 5 5 5 5 5 5 5 5 6 5 5 5 6 5 5 5 5 5 5 5 5 5 5 5 5 5 5 5 6 5 6 6 5 5 6 5 5 5 5 5 5 5 5 5 5 5 5 5 5 5 5 5 5 5 5 5 5 5 6 5 5 6 6 5 5 5 5 5 5 5 6 5 5 5 6 5 5 5 5 6 6 5 5 5 5 5 5 5 6 5 5 5 5 6 5 5 5 5 6 5 5 5 5 5 5 5 5 5 5 5 5 5 5 5 5 5 5 5 6 5 5 5 5 5 5 5 5 5 5 5 5 5 5 5 5 6 5 5 5 6 5 5 5 5 5 5 5 5 5 6 5 5 5 5 5 5 5 5 5 5 5 5 5 5 5 5 5 5 5 5 5 6 5 5 5 5 5 5 5 5 5 5 5 5 5 5 5 5 5 6 5 5 5 5 5 6 5 5 5 5 5 5 5 5 5 5 5 5 5 5 5 5 5 5 5 5 5 5 5 5 5 5 5 6 5 5 6 5 5 5 6 5 5 5 5 5 5 5 5 5 5 5 5 5 5 5 6 5 6 5 5 5 5 5 5 5 5 5 6 5 5 5 5 5 5 5 5 5 6 6 5 5 5 5 5 5 5 5 5 5 5 5 5 5 5 5 5 5 5 5 5 5 5 5 5 5 5 5 5 5 5 5 5 5 5 5 5 5 5 5 5 5 5 5 5 5 5 5 5 5 5 5 5 5 5 5 5 5 5 5 5 5 5 5 5 5 5 5 5 5 5 6 5 5 5 5 5 5 6 5 5 5 5 5 5 5 5 5 6 5 6 5 5 5 5 5 5 5 5 5 5 5 5 5 5 5 5 5 5 5 5 5 5 5 5 5 5 5 5 5 5 5 5 5 5 6 5 5 5 6 6 5 5 5 5 5 5 5 5 5 5 5 5 5 5 5 5 5 5 5 5 5 5 6 6 5 5 5 5 5 5 5 5 6 5 5 5 5 5 5 6 5 5 5 5 5 6 5 5 5 5 6 5 5 5 6 5 5 5 6 5 5 6 5 5 5 5 5 5 5 5 5 5 5 5 5 6 5 5 5 5 5 5 5 5 6 5 5 5 5 5 5 5 5 5 5 5 6 5 5 5 6 5 5 5 5 6 5 5 5 5 5 5 5 5 6 5 6 5 5 6 5 5 5 5 5 6 5 5 5 5 5 5 5 5 5 5 5 5 6 5 5 5 5 5 5 5 5 5 6 5 5 5 5 5 5 6 5 5 5 5 5 5 5 6 5 5 5 5 5 6 5 5 5 5 5 5 5 5 5 5 5 5 5 5 5 5 5 5 5 5 5 5 5 5 5 5 5 5 5 5 5 5 5 5 5 5 5 5 5 5 5 5 5 5 5 5 5 6 5 6 5 5 5 5 5 5 5 5 5 5 5 5 5 5 6 5 5 5 5 5 5 5 5 5 5 5 5 5 5 5 6 5 5 6 5 6 5 5 5 5 5 6 5 5 5 5 5 5 5 5 5 5 5 5 5 5 5 5 5 5 5 5 6 5 5 5 5 5 5 5 5 5 5 5 6 5 6 5 5 6 5 6 5 5 5 5 5 5 5 6 5 6 5 5 5 5 6 5 5 5 5 6 6 5 5 6 5 5 5 5 5 5 5 5 5 5 5 5 5 5 5 5 6 5 5 5 5 5 5 5 5 5 5 5 5 5 5 6 5 6 5 5 5 5 5 5 5 6 5 6 5 5 5 5 5 5 5 5 5 6 6 5 5 5 6 5 5 5 5 6 5 6 5 5 6 5 6 6 6 5 5 6 5 5 5 6 6 6 5 5 5 5 5 5 5 5 5 5 5 6 5 5 5 5 5 5 6 5 5 5 6 5 5 5 5 5 5 5 5 6 5 5 5 6 5 5 5 5 5 5 5 5 5 5 5 5 5 5 5 5 5 5 5 5 5 5 5 5 5 5 5 5 5 5 5 5 5 5 5 5 5 5 5 5 5 5 5 5 5 5 5 5 5 5 5 5 5 5 5 5 5 5 5 5 6 5 5 5 5 5 6 5 5 5 5 6 5 5 5 6 5 5 5 5 5 5 5 5 5 5 5 5 5 5 5 5 5 5 5 5 5 5 5 5 5 5 5 5 5 5 5 5 5 5 5 5 5 5 5 5 6 5 5 6 5 5 5 5 5 5 5 6 5 5 5 5 5 5 5 5 5 5 5 6 5 5 6 5 6 5 5 5 6 5 5 5 5 5 5 5 5 6 5 5 5 5 6 5 5 5 5 6 5 6 5 5 5 5 5 5 5 5 5 5 5 5 6 5 6 5 5 5 5 5 5 5 5 5 5 5 5 5 6 5 5 5 5 5 5 5 5 5 6 5 5 5 6 5 5 5 5 5 5 5 5 5 5 5 5 5 5 5 5 5 5 5 5 5 5 5 5 5 5 5 5 5 5 5 5 5 5 5 6 5 5 6 5 5 5 5 6 5 5 5 5 5 5 5 5 5 5 5 5 5 5 5 6 5 5 5 5 5 5 5 5 5 6 5 6 5 5 5 5 5 5 5 6 5 5 5 5 5 5 5 5 5 5 5 5 5 5 6 5 5 5 5 5 5 5 5 5 5 5 6 5 5 5 5 5 5 5 5 5 5 5 5 5 5 5 5 5 5 5 5 5 5 5 6 5 6 5 5 5 5 5 5 6 5 6 5 5 5 6 5 5 5 6 5 5 5 6 5 5 6 5 5 5 5 5 5 5 6 5 5 5 5 5 5 5 6 5 5 5 5 5 5 5 5 5 5 5 5 5 6 5 5 5 5 5 5 5 5 6 5 5 5 5 5 5 5 5 5 5 5 5 5 5 5 5 5 5 5 5 6 5 5 5 5 5 5 5 5 5 5 5 5 5 5 5 5 5 5 5 5 5 5 5 5 5 5 5 5 5 5 5 5 5 5 5 5 5 5 5 5 5 5 5 5 5 5 5 5 5 5 6 5 6 5 5 5 6 5 5 6 6 5 6 5 5 5 5 5 5 5 5 5 5 5 5 5 5 5 5 5 5 5 5 5 5 5 5 5 5 5 5 5 5 5 5 5 5 5 6 5 5 5 5 6 5 5 6 5 5 5 6 5 5 5 5 6 5 6 6 5 5 5 5 6 5 5 5 6 5 5 5 6 5 5 5 5 5 5 6 5 5 5 5 5 5 5 5 5 5 5 5 5 5 5 5 5 5 5 5 6 5 5 5 5 5 5 5 5 5 5 5 5 5 5 5 5 5 5 6 5 5 6 5 5 6 5 5 5 5 5 5 5 5 5 5 5 6 5 5 5 5 6 5 5 5 5 6 5 5 5 6 5 5 5 5 5 5 5 5 5 5 5 5 5 5 5 5 5 5 5 5 5 5 5 5 5 6 5 5 5 5 5 5 5 5 6 5 5 5 6 5 5 5 5 5 5 5 5 5 5 5 5 5 5 5 5 5 5 5 5 5 5 5 5 6 5 5 5 6 5 5 5 5 5 5 5 5 6 5 5 6 5 5 5 5 6 5 5 5 5 5 5 5 6 5 6 5 5 6 5 5 6 6 5 5 5 5 5 5 5 5 5 5 5 5 5 5 5 5 5 5 5 5 5 6 5 5 5 5 6 5 5 5 5 5 5 5 5 5 5 5 5 5 6 5 5 6 5 5 5 5 5 5 5 5 5 5 5 5 5 5 5 5 5 5 5 5 5 5 5 5 5 5 5 5 5 5 5 5 5 5 5 5 5 5 5 5 5 5 5 5 5 5 5 5 5 5 5 5 5 5 5 5 5 5 5 5 5 5 5 5 5 5 5 5 5 5 5 5 5 5 5 5 5 5 5 5 5 5 5 5 5 5 5 5 5 5 5 5 5 5 5 5 5 5 5 5 5 5 5 5 5 5 5 5 5 5 5 5 5 5 5 5 5 5 5 5 5 5 5 5 5 5 5 5 6 5 5 5 5 5 5 5 6 5 5 5 5 5 5 5 5 5 6 5 6 5 5 5 6 5 5 6 5 5 5 5 5 5 5 5 5 5 5 5 5 5 5 5 5 5 5 5 5 5 5 5 5 5 5 5 5 5 5 5 5 5 5 5 5 6 5 5 6 6 5 5 6 5 5 6 5 5 5 6 5 5 5 5 5 5 5 5 5 6 5 5 5 5 5 5 6 5 5 5 5 5 5 5 5 5 5 5 5 5 5 5 5 5 5 5 5 5 5 5 5 5 5 5 5 5 5 5 6 5 5 5 5 5 5 5 5 5 5 5 5 5 5 5 5 5 5 5 5 5 5 5 5 5 5 5 5 5 5 5 5 5 5 5 5 5 5 5 5 5 5 5 5 5 5 6 5 6 5 5 5 5 6 5 5 5 5 6 5 5 5 5 6 5 5 5 5 5 5 5 5 6 5 5 6 5 6 5 5 5 5 6 5 5 6 6 5 5 5 5 5 5 6 5 5 5 5 5 5 5 5 5 5 6 6 5 5 5 5 5 6 5 5 6 5 5 5 5 6 5 5 6 5 5 5 5 5 5 5 5 5 5 5 5 5 5 5 5 5 5 5 5 5 5 5 5 5 5 5 5 5 6 5 6 5 5 5 5 5 5 5 5 5 5 5 5 5 6 5 5 5 5 6 6 5 5 5 5 5 5 5 5 5 5 5 5 5 5 5 5 5 5 5 5 5 5 5 5 5 5 5 5 5 5 5 5 5 5 5 5 5 5 5 5 5 5 6 5 5 5 6 5 5 5 5 5 5 5 5 5 5 5 5 5 5 5 5 5 5 5 5 6 5 5 6 5 5 5 5 5 5 5 5 5 6 5 5 5 5 5 6 5 5 5 5 5 6 5 6 5 5 5 5 5 5 5 5 5 5 5 5 5 6 5 5 5 6 6 5 5 5 5 5 5 5 5 6 5 5 6 5 5 6 6 5 5 5 5 5 6 5 5 5 5 5 5 5 6 5 5 6 6 5 5 5 5 5 5 6 6 5 5 5 6 5 5 5 5 5 5 5 6 5 5 5 5 5 5 5 5 5 5 5 5 5 5 5 5 5 5 5 5 5 5 5 5 5 5 6 5 5 5 5 5 5 5 6 5 5 5 5 5 5 5 5 5 5 5 6 5 5 5 5 5 5 5 5 6 5 5 5 5 5 5 5 5 5 5 5 5 5 5 5 5 6 5 5 5 6 5 5 5 5 5 6 5 5 5 5 5 5 5 5 5 5 5 5 5 5 6 5 5 5 5 6 5 5 6 5 5 5 5 5 6 5 5 5 5 5 5 5 5 5 5 5 5 5 5 6 5 6 5 5 5 6 5 6 5 6 5 5 5 5 5 5 6 6 5 5 5 5 5 5 6 5 6 5 5 5 5 5 5 5 5 5 5 5 5 5 5 5 5 5 6 5 5 5 6 6 5 5 5 5 5 6 5 5 6 6 5 5 5 5 5 5 5 5 5 5 5 5 5 5 5 5 5 5 5 5 5 5 5 5 5 5 5 5 5 5 5 5 5 5 5 5 5 5 5 5 5 5 5 5 6 5 5 6 6 6 5 5 5 5 5 5 6 5 5 5 5 5 5 5 5 5 6 5 5 5 6 5 5 5 5 5 5 5 5 5 5 5 5 5 5 5 5 5 5 5 5 6 5 5 5 5 6 5 5 5 5 5 5 5 5 5 5 5 5 5 5 5 5 5 5 5 5 5 5 5 5 5 5 5 5 5 5 5 5 5 5 6 5 6 5 5 5 5 5 5 5 5 6 5 5 5 6 5 6 5 5 5 5 5 5 5 5 6 5 5 5 5 6 5 5 5 5 6 5 5 5 5 5 5 5 6 5 5 5 5 6 5 5 5 5 5 5 5 5 5 5 5 5 5 5 5 5 5 5 5 5 5 5 5 5 5 5 5 5 5 5 5 5 5 5 5 5 5 5 5 5 5 5 5 5 5 5 6 5 5 5 5 6 6 5 5 6 6 5 5 5 5 5 5 5 5 5 5 5 5 5 5 5 5 5 5 5 6 5 5 5 6 6 5 5 5 5 5 5 5 5 5 5 5 5 5 5 5 5 5 5 5 5 5 5 5 5 5 5 5 6 5 5 5 5 5 5 5 6 5 5 5 5 5 5 5 5 5 5 5 5 5 5 5 6 5 5 5 5 5 5 5 5 6 5 6 6 5 5 5 5 5 5 5 5 5 5 5 5 6 5 5 5 5 5 5 5 5 5 5 5 5 5 5 5 5 5 5 6 5 5 5 6 5 5 5 5 5 5 5 5 6 5 5 5 5 5 5 5 5 5 5 5 5 5 5 5 6 5 5 5 6 5 5 5 5 5 5 5 5 5 5 5 5 5 5 5 5 5 5 5 5 5 5 5 5 5 5 5 5 5 5 5 5 5 6 5 6 5 5 5 5 5 5 5 5 6 5 5 5 5 5 5 5 5 5 6 5 5 6 5 5 5 5 5 6 5 5 5 5 6 5 5 5 5 6 5 5 5 6 5 6 5 5 6 5 5 5 5 5 5 5 5 5 5 5 5 5 5 6 5 5 6 5 6 5 5 5 6 5 5 6 5 5 5 5 6 5 6 5 5 5 5 5 5 6 5 6 5 5 5 5 5 6 5 5 5 5 6 5 5 5 5 5 5 6 5 5 5 5 5 5 5 5 5 5 5 5 5 5 5 5 5 5 5 5 5 5 5 5 5 5 5 5 5 5 5 5 5 6 6 5 5 5 5 5 5 5 5 5 5 6 5 5 6 6 5 6 5 5 5 5 5 5 5 6 5 5 5 5 5 5 5 5 5 5 5 5 6 5 5 5 5 6 5 5 5 5 5 5 5 5 5 5 5 5 6 5 5 5 5 5 5 5 5 5 5 5 5 5 5 5 5 5 6 5 5 5 5 5 6 5 5 5 6 5 5 5 5 5 5 6 5 6 5 5 5 6 5 5 5 5 5 5 5 5 5 6 5 5 6 5 5 5 5 5 5 5 6 5 5 5 5 5 5 5 5 5 5 5 5 5 6 5 5 6 5 5 5 5 5 5 6 5 5 5 5 5 5 6 5 5 5 5 5 5 5 6 5 5 5 5 5 5 5 5 5 5 5 5 5 5 5 5 5 5 5 5 5 5 6 5 5 5 5 5 5 5 5 5 5 6 5 5 5 5 6 6 5 5 5 5 6 5 5 5 5 5 5 5 5 5 6 5 5 5 5 5 5 5 5 5 5 5 6 5 5 5 6 5 5 5 6 5 5 5 5 5 5 5 5 5 5 5 5 6 5 5 5 5 5 6 5 5 6 5 5 5 5 5 5 5 5 5 5 5 5 5 5 6 5 5 5 5 5 5 5 6 5 5 5 6 5 5 5 5 5 6 5 5 5 5 5 5 5 5 5 6 5 5 5 5 5 5 5 5 6 5 5 5 5 5 6 5 5 5 5 5 5 5 6 5 5 5 5 5 5 5 5 5 5 5 5 5 5 5 5 5 5 5 5 5 5 5 5 5 5 5 5 5 5 5 5 5 5 5 5 5 5 5 5 5 5 5 5 5 5 5 5 6 5 5 5 5 5 5 5 6 5 5 5 5 5 5 5 5 5 5 5 5 5 5 5 5 5 5 5 5 5 5 6 6 5 5 6 6 5 5 5 5 5 5 5 6 5 5 5 5 5 5 5 5 5 5 5 5 5 5 6 5 5 5 5 5 5 5 5 6 5 5 6 5 5 5 6 5 5 5 5 5 5 5 5 5 5 5 5 5 5 5 5 5 5 5 5 5 5 5 5 5 5 5 5 6 5 5 5 5 5 5 5 5 6 5 5 5 5 5 5 6 6 5 5 5 5 6 5 5 6 5 5 6 5 5 5 5 5 5 6 5 5 5 5 5 5 5 5 6 5 5 5 5 5 5 5 5 5 5 5 6 5 5 6 5 5 5 5 5 5 5 6 5 5 5 6 5 6 5 6 5 5 5 5 5 5 5 5 5 5 5 5 5 5 5 5 5 6 5 6 5 5 5 5 5 5 5 5 5 5 6 5 5 5 5 5 5 5 6 5 5 5 6 5 6 6 5 5 6 5 5 5 5 6 5 5 5 6 5 5 5 6 5 6 6 5 5 5 5 5 5 6 5 5 5 5 5 5 5 5 6 6 6 5 6 5 5 6 6 5 5 6 5 5 5 5 5 5 5 5 5 5 5 6 5 5 5 5 5 5 5 5 5 5 5 5 5 6 6 5 5 5 5 6 5 5 5 6 5 5 5 5 5 6 6 5 5 5 6 5 5 5 5 5 5 5 5 5 5 5 5 5 5 5 6 5 5 5 6 5 5 5 6 5 5 5 5 5 5 6 5 5 5 5 5 6 5 5 5 5 5 5 5 5 6 5 5 5 5 5 5 5 5 5 6 5 5 5 5 6 5 6 5 5 6 5 6 5 5 5 5 5 5 6 5 6 6 5 5 5 5 5 5 5 5 6 5 6 5 6 5 6 5 5 5 5 5 5 5 5 5 5 5 6 5 5 5 6 5 5 5 5 5 5 5 5 6 5 5 5 5 5 5 5 5 5 6 5 5 5 5 6 5 5 6 5 5 5 5 5 5 5 5 5 6 5 5 5 6 5 5 5 5 5 5 5 5 5 5 5 5 5 5 5 5 5 5 5 6 5 5 5 5 5 5 5 5 5 5 6 5 5 5 5 5 5 5 5 5 5 5 5 5 5 5 5 5 5 5 5 5 5 5 5 5 5 5 5 5 5 5 5 5 5 5 5 5 5 5 5 5 5 5 5 5 6 6 5 5 5 5 5 5 5 5 5 5 5 5 5 6 6 5 5 5 6 5 5 6 5 5 5 6 5 5 5 6 5 5 5 5 5 5 5 5 6 5 5 6 5 6 6 5 5 5 5 5 5 6 5 6 6 6 5 5 6 5 5 6 6 5 5 5 5 5 5 5 5 5 5 5 5 5 5 5 5 5 5 5 5 5 6 5 5 5 5 5 5 5 5 5 6 5 5 5 5 5 5 5 6 6 5 5 5 5 5 5 5 5 5 5 5 5 5 5 5 5 5 5 5 5 5 5 5 6 5 6 5 5 5 5 5 5 5 6 5 5 5 6 6 5 5 6 5 5 5 5 6 5 5 5 6 5 5 5 6 5 5 5 5 5 5 5 5 5 6 6 5 5 5 5 5 6 5 5 6 6 6 5 5 5 5 5 6 5 5 5 5 5 5 5 5 5 6 5 6 5 5 5 5 5 5 5 5 5 5 5 5 5 5 5 5 5 5 5 5 5 5 5 5 6 5 5 5 5 6 6 5 5 5 6 5 5 5 5 5 5 5 5 5 5 5 5 5 5 5 5 6 5 5 5 6 5 5 6 5 5 5 5 5 5 5 5 5 5 5 5 5 6 5 5 6 5 5 5 6 5 6 5 6 5 6 6 6 5 5 5 5 5 5 5 5 6 5 5 5 5 5 5 5 5 6 5 5 6 5 5 5 5 5 5 5 5 5 5 5 5 5 5 5 5 5 5 5 5 5 6 5 5 5 5 5 5 5 5 5 5 6 5 6 5 5 6 5 6 5 6 5 5 6 5 6 5 5 6 5 5 5 6 5 5 5 5 5 5 5 5 5 5 5 5 5 5 5 5 5 5 5 5 5 5 5 5 5 5 5 5 5 5 5 5 5 5 5 5 5 5 5 5 5 5 5 5 5 5 5 5 5 5 5 5 5 5 5 5 5 5 5 5 5 6 5 5 6 5 5 5 5 5 5 6 6 5 5 5 5 5 5 5 5 5 5 5 5 5 5 5 5 5 5 6 5 5 5 6 5 5 5 5 5 5 5 5 5 5 5 5 5 5 5 5 6 5 5 5 5 5 5 5 6 5 5 5 5 5 5 5 5 6 5 6 5 5 5 5 5 5 5 5 5 5 5 5 5 5 5 5 6 5 5 5 5 5 5 5 6 5 5 5 5 6 5 5 5 5 5 5 5 6 5 5 6 6 5 5 6 5 5 5 5 5 5 6 5 5 5 5 5 5 5 5 5 6 5 5 6 5 5 6 5 5 6 5 5 5 5 5 6 5 5 5 5 5 5 5 5 6 5 5 5 5 5 5 5 6 5 5 5 5 5 5 5 5 5 5 5 5 6 5 5 5 5 5 5 5 6 6 5 6 5 6 5 5 5 5 5 5 5 5 5 5 5 5 5 5 5 6 5 6 5 5 5 5 5 5 5 5 6 5 6 5 6 5 6 5 6 5 5 6 5 5 5 5 5 6 5 5 5 5 5 5 5 5 6 5 5 5 5 5 6 5 5 6 5 6 6 5 5 5 5 5 5 5 5 6 5 5 5 5 5 5 5 5 5 5 5 5 5 6 5 5 5 5 5 5 5 6 5 5 5 6 5 5 5 5 5 5 5 5 5 5 5 5 5 5 5 5 5 6 5 5 5 5 5 5 5 6 5 5 6 5 5 5 5 5 5 5 5 5 5 5 5 5 5 5 6 5 5 5 5 6 5 5 5 5 5 5 5 5 5 5 5 5 5 5 5 5 5 5 5 5 5 5 5 5 5 6 5 5 5 5 5 5 6 5 5 5 5 5 5 5 5 5 6 6 5 5 5 6 5 6 5 5 5 5 5 5 5 5 5 5 5 5 5 5 5 6 5 5 5 5 5 5 5 5 5 5 5 5 6 6 5 5 5 5 5 5 5 5 6 5 5 6 5 5 6 6 5 5 5 5 5 5 5 6 5 5 5 5 5 5 5 5 5 6 5 5 5 6 5 5 5 5 5 6 5 5 5 5 5 5 5 5 5 5 5 5 6 5 5 5 6 5 5 5 6 5 5 5 5 5 5 5 5 5 5 5 5 5 5 5 5 5 5 5 5 5 5 5 5 5 5 5 5 5 5 5 5 6 5 5 5 5 5 5 5 5 5 5 5 5 5 5 5 5 5 5 5 5 5 5 5 5 6 5 6 5 5 6 5 5 5 5 5 5 5 5 5 6 5 5 5 5 5 5 5 5 5 5 5 5 5 5 6 5 5 5 5 6 5 5 5 6 5 5 5 5 5 5 5 5 5 5 5 5 5 5 5 5 5 5 5 5 5 5 5 5 5 5 5 5 5 5 5 5 5 5 5 5 5 5 5 5 5 5 5 5 5 5 5 5 5 5 5 5 5 5 5 5 5 5 5 5 5 5 5 5 5 5 5 5 5 5 5 5 5 5 5 5 5 5 5 5 5 5 5 5 5 5 5 5 5 5 5 5 5 5 5 5 5 5 5 5 5 5 5 5 5 5 5 5 5 5 5 5 5 5 5 5 5 5 5 5 5 5 5 5 5 5 5 5 5 5 5 5 5 5 5 5 5 5 5 5 5 5 5 5 5 5 5 5 5 5 5 5 5 5 5 5 5 5 5 5 5 5 5 5 5 5 5 5 5 5 5 5 5 5 5 5 5 5 5 5 5 5 5 5 5 5 5 5 5 6 5 5 5 5 5 5 5 5 5 5 5 5 5 5 5 5 6 5 5 5 5 5 5 5 5 6 5 5 5 5 6 5 5 5 5 5 5 5 5 5 5 5 5 5 5 5 5 5 5 5 5 5 5 6 5 5 5 5 5 5 5 5 5 5 5 5 5 6 6 5 5 5 5 5 6 5 6 5 5 5 5 5 5 5 5 5 5 5 6 5 5 5 5 5 5 5 6 5 5 5 5 5 5 5 5 5 5 5 5 5 5 5 6 6 5 5 5 5 5 5 5 5 5 5 5 5 6 5 5 5 5 5 5 5 5 5 5 5 5 5 5 5 5 6 5 5 5 5 5 5 5 6 5 5 5 5 5 5 5 5 5 5 6 6 5 5 5 5 5 5 5 5 5 5 5 5 5 5 5 5 5 5 5 5 5 5 5 5 5 5 5 5 5 5 6 5 5 5 5 5 6 5 5 5 5 5 5 5 5 5 5 6 5 5 5 5 6 5 5 5 5 5 5 5 5 5 5 6 5 6 5 5 5 5 5 5 5 5 5 5 5 5 5 5 5 5 5 5 5 5 5 5 5 5 5 5 5 5 5 5 5 6 5 5 5 5 5 6 5 5 5 5 5 5 5 5 5 5 5 5 5 5 5 5 5 5 6 5 5 6 5 5 5 6 5 5 5 5 5 6 5 5 5 5 5 5 5 5 5 5 6 5 5 5 5 5 5 6 5 5 5 5 5 6 6 5 5 6 5 5 6 5 5 5 5 5 5 5 5 5 5 6 5 5 6 5 5 6 5 5 6 5 5 6 5 5 6 5 5 5 5 5 5 6 5 5 5 5 5 5 5 5 5 5 5 6 5 5 5 5 5 5 5 6 5 5 5 5 6 5 5 5 6 5 5 5 5 5 5 5 5 5 5 5 6 5 5 5 5 5 5 5 5 5 5 5 5 5 5 5 5 5 5 5 5 5 5 5 5 6 5 5 5 5 5 6 5 5 5 5 5 5 5 5 5 5 5 5 5 5 6 5 5 6 5 6 5 5 5 5 6 5 6 6 5 6 5 5 5 5 5 5 5 6 5 6 5 5 5 5 5 5 6 5 5 5 5 5 5 6 5 5 5 5 6 5 5 5 5 5 6 5 5 6 5 5 5 5 6 5 5 5 5 6 5 5 5 5 5 5 6 5 5 5 5 5 5 5 5 5 6 5 5 5 5 5 5 6 5 5 5 5 6 5 5 5 5 5 5 5 5 5 5 5 5 5 5 5 5 6 5 5 5 6 5 5 6 5 5 5 5 5 5 5 5 5 5 5 5 5 5 5 5 6 5 6 5 5 5 5 5 5 5 5 5 5 5 5 5 5 5 5 5 5 5 5 5 5 5 5 5 5 6 5 5 6 5 5 5 5 5 5 5 5 5 5 6 5 5 5 5 6 5 5 5 5 6 5 5 5 5 5 5 5 5 5 6 5 5 5 5 5 5 5 5 5 5 5 5 5 5 5 5 5 5 5 5 5 5 5 5 5 5 5 5 
</DataArray>
<DataArray type="Float64" Name="stress" NumberOfComponents="9" format="ascii">
-229123420.85936397 -811330426.00525093 0 -811330426.00525093 2200460209.2493839 0 0 0 0 -145073903.58893138 -135723804.15108681 0 -135723804.15108681 1541386926.3816338 0 0 0 0 1038129.1429926606 -120078078.00906181 0 -120078078.00906181 1221815448.9564285 0 0 0 0 155891712.9217135 -310482554.0488224 0 -310482554.0488224 604853708.33046722 0 0 0 0 -34566708.649618655 -177874018.50204849 0 -177874018.50204849 607912349.55303609 0 0 0 0 -567277.1195512251 -377995.47798934579 0 -377995.47798934579 726709.18702475354 0 0 0 0 -6155322.0232433081 93824788.993995667 0 93824788.993995667 -30014752.213821411 0 0 0 0 67343286.714969993 -29321012.686641693 0 -29321012.686641693 44271620.516677856 0 0 0 0 94273155.405535415 -640944401.76400566 0 -640944401.76400566 1378424045.1524506 0 0 0 0 355973596.98865491 -347098648.43612003 0 -347098648.43612003 553831104.0568924 0 0 0 0 4505213.2418372631 -236645707.52485275 0 -236645707.52485275 684565121.01772404 0 0 0 0 1403410808.1980915 -1188608267.5798912 0 -1188608267.5798912 429475443.08372498 0 0 0 0 500423218.03816909 1282361759.7171402 0 1282361759.7171402 2201521349.4211464 0 0 0 0 2500598.0170149282 -1858148.0140989125 0 -1858148.0140989125 6142046.4681779146 0 0 0 0 -78726314.046924233 552913716.29611969 0 552913716.29611969 1603458637.5352554 0 0 0 0 -330717514.62367266 210026842.54825592 0 210026842.54825592 2205269563.4868593 0 0 0 0 -2957168.7965310216 421962514.75539398 0 421962514.75539398 900233298.4431076 0 0 0 0 44562139.67964533 246024233.28712463 0 246024233.28712463 941103169.40496063 0 0 0 0 1972588.2136641752 -4811563.9431833848 0 -4811563.9431833848 16669553.131643668 0 0 0 0 140737149.83663473 183577965.53230286 0 183577965.53230286 492891122.81599808 0 0 0 0 -129974846.64359021 -112760490.76690674 0 -112760490.76690674 1198968603.8918152 0 0 0 0 -1657184.3365192721 5939107.6004881263 0 5939107.6004881263 14985488.478821695 0 0 0 0 -62967142.610449076 21567674.846982956 0 21567674.846982956 41606827.074569702 0 0 0 0 -124337566.76066434 4377297.3567810059 0 4377297.3567810059 77769427.328109741 0 0 0 0 -40915940.04496026 6275035.5036315918 0 6275035.5036315918 50421364.681266785 0 0 0 0 -110202510.63847131 -106004331.02736092 0 -106004331.02736092 -17940648.298095703 0 0 0 0 200239.40654161223 -11978816.279159347 0 -11978816.279159347 35697775.718428083 0 0 0 0 85644655.956665516 -85244620.51965332 0 -85244620.51965332 -36066974.068847656 0 0 0 0 -17497579.54688704 -46057323.490478516 0 -46057323.490478516 33692599.1095047 0 0 0 0 -55281864.169487357 -26354775.462109566 0 -26354775.462109566 87522238.133300781 0 0 0 0 108963820.67601824 2439009.3748779297 0 2439009.3748779297 -126594370.27075195 0 0 0 0 -2963598.1275067246 -2987978.3949952796 0 -2987978.3949952796 10070148.95977629 0 0 0 0 286777734.49713415 -220429871.53399658 0 -220429871.53399658 191317006.97169876 0 0 0 0 132598330.39414144 68156352.162414551 0 68156352.162414551 93785261.716110229 0 0 0 0 27808295.701922476 -82451395.350410461 0 -82451395.350410461 147808895.21968079 0 0 0 0 35018000.502985835 -80027136.559211731 0 -80027136.559211731 -36168623.230182648 0 0 0 0 -56466570.482441865 -1136527.9048318714 0 -1136527.9048318714 166889339.82510376 0 0 0 0 -16996992.763321981 -32960150.477262497 0 -32960150.477262497 164873908.3818512 0 0 0 0 -18079610.052335739 -94916483.761367798 0 -94916483.761367798 202941546.55919647 0 0 0 0 -4322987.1192750931 -70020157.085632324 0 -70020157.085632324 198261038.40649414 0 0 0 0 -56560269.804811202 -23288578.350526839 0 -23288578.350526839 264312282.27542114 0 0 0 0 60793796.521169901 -10523707.099243164 0 -10523707.099243164 118959607.5679245 0 0 0 0 220733442.35244346 178326245.59947968 0 178326245.59947968 341622861.85516357 0 0 0 0 316125807.16394156 -88035483.635564804 0 -88035483.635564804 139312457.38345337 0 0 0 0 33157809.734387875 30720876.93888092 0 30720876.93888092 405827221.28320312 0 0 0 0 196741.03643288935 28293.545839257538 0 28293.545839257538 942004.28080065548 0 0 0 0 194849309.02588987 -164891163.83189392 0 -164891163.83189392 150051312.03353882 0 0 0 0 286641492.15064698 204166062.79553032 0 204166062.79553032 169560346.84568787 0 0 0 0 25835.588899382856 295668.52888987586 0 295668.52888987586 147280.41981375217 0 0 0 0 73680708.312461615 -144446044.15242004 0 -144446044.15242004 36404167.999145508 0 0 0 0 3914320.9137637615 -51402011.661254883 0 -51402011.661254883 229269667.14343262 0 0 0 0 -81018698.79309082 -150807027.0708313 0 -150807027.0708313 563374950.37805176 0 0 0 0 -15283161.290034294 -80323552.852935791 0 -80323552.852935791 228139752.61596346 0 0 0 0 2929383.4636895657 3099360.7379379272 0 3099360.7379379272 10846368.418569565 0 0 0 0 -135054.01566906355 439705.12681861967 0 439705.12681861967 2495963.5234948397 0 0 0 0 -36564311.000338912 -7219886.2851104736 0 -7219886.2851104736 43711114.859992981 0 0 0 0 4197546.6486083269 4554462.7444648743 0 4554462.7444648743 36766499.979522705 0 0 0 0 5907194.8635526001 -13601207.298134804 0 -13601207.298134804 86525375.642196655 0 0 0 0 14013978.150058419 -46518880.250059128 0 -46518880.250059128 90339723.578063965 0 0 0 0 -20235908.805456996 -46931529.151092529 0 -46931529.151092529 104609481.67066956 0 0 0 0 -185301482.05590731 -109068113.52542877 0 -109068113.52542877 81160375.369338989 0 0 0 0 -30234267.459886402 -50750921.762939453 0 -50750921.762939453 34149485.587348938 0 0 0 0 1204395.8660296856 -10381615.350339565 0 -10381615.350339565 31207052.989353217 0 0 0 0 -38898511.395484924 25639780.484687805 0 25639780.484687805 26716328.467155457 0 0 0 0 -115577091.02669722 27101762.6536026 0 27101762.6536026 135163711.16281128 0 0 0 0 32884395.537302732 -19900260.804359436 0 -19900260.804359436 108345880.65374756 0 0 0 0 78256359.625761509 93770994.815303802 0 93770994.815303802 41252640.952968597 0 0 0 0 415731.45077584032 85993.397741056979 0 85993.397741056979 1259164.5062143803 0 0 0 0 25507949.810181022 111849690.91282654 0 111849690.91282654 141932748.8141613 0 0 0 0 99569785.189728141 62630617.544113159 0 62630617.544113159 66678826.018264771 0 0 0 0 -32930721.939318717 12590461.770545959 0 12590461.770545959 53229696.177474976 0 0 0 0 -54989793.100056902 32712941.117958069 0 32712941.117958069 68620549.967876434 0 0 0 0 -67829049.213762715 4168142.5529193878 0 4168142.5529193878 37801947.430633545 0 0 0 0 -57194886.200086974 38825881.590751648 0 38825881.590751648 53258979.130203247 0 0 0 0 -11095669.430502832 44871707.819578171 0 44871707.819578171 44636363.985298157 0 0 0 0 -32421186.082184553 12509931.101158142 0 12509931.101158142 41252420.843322754 0 0 0 0 70780041.678406119 35462865.978103638 0 35462865.978103638 27559688.287269592 0 0 0 0 593934.19745098846 1548162.2268681005 0 1548162.2268681005 2456174.2797442079 0 0 0 0 785731.10931894183 2600592.886384964 0 2600592.886384964 6748602.8303070068 0 0 0 0 727580.63280761242 2056474.9756069183 0 2056474.9756069183 3570132.2887420654 0 0 0 0 -32453.140711375279 1639592.9141453579 0 1639592.9141453579 6373030.8094917787 0 0 0 0 3646521.4162345529 9334885.9857406616 0 9334885.9857406616 35382370.699104309 0 0 0 0 17660617.815749116 19525410.888657093 0 19525410.888657093 38418786.243240356 0 0 0 0 2846780.2514524213 4577748.8834460974 0 4577748.8834460974 4941943.3550166823 0 0 0 0 21175990.4950867 47837487.906776428 0 47837487.906776428 36357644.304920197 0 0 0 0 2376039.2883489132 966801.16316223145 0 966801.16316223145 3538229.7259216309 0 0 0 0 1393236.6963729858 -8354020.996799469 0 -8354020.996799469 2648672.7261581421 0 0 0 0 -11213464.944568157 11567870.201343536 0 11567870.201343536 5977275.7873458862 0 0 0 0 -693099.21330568101 889605.86454874277 0 889605.86454874277 5594141.4074804038 0 0 0 0 6135459.7797000408 7875647.381942749 0 7875647.381942749 -1007001.3663635254 0 0 0 0 -848231.89700138569 -1938829.7116699219 0 -1938829.7116699219 8174281.3455200195 0 0 0 0 3096274.3794617057 -1571897.2153396606 0 -1571897.2153396606 -3772212.6182403564 0 0 0 0 12650713.058963001 16391720.760513306 0 16391720.760513306 13824121.799852371 0 0 0 0 8015544.7478290498 1275002.8688240051 0 1275002.8688240051 -3152655.1426696777 0 0 0 0 68846126.035872325 -20661520.520835876 0 -20661520.520835876 58364763.816482544 0 0 0 0 -594598.19300369988 -599348.43166446686 0 -599348.43166446686 1679307.6775512695 0 0 0 0 -103224.22197562653 -125913.73411975801 0 -125913.73411975801 64522.751824885607 0 0 0 0 -10336.778670261367 -36492.64977013506 0 -36492.64977013506 1665.8691427856684 0 0 0 0 -117152.26138515779 -68798.770240882412 0 -68798.770240882412 533759.55326059461 0 0 0 0 -4320471.1294045271 3603261.2939758301 0 3603261.2939758301 4478201.4441146851 0 0 0 0 -2979927.9915943146 -1858135.8090591431 0 -1858135.8090591431 1552567.6202087402 0 0 0 0 67098.992237366198 -12801.01175374724 0 -12801.01175374724 -27647.691612303257 0 0 0 0 -423534.5683575822 572002.83745574951 0 572002.83745574951 589616.99933624268 0 0 0 0 -412998.09709470114 1018950.3824234009 0 1018950.3824234009 499315.90843200684 0 0 0 0 -5214.9222777013201 -1570957.7378578186 0 -1570957.7378578186 -335750.04054260254 0 0 0 0 -261075.99946393259 820600.72449874878 0 820600.72449874878 -599797.73065185547 0 0 0 0 -710571.19470878667 958335.85713195801 0 958335.85713195801 1081004.6235122681 0 0 0 0 58306.5893029855 -69608.755446404219 0 -69608.755446404219 25735.118759229779 0 0 0 0 -223340.78367812268 -958313.11305236816 0 -958313.11305236816 2626820.5595321655 0 0 0 0 218363.07777798155 -18248993.956829071 0 -18248993.956829071 86916404.224327087 0 0 0 0 -9506518.9221802577 -71001986.652881622 0 -71001986.652881622 180568041.08239746 0 0 0 0 91156291.045704573 -115878353.74920273 0 -115878353.74920273 173994622.81273746 0 0 0 0 -123329.97988496032 -49796816.92516993 0 -49796816.92516993 352049725.14115143 0 0 0 0 22139928.779884629 -72133147.393890381 0 -72133147.393890381 263478323.83318329 0 0 0 0 125545154.95504364 -239346481.38331985 0 -239346481.38331985 309858684.33203888 0 0 0 0 148216804.29290047 -124953833.47414684 0 -124953833.47414684 150815528.18192291 0 0 0 0 18714287.689934492 -1825543.4605102539 0 -1825543.4605102539 151626424.6978634 0 0 0 0 5309871.1797515713 -6671142.9242010117 0 -6671142.9242010117 153230188.27310181 0 0 0 0 5967781.8330971003 -1119855.4245300293 0 -1119855.4245300293 93358387.231452942 0 0 0 0 15631128.170440912 -41640822.856323242 0 -41640822.856323242 109396333.9331665 0 0 0 0 21327711.543210357 1963290.2199707031 0 1963290.2199707031 141764867.76610565 0 0 0 0 -157171.46460999153 120029.32267155498 0 120029.32267155498 356336.00205013156 0 0 0 0 -13824918.32186985 -61540624.059410095 0 -61540624.059410095 142783953.81686401 0 0 0 0 -32158421.757099628 -25321121.625854492 0 -25321121.625854492 113795577.240448 0 0 0 0 92783343.942962885 -54624046.403614044 0 -54624046.403614044 137529137.17289734 0 0 0 0 2572871.8460207242 2436042.1937701185 0 2436042.1937701185 8099828.037951313 0 0 0 0 174064374.35081357 153721782.71841669 0 153721782.71841669 81508930.381004333 0 0 0 0 -128372532.63010973 112122704.73656082 0 112122704.73656082 16750204.654155731 0 0 0 0 72029585.26000534 106478564.18475199 0 106478564.18475199 -86726735.874095917 0 0 0 0 87920211.540595129 -47645213.367658615 0 -47645213.367658615 -124621819.04626274 0 0 0 0 47241445.662180901 -32223169.896333694 0 -32223169.896333694 778763622.90010071 0 0 0 0 207968356.55795011 -27200134.930604935 0 -27200134.930604935 -121363004.41088104 0 0 0 0 558998.5610289477 47782.08279620856 0 47782.08279620856 3284717.4629289508 0 0 0 0 -42145275.186208129 -418108646.85448074 0 -418108646.85448074 756835685.27328873 0 0 0 0 568407196.30811155 510562486.80033302 0 510562486.80033302 619317311.93392181 0 0 0 0 289365381.30922359 -91031371.95092082 0 -91031371.95092082 1725891625.3306046 0 0 0 0 234242398.32537749 -453537875.41449976 0 -453537875.41449976 1497215878.0323563 0 0 0 0 -210564916.55909291 -67120744.057100296 0 -67120744.057100296 2205294233.3393784 0 0 0 0 -177196398.8179895 -66833477.289159775 0 -66833477.289159775 1754183125.4093857 0 0 0 0 -23663478.517429203 -119542946.77082348 0 -119542946.77082348 804429080.20128632 0 0 0 0 -24985555.724729665 170215142.14540291 0 170215142.14540291 911202544.32014465 0 0 0 0 -159137323.01724574 71271738.722934723 0 71271738.722934723 1780748990.7389488 0 0 0 0 -156445830.17917648 171400189.0613718 0 171400189.0613718 2204849036.178009 0 0 0 0 -182001535.04930031 34208179.381509781 0 34208179.381509781 1790291978.6434097 0 0 0 0 406158783.62774068 185135885.95176315 0 185135885.95176315 1891158166.7422714 0 0 0 0 259532411.46668375 542032165.66593552 0 542032165.66593552 437070451.6022644 0 0 0 0 -122458775.01696318 314376797.8187561 0 314376797.8187561 1964788604.4987545 0 0 0 0 -29358420.698214531 -50321168.396913528 0 -50321168.396913528 465246185.27671814 0 0 0 0 33728963.901266575 -95518686.419221878 0 -95518686.419221878 67416827.268409729 0 0 0 0 -4395099.6326464415 -33496525.032741547 0 -33496525.032741547 286334262.5435524 0 0 0 0 181045793.12167966 -182821.08568572998 0 -182821.08568572998 249575613.74001312 0 0 0 0 157390170.99278125 -60517174.81739521 0 -60517174.81739521 229483062.0200119 0 0 0 0 -718150.44788971543 124615348.57084656 0 124615348.57084656 925585369.15935993 0 0 0 0 23212237.125052035 149826609.15612411 0 149826609.15612411 86494274.904903412 0 0 0 0 29338325.95596198 -179051563.69410282 0 -179051563.69410282 6071347.2204055786 0 0 0 0 69826591.826814234 -12154031.450546265 0 -12154031.450546265 -190715652.99985886 0 0 0 0 63842588.101513386 -60691338.852287292 0 -60691338.852287292 -57069630.703514099 0 0 0 0 -30058436.582888126 -16202784.824291229 0 -16202784.824291229 7224144.1773490906 0 0 0 0 -350810.85170801089 619084.33701683581 0 619084.33701683581 388412.74062875658 0 0 0 0 19051431.339549303 21048890.500762939 0 21048890.500762939 -12643280.722983599 0 0 0 0 -99386952.849270701 -96082140.451379776 0 -96082140.451379776 85929355.63936615 0 0 0 0 102759158.6785233 -96107514.373655319 0 -96107514.373655319 82381919.65537262 0 0 0 0 2436792.7273735437 -1406599.1014032066 0 -1406599.1014032066 2761381.35811387 0 0 0 0 76066722.558689833 -47453139.492092133 0 -47453139.492092133 77955139.964363098 0 0 0 0 30197971.283697605 -159625606.29930115 0 -159625606.29930115 110646039.35388184 0 0 0 0 634363.75431873847 -84722.847783756442 0 -84722.847783756442 2731580.9096916392 0 0 0 0 -34645996.372269154 -5668484.311920166 0 -5668484.311920166 79173149.72454834 0 0 0 0 31305310.542189598 -40117020.197042465 0 -40117020.197042465 165490714.96075439 0 0 0 0 52824900.573544502 -93880189.581577301 0 -93880189.581577301 142340014.26170349 0 0 0 0 -97194874.725382805 -36164116.453113556 0 -36164116.453113556 178918654.2071228 0 0 0 0 -32284098.859421015 -126417587.64258194 0 -126417587.64258194 188124610.93566895 0 0 0 0 -88695211.561086178 11038509.834926605 0 11038509.834926605 309224413.88140488 0 0 0 0 -69626017.354035854 73050674.158356667 0 73050674.158356667 224470901.62669373 0 0 0 0 -61056008.690798044 -58077698.942363739 0 -58077698.942363739 281100880.05184174 0 0 0 0 -31916250.025739193 -46977077.988723755 0 -46977077.988723755 42911341.949459076 0 0 0 0 -60804108.264325142 46620802.266849518 0 46620802.266849518 260607859.37695885 0 0 0 0 168390028.95857191 171932056.14698792 0 171932056.14698792 -327684656.81828308 0 0 0 0 1666160.187564533 1949662.626045607 0 1949662.626045607 2122942.0951237623 0 0 0 0 13753992.520135105 -169622598.48587799 0 -169622598.48587799 3130158175.6799011 0 0 0 0 -46531440.329443455 -355966632.48614502 0 -355966632.48614502 118315756.9034462 0 0 0 0 184084306.30715853 -57010299.330162048 0 -57010299.330162048 2205292562.0938325 0 0 0 0 315138786.53275961 129022953.17913437 0 129022953.17913437 2365140439.0085144 0 0 0 0 274460006.72663873 247545716.28743744 0 247545716.28743744 2812162304.2994995 0 0 0 0 59227283.342202812 -370559694.4741478 0 -370559694.4741478 2678182965.0182781 0 0 0 0 59513770.834714822 -332599571.427472 0 -332599571.427472 2091710013.7311554 0 0 0 0 -20592963.721880227 34110868.020828247 0 34110868.020828247 2230329310.4227219 0 0 0 0 3019966.855940253 5934362.2777151242 0 5934362.2777151242 4420305.0555275977 0 0 0 0 -9291889.438023895 -167161709.69824982 0 -167161709.69824982 1940358945.4560261 0 0 0 0 7954077.8425478935 46441288.082536697 0 46441288.082536697 -161916743.16371155 0 0 0 0 -157232902.92248344 172794529.41033554 0 172794529.41033554 628636127.90961456 0 0 0 0 -88334189.502086639 135338987.16257095 0 135338987.16257095 119985759.49711227 0 0 0 0 -55804478.087459803 -265916168.10849667 0 -265916168.10849667 1753802882.3289566 0 0 0 0 -164279797.2635431 -78468593.295175552 0 -78468593.295175552 2204595306.6570015 0 0 0 0 -301376764.12905765 206618772.77116776 0 206618772.77116776 1873158368.0256119 0 0 0 0 -35123316.918911278 58874566.982944489 0 58874566.982944489 1325402575.4974804 0 0 0 0 1625391.3089232433 7921283.9723160639 0 7921283.9723160639 6181508.8808265179 0 0 0 0 -88144246.661962271 -120498584.64295578 0 -120498584.64295578 176420189.64831543 0 0 0 0 330912517.09159184 137952785.6558075 0 137952785.6558075 -62762314.609844208 0 0 0 0 137338222.76633072 -128153619.57368088 0 -128153619.57368088 56851707.435523987 0 0 0 0 -221984375.9814806 41687775.109489441 0 41687775.109489441 365040696.39945221 0 0 0 0 -160898783.48677063 -109396134.62283707 0 -109396134.62283707 150629728.59074402 0 0 0 0 -60613964.575784683 20462378.497375488 0 20462378.497375488 236898622.45755768 0 0 0 0 19358210.573397636 33605781.233520508 0 33605781.233520508 173482806.84325409 0 0 0 0 153546482.73650694 -8630380.9101791382 0 -8630380.9101791382 -12176921.844200134 0 0 0 0 -46888091.06062603 190811380.51396942 0 190811380.51396942 339042286.6180706 0 0 0 0 1596891.0049933733 -430667.93300996721 0 -430667.93300996721 148643.39575845748 0 0 0 0 36221915.508774757 23761009.04309845 0 23761009.04309845 -15744544.379730225 0 0 0 0 26535887.372912407 9204168.0566635132 0 9204168.0566635132 66610217.118804932 0 0 0 0 -31827227.835546017 39762810.234476089 0 39762810.234476089 35891548.120552063 0 0 0 0 14079658.541315079 -52153094.505867004 0 -52153094.505867004 45580939.393585205 0 0 0 0 19847285.635028839 -11190846.063011169 0 -11190846.063011169 29042755.03527832 0 0 0 0 19856969.988712788 -3103251.4576148987 0 -3103251.4576148987 43402335.297225952 0 0 0 0 30673458.219393611 -5581397.6744842529 0 -5581397.6744842529 19297787.659248352 0 0 0 0 16238652.173881292 -26410340.146217346 0 -26410340.146217346 7016643.7473869324 0 0 0 0 2242888.0680235624 -79856549.449642181 0 -79856549.449642181 42587975.25289917 0 0 0 0 106989329.81907082 -25197411.704978943 0 -25197411.704978943 1831685.1789016724 0 0 0 0 -1580969.0998878479 -19287928.382175446 0 -19287928.382175446 13296241.107246399 0 0 0 0 6059677.9257192612 -23066073.926139832 0 -23066073.926139832 5977433.1672782898 0 0 0 0 7976487.0734894276 -13415726.780838013 0 -13415726.780838013 6474613.1255569458 0 0 0 0 23346731.92961812 -6508983.0636558533 0 -6508983.0636558533 9005313.2777786255 0 0 0 0 28844043.848350525 -16068638.590766907 0 -16068638.590766907 6212298.1022949219 0 0 0 0 21840041.269711971 -7438501.2727050781 0 -7438501.2727050781 2324616.4390869141 0 0 0 0 13075855.752797127 1352645.3216934204 0 1352645.3216934204 3369970.2491607666 0 0 0 0 12523977.485697746 -16483078.791992188 0 -16483078.791992188 6566398.638999939 0 0 0 0 6358516.8844727278 -15021574.034998894 0 -15021574.034998894 5503360.723739624 0 0 0 0 -37561.263241291046 -10164752.406196594 0 -10164752.406196594 13663106.609874725 0 0 0 0 8316715.0090136528 -8451465.7680740356 0 -8451465.7680740356 6102753.1293640137 0 0 0 0 7507429.9535942078 -5737682.5258560181 0 -5737682.5258560181 2617941.2741527557 0 0 0 0 9334291.3784990311 -1450452.8389186859 0 -1450452.8389186859 7044005.9211730957 0 0 0 0 -141217.9804718066 240738.78927948326 0 240738.78927948326 1453101.4481069408 0 0 0 0 2829179.9895038605 -7898689.6604957581 0 -7898689.6604957581 8474134.4944038391 0 0 0 0 1165840.7412614822 -4594300.7774410248 0 -4594300.7774410248 6477961.488861084 0 0 0 0 -9596509.5229953527 -25292118.028095245 0 -25292118.028095245 8864691.7505817413 0 0 0 0 15755.401522768167 -8191774.6421027668 0 -8191774.6421027668 26892385.015811712 0 0 0 0 -4465619.2251042128 -13852319.285308838 0 -13852319.285308838 10602827.547744751 0 0 0 0 -90143.891326339159 292573.91759341955 0 292573.91759341955 7188748.6080864258 0 0 0 0 -9552446.6945257783 -8360233.4520721436 0 -8360233.4520721436 30301479.017798662 0 0 0 0 95450.459234229405 -3784364.1048587412 0 -3784364.1048587412 14996468.841577604 0 0 0 0 -202235.78641045094 23844.203872680664 0 23844.203872680664 30152461.48349762 0 0 0 0 5776794.7249274254 7627798.837890625 0 7627798.837890625 29472515.568976402 0 0 0 0 4903641.5934223523 6205606.6717577949 0 6205606.6717577949 9645209.0795765631 0 0 0 0 4295578.439119339 9369068.2176132202 0 9369068.2176132202 37908704.232246399 0 0 0 0 -3485899.6952842474 -2047731.8106060028 0 -2047731.8106060028 13585075.926979065 0 0 0 0 -1949981.8000545502 -1605205.7351341248 0 -1605205.7351341248 15171973.217544556 0 0 0 0 -1576565.0294600495 -1090206.6723750578 0 -1090206.6723750578 12199282.717257366 0 0 0 0 -2365818.0770425797 4357186.3920898438 0 4357186.3920898438 5744681.7875375748 0 0 0 0 -1110330.8291322952 116581.2691077441 0 116581.2691077441 14745844.739509217 0 0 0 0 -3388207.8530778885 2698685.0109558105 0 2698685.0109558105 4345731.6491880417 0 0 0 0 -1882969.8347622235 1569597.9036259949 0 1569597.9036259949 23558519.951793876 0 0 0 0 -3793353.7720088959 254416.52917480469 0 254416.52917480469 7453297.6575927734 0 0 0 0 -1834695.9539011633 1631237.7259911187 0 1631237.7259911187 18924334.446781605 0 0 0 0 -905367.54504495906 -2577482.4095904753 0 -2577482.4095904753 13253282.64688961 0 0 0 0 -2031838.1948865652 510504.12127876282 0 510504.12127876282 16868173.585037231 0 0 0 0 -925423.7454189714 -65706.062431149185 0 -65706.062431149185 10944947.958136726 0 0 0 0 -38433.844258785248 -380026.17583084106 0 -380026.17583084106 15368542.099159241 0 0 0 0 -467641.01704978943 -2197442.4230690002 0 -2197442.4230690002 10212836.154539585 0 0 0 0 -280887.91424315982 -1257346.9460395202 0 -1257346.9460395202 9694997.5851781052 0 0 0 0 -1597954.5349202156 -2522971.5641508102 0 -2522971.5641508102 16561843.198181152 0 0 0 0 -1015328.2623637319 915185.95023696125 0 915185.95023696125 10773117.979310654 0 0 0 0 -202812.15307998657 -853172.77989196777 0 -853172.77989196777 14968767.310928345 0 0 0 0 -683338.68719291687 -1003988.6506576538 0 -1003988.6506576538 19284456.193375111 0 0 0 0 529277.57749032974 -858353.55739307404 0 -858353.55739307404 17341211.894233704 0 0 0 0 431295.45010557491 -1644198.0052407831 0 -1644198.0052407831 11498624.747865498 0 0 0 0 300681.25141334534 -769033.79401874542 0 -769033.79401874542 13802961.012657166 0 0 0 0 611209.55319051724 -1750013.3006762639 0 -1750013.3006762639 10085922.019355841 0 0 0 0 1285086.9859224688 178134.1763818264 0 178134.1763818264 6811067.2456398727 0 0 0 0 1949924.6963756084 15928.857374191284 0 15928.857374191284 11413981.380653381 0 0 0 0 2838980.3293113708 -683097.36922454834 0 -683097.36922454834 9048790.3156280518 0 0 0 0 1364239.0588541897 -724796.83966623247 0 -724796.83966623247 5960633.3848713692 0 0 0 0 2775774.7079722881 -919681.67863941193 0 -919681.67863941193 8364598.6063537598 0 0 0 0 -777464.97301959991 -2858977.9581680298 0 -2858977.9581680298 4150566.3316345215 0 0 0 0 -879082.25598239899 -2335992.1998977661 0 -2335992.1998977661 7006041.516064167 0 0 0 0 650986.55589095782 -1801016.2978464887 0 -1801016.2978464887 6214054.4211789668 0 0 0 0 2029655.5710549355 -1095693.7728328705 0 -1095693.7728328705 9458306.2952842712 0 0 0 0 -494123.36202961416 -3790134.9215852143 0 -3790134.9215852143 5515720.6160942912 0 0 0 0 -395888.53361734096 -585896.06776191294 0 -585896.06776191294 4501733.2646961585 0 0 0 0 838545.18528020475 435273.45712674037 0 435273.45712674037 4438200.0888680518 0 0 0 0 -1547523.2946510315 295576.79551696777 0 295576.79551696777 1867150.0185966492 0 0 0 0 -282960.55837357137 -1180109.1581958234 0 -1180109.1581958234 7858277.4789257757 0 0 0 0 -555106.08546686172 12168353.089626312 0 12168353.089626312 -3806517.6745948792 0 0 0 0 112795.77021735907 -1519784.1892633438 0 -1519784.1892633438 6483083.5780639648 0 0 0 0 321322.3780516386 -2201111.4698810577 0 -2201111.4698810577 6567253.2487373352 0 0 0 0 82360.245171350893 277074.62392036989 0 277074.62392036989 500774.86898681521 0 0 0 0 -2432365.6855983734 3746395.7836532593 0 3746395.7836532593 5366396.0330352783 0 0 0 0 1239774.0206415141 -2670553.4297631066 0 -2670553.4297631066 6135799.3689920157 0 0 0 0 1431120.4705881518 -2165707.6316898167 0 -2165707.6316898167 5761543.5293978974 0 0 0 0 1309957.0714715165 659243.25634850562 0 659243.25634850562 -664416.89004088938 0 0 0 0 11027304.738663912 -15483966.174556732 0 -15483966.174556732 -16706624.219821453 0 0 0 0 4652259.3999666572 4751215.4449462891 0 4751215.4449462891 -3018391.0430908203 0 0 0 0 3155522.0454943054 -2290904.7288352661 0 -2290904.7288352661 5386313.2511207461 0 0 0 0 4141760.631901422 532105.15996361896 0 532105.15996361896 2519776.5628346242 0 0 0 0 -4442944.0452911258 -28237336.717573166 0 -28237336.717573166 -71416931.948066711 0 0 0 0 2360052.6613063812 549638.96209716797 0 549638.96209716797 2498122.9260692596 0 0 0 0 5317379.0594810098 -963162.50806617737 0 -963162.50806617737 -6733155.6664047241 0 0 0 0 -17640951.947458357 60621629.659526825 0 60621629.659526825 -90355951.519931793 0 0 0 0 6430834.3208910637 4480394.29089747 0 4480394.29089747 2951475.3862661775 0 0 0 0 5495931.0061130524 3893428.9976387024 0 3893428.9976387024 8684720.4637145996 0 0 0 0 2181889.27027121 1718153.5663601207 0 1718153.5663601207 -1090628.2154548839 0 0 0 0 -16192197.160290837 -44846833.244224072 0 -44846833.244224072 -93531287.213264465 0 0 0 0 4850204.3109169006 3050836.2061443329 0 3050836.2061443329 10909383.169719696 0 0 0 0 2369881.6751098554 1708106.5389106057 0 1708106.5389106057 5585797.0075184852 0 0 0 0 4766986.9368305206 3253455.4516019821 0 3253455.4516019821 11310685.917320251 0 0 0 0 1985734.0794448853 1410259.2336769104 0 1410259.2336769104 3977434.4211883545 0 0 0 0 2177674.829020977 881463.48522758484 0 881463.48522758484 3247542.6182823181 0 0 0 0 1725345.2432343625 1386091.5815685876 0 1386091.5815685876 3791049.5398096442 0 0 0 0 2854651.7403182983 1255034.0853805542 0 1255034.0853805542 9551685.2987766266 0 0 0 0 1324040.0519020334 551807.51803557947 0 551807.51803557947 5611027.0787222907 0 0 0 0 2305284.0694644526 -48557.96689697355 0 -48557.96689697355 4016632.8146265969 0 0 0 0 2885972.7438155897 582486.48588898778 0 582486.48588898778 1860698.6322173774 0 0 0 0 1637528.7297763824 234503.43272399902 0 234503.43272399902 1362131.270368576 0 0 0 0 866615.19790744781 -450768.90436553955 0 -450768.90436553955 13940386.418418884 0 0 0 0 1714537.0594520569 691508.23275756836 0 691508.23275756836 2863214.1380143166 0 0 0 0 245460.03638703842 389594.77814980596 0 389594.77814980596 11637937.246621208 0 0 0 0 -569949.5438337326 318095.37648773193 0 318095.37648773193 2496321.1365661621 0 0 0 0 1817869.2016321141 682709.15014130622 0 682709.15014130622 7441783.6254361793 0 0 0 0 1875313.8605160869 895163.60812879098 0 895163.60812879098 8102536.4754145294 0 0 0 0 264152.60098895524 102596.39770455658 0 102596.39770455658 13127227.857603479 0 0 0 0 634809.46163001843 509417.6235909164 0 509417.6235909164 9361697.9865762405 0 0 0 0 810041.76165008545 2698733.1302871704 0 2698733.1302871704 17258715.436313629 0 0 0 0 1109947.5613155365 -432232.00759887695 0 -432232.00759887695 17608281.038173676 0 0 0 0 -79371.921061515808 1500535.8687133789 0 1500535.8687133789 17300351.593444824 0 0 0 0 2182781.9444640344 2214437.8768869806 0 2214437.8768869806 10237692.29221148 0 0 0 0 -1011551.2114864974 1618964.1610090733 0 1618964.1610090733 1798876.8001730889 0 0 0 0 844231.20181655884 905035.92889404297 0 905035.92889404297 11470435.44720459 0 0 0 0 -2728465.5848684311 620389.02344512939 0 620389.02344512939 2365938.491394043 0 0 0 0 496930.17352289706 1971160.8302815463 0 1971160.8302815463 7603343.1933788955 0 0 0 0 -62430.235164974816 365899.78162671672 0 365899.78162671672 6588141.9718872756 0 0 0 0 -580283.40078951977 687149.19905871153 0 687149.19905871153 18091898.897137851 0 0 0 0 2788814.9248027802 6234821.1815185547 0 6234821.1815185547 20547938.416023254 0 0 0 0 -235300.5085414052 1815197.7426006943 0 1815197.7426006943 9585020.2683910206 0 0 0 0 11045471.528310776 -4492556.0661010742 0 -4492556.0661010742 7984642.8953704834 0 0 0 0 -13621155.4799366 -11029851.337234497 0 -11029851.337234497 -6008226.9096374512 0 0 0 0 1822072.0024356842 14788965.62493515 0 14788965.62493515 37156671.776412964 0 0 0 0 -11128642.843861341 15067213.520483971 0 15067213.520483971 38943408.705215454 0 0 0 0 -1089763.9276941135 3209521.6973786131 0 3209521.6973786131 3250130.8526511192 0 0 0 0 -10602810.771144867 -7054870.47397995 0 -7054870.47397995 21959310.276596069 0 0 0 0 -9517957.1204242706 -4521737.6433258057 0 -4521737.6433258057 27865378.357315063 0 0 0 0 -6501150.4305686951 -10121474.56048584 0 -10121474.56048584 36378237.710662842 0 0 0 0 5391951.4814720154 -14702720.891311646 0 -14702720.891311646 41519075.55783844 0 0 0 0 2691983.4997634888 -8143498.6374702454 0 -8143498.6374702454 26208855.470970154 0 0 0 0 13737083.937192917 21002167.074455261 0 21002167.074455261 -7539267.0265808105 0 0 0 0 -6400906.2159805298 1290448.5709896088 0 1290448.5709896088 67828277.311325073 0 0 0 0 2873406.3389295973 2074658.6795467883 0 2074658.6795467883 5762658.7339234315 0 0 0 0 4175137.9606876373 1464094.1499481201 0 1464094.1499481201 17134559.694385529 0 0 0 0 -6719289.5955843925 7110987.6013622284 0 7110987.6013622284 26289746.734771729 0 0 0 0 -7085986.9092521667 1857120.6167354584 0 1857120.6167354584 17439656.080753326 0 0 0 0 -11303560.193109512 5950674.5705680847 0 5950674.5705680847 14170980.82276535 0 0 0 0 5387968.4979763031 -4030196.1507644653 0 -4030196.1507644653 10399865.76537323 0 0 0 0 -2961311.7757797241 5017395.2393798828 0 5017395.2393798828 20829550.519142151 0 0 0 0 4559752.2580004074 371882.34322474455 0 371882.34322474455 4953209.2634497732 0 0 0 0 -560123.01147709135 180990.82835448161 0 180990.82835448161 1221854.2845206037 0 0 0 0 2951711.9226160049 2450839.5921020508 0 2450839.5921020508 16890334.875495911 0 0 0 0 -3555821.5081596375 16836386.158024788 0 16836386.158024788 28125873.688327789 0 0 0 0 10292543.547040969 -26788951.276895165 0 -26788951.276895165 -3502509.4816856384 0 0 0 0 2369976.1409054445 2601722.9090042114 0 2601722.9090042114 6560170.7347754855 0 0 0 0 3390788.2879800797 4806586.8445663452 0 4806586.8445663452 17022510.258376598 0 0 0 0 18443595.081167221 55074354.02293396 0 55074354.02293396 38985582.840507507 0 0 0 0 10533229.866230011 7928977.4088058472 0 7928977.4088058472 -5538232.2886047363 0 0 0 0 -365472.70434923051 3438200.9969303329 0 3438200.9969303329 1512917.6535629928 0 0 0 0 8895169.5285868645 -10582120.798496246 0 -10582120.798496246 27922905.70791626 0 0 0 0 -847164.26795313135 4116801.6831109561 0 4116801.6831109561 14652115.000792347 0 0 0 0 -5297580.4811582565 6441094.7139549255 0 6441094.7139549255 24946829.155982971 0 0 0 0 -3745458.101025071 -263142.20540788583 0 -263142.20540788583 5279700.8606759841 0 0 0 0 1934169.382877816 6619663.3942215554 0 6619663.3942215554 10910971.847646005 0 0 0 0 -16291551.789903641 12787406.699529648 0 12787406.699529648 37747205.273269653 0 0 0 0 -16526020.502279282 18501177.576091766 0 18501177.576091766 30906377.329929352 0 0 0 0 -5700332.578754425 9839055.4966144562 0 9839055.4966144562 -24641.49633026123 0 0 0 0 568101.55478096008 -5528083.3610496521 0 -5528083.3610496521 4196621.0087776184 0 0 0 0 -1421755.4632837754 -558166.92116971314 0 -558166.92116971314 5480642.5680363672 0 0 0 0 3585944.7813549042 32030917.86125946 0 32030917.86125946 -38692579.59488678 0 0 0 0 3708765.9521179199 21975801.088630676 0 21975801.088630676 19706671.890291214 0 0 0 0 2715550.7825504057 6123856.7693546759 0 6123856.7693546759 10936729.426890388 0 0 0 0 5532859.6606545448 5613785.8007192612 0 5613785.8007192612 12453514.537635803 0 0 0 0 4248781.8656492233 4473925.6752319336 0 4473925.6752319336 12397399.074066639 0 0 0 0 -50089927.84841156 1229334.3692188263 0 1229334.3692188263 10889685.929794312 0 0 0 0 -64791883.462658644 -27665574.685171127 0 -27665574.685171127 34694476.559768677 0 0 0 0 742905.52994810487 3398713.1437041229 0 3398713.1437041229 588994.11926228553 0 0 0 0 -136084085.99860954 2278986.3813705444 0 2278986.3813705444 28295734.889343262 0 0 0 0 -992768.85596416704 -646291.46681521554 0 -646291.46681521554 848069.56274983287 0 0 0 0 4967550.995950222 4365713.4915714264 0 4365713.4915714264 11338931.236649513 0 0 0 0 3680022.2679891586 4033633.2212944031 0 4033633.2212944031 13704973.736255646 0 0 0 0 4621863.7194348574 2675686.2800335884 0 2675686.2800335884 12253685.936790466 0 0 0 0 5367594.3701934814 3757637.4350061417 0 3757637.4350061417 8626075.5268096924 0 0 0 0 6275393.1657304764 5415999.7528781891 0 5415999.7528781891 5957872.4156036377 0 0 0 0 3995968.3888833555 6602512.7819363456 0 6602512.7819363456 8162287.9425320774 0 0 0 0 5877123.4514037808 5530069.361142341 0 5530069.361142341 4718068.1114830058 0 0 0 0 5074775.0214476585 5845501.760433197 0 5845501.760433197 9217374.7124595642 0 0 0 0 -60314480.70021534 29283121.12087059 0 29283121.12087059 24089524.564910889 0 0 0 0 -294276188.26051235 -65019453.985221863 0 -65019453.985221863 169531192.14105225 0 0 0 0 -102294678.98753786 -4978978.9739866257 0 -4978978.9739866257 132660548.6353302 0 0 0 0 -200765525.96901321 -18090036.128340721 0 -18090036.128340721 162029706.9932518 0 0 0 0 -115466199.07951593 10393026.283464432 0 10393026.283464432 170618564.30307007 0 0 0 0 -274402570.38818645 35995587.881103516 0 35995587.881103516 222590900.58375549 0 0 0 0 31677656.791039467 24801312.707230568 0 24801312.707230568 25517844.684940338 0 0 0 0 -342533.59759642323 485618.95938358456 0 485618.95938358456 1347343.4808009416 0 0 0 0 -204953471.19007492 13636615.318767548 0 13636615.318767548 420597273.09774017 0 0 0 0 31150600.989236247 85640278.522920921 0 85640278.522920921 57111332.823379517 0 0 0 0 10959629.344902515 11501702.114546776 0 11501702.114546776 -101161342.17674875 0 0 0 0 -657010.06284802873 3781205.9807926193 0 3781205.9807926193 2165277.6850722916 0 0 0 0 38334434.641622066 -14169457.725697041 0 -14169457.725697041 -101206181.3266964 0 0 0 0 -55236226.040572643 -19610830.700235367 0 -19610830.700235367 72840535.055942535 0 0 0 0 -2906368.9736483814 356433.88332715258 0 356433.88332715258 17354915.85563042 0 0 0 0 -34694524.625518799 -52008499.579639435 0 -52008499.579639435 -37158473.973193169 0 0 0 0 -229434.3101148624 498356.15348747745 0 498356.15348747745 787874.34762806538 0 0 0 0 -114705571.89261246 -48198157.673942566 0 -48198157.673942566 -98611268.201778412 0 0 0 0 -221560581.60077381 -116229059.65669823 0 -116229059.65669823 23682824.754631042 0 0 0 0 -208825902.77576733 -66945125.777955055 0 -66945125.777955055 106404439.55210876 0 0 0 0 -80621322.819998741 21039912.373561859 0 21039912.373561859 14747097.023546219 0 0 0 0 -60151694.525629759 -13697407.912971497 0 -13697407.912971497 56760028.434341431 0 0 0 0 -102755584.84465027 79892371.38520813 0 79892371.38520813 -26883935.405546188 0 0 0 0 -40725225.815167665 101917604.07719421 0 101917604.07719421 46388949.173370361 0 0 0 0 -83374011.515500546 48845603.94078064 0 48845603.94078064 10258415.657279968 0 0 0 0 -41378982.450231075 56082491.429331779 0 56082491.429331779 -67299893.744009018 0 0 0 0 -32624657.885437489 84522908.257515907 0 84522908.257515907 -37030557.084596634 0 0 0 0 -80167419.844562531 78798218.66991806 0 78798218.66991806 17085733.566087723 0 0 0 0 -180734.82942799479 1794204.2211350016 0 1794204.2211350016 11062338.996445823 0 0 0 0 -2992498.7126178741 5297090.0020446777 0 5297090.0020446777 2176924.0151332617 0 0 0 0 -1342352.7569291862 7031734.2740667155 0 7031734.2740667155 7700450.3299067914 0 0 0 0 9117773.6603450775 -2855665.0303764343 0 -2855665.0303764343 -3371067.9107246399 0 0 0 0 -549984.90322198533 4965729.2610021112 0 4965729.2610021112 6151883.932999853 0 0 0 0 -94257106.94066143 38495880.988152266 0 38495880.988152266 -15167346.20835495 0 0 0 0 -131209421.80985069 48714771.525201321 0 48714771.525201321 12611134.707210541 0 0 0 0 7532681.3394069672 25538774.350550413 0 25538774.350550413 9973203.5626525879 0 0 0 0 -962989.38568765903 3148125.6202760553 0 3148125.6202760553 4368261.6666760184 0 0 0 0 6135622.9176340103 2575298.2512245178 0 2575298.2512245178 10721545.416221619 0 0 0 0 -1530967.1035626885 -2103112.419165913 0 -2103112.419165913 2496516.5263832659 0 0 0 0 -3304329.8470964432 4527730.7247753143 0 4527730.7247753143 12479727.863636971 0 0 0 0 -981593.48637133557 2581015.1859125383 0 2581015.1859125383 8809665.4610268548 0 0 0 0 -3430784.0677642822 1792919.6372833252 0 1792919.6372833252 13871349.946379662 0 0 0 0 -608438.51401567459 4980444.0741958618 0 4980444.0741958618 10063986.086273193 0 0 0 0 -1709575.6956233978 1554200.5973148346 0 1554200.5973148346 6773109.7287163138 0 0 0 0 -2843182.5130901337 -109373.21751403809 0 -109373.21751403809 15233245.393523932 0 0 0 0 710286.26135730743 105652.09494781494 0 105652.09494781494 13339513.487571716 0 0 0 0 -5000972.8579912186 -1540287.41746521 0 -1540287.41746521 15142906.284301758 0 0 0 0 177144.78559364681 1423947.8463794044 0 1423947.8463794044 10522847.430960327 0 0 0 0 -2138602.0454764366 -3406202.4423656464 0 -3406202.4423656464 11310269.842643738 0 0 0 0 -877118.86287300382 3134198.1287788153 0 3134198.1287788153 18523846.629042365 0 0 0 0 -43530747.441974163 -13348558.948093414 0 -13348558.948093414 61297777.200790405 0 0 0 0 -12771216.976716638 11069118.678355694 0 11069118.678355694 29230639.11151123 0 0 0 0 -8539742.3800401688 2329022.9833641052 0 2329022.9833641052 11477703.976253092 0 0 0 0 -257462.5392715577 -78930.783620368689 0 -78930.783620368689 13434325.144842647 0 0 0 0 2017139.1598138809 12733329.558105469 0 12733329.558105469 20377645.83953476 0 0 0 0 -1951620.6093788147 31441088.033008575 0 31441088.033008575 33013751.553436279 0 0 0 0 38238035.557292938 10638214.621219635 0 10638214.621219635 20852183.923110962 0 0 0 0 -1985182.0158184124 5734047.3732007341 0 5734047.3732007341 21794552.70438993 0 0 0 0 -6650952.9505939484 5999628.3742694855 0 5999628.3742694855 10810076.474884033 0 0 0 0 -185383.69054312445 7508439.7396648824 0 7508439.7396648824 15788185.382695608 0 0 0 0 155695.91148809809 6677977.1523552053 0 6677977.1523552053 13727316.907795314 0 0 0 0 11501916.733343124 3828029.9401741028 0 3828029.9401741028 11089432.268965721 0 0 0 0 -9804457.2544865608 -7512991.47032547 0 -7512991.47032547 32776821.49357605 0 0 0 0 -16453461.541561604 -9405818.8973960876 0 -9405818.8973960876 27870704.947971344 0 0 0 0 -16500107.771776199 12610247.689973831 0 12610247.689973831 40702608.871898651 0 0 0 0 -4569866.9879495371 3275064.3857659008 0 3275064.3857659008 24276790.743713498 0 0 0 0 2474358.7977247238 7393890.8028888702 0 7393890.8028888702 39651981.720184326 0 0 0 0 -10088781.178753853 -505280.32500839233 0 -505280.32500839233 11018290.732959747 0 0 0 0 -18199142.339035273 33664825.679135799 0 33664825.679135799 52840058.063026428 0 0 0 0 -2163465.3722887039 -2969535.8503246307 0 -2969535.8503246307 32996020.442642212 0 0 0 0 -1116822.8651062055 6608861.5004918799 0 6608861.5004918799 26031999.830479659 0 0 0 0 1779013.5887492802 5453461.4612305015 0 5453461.4612305015 25675563.02965752 0 0 0 0 -3395320.9800462723 5199482.8583221436 0 5199482.8583221436 11471339.040939331 0 0 0 0 -1398826.1423454285 6828678.1009597778 0 6828678.1009597778 19887745.735267639 0 0 0 0 -1663564.3127033021 596945.5457544364 0 596945.5457544364 31563990.389753662 0 0 0 0 3354554.8009643555 7291396.5117950439 0 7291396.5117950439 13965167.37286377 0 0 0 0 1910827.598509226 7075175.6541208047 0 7075175.6541208047 10742268.212665789 0 0 0 0 -9094849.8060250282 -2852621.3440685272 0 -2852621.3440685272 47802217.059715271 0 0 0 0 296452.56384010147 1457883.6965526193 0 1457883.6965526193 10777531.2588103 0 0 0 0 2219831.5918112947 2555758.2877931893 0 2555758.2877931893 14673860.779273702 0 0 0 0 1300002.5402755737 -4032640.7529945374 0 -4032640.7529945374 29312543.872653961 0 0 0 0 3160795.5921975374 -15173111.903577328 0 -15173111.903577328 60419988.799163818 0 0 0 0 20823038.753056049 60641413.151696205 0 60641413.151696205 51905249.108016968 0 0 0 0 -406340.56650489056 3372315.090153113 0 3372315.090153113 6775663.7433648705 0 0 0 0 11692513.710005283 4195582.9705677032 0 4195582.9705677032 25374855.740690231 0 0 0 0 -10106151.289884806 42957275.925475121 0 42957275.925475121 84464620.6120224 0 0 0 0 -34452752.900044799 13538668.417103767 0 13538668.417103767 88662610.892707825 0 0 0 0 62465493.55211544 -430966.14427947998 0 -430966.14427947998 17969273.629180908 0 0 0 0 -435905.28702203394 -2050218.1410647389 0 -2050218.1410647389 13865876.603395574 0 0 0 0 -16996758.02373004 -9862323.2780056 0 -9862323.2780056 17007070.188224792 0 0 0 0 11772455.483632088 -15250532.550239563 0 -15250532.550239563 15715096.105293274 0 0 0 0 17770797.883893967 -2716874.4275588989 0 -2716874.4275588989 6468571.8332753181 0 0 0 0 -5654228.4650514126 547765.87766838074 0 547765.87766838074 14664194.040634155 0 0 0 0 32190329.470004082 23037815.871948242 0 23037815.871948242 30271333.83454895 0 0 0 0 -601543.4239397049 -1375996.7391967773 0 -1375996.7391967773 15076476.096414566 0 0 0 0 6528569.612123251 29337354.90835762 0 29337354.90835762 66921592.387870789 0 0 0 0 -140907.93452882767 14870779.265846252 0 14870779.265846252 46432890.367668152 0 0 0 0 -295240.09162759781 13984552.128731728 0 13984552.128731728 41779827.269836426 0 0 0 0 -1739993.2434000969 7099548.3171386719 0 7099548.3171386719 43026811.336437225 0 0 0 0 3361820.7538900375 10392705.680976868 0 10392705.680976868 35162698.039848328 0 0 0 0 244944.97785729216 1973399.532078661 0 1973399.532078661 2580417.2452109456 0 0 0 0 6781369.5992307663 20503271.027740479 0 20503271.027740479 44610233.490455627 0 0 0 0 1836618.0851688385 -757930.109375 0 -757930.109375 19120499.583120346 0 0 0 0 7104948.8243551254 15906528.235214233 0 15906528.235214233 40200109.122261047 0 0 0 0 -3338127.2762157917 7609696.5261678696 0 7609696.5261678696 10321366.446517944 0 0 0 0 2091708.1569378451 2439974.9179165214 0 2439974.9179165214 8699307.9742417037 0 0 0 0 -1097841.7265052795 3330366.2729492188 0 3330366.2729492188 5161390.8515777588 0 0 0 0 -1529160.5909500122 7844974.1404418945 0 7844974.1404418945 15765570.378540039 0 0 0 0 396568.59684002399 5438533.6978378296 0 5438533.6978378296 11486186.220169067 0 0 0 0 3589405.6828043396 5430184.452381555 0 5430184.452381555 12340631.881044567 0 0 0 0 28144675.299549103 24265063.038742065 0 24265063.038742065 11789369.288208008 0 0 0 0 242459.43894179672 900756.74274109863 0 900756.74274109863 5019955.9117137343 0 0 0 0 8963438.3130921684 12544602.015501136 0 12544602.015501136 2799894.7603580505 0 0 0 0 807840.08591543301 1199436.8146421732 0 1199436.8146421732 -608891.54960100353 0 0 0 0 3121559.1877062321 3039676.4215087891 0 3039676.4215087891 17629570.263442993 0 0 0 0 3978257.1754016876 10035886.558837891 0 10035886.558837891 29230051.521461487 0 0 0 0 7471313.5325968266 5915633.1635313034 0 5915633.1635313034 26085866.840465546 0 0 0 0 3398065.3513074093 6045003.5352470055 0 6045003.5352470055 12148832.707248412 0 0 0 0 -2800383.8273825231 -4875442.6100222804 0 -4875442.6100222804 27265457.047947228 0 0 0 0 -4064614.7699096203 2654090.5654563904 0 2654090.5654563904 34903041.932685852 0 0 0 0 -2496881.2675955589 -4667300.3329012915 0 -4667300.3329012915 28594357.11771626 0 0 0 0 -2947515.0113230944 3861015.8071403503 0 3861015.8071403503 40312585.415008545 0 0 0 0 -3278920.2380051613 -11539325.450748444 0 -11539325.450748444 33118982.704105377 0 0 0 0 -1824252.5071520996 852245.87774899602 0 852245.87774899602 14075008.215405211 0 0 0 0 -3443300.0274448395 1243872.9137649536 0 1243872.9137649536 43008987.181838989 0 0 0 0 -98382.091106425971 -11770421.562412262 0 -11770421.562412262 38718368.818756104 0 0 0 0 -6819809.7116740644 -7460248.5282592773 0 -7460248.5282592773 37768479.700157166 0 0 0 0 -9207307.1309525445 -9672827.8435401917 0 -9672827.8435401917 40885760.242515564 0 0 0 0 -4618897.2308112169 -4925935.55921093 0 -4925935.55921093 34519014.610160276 0 0 0 0 -7671265.1074490398 -10183520.741339684 0 -10183520.741339684 41048774.921142578 0 0 0 0 -8747848.2654949278 -12644632.70212841 0 -12644632.70212841 39044452.384605408 0 0 0 0 -25567780.257416859 -5725025.7147607803 0 -5725025.7147607803 53760086.364906311 0 0 0 0 -22048250.156353906 -20075927.012090683 0 -20075927.012090683 71758896.086303711 0 0 0 0 -71908657.960789442 -26950040.191986084 0 -26950040.191986084 78917684.006835938 0 0 0 0 -52760546.465782672 -20166856.86743927 0 -20166856.86743927 71833622.376832008 0 0 0 0 -20669511.366166979 7002404.6845169067 0 7002404.6845169067 65271818.279327393 0 0 0 0 -17181689.025060624 5291341.4704341888 0 5291341.4704341888 40247427.926750183 0 0 0 0 -14253430.434150591 -5329337.6108226776 0 -5329337.6108226776 48987633.956264496 0 0 0 0 -3311102.8139567375 1132151.432756424 0 1132151.432756424 64411586.72687912 0 0 0 0 -8904290.7071692795 2830064.5059928894 0 2830064.5059928894 49783712.703421593 0 0 0 0 -4217684.19534095 -5122434.7943558358 0 -5122434.7943558358 38885624.169290662 0 0 0 0 -1378753.2673891056 8651758.7645146064 0 8651758.7645146064 32825776.68470642 0 0 0 0 -16033360.553892523 1516078.3819313049 0 1516078.3819313049 49586280.646906853 0 0 0 0 -9635134.1323730052 18536795.573057175 0 18536795.573057175 26885209.183158875 0 0 0 0 -3158579.4383740751 9951053.0641066916 0 9951053.0641066916 20487681.835543767 0 0 0 0 -24745092.587388754 34986377.775753021 0 34986377.775753021 26254906.501342773 0 0 0 0 -8603723.0560037196 9236241.3732228279 0 9236241.3732228279 35765353.659111023 0 0 0 0 59946194.48129344 7570804.4534034729 0 7570804.4534034729 19246329.562583923 0 0 0 0 -6164442.3270616559 -4476794.5472739525 0 -4476794.5472739525 9321362.4824739322 0 0 0 0 1529270.5513608158 9915811.16391325 0 9915811.16391325 24829400.048614502 0 0 0 0 996801.5391254425 13204892.954129934 0 13204892.954129934 39318772.881210327 0 0 0 0 7813043.131175518 836741.36189079285 0 836741.36189079285 35086305.124757767 0 0 0 0 8824075.0570201874 3997206.5655040741 0 3997206.5655040741 44540781.881558418 0 0 0 0 -2108949.0087029934 -2956067.6832137108 0 -2956067.6832137108 37182584.921699524 0 0 0 0 -3134501.5446317792 -7726496.5800738335 0 -7726496.5800738335 22983752.907173157 0 0 0 0 715572.44751485391 7057884.3764171842 0 7057884.3764171842 37964549.576702632 0 0 0 0 -21806217.591970444 986635.33140563965 0 986635.33140563965 41495775.692625046 0 0 0 0 -16621166.918536186 65456621.375306129 0 65456621.375306129 47800291.818504333 0 0 0 0 -11300810.03041935 63026598.284521103 0 63026598.284521103 32527484.716121674 0 0 0 0 1375431.5101597765 6558238.7543311492 0 6558238.7543311492 4068526.88644059 0 0 0 0 -11774518.621739388 59113064.405712128 0 59113064.405712128 54492356.56023407 0 0 0 0 3938725.8859208822 8209721.8634662628 0 8209721.8634662628 17157016.988891602 0 0 0 0 -57592945.506464005 -12126665.441139221 0 -12126665.441139221 33736002.173330307 0 0 0 0 -2745956.7698089061 1906550.5059520155 0 1906550.5059520155 13495911.727791026 0 0 0 0 -49091779.511057854 14043291.303174019 0 14043291.303174019 24436567.12563324 0 0 0 0 -8788206.3285140991 54211613.739753723 0 54211613.739753723 63402499.033554077 0 0 0 0 3524796.8834686279 44104113.84602356 0 44104113.84602356 67724649.049659729 0 0 0 0 15995196.684761047 40615502.979545593 0 40615502.979545593 44889387.493244171 0 0 0 0 27923246.23526001 18964554.709518433 0 18964554.709518433 74488005.27996254 0 0 0 0 58350387.008645058 39177804.164426804 0 39177804.164426804 36734456.679283142 0 0 0 0 2050720.565536499 29915937.246257782 0 29915937.246257782 66200219.660442352 0 0 0 0 88589326.84982872 10312366.631256104 0 10312366.631256104 40688583.554750443 0 0 0 0 -17010158.487929344 41793949.37231636 0 41793949.37231636 63846564.940263748 0 0 0 0 -21169708.193519592 -9157734.626581192 0 -9157734.626581192 33559108.716665268 0 0 0 0 -110117267.15337861 30514775.586269498 0 30514775.586269498 73738027.162940979 0 0 0 0 475261.68237193249 6659688.7587556178 0 6659688.7587556178 37397427.326522268 0 0 0 0 2904212.9090720415 28713222.895960569 0 28713222.895960569 11722273.272701263 0 0 0 0 -70609841.722079277 -21805572.308036804 0 -21805572.308036804 91240540.101142883 0 0 0 0 -22467453.499558449 20222076.428257942 0 20222076.428257942 14724524.780620575 0 0 0 0 -2489138.2004399891 2892350.2044335986 0 2892350.2044335986 36631031.928989306 0 0 0 0 -93842042.901581287 -11460548.82472229 0 -11460548.82472229 73661457.215112686 0 0 0 0 23029836.80796957 37755301.679751396 0 37755301.679751396 68422061.569019318 0 0 0 0 -42730401.648805618 -3916371.1206817627 0 -3916371.1206817627 114429905.21133423 0 0 0 0 -23365238.916545868 22395208.206010818 0 22395208.206010818 86574373.991260529 0 0 0 0 39746101.608573675 35620178.221802711 0 35620178.221802711 32083492.0717659 0 0 0 0 32731260.766005993 23513192.885461807 0 23513192.885461807 83745403.369304657 0 0 0 0 27799611.593859553 65085744.061556816 0 65085744.061556816 110367311.19399071 0 0 0 0 94776.974236407317 -392893.59740941413 0 -392893.59740941413 1415679.014618434 0 0 0 0 84911085.946810246 119392492.61725998 0 119392492.61725998 204457910.16361427 0 0 0 0 48900252.910473824 -107223695.99136066 0 -107223695.99136066 -36726398.621570349 0 0 0 0 14969661.119718552 -47780577.735934258 0 -47780577.735934258 -50751823.562635422 0 0 0 0 -101681869.64151001 -55009015.846073151 0 -55009015.846073151 40463123.096822739 0 0 0 0 97745613.344036669 98672685.810510874 0 98672685.810510874 56761084.374378204 0 0 0 0 1903785.9336763332 5456.6080972384661 0 5456.6080972384661 4591701.3885929286 0 0 0 0 -92466873.774534941 -35314402.815481186 0 -35314402.815481186 32596757.795825958 0 0 0 0 -76821939.132125854 -58240396.336711884 0 -58240396.336711884 -12298004.569572449 0 0 0 0 -80617542.743936539 -24256317.708293915 0 -24256317.708293915 20236176.009418488 0 0 0 0 -65204801.563739777 5868942.7170257568 0 5868942.7170257568 44945554.804893494 0 0 0 0 -63841079.609148026 9280348.8630065918 0 9280348.8630065918 42339455.7161026 0 0 0 0 -101518194.056036 9837391.7980213165 0 9837391.7980213165 109940194.86219025 0 0 0 0 -37597992.315574646 5157307.7951812744 0 5157307.7951812744 -1528550.8375177383 0 0 0 0 -51499473.363874435 -11711211.668279648 0 -11711211.668279648 25664044.429229736 0 0 0 0 -41398214.497401237 4510412.0143432617 0 4510412.0143432617 35390931.362789154 0 0 0 0 -27308817.43655014 21018900.266937256 0 21018900.266937256 32576974.805568218 0 0 0 0 -38757942.330431938 44954757.800976753 0 44954757.800976753 75689478.010345459 0 0 0 0 -77182237.297554016 48198953.718698502 0 48198953.718698502 113537499.42301941 0 0 0 0 -176872284.88716316 85491409.62666893 0 85491409.62666893 242229146.11697006 0 0 0 0 -47256093.196831226 -11916165.61592865 0 -11916165.61592865 1871457.5451669693 0 0 0 0 -164590664.17659241 318881826.43228388 0 318881826.43228388 60180283.127819061 0 0 0 0 -112692704.95110416 -16340806.517286301 0 -16340806.517286301 63652283.774131775 0 0 0 0 -99906973.243921399 -101728483.70791698 0 -101728483.70791698 -150655976.98152161 0 0 0 0 -3769212.5049874485 -4674912.0761642456 0 -4674912.0761642456 9875122.9148674011 0 0 0 0 1567690.671693746 9929503.5205917358 0 9929503.5205917358 -4676863.9642753601 0 0 0 0 -425434.40264685015 268971.04279702902 0 268971.04279702902 621831.20512180775 0 0 0 0 -2479592.6707466915 -278016.98533916473 0 -278016.98533916473 6047994.0196685791 0 0 0 0 38014534.779991642 -59440111.105257988 0 -59440111.105257988 98567548.333282471 0 0 0 0 12579964.293222405 -9134301.5136795044 0 -9134301.5136795044 142047163.14627075 0 0 0 0 -20718650.578457981 -48433637.779556274 0 -48433637.779556274 109272505.49368286 0 0 0 0 -181659.90137672692 281990.81810472906 0 281990.81810472906 417586.11396542192 0 0 0 0 -4313601.5893051811 -35376763.983009338 0 -35376763.983009338 110303331.70825958 0 0 0 0 13838365.476215074 -36444443.499267578 0 -36444443.499267578 14874664.410827637 0 0 0 0 -33993.614900288412 94464.798894837499 0 94464.798894837499 235411.54592400789 0 0 0 0 -14181.202283544029 -300614.47716522217 0 -300614.47716522217 8786082.8972015381 0 0 0 0 9855535.0872485861 -3506079.7944488525 0 -3506079.7944488525 -20516985.996986389 0 0 0 0 -3506030.5703778914 965357.99912691116 0 965357.99912691116 8425519.3005828857 0 0 0 0 13026705.486083314 -13904193.969993591 0 -13904193.969993591 6880987.5809173584 0 0 0 0 4744254.7871379089 7015118.1994400024 0 7015118.1994400024 6097620.9209136963 0 0 0 0 -2934230.7086977065 5372461.6581497192 0 5372461.6581497192 30432705.949615479 0 0 0 0 -15543485.272736847 14850605.516540527 0 14850605.516540527 51226712.429016113 0 0 0 0 -26622.312977831371 -11370.887437989935 0 -11370.887437989935 234829.27838279307 0 0 0 0 1994542.4816705915 -46469.793281555176 0 -46469.793281555176 -935847.90586853027 0 0 0 0 2583601.141532341 3313388.9963035583 0 3313388.9963035583 2138814.5511169434 0 0 0 0 590.91072995654486 1900660.7355880737 0 1900660.7355880737 7963948.7026062012 0 0 0 0 5033.7637047709286 223763.55687003562 0 223763.55687003562 497839.56536865234 0 0 0 0 165200.87448833155 628018.18116760254 0 628018.18116760254 1337406.649023056 0 0 0 0 -2142344.9626750057 -739091.38000488281 0 -739091.38000488281 1323378.2838439941 0 0 0 0 -2308740.6820682725 -292338.40480613708 0 -292338.40480613708 386455.72854614258 0 0 0 0 35228.806278993958 982742.51298713684 0 982742.51298713684 369485.87963867188 0 0 0 0 -7510.7741541523492 80743.544661261141 0 80743.544661261141 87572.161692966241 0 0 0 0 1328877.4292007536 -2052380.4190101624 0 -2052380.4190101624 4817974.2055358887 0 0 0 0 -35169.713546519954 162511.40651623905 0 162511.40651623905 574283.98270766437 0 0 0 0 3998852.8464866281 -3788017.0230102539 0 -3788017.0230102539 4634569.1152191162 0 0 0 0 16326.869113057852 -1187739.5805702209 0 -1187739.5805702209 4633528.6010360718 0 0 0 0 35370.43410772772 709831.91615977883 0 709831.91615977883 211777.70640758984 0 0 0 0 -301139.48422753811 -859867.06839370728 0 -859867.06839370728 6752513.4310455322 0 0 0 0 -824233.11518752575 -1008691.3253479004 0 -1008691.3253479004 7462062.111086607 0 0 0 0 -1183351.3195133805 -1341146.6205635071 0 -1341146.6205635071 7154962.9000320435 0 0 0 0 -511439.2623888345 851254.03281808645 0 851254.03281808645 2557829.5337016149 0 0 0 0 -498272.34557193518 -1310893.3354454041 0 -1310893.3354454041 6934657.460483551 0 0 0 0 7246033.2447863426 -24392691.488668919 0 -24392691.488668919 78716965.643127441 0 0 0 0 -482445.82155207539 -265599.11848307401 0 -265599.11848307401 2075024.2419736013 0 0 0 0 -438450.66199165583 -1279272.6307106018 0 -1279272.6307106018 6528517.7280769348 0 0 0 0 -1419973.7301070094 1986529.6620121002 0 1986529.6620121002 14153491.683807373 0 0 0 0 141313.02467417717 775613.77983093262 0 775613.77983093262 18133000.134633303 0 0 0 0 1357386.7708989258 1548587.9504590072 0 1548587.9504590072 11284866.025382459 0 0 0 0 -2218011.6674486399 598276.53734588623 0 598276.53734588623 11761251.397668481 0 0 0 0 -1607582.4854951915 -861366.23343048804 0 -861366.23343048804 7893402.4014841467 0 0 0 0 -240286.90885448456 -10458157.568664551 0 -10458157.568664551 40936085.689422607 0 0 0 0 -7777580.8851576447 -31781551.836841583 0 -31781551.836841583 90718048.477600098 0 0 0 0 203504.31229334912 -551942.62794244383 0 -551942.62794244383 -152523.31297333539 0 0 0 0 -9433521.8148928881 -13169379.941490173 0 -13169379.941490173 39180965.526596069 0 0 0 0 -2580182.6725438568 -4062414.610550195 0 -4062414.610550195 6913208.4597654045 0 0 0 0 -6187414.4266936183 -9454294.9719085693 0 -9454294.9719085693 40844861.522117615 0 0 0 0 -2517758.4255226552 -216935.21842765808 0 -216935.21842765808 28813553.401435852 0 0 0 0 -6667852.9042673409 -25266.540340423584 0 -25266.540340423584 40111068.793914795 0 0 0 0 -7112147.3022295088 -195387.4861164093 0 -195387.4861164093 49984345.539123535 0 0 0 0 6889495.9992038682 -15301098.52500248 0 -15301098.52500248 53090256.210083008 0 0 0 0 -4861042.0317974687 -3629664.6981964111 0 -3629664.6981964111 52125436.866897583 0 0 0 0 -10271137.867529333 7069958.5415802002 0 7069958.5415802002 42037877.909622192 0 0 0 0 1353332.6336491704 -431271.87494659424 0 -431271.87494659424 45746181.946937561 0 0 0 0 -11764404.20680885 -6771762.3200349808 0 -6771762.3200349808 63471893.118469238 0 0 0 0 -4962152.3574382663 8021006.712928772 0 8021006.712928772 41564199.33442688 0 0 0 0 -3536402.1757938266 12416815.506210327 0 12416815.506210327 -5581746.3165588379 0 0 0 0 -3966321.1000370383 7959144.6689834595 0 7959144.6689834595 32909891.311958313 0 0 0 0 -3436663.0653044065 4778959.3464366794 0 4778959.3464366794 39221177.864990234 0 0 0 0 15527270.58581502 -21019680.162273407 0 -21019680.162273407 62226365.66229248 0 0 0 0 3178876.0564826578 -40241232.763088226 0 -40241232.763088226 87997328.154399872 0 0 0 0 -10094861.233666927 -22835602.654205322 0 -22835602.654205322 81055323.014431 0 0 0 0 -37623626.537764847 -8752901.8820877075 0 -8752901.8820877075 83262431.115119934 0 0 0 0 -23726782.902536228 22893598.319477081 0 22893598.319477081 38367081.899593353 0 0 0 0 8700468.4366962314 11787283.870521545 0 11787283.870521545 3540307.8404464722 0 0 0 0 -19617876.998192236 -1916091.9942202568 0 -1916091.9942202568 30105813.511795044 0 0 0 0 -22141491.558266994 13893677.111760139 0 13893677.111760139 12344115.609153748 0 0 0 0 -17261053.435799643 910155.32766723633 0 910155.32766723633 22073218.270027161 0 0 0 0 -22055.209271228756 -121003.89926189557 0 -121003.89926189557 619987.83544935286 0 0 0 0 -33472850.975257874 4146627.7257881165 0 4146627.7257881165 40190143.280731201 0 0 0 0 -443619.65155381325 -668863.63711307943 0 -668863.63711307943 2301809.9370478764 0 0 0 0 1038346.3285696618 -10176166.09563446 0 -10176166.09563446 39026230.191040039 0 0 0 0 -201699.43758296815 -44568.018880315125 0 -44568.018880315125 386870.77836790681 0 0 0 0 -1199432.0569050983 -12536662.993309021 0 -12536662.993309021 35864255.815923691 0 0 0 0 3556936.594306604 -7890978.1986942291 0 -7890978.1986942291 27778584.895713806 0 0 0 0 6205312.038455531 -7692058.391746521 0 -7692058.391746521 13761467.824859619 0 0 0 0 11946575.579971202 -19415411.93952179 0 -19415411.93952179 31341164.024618149 0 0 0 0 -1753797.8164978381 -21010597.313896179 0 -21010597.313896179 48681140.88482666 0 0 0 0 -1875044.2814653474 -23006794.373837471 0 -23006794.373837471 34616861.302200317 0 0 0 0 -20272860.296610542 -23657429.569976807 0 -23657429.569976807 50096362.885025024 0 0 0 0 23501035.455464929 -23216832.549484253 0 -23216832.549484253 22242124.381664276 0 0 0 0 10992905.011541329 -35847917.997581482 0 -35847917.997581482 47217602.296951294 0 0 0 0 35869061.665067002 -59480103.522827148 0 -59480103.522827148 65025102.227714539 0 0 0 0 16671258.101687074 -19444149.233299255 0 -19444149.233299255 119270539.30851746 0 0 0 0 -1011842.8633899624 -34974827.790340424 0 -34974827.790340424 48886189.218387604 0 0 0 0 -2714171.6181383207 -42475612.861153603 0 -42475612.861153603 66664345.042770386 0 0 0 0 -35968449.862015367 -47728806.074531555 0 -47728806.074531555 80859585.868667603 0 0 0 0 1579143.8287953138 4408527.321023941 0 4408527.321023941 -1450251.2626647949 0 0 0 0 -2477.830197827032 -35827.196060828865 0 -35827.196060828865 330593.2015542537 0 0 0 0 23511552.739322424 -48061643.769454956 0 -48061643.769454956 32555067.843025208 0 0 0 0 26134138.582316358 72979079.078260422 0 72979079.078260422 100212322.97993469 0 0 0 0 2364097.1268049069 28764089.581863403 0 28764089.581863403 84739739.560775757 0 0 0 0 4184116.4910014868 44751776.623462677 0 44751776.623462677 52613785.286575317 0 0 0 0 5415215.5848996341 15100124.545814514 0 15100124.545814514 26802106.715705872 0 0 0 0 623365.84540250152 23868406.55134964 0 23868406.55134964 295875.47510528564 0 0 0 0 11607676.354890943 1995896.6486663818 0 1995896.6486663818 39476655.173694611 0 0 0 0 3705684.0255083591 -36228705.3393116 0 -36228705.3393116 40968776.605041504 0 0 0 0 5716913.1721111685 -23875521.321929932 0 -23875521.321929932 103387261.69493675 0 0 0 0 11221.761191946716 -86894.663595307618 0 -86894.663595307618 281518.17831075191 0 0 0 0 9335290.1974451542 23985922.652336121 0 23985922.652336121 99222616.183523029 0 0 0 0 -22546390.413780689 -58856425.438137054 0 -58856425.438137054 52101535.659408569 0 0 0 0 898640.60931435227 -51314756.809234619 0 -51314756.809234619 22701781.574619293 0 0 0 0 8458663.3651120663 -31138862.168052673 0 -31138862.168052673 144110172.00730896 0 0 0 0 18566277.617917895 -20830746.066879272 0 -20830746.066879272 62950835.959793091 0 0 0 0 12010888.688544026 6820466.1826295853 0 6820466.1826295853 78736564.512458801 0 0 0 0 12110135.65678085 3443325.3456611633 0 3443325.3456611633 81072526.050861359 0 0 0 0 66615.072065148997 4253713.2474975586 0 4253713.2474975586 87199816.256469727 0 0 0 0 -4375.7812373561392 13036633.708744049 0 13036633.708744049 73476117.167045593 0 0 0 0 14392406.694911452 12760660.25693512 0 12760660.25693512 61566670.900436401 0 0 0 0 804148.75341045856 23904125.788146973 0 23904125.788146973 69929799.53036499 0 0 0 0 3369990.5824267943 18246042.352199554 0 18246042.352199554 80613718.082206726 0 0 0 0 -7229.6385830556246 11779954.942024231 0 11779954.942024231 81354365.975784302 0 0 0 0 -5474495.7213023603 15105927.429862976 0 15105927.429862976 80738526.790409207 0 0 0 0 -4215772.50365787 19416960.985641479 0 19416960.985641479 95503329.89163208 0 0 0 0 -10586977.738881271 4177674.3563842773 0 4177674.3563842773 90368930.683728218 0 0 0 0 -8082237.3271925692 168498.93432617188 0 168498.93432617188 76406314.360902786 0 0 0 0 -10028567.849319868 33254508.388040543 0 33254508.388040543 120341721.20759583 0 0 0 0 -6777130.4366080835 25239613.790493011 0 25239613.790493011 84096692.921170235 0 0 0 0 -9209107.8771006484 3430750.8582344055 0 3430750.8582344055 82938055.399963379 0 0 0 0 -7220758.6365771964 -11878440.331468582 0 -11878440.331468582 131964633.04203033 0 0 0 0 5404375.0177815882 -15540677.200406551 0 -15540677.200406551 85954546.808525085 0 0 0 0 6705779.8520089518 -24270054.930082321 0 -24270054.930082321 64049745.184593201 0 0 0 0 3548777.6164042428 -1187134.6633453369 0 -1187134.6633453369 41284638.35005188 0 0 0 0 -8161.7640714050922 7919638.5993652344 0 7919638.5993652344 61010147.190155029 0 0 0 0 5490092.3416853454 -5188324.0497322083 0 -5188324.0497322083 19961042.092979431 0 0 0 0 -1819983.003372022 -5021707.0191497803 0 -5021707.0191497803 52138565.485118866 0 0 0 0 5180.100944390334 6458553.309803009 0 6458553.309803009 20971782.740852356 0 0 0 0 1448890.0358816516 -2834367.8942489624 0 -2834367.8942489624 4647260.8505935669 0 0 0 0 916712.96097850602 1371419.687757425 0 1371419.687757425 2025140.3052160069 0 0 0 0 -946.95716349224301 1056723.9621505737 0 1056723.9621505737 3086342.3079452515 0 0 0 0 -2105913.9097759482 3006099.747756958 0 3006099.747756958 2678845.1833267212 0 0 0 0 -911521.55633255886 -15502.86223026365 0 -15502.86223026365 2069769.6489791721 0 0 0 0 -3446682.4717288017 9481723.3225784302 0 9481723.3225784302 6589834.0941984653 0 0 0 0 -415115.2625169754 9148878.6651611328 0 9148878.6651611328 6577004.7176573277 0 0 0 0 -1449390.8509317504 -2715249.6308205128 0 -2715249.6308205128 1300626.864944458 0 0 0 0 -3056969.5017655049 -205173.54205477983 0 -205173.54205477983 3447495.3029151857 0 0 0 0 2961344.3101415234 3109974.3387412727 0 3109974.3387412727 2783856.4792682528 0 0 0 0 5883941.828442391 6867277.7729272842 0 6867277.7729272842 16413600.324462891 0 0 0 0 2895258.2338592107 2168508.2882291973 0 2168508.2882291973 1614041.3948767483 0 0 0 0 -14109789.294699192 16514055.751968384 0 16514055.751968384 -7122747.5468635559 0 0 0 0 -19565349.848440766 8691757.6357536316 0 8691757.6357536316 12317587.392807007 0 0 0 0 -20965653.042587042 6643447.6901092529 0 6643447.6901092529 10664745.500225067 0 0 0 0 70626.97011423111 4286327.6343765259 0 4286327.6343765259 7266896.7413709164 0 0 0 0 -4988905.8835004568 4650115.1440248489 0 4650115.1440248489 7290361.1999053955 0 0 0 0 -3002036.9652184402 -1318272.7210656106 0 -1318272.7210656106 3461623.5409214646 0 0 0 0 -2599441.6717604809 -5396489.8698234558 0 -5396489.8698234558 4632491.1023235321 0 0 0 0 -12099207.247765958 2207267.1160364151 0 2207267.1160364151 14039527.364852905 0 0 0 0 -17322529.688658476 -7918240.4744377136 0 -7918240.4744377136 6687086.4526767731 0 0 0 0 -11255777.618186682 -631144.35663604736 0 -631144.35663604736 15110923.99030304 0 0 0 0 -14847823.089760303 -15673355.396080017 0 -15673355.396080017 5408252.3989181519 0 0 0 0 -2334663.3065593899 -1897963.4430088699 0 -1897963.4430088699 3643412.9699120075 0 0 0 0 4713600.106908299 5079304.6653900146 0 5079304.6653900146 6801661.0898532867 0 0 0 0 3559068.7204537923 -1572641.3619194031 0 -1572641.3619194031 12159184.795959473 0 0 0 0 -4297738.5410319846 5508561.8594474792 0 5508561.8594474792 22232889.878131866 0 0 0 0 1469907.7711958601 7404022.7268981934 0 7404022.7268981934 21249365.206598282 0 0 0 0 -27587.600925123275 1564625.5082958897 0 1564625.5082958897 8193132.7008209229 0 0 0 0 1301569.3147740043 2983189.0456542969 0 2983189.0456542969 1924578.5781555176 0 0 0 0 2897463.8849424375 -2305863.4974107742 0 -2305863.4974107742 990211.83577728271 0 0 0 0 -1454332.4666615352 4740547.7995185852 0 4740547.7995185852 6591207.6992111206 0 0 0 0 -6865863.7315313816 -34115986.615753174 0 -34115986.615753174 72492555.250225067 0 0 0 0 26236541.052195571 -37694648.669433594 0 -37694648.669433594 12698678.424285889 0 0 0 0 -9955323.3994539976 -19469545.162063599 0 -19469545.162063599 21848608.052368164 0 0 0 0 18274010.170188971 -8778638.6328783035 0 -8778638.6328783035 14638910.05896759 0 0 0 0 64466965.577101797 -49857669.383964539 0 -49857669.383964539 49298996.528686523 0 0 0 0 -2833022.039585799 -20753231.055587769 0 -20753231.055587769 11011830.439620972 0 0 0 0 16005260.81799221 -26654256.938419342 0 -26654256.938419342 -26185538.435638428 0 0 0 0 3343379.5491034985 -21135598.662693024 0 -21135598.662693024 5603031.3045501709 0 0 0 0 -4031692.0458057523 -30783225.919910431 0 -30783225.919910431 21801248.710342407 0 0 0 0 7925246.3999040723 -27475038.399097443 0 -27475038.399097443 -10016533.128097534 0 0 0 0 953097.43206191063 -17991831.645050049 0 -17991831.645050049 -14453526.316650391 0 0 0 0 -5148534.8967158794 -23506760.326522827 0 -23506760.326522827 -3581637.0032720566 0 0 0 0 -4219824.3199250698 -21026936.268878937 0 -21026936.268878937 -14414725.781661987 0 0 0 0 -12600165.681676626 -15657720.670425415 0 -15657720.670425415 -4778688.5730438232 0 0 0 0 -6518652.7465436459 -20996738.050430298 0 -20996738.050430298 -5486310.3001670837 0 0 0 0 -9357501.3105082512 -24396110.973327637 0 -24396110.973327637 11666257.446853638 0 0 0 0 -5761846.3214302063 -21851549.969039917 0 -21851549.969039917 -3593822.0426414609 0 0 0 0 -16327564.082308531 -10393914.631286621 0 -10393914.631286621 -2621138.3023223877 0 0 0 0 -15037049.660890996 -18410744.978057861 0 -18410744.978057861 10741861.065002441 0 0 0 0 -18290497.670560837 -6938337.4381752014 0 -6938337.4381752014 28426799.903419495 0 0 0 0 -15266916.127181292 -15864554.807136536 0 -15864554.807136536 10310317.985878944 0 0 0 0 -13942007.467169166 -22274531.378889084 0 -22274531.378889084 33711844.370803833 0 0 0 0 -15158662.083050489 -13790525.182228088 0 -13790525.182228088 17932105.956485748 0 0 0 0 -19382866.059011459 1873597.4257011414 0 1873597.4257011414 48113512.314535141 0 0 0 0 -19935721.185023367 -1905412.5665597916 0 -1905412.5665597916 23544636.374595642 0 0 0 0 -21431334.034363031 3676080.7648086548 0 3676080.7648086548 31194130.591239929 0 0 0 0 -13602676.603711665 11124966.125864029 0 11124966.125864029 -8256495.4735031128 0 0 0 0 -14527234.996228695 23026471.647678375 0 23026471.647678375 19368106.229553223 0 0 0 0 -10770172.784533024 17847561.09462738 0 17847561.09462738 13613723.039604187 0 0 0 0 583899.89409954101 45552510.685157776 0 45552510.685157776 48686874.066314697 0 0 0 0 1827198.6978887916 43132959.939121246 0 43132959.939121246 53330098.504859924 0 0 0 0 16667619.382335901 84005847.885955811 0 84005847.885955811 27718432.701541901 0 0 0 0 -17252928.415722698 -3472337.9389820099 0 -3472337.9389820099 59537249.117218018 0 0 0 0 -10730448.381865442 2014272.1448020935 0 2014272.1448020935 62675498.538150787 0 0 0 0 8499217.8854909837 20549830.283096313 0 20549830.283096313 297362153.61268616 0 0 0 0 7609912.7153552175 42467808.092895508 0 42467808.092895508 94906889.3335495 0 0 0 0 -13262591.771435522 -2415559.1284389496 0 -2415559.1284389496 156063050.89143372 0 0 0 0 71545095.806338787 116004472.24252319 0 116004472.24252319 87745327.985145569 0 0 0 0 1220768.4542671293 56393099.179512024 0 56393099.179512024 115175597.91724396 0 0 0 0 52950932.123381644 85455323.628013611 0 85455323.628013611 36154730.007675171 0 0 0 0 46968304.070132405 61019730.527812958 0 61019730.527812958 -8402366.3618774414 0 0 0 0 524145.86389132054 -707487.47094780952 0 -707487.47094780952 906595.76712962985 0 0 0 0 -12796979.152387142 -34166263.484985352 0 -34166263.484985352 88185001.26625061 0 0 0 0 -64303674.326364741 129029831.29598808 0 129029831.29598808 -42544669.494018555 0 0 0 0 -30021039.587569907 75248416.187687874 0 75248416.187687874 -68267765.590866089 0 0 0 0 40382976.126167908 82587885.117752075 0 82587885.117752075 -36039392.257888794 0 0 0 0 -49856039.516048044 88628636.064876556 0 88628636.064876556 1694329.0163421631 0 0 0 0 24183871.697458431 58567704.050949097 0 58567704.050949097 13755095.99810791 0 0 0 0 30350208.604007304 61310152.963840485 0 61310152.963840485 -15812824.462928772 0 0 0 0 41536378.27590698 68171127.222881794 0 68171127.222881794 -26346884.428924561 0 0 0 0 37200395.168463781 126681932.62738609 0 126681932.62738609 87755934.921989441 0 0 0 0 116796327.14061433 100610275.34162521 0 100610275.34162521 -14341432.17108345 0 0 0 0 -47887680.870569706 91597471.92678833 0 91597471.92678833 19041146.645843506 0 0 0 0 -50002537.691711694 26786756.812255859 0 26786756.812255859 35283135.776565552 0 0 0 0 -105884333.24188066 46261547.66570282 0 46261547.66570282 -13685092.72366333 0 0 0 0 17829.93868342042 65307044.332351685 0 65307044.332351685 -13396731.868057251 0 0 0 0 -27394722.709069908 90396620.059242249 0 90396620.059242249 -9684525.6468200684 0 0 0 0 1943382.7048906845 1468958.040299505 0 1468958.040299505 1148539.0382302254 0 0 0 0 -24450450.940169811 42797178.393985748 0 42797178.393985748 -20088762.448453903 0 0 0 0 -12599440.830455899 7523024.9535865784 0 7523024.9535865784 -17441924.484436035 0 0 0 0 41169362.051221013 41989164.334793091 0 41989164.334793091 2591463.3251667023 0 0 0 0 94879029.475861609 31112579.966567993 0 31112579.966567993 -51247759.32919693 0 0 0 0 836648.62677800178 482821.85052791238 0 482821.85052791238 361322.1181615144 0 0 0 0 15238497.043700442 -19726706.991539001 0 -19726706.991539001 87556611.16878891 0 0 0 0 7488231.0289233401 -36651956.30053997 0 -36651956.30053997 223451996.96113586 0 0 0 0 80304985.010061204 58443949.737594604 0 58443949.737594604 169421011.16743469 0 0 0 0 6145595.3759953268 11365787.320158005 0 11365787.320158005 141400534.82610321 0 0 0 0 -49430980.892161816 19076920.399570465 0 19076920.399570465 67143342.105041504 0 0 0 0 -98614555.642946899 55736168.216529846 0 55736168.216529846 52533980.264438629 0 0 0 0 -105184213.47839266 6816079.1129455566 0 6816079.1129455566 71824992.016204834 0 0 0 0 89728865.553825885 -56289853.58042717 0 -56289853.58042717 95839039.85508728 0 0 0 0 -39081213.775293961 68588852.163995743 0 68588852.163995743 170244832.11687469 0 0 0 0 -16523159.717841882 -41044550.569084167 0 -41044550.569084167 167126390.20042372 0 0 0 0 129416978.79187205 28244227.864955902 0 28244227.864955902 97994315.509674072 0 0 0 0 -11031427.841751492 -26717397.270103455 0 -26717397.270103455 107712113.40129852 0 0 0 0 -14905802.168057326 -45949294.323402405 0 -45949294.323402405 66509122.352859497 0 0 0 0 -67099018.713528216 -25073622.269332886 0 -25073622.269332886 106063610.65259552 0 0 0 0 -44881713.590495735 -28816418.898429871 0 -28816418.898429871 74681286.609909058 0 0 0 0 -82893467.04283905 -10820557.278770447 0 -10820557.278770447 68063361.519111633 0 0 0 0 -61422208.420788229 -42966133.81136322 0 -42966133.81136322 73632213.004119873 0 0 0 0 -64691304.319998801 30829989.181153297 0 30829989.181153297 94690923.202255249 0 0 0 0 -157593495.20138586 162315.74238586426 0 162315.74238586426 87720334.163879395 0 0 0 0 -98961106.447386682 -135198.69792175293 0 -135198.69792175293 45087220.004516602 0 0 0 0 -139716304.54437137 -38894431.045021057 0 -38894431.045021057 8417080.9876251221 0 0 0 0 -94095632.665326267 -31154012.823923111 0 -31154012.823923111 32430108.928070068 0 0 0 0 -109251530.10640681 8211455.3519439697 0 8211455.3519439697 43223590.761234283 0 0 0 0 -110189639.87400256 17466888.230942726 0 17466888.230942726 -39482930.104522705 0 0 0 0 -87208570.221137941 10042651.932525635 0 10042651.932525635 52134510.183044434 0 0 0 0 -155642787.66767073 22054865.924503326 0 22054865.924503326 46927452.414367676 0 0 0 0 -129721818.83800209 48262730.393173218 0 48262730.393173218 59510580.147598267 0 0 0 0 -2677180.5126062427 1672970.7128323186 0 1672970.7128323186 10779910.502733424 0 0 0 0 -82235625.478514522 9469660.2930145264 0 9469660.2930145264 16664926.002227783 0 0 0 0 -162198618.65025812 58000212.366630554 0 58000212.366630554 32820677.867664337 0 0 0 0 -2103649.7849180754 -3686048.9407235533 0 -3686048.9407235533 6421578.0360467955 0 0 0 0 -13489956.5426296 2438636.1602020264 0 2438636.1602020264 11800209.212265015 0 0 0 0 -3400977.5649210466 -2420624.3715246767 0 -2420624.3715246767 20149735.982161731 0 0 0 0 -1895358.6266338015 -4464286.2886558548 0 -4464286.2886558548 9364325.1373607814 0 0 0 0 -2956480.695172024 12188403.285707273 0 12188403.285707273 6456530.4455778599 0 0 0 0 1475892.689269447 12794906.551183775 0 12794906.551183775 30453643.048128441 0 0 0 0 13398757.867251337 11913749.888153076 0 11913749.888153076 -7738175.3140563965 0 0 0 0 -10270751.244513489 45101043.684192657 0 45101043.684192657 50037877.661476135 0 0 0 0 1414769.3455515106 3579944.2016924843 0 3579944.2016924843 -1119725.0758304596 0 0 0 0 -179702354.52415469 -19978435.542694092 0 -19978435.542694092 69372801.659667969 0 0 0 0 -6248436.9743212461 11694249.950340271 0 11694249.950340271 41273283.519241333 0 0 0 0 -3041835.2518777847 5746337.4960327148 0 5746337.4960327148 34449298.491617203 0 0 0 0 4228051.0662286282 5963067.5981407166 0 5963067.5981407166 38468238.646476746 0 0 0 0 -4492512.3228636608 5895556.1049480438 0 5895556.1049480438 41250256.815658569 0 0 0 0 -3533932.8519519567 8703725.7953853607 0 8703725.7953853607 41391604.381561279 0 0 0 0 1356986.8772242069 2946572.0250015259 0 2946572.0250015259 35347260.93460083 0 0 0 0 4470308.3563013077 5434630.3194446564 0 5434630.3194446564 46787149.113876343 0 0 0 0 31645.762995779514 6851636.615486145 0 6851636.615486145 45497388.535995483 0 0 0 0 -1570457.2961144447 8646281.5615291595 0 8646281.5615291595 41223307.853378296 0 0 0 0 341089.91641116142 6033428.5773010254 0 6033428.5773010254 41146669.124164581 0 0 0 0 -166803.51692461967 6704856.8820648193 0 6704856.8820648193 45058861.535476685 0 0 0 0 2072888.0824742466 3424279.0285644531 0 3424279.0285644531 45775964.845724583 0 0 0 0 2778626.7439570427 12639433.340808868 0 12639433.340808868 41297648.024845123 0 0 0 0 720123.23664903641 -807541.46506500244 0 -807541.46506500244 10844343.261962891 0 0 0 0 -792218.74829387665 5572997.7195587158 0 5572997.7195587158 43376666.6067276 0 0 0 0 -2338510.2072305679 6829585.4990119934 0 6829585.4990119934 44020370.22151947 0 0 0 0 -3005454.2621964812 -4938563.0985545032 0 -4938563.0985545032 11958767.335880011 0 0 0 0 -229030.27820086479 4259691.9086647034 0 4259691.9086647034 42929987.670696259 0 0 0 0 -26024.108473300934 -210093.48514556885 0 -210093.48514556885 13108515.973083496 0 0 0 0 -6034335.9198918557 -4926050.3002943844 0 -4926050.3002943844 29785026.230301294 0 0 0 0 3844056.2825722694 3383486.8672771454 0 3383486.8672771454 44071523.506078482 0 0 0 0 2300897.475750715 2504791.722719267 0 2504791.722719267 18306605.176236138 0 0 0 0 -23921869.836797714 -25354628.521976471 0 -25354628.521976471 -16705841.361991882 0 0 0 0 498611.79946577549 4559643.5080947876 0 4559643.5080947876 51307862.682670593 0 0 0 0 69927.866809010506 2661037.5300216675 0 2661037.5300216675 47471458.129608154 0 0 0 0 -28080332.873659134 -87246395.97845459 0 -87246395.97845459 2200803.9552001953 0 0 0 0 -6072086.9189656507 -10780375.418897945 0 -10780375.418897945 20655623.262338147 0 0 0 0 -10410406.516095638 -37984398.967241287 0 -37984398.967241287 -31255619.583068848 0 0 0 0 3083423.7309631845 -4374052.3814419024 0 -4374052.3814419024 -2714942.9399398565 0 0 0 0 19602545.549926281 -5507906.0476379395 0 -5507906.0476379395 5907879.6784820557 0 0 0 0 -80689343.574789286 14553863.868103027 0 14553863.868103027 -101397156.21861267 0 0 0 0 -30383.337611675262 -4464979.4664087296 0 -4464979.4664087296 9519747.022857666 0 0 0 0 2364906.6977658272 3773525.4150047302 0 3773525.4150047302 19267811.872795105 0 0 0 0 1486210.3086329424 -2364373.511702165 0 -2364373.511702165 -3586565.8741270453 0 0 0 0 -8955664.973484993 -10572694.4634552 0 -10572694.4634552 19854063.655303478 0 0 0 0 1778299.8892161846 -5143865.0745010376 0 -5143865.0745010376 -916244.63391113281 0 0 0 0 -1041424.3887429237 -4259336.0267181396 0 -4259336.0267181396 9494435.3079147339 0 0 0 0 -473232.99056078115 -1578190.1061734129 0 -1578190.1061734129 8327293.0779736638 0 0 0 0 546781.80706739426 -3339505.2675361633 0 -3339505.2675361633 8423759.1636810303 0 0 0 0 124076.75784164667 -2209828.4654960632 0 -2209828.4654960632 6202507.2264404297 0 0 0 0 -1428287.2618973255 -324956.78650665283 0 -324956.78650665283 17336772.617614746 0 0 0 0 4411428.9419469833 -7807303.3163146973 0 -7807303.3163146973 665131.41143798828 0 0 0 0 -1033078.8268032074 -601875.91079711914 0 -601875.91079711914 1689683.8561210632 0 0 0 0 604444.69063350745 -2578065.1455341056 0 -2578065.1455341056 5939034.4374872334 0 0 0 0 -139105737.26038069 104525234.38067627 0 104525234.38067627 -40844944.300613403 0 0 0 0 -124195.35369983403 -2949630.5936629996 0 -2949630.5936629996 4459413.4512790442 0 0 0 0 -147405976.51602089 82287959.976905823 0 82287959.976905823 -8705069.6070098877 0 0 0 0 -104146139.50285 33470750.866508484 0 33470750.866508484 -15854608.247879028 0 0 0 0 -705282.35023234936 -411376.6534022484 0 -411376.6534022484 6403539.6923704296 0 0 0 0 -1180518.6864986778 187540.30039641261 0 187540.30039641261 7424971.5594335496 0 0 0 0 -1124061.7286765575 -3939483.8693847656 0 -3939483.8693847656 11391842.018074036 0 0 0 0 -1163767.9295983617 -2060937.616535835 0 -2060937.616535835 6700366.8421340017 0 0 0 0 -1445798.8175587654 -3901096.9467926025 0 -3901096.9467926025 10451305.238725662 0 0 0 0 -3231193.4036669731 -4330338.170135498 0 -4330338.170135498 10648727.138175964 0 0 0 0 25483525.055382729 34802832.520674706 0 34802832.520674706 -450011.71253395081 0 0 0 0 53591493.469622135 -32441195.907853127 0 -32441195.907853127 -55586384.004730225 0 0 0 0 26642301.811977863 -62473175.462896347 0 -62473175.462896347 186520608.70508766 0 0 0 0 25373857.898040295 -10628629.885162354 0 -10628629.885162354 47822419.376016617 0 0 0 0 -6892677.2519445419 -38831686.079556465 0 -38831686.079556465 41701390.416094065 0 0 0 0 -4121340.60785532 -31048548.293483734 0 -31048548.293483734 -4987139.7594394684 0 0 0 0 -32235717.084983826 -19681700.589389801 0 -19681700.589389801 32207008.181884766 0 0 0 0 -26678777.775478363 -43182653.115784645 0 -43182653.115784645 26071691.776812792 0 0 0 0 -5056445.7186570168 -48556610.458390713 0 -48556610.458390713 62854922.287326813 0 0 0 0 -6026014.6365284612 -3909831.8682554737 0 -3909831.8682554737 41524906.338639095 0 0 0 0 -56980838.142698288 -40221735.145497322 0 -40221735.145497322 45423848.866584659 0 0 0 0 -42806364.999777913 -7490580.3048721552 0 -7490580.3048721552 41560730.37758255 0 0 0 0 4478015.1498335004 7589532.3789811134 0 7589532.3789811134 46295843.446594238 0 0 0 0 -5863282.3371390216 -4389135.1613773666 0 -4389135.1613773666 39119826.864833236 0 0 0 0 5730875.7170146704 1994973.1197929382 0 1994973.1197929382 45720341.009412766 0 0 0 0 9843270.1057482958 8107237.7447795868 0 8107237.7447795868 52861483.789039612 0 0 0 0 5738826.4840390682 199366.65475273132 0 199366.65475273132 39931770.98260498 0 0 0 0 4391287.2708159164 3750612.7829105482 0 3750612.7829105482 21385770.287641104 0 0 0 0 1265643.7786877155 -4660295.5430641174 0 -4660295.5430641174 35893036.931178808 0 0 0 0 -5514171.0788669586 4625449.2821068764 0 4625449.2821068764 55033957.839845657 0 0 0 0 -2829759.3292523506 -5857349.7732590009 0 -5857349.7732590009 35178116.075148731 0 0 0 0 -987642.7935040351 1706832.188544821 0 1706832.188544821 17749871.16251405 0 0 0 0 -145063.34220604226 -645346.42735760473 0 -645346.42735760473 3241808.5428936277 0 0 0 0 -1051071.6825065613 8904951.393237114 0 8904951.393237114 48190324.245275497 0 0 0 0 -27632564.68656683 -4924970.5720596313 0 -4924970.5720596313 45351775.106748819 0 0 0 0 10088486.13454628 14971014.788718224 0 14971014.788718224 49838275.677812576 0 0 0 0 -5607325.6952219009 -3860666.8747310638 0 -3860666.8747310638 74629262.316757202 0 0 0 0 -10720317.539616346 1770324.5259823799 0 1770324.5259823799 41913226.552482605 0 0 0 0 -6430193.3200531006 11142348.903320312 0 11142348.903320312 51232063.673387527 0 0 0 0 -56023524.161020517 -64679774.430389404 0 -64679774.430389404 117338371.15869141 0 0 0 0 -11489190.521341324 7321804.6272411346 0 7321804.6272411346 77529140.049354553 0 0 0 0 -10999451.297896385 -27248648.645187378 0 -27248648.645187378 120033352.9114151 0 0 0 0 -7997493.8748772144 -17725997.974657774 0 -17725997.974657774 64035452.254699707 0 0 0 0 28932836.38414669 -28221118.874088287 0 -28221118.874088287 -99615099.043865204 0 0 0 0 2992888.2146874866 -12140952.149270732 0 -12140952.149270732 -5097212.9059086405 0 0 0 0 7872289.7743011713 -46480239.906829238 0 -46480239.906829238 28500245.035121918 0 0 0 0 8836723.6030464172 -57043100.681972504 0 -57043100.681972504 86317162.560997009 0 0 0 0 7999752.3322632313 -35973826.671842337 0 -35973826.671842337 51792292.225040436 0 0 0 0 -12777724.226790667 10233122.102962971 0 10233122.102962971 47929081.983932495 0 0 0 0 4762273.6781301498 -15895016.610526085 0 -15895016.610526085 64839962.28578949 0 0 0 0 11252460.358309746 -15383438.870351791 0 -15383438.870351791 18658483.97703743 0 0 0 0 7278386.3437261581 -14342020.907772064 0 -14342020.907772064 58310936.770109177 0 0 0 0 3273288.262597084 -11104119.229406357 0 -11104119.229406357 30363526.054145813 0 0 0 0 -3925269.4652509941 -7090151.3426510021 0 -7090151.3426510021 34933291.097411543 0 0 0 0 81125.792052960547 -8046860.556400083 0 -8046860.556400083 38097654.777475283 0 0 0 0 156624.89908427012 -12836651.403175239 0 -12836651.403175239 27603278.707455069 0 0 0 0 2481958.3633779287 -2816187.4962978363 0 -2816187.4962978363 31416162.638999939 0 0 0 0 17419722.458819032 -275614481.75137329 0 -275614481.75137329 -81503652.184848785 0 0 0 0 249605191.33430469 -1499562.9129257202 0 -1499562.9129257202 14033785.602310181 0 0 0 0 71480799.073477983 112980345.00547791 0 112980345.00547791 87252997.317066193 0 0 0 0 44214001.201368093 90380063.032951355 0 90380063.032951355 -105575988.23278809 0 0 0 0 -184021011.2867918 -31093865.568946838 0 -31093865.568946838 41724138.056655884 0 0 0 0 4325375.845184803 112073.26210975647 0 112073.26210975647 36485076.13695693 0 0 0 0 59967828.749735355 -116227902.86114502 0 -116227902.86114502 -149751015.07421875 0 0 0 0 -2001006.5201953803 -12184642.325923733 0 -12184642.325923733 22612775.310098886 0 0 0 0 -35094.617559126113 -588231.79248379171 0 -588231.79248379171 190703.38451737911 0 0 0 0 -47571533.171547413 -5371138.4930915833 0 -5371138.4930915833 -30653292.575831115 0 0 0 0 -37150770.538436413 -64272185.09047699 0 -64272185.09047699 -40664957.926559448 0 0 0 0 16285397.024346352 -97348535.507995605 0 -97348535.507995605 22758532.581359863 0 0 0 0 3493717.2098159343 -1897858.3217837065 0 -1897858.3217837065 -2101082.785277009 0 0 0 0 31267262.299476035 54186012.131659985 0 54186012.131659985 99657980.393432617 0 0 0 0 30063982.831616759 39200365.80834198 0 39200365.80834198 57558570.982009888 0 0 0 0 1946010.6443509369 -2035196.4041331112 0 -2035196.4041331112 437689.50542026758 0 0 0 0 73561140.857348442 9056836.9373226166 0 9056836.9373226166 2604403.7257995605 0 0 0 0 -11881255.974733531 19639652.54901123 0 19639652.54901123 161726265.53030777 0 0 0 0 14682423.589887649 60765803.615930557 0 60765803.615930557 108588497.25886536 0 0 0 0 16542784.475483552 47211795.229208946 0 47211795.229208946 203917842.29110718 0 0 0 0 31518935.575228751 -9461991.395983696 0 -9461991.395983696 67103651.816223145 0 0 0 0 40644571.658527374 -62447743.877513885 0 -62447743.877513885 83726225.092679977 0 0 0 0 40680437.203091919 -104247420.70775986 0 -104247420.70775986 132544823.54682922 0 0 0 0 19977784.044913985 12700716.846998215 0 12700716.846998215 245100166.40087891 0 0 0 0 270216812.22181404 -93758652.675033569 0 -93758652.675033569 250301597.42643738 0 0 0 0 143420469.0919289 63398231.563064575 0 63398231.563064575 171559330.0233078 0 0 0 0 72823302.621227756 46727592.486608684 0 46727592.486608684 215390740.74043274 0 0 0 0 692962.63900014991 -584018.2694132328 0 -584018.2694132328 279018.11654813588 0 0 0 0 32326886.815827727 -103796869.16321564 0 -103796869.16321564 -128325010.45346642 0 0 0 0 110522048.63020813 -264981228.89118958 0 -264981228.89118958 173877844.42106628 0 0 0 0 -326130786.58393139 -42881823.089012146 0 -42881823.089012146 159108336.92390442 0 0 0 0 -66542514.135359794 10486205.378032684 0 10486205.378032684 70370552.901947021 0 0 0 0 -45390061.58831507 -54695486.158992767 0 -54695486.158992767 270755386.87721252 0 0 0 0 122820762.07224441 105021785.70404053 0 105021785.70404053 249597230.15471268 0 0 0 0 306978788.04600561 -54878854.751968384 0 -54878854.751968384 226547150.85282898 0 0 0 0 104914379.0694592 50502188.347808838 0 50502188.347808838 371513027.21895599 0 0 0 0 118208.66040302225 -255879.64231874049 0 -255879.64231874049 1347432.8904839158 0 0 0 0 243122005.80993059 288176385.00874329 0 288176385.00874329 204153755.1699791 0 0 0 0 -68322715.1199224 118615236.15951538 0 118615236.15951538 160011340.63836288 0 0 0 0 216399703.17175579 89913961.25308609 0 89913961.25308609 37016633.291213989 0 0 0 0 -32906407.013865471 -5343549.0755615234 0 -5343549.0755615234 120763976.71951294 0 0 0 0 65074627.873586357 142207346.30776215 0 142207346.30776215 170549823.53683472 0 0 0 0 -108142301.20075679 38034524.16027832 0 38034524.16027832 140603393.68927002 0 0 0 0 -273857845.29463446 -83829399.216888428 0 -83829399.216888428 85448306.23664856 0 0 0 0 -163101040.37114561 113887046.80699921 0 113887046.80699921 126356013.06864929 0 0 0 0 -50660837.16664964 43459703.832454681 0 43459703.832454681 -34430260.536224365 0 0 0 0 -222273051.8552084 -107383257.52865601 0 -107383257.52865601 19223912.247398376 0 0 0 0 -4225148.3841567952 3042103.0475798696 0 3042103.0475798696 10872475.19530274 0 0 0 0 -10978546.759412766 3947702.3746528625 0 3947702.3746528625 17141450.06829834 0 0 0 0 -9731389.1371229831 -629157.91124703363 0 -629157.91124703363 46969744.774586901 0 0 0 0 -20140004.42975264 -1423481.515076492 0 -1423481.515076492 74080424.757531196 0 0 0 0 2626228.6871898985 8682658.5332761556 0 8682658.5332761556 21279384.778524883 0 0 0 0 -289223810.28285253 -39437913.4402771 0 -39437913.4402771 139669645.51686096 0 0 0 0 -383760948.95564771 42227265.308319092 0 42227265.308319092 69209387.449768066 0 0 0 0 2540487.9035563469 -747860.95669412613 0 -747860.95669412613 22489592.019950867 0 0 0 0 -233462175.54462492 -74502798.19103241 0 -74502798.19103241 185960718.96557617 0 0 0 0 -245394721.57976437 -27347983.219093323 0 -27347983.219093323 29499453.492996216 0 0 0 0 -33225656.083593369 -29702812.575233459 0 -29702812.575233459 -3106186.3472290039 0 0 0 0 -364915797.98076284 -203240236.00806427 0 -203240236.00806427 79623982.149719238 0 0 0 0 449209.12320777337 -10407569.650396319 0 -10407569.650396319 39291916.669713885 0 0 0 0 -2230715.9787319396 940145.5906477645 0 940145.5906477645 52981731.897769935 0 0 0 0 10476675.033852577 1131485.5414447784 0 1131485.5414447784 22056174.648963928 0 0 0 0 6967316.8306639651 -18565937.344012372 0 -18565937.344012372 808678.11399297416 0 0 0 0 -7897166.6786939502 10798381.451473236 0 10798381.451473236 122659871.37231445 0 0 0 0 -29134874.690052032 5123442.6374549866 0 5123442.6374549866 166102667.89402771 0 0 0 0 3709113.5651319027 53328639.939880371 0 53328639.939880371 277432916.31324768 0 0 0 0 194784626.91543847 -27254940.88433075 0 -27254940.88433075 92254193.799682617 0 0 0 0 39665652.658789039 -79044619.831424713 0 -79044619.831424713 157469372.37947464 0 0 0 0 612042.96912194788 -769513.68172280863 0 -769513.68172280863 1143746.4066043198 0 0 0 0 109925406.3871713 18045270.860559464 0 18045270.860559464 8205448.6721496582 0 0 0 0 -319206.14796392468 -671604.85728677362 0 -671604.85728677362 1086144.1323829517 0 0 0 0 2491985.2943969751 -2621792.1359751299 0 -2621792.1359751299 1956356.7349458374 0 0 0 0 74307.437636137009 -5202032.7311439514 0 -5202032.7311439514 6107418.3941955566 0 0 0 0 30581486.256437182 -37618949.094566345 0 -37618949.094566345 52532205.564865112 0 0 0 0 -20492655.076293826 12686261.515480042 0 12686261.515480042 134197494.79485893 0 0 0 0 1679151.688518248 -2248168.4866035804 0 -2248168.4866035804 1033509.0197041184 0 0 0 0 -4939872.9783673286 -16790984.500572205 0 -16790984.500572205 -8621298.9456367493 0 0 0 0 485176.05133245711 -2478678.2707351521 0 -2478678.2707351521 1361810.852668399 0 0 0 0 95666436.829177141 -87941996.242706299 0 -87941996.242706299 -19604831.583175659 0 0 0 0 10076151.465238571 39372435.028755188 0 39372435.028755188 89442488.019195557 0 0 0 0 13132343.543066025 39277809.108573914 0 39277809.108573914 -10707597.876647949 0 0 0 0 -3408688.4934072495 43594633.269889832 0 43594633.269889832 -11043500.723487854 0 0 0 0 56179.166540526319 -403255.69494443387 0 -403255.69494443387 -335024.57750105858 0 0 0 0 -40141517.613997459 7886605.4482879639 0 7886605.4482879639 3281573.9105987549 0 0 0 0 1067146.8671031594 38676106.624073029 0 38676106.624073029 110087679.99692535 0 0 0 0 -4888174.8701912165 43567293.755859375 0 43567293.755859375 112281497.00713158 0 0 0 0 -3901188.3450881243 55170388.139076233 0 55170388.139076233 108455150.58760834 0 0 0 0 -27988689.675534464 19780970.161071301 0 19780970.161071301 128000338.93386078 0 0 0 0 -48025901.73957026 16011532.005714417 0 16011532.005714417 127555249.43751526 0 0 0 0 -10447596.012283564 17839475.907310486 0 17839475.907310486 75127653.492450714 0 0 0 0 -37112595.514553949 55306584.654896736 0 55306584.654896736 112829176.51286316 0 0 0 0 -48295848.638940692 52633090.95243454 0 52633090.95243454 44933579.283859253 0 0 0 0 -78705594.101330236 -22997864.243579865 0 -22997864.243579865 42937518.724624634 0 0 0 0 11470208.68898946 24117056.964111328 0 24117056.964111328 -114373008.7013092 0 0 0 0 -38331744.510289818 27426865.390455246 0 27426865.390455246 130611747.07226562 0 0 0 0 -27529727.870023549 38011700.9909935 0 38011700.9909935 72288232.000328064 0 0 0 0 60401839.305805534 5752847.4710044861 0 5752847.4710044861 1650407.2787475586 0 0 0 0 27814899.004651874 9796650.1251487732 0 9796650.1251487732 84786873.483095169 0 0 0 0 39297183.770419925 -15208477.553163528 0 -15208477.553163528 -64029346.775421143 0 0 0 0 -19109518.553775012 4172159.4870567322 0 4172159.4870567322 1652740.0253455639 0 0 0 0 -1190601.4305516847 -741260.83887887746 0 -741260.83887887746 -70600.193730924278 0 0 0 0 -1360375.0005865693 -19274278.453416824 0 -19274278.453416824 22200589.130027771 0 0 0 0 6110244.8161535561 28949074.831207275 0 28949074.831207275 -85089381.54486084 0 0 0 0 12220438.394218802 -14197247.739707947 0 -14197247.739707947 -16249685.183395386 0 0 0 0 2534696.9974478646 -1019492.8213806897 0 -1019492.8213806897 416596.08288792893 0 0 0 0 19752646.822445393 -27285175.521125793 0 -27285175.521125793 33992143.647117615 0 0 0 0 -12575541.744181335 -20973428.383665085 0 -20973428.383665085 -35650251.243743896 0 0 0 0 -9832869.1094481349 -5203816.297416687 0 -5203816.297416687 819793.21276092529 0 0 0 0 15042060.058027327 -3778883.0252132416 0 -3778883.0252132416 901274.50581359863 0 0 0 0 -35624739.645833969 -6986377.466178894 0 -6986377.466178894 33364625.963691711 0 0 0 0 -399880.44719519455 -187429.32136345655 0 -187429.32136345655 -79586.377068392932 0 0 0 0 -49665338.592463344 -27835712.48018837 0 -27835712.48018837 7458019.9445037842 0 0 0 0 2291150.5696053505 -55145745.907161713 0 -55145745.907161713 -17039241.992835999 0 0 0 0 26853500.356609821 -27689412.904006958 0 -27689412.904006958 -3836814.0904083252 0 0 0 0 57015669.837049425 -48191129.985538483 0 -48191129.985538483 -15939017.828521729 0 0 0 0 -13842119.847298265 -11940372.144626617 0 -11940372.144626617 -25628526.567939758 0 0 0 0 -24162669.068001449 -29287273.286499023 0 -29287273.286499023 7028514.1467628479 0 0 0 0 1857404.4317722654 -858242.56476177275 0 -858242.56476177275 347331.50541728735 0 0 0 0 21758724.941874683 -5685965.2972717285 0 -5685965.2972717285 84127143.770479202 0 0 0 0 718134.32425176736 -331455.04543030262 0 -331455.04543030262 171956.64329558611 0 0 0 0 -5510262.496640794 -27165970.296366692 0 -27165970.296366692 239643261.94282532 0 0 0 0 81740856.928693742 -24723982.301609039 0 -24723982.301609039 -79929680.958415985 0 0 0 0 48866330.754485533 -84291616.882213593 0 -84291616.882213593 186206526.33998108 0 0 0 0 57958366.249267101 -4085505.267539978 0 -4085505.267539978 131754378.02377129 0 0 0 0 15304716.329844028 37583123.056713104 0 37583123.056713104 165549795.86529541 0 0 0 0 39391058.752166152 25342402.110431671 0 25342402.110431671 134182304.18213654 0 0 0 0 10985431.939179465 49613377.811559677 0 49613377.811559677 117191173.67488098 0 0 0 0 -9714775.8824018836 -8414475.245262146 0 -8414475.245262146 134825328.37276459 0 0 0 0 1253000.2129370614 -898890.47908192128 0 -898890.47908192128 3745123.1121220142 0 0 0 0 33433725.619782772 968916.09393745661 0 968916.09393745661 -39762787.005493164 0 0 0 0 -172413545.0480122 -18885253.868747711 0 -18885253.868747711 151551206.41455078 0 0 0 0 36158395.119020455 147123594.20883667 0 147123594.20883667 145872265.79211426 0 0 0 0 -3438873.6301165954 -10350112.287323317 0 -10350112.287323317 41732325.548386365 0 0 0 0 -28738489.70999819 16304542.196624756 0 16304542.196624756 119387275.4269104 0 0 0 0 -78100985.346298575 -86638878.737434387 0 -86638878.737434387 -35431094.479797363 0 0 0 0 -80548124.24515371 -59318551.286128998 0 -59318551.286128998 42433779.883079529 0 0 0 0 88803472.490461797 -117014589.90338898 0 -117014589.90338898 30487784.14553833 0 0 0 0 44025008.769835785 -73751824.387741089 0 -73751824.387741089 988719.93441772461 0 0 0 0 45823174.918608278 -117269011.28482437 0 -117269011.28482437 -43014474.159568787 0 0 0 0 7762845.0172523856 -10510309.827079773 0 -10510309.827079773 -42447923.548812866 0 0 0 0 77400134.004559278 -51984815.875770569 0 -51984815.875770569 -21683171.106554985 0 0 0 0 66118431.81221813 -68795712.165657043 0 -68795712.165657043 -24691043.17881012 0 0 0 0 126662064.63786092 -79668395.408882141 0 -79668395.408882141 -42917896.596986771 0 0 0 0 65551654.98727788 -40517158.454931259 0 -40517158.454931259 -30543257.047149658 0 0 0 0 76145601.514545321 21859382.170303345 0 21859382.170303345 89886422.40763092 0 0 0 0 117020916.05497019 -66572487.004246712 0 -66572487.004246712 94237303.451469421 0 0 0 0 -1700281.938920781 -6705714.5745010376 0 -6705714.5745010376 101227189.26112366 0 0 0 0 -3650630.2502673864 13118408.480861664 0 13118408.480861664 59159442.269535065 0 0 0 0 -6483368.2162988782 -37291203.139549255 0 -37291203.139549255 144559196.72530365 0 0 0 0 -5899070.7231683247 -48875077.08326149 0 -48875077.08326149 18875036.004867554 0 0 0 0 -65423925.895003974 -19818997.08946228 0 -19818997.08946228 91624423.873672485 0 0 0 0 -67048225.812239021 -30302770.56847477 0 -30302770.56847477 40331616.316772461 0 0 0 0 -59348334.490357697 8453727.216178894 0 8453727.216178894 44695908.002368927 0 0 0 0 -90648920.904058009 -17550403.091171265 0 -17550403.091171265 70720562.709354401 0 0 0 0 -91113310.170176774 -12845732.829703331 0 -12845732.829703331 26903125.531639099 0 0 0 0 -97509256.625884056 -6936927.8722801208 0 -6936927.8722801208 39256091.222503662 0 0 0 0 -99478269.031938642 -37756253.321580887 0 -37756253.321580887 37326087.611045837 0 0 0 0 -93536301.467544794 -18917314.391395569 0 -18917314.391395569 42440383.961044312 0 0 0 0 1384704.378793671 3145105.7075911947 0 3145105.7075911947 13748866.934623063 0 0 0 0 -910894.01696905249 -1985380.869644938 0 -1985380.869644938 13426076.796226382 0 0 0 0 614665.22690048977 470215.27656492963 0 470215.27656492963 13766296.680536956 0 0 0 0 -6830710.949267149 4986752.2408599854 0 4986752.2408599854 14672794.694244385 0 0 0 0 -76557907.312206745 18434283.713928223 0 18434283.713928223 8136073.4311523438 0 0 0 0 -167515633.51608193 57818824.568901062 0 57818824.568901062 64463374.464813232 0 0 0 0 2157286.0658490658 779997.51348114014 0 779997.51348114014 -11897356.385955811 0 0 0 0 -576648.24965758831 2475621.2864770293 0 2475621.2864770293 8557634.7699010372 0 0 0 0 -41648977.553974628 93385026.11075592 0 93385026.11075592 -130259976.57047272 0 0 0 0 -108129860.82034537 50168593.989528656 0 50168593.989528656 62272194.507049561 0 0 0 0 -160998224.42154306 -19385617.890426636 0 -19385617.890426636 76144188.359657288 0 0 0 0 -109392280.52456525 50929326.588991165 0 50929326.588991165 -165882.88348388672 0 0 0 0 585543.5454815455 2567300.2161160298 0 2567300.2161160298 8332869.1716628373 0 0 0 0 -87833625.355642945 7607244.7935972214 0 7607244.7935972214 598500.26095581055 0 0 0 0 -86047323.972146124 -10722183.713559151 0 -10722183.713559151 38253449.077728271 0 0 0 0 -107199595.50560796 30634247.311125755 0 30634247.311125755 49522789.424911499 0 0 0 0 -78973679.466890216 20868806.054443359 0 20868806.054443359 48678868.146774292 0 0 0 0 -71737759.893644929 3668368.7321548462 0 3668368.7321548462 73878067.981948853 0 0 0 0 -36651036.637771666 26525829.37374115 0 26525829.37374115 61541778.640075684 0 0 0 0 -51200679.807926096 -9425688.1094255447 0 -9425688.1094255447 66914134.298851013 0 0 0 0 490265.73035500746 -79052.35307341814 0 -79052.35307341814 -8051.4689205680043 0 0 0 0 -103950408.03877228 28694372.632606506 0 28694372.632606506 -70112675.828554153 0 0 0 0 -54176652.696907938 8555340.6632919312 0 8555340.6632919312 97369761.144096375 0 0 0 0 -97473455.74076736 32798504.367767334 0 32798504.367767334 83846597.880630493 0 0 0 0 3808123.6883507073 6065123.0011062622 0 6065123.0011062622 61827583.84715271 0 0 0 0 5061292.468931919 12022181.501907825 0 12022181.501907825 62226671.55393219 0 0 0 0 27396900.354919404 -31332159.24907589 0 -31332159.24907589 119359713.55574036 0 0 0 0 44370161.453010812 14131707.457733154 0 14131707.457733154 57507354.859336853 0 0 0 0 32552984.030333936 14640524.314315796 0 14640524.314315796 26603796.429870605 0 0 0 0 1168564.3773898697 125861.94808789343 0 125861.94808789343 73057.193823538721 0 0 0 0 67869415.834544718 72390173.38350296 0 72390173.38350296 5878117.8285522461 0 0 0 0 40214926.054409504 15416479.689292908 0 15416479.689292908 82034281.196949005 0 0 0 0 7123236.4494569898 114152444.24514389 0 114152444.24514389 261419547.66137695 0 0 0 0 43685070.517614841 156279328.61270905 0 156279328.61270905 252087520.37383652 0 0 0 0 95897319.704844981 88533507.008195877 0 88533507.008195877 16826044.998046875 0 0 0 0 70882563.661825716 187997787.99711609 0 187997787.99711609 211249470.80267715 0 0 0 0 51240985.743512847 195151821.26003647 0 195151821.26003647 208648037.03192139 0 0 0 0 -25564514.213781931 3049653.6213169098 0 3049653.6213169098 50631260.950378418 0 0 0 0 13432883.881002367 2542529.1786727905 0 2542529.1786727905 -69258481.548042297 0 0 0 0 -237014632.82401681 -65079645.963256836 0 -65079645.963256836 -20806172.309555054 0 0 0 0 -166923742.51532406 9827123.013999939 0 9827123.013999939 6879788.2662811279 0 0 0 0 85057010.250634372 102982806.3130722 0 102982806.3130722 -119898859.28794861 0 0 0 0 218903.31519014167 755223.6555872038 0 755223.6555872038 3137043.4548362792 0 0 0 0 49518355.887130074 271911138.82064438 0 271911138.82064438 201670596.3560257 0 0 0 0 -9562989.2782897949 90537024.46661377 0 90537024.46661377 -22167622.271842957 0 0 0 0 29661576.70700866 33987408.756763458 0 33987408.756763458 -140775273.28065491 0 0 0 0 -114518847.52193266 -40941266.796298981 0 -40941266.796298981 -133167875.40353394 0 0 0 0 221301925.01560378 -269728065.03038025 0 -269728065.03038025 297944891.70646667 0 0 0 0 57935617.023191094 -4696279.0940284729 0 -4696279.0940284729 9768165.3966808319 0 0 0 0 -13475.427855159709 -4081941.3035682067 0 -4081941.3035682067 2243192.2255987972 0 0 0 0 156184109.10631275 -274422814.78753281 0 -274422814.78753281 471257983.36735535 0 0 0 0 52953342.626291275 -126512061.54140472 0 -126512061.54140472 211918177.32524109 0 0 0 0 96221414.919734716 -216952518.92222977 0 -216952518.92222977 348742050.70495605 0 0 0 0 124426497.83305478 -190391824.2841568 0 -190391824.2841568 260727820.41073608 0 0 0 0 188998399.06413126 -227603938.49163818 0 -227603938.49163818 208137991.43435669 0 0 0 0 166238927.60583282 -157468497.89461517 0 -157468497.89461517 66952465.096496582 0 0 0 0 220070627.88090897 -201289117.71321106 0 -201289117.71321106 42533431.460144043 0 0 0 0 215055647.88405323 -234563466.38349533 0 -234563466.38349533 101949205.39038086 0 0 0 0 -2519661.4100548066 -2093339.2636748888 0 -2093339.2636748888 20869502.543326393 0 0 0 0 -1316597.6497665644 1641239.8427505493 0 1641239.8427505493 26081624.173980713 0 0 0 0 -11556272.882680416 -30424682.347203255 0 -30424682.347203255 38319968.986946106 0 0 0 0 -255778988.20503891 55456453.952224731 0 55456453.952224731 -3106803.8986968994 0 0 0 0 652170.40883562609 2192244.1109549776 0 2192244.1109549776 8184030.3614752442 0 0 0 0 6061811.9433982372 1607745.9563446045 0 1607745.9563446045 13256402.164016724 0 0 0 0 193747962.73988938 98588194.996154785 0 98588194.996154785 153112537.72869205 0 0 0 0 83422165.617153287 112894576.68051529 0 112894576.68051529 278833567.71885681 0 0 0 0 83253884.033162028 98340673.028629303 0 98340673.028629303 214221730.88153839 0 0 0 0 42710555.804609835 76335573.97611618 0 76335573.97611618 214209512.09884644 0 0 0 0 97290579.286322355 59738306.089580536 0 59738306.089580536 158666411.15531445 0 0 0 0 65457563.810427189 14027045.409980774 0 14027045.409980774 128840778.56432343 0 0 0 0 67995041.992710561 6552025.4187240601 0 6552025.4187240601 140727279.30698395 0 0 0 0 53379683.405995369 -48032098.484013557 0 -48032098.484013557 113169031.64807129 0 0 0 0 25752384.133435026 -48737450.941282272 0 -48737450.941282272 123329839.38204575 0 0 0 0 3376734.2072058916 10965577.199832916 0 10965577.199832916 78992875.475322723 0 0 0 0 135195535.71502537 -36110882.003471375 0 -36110882.003471375 25327431.163013458 0 0 0 0 703542.58211554599 80139.57221814245 0 80139.57221814245 121598.89407443814 0 0 0 0 144492115.18926057 166902484.17106628 0 166902484.17106628 271385885.25401306 0 0 0 0 -2961751.2309200168 47959393.714862823 0 47959393.714862823 322166562.62944794 0 0 0 0 935651.33564472198 161066212.38191223 0 161066212.38191223 385555181.95427322 0 0 0 0 179798420.60649276 122399836.54073334 0 122399836.54073334 304736610.17185438 0 0 0 0 157708644.6961976 92216496.348409653 0 92216496.348409653 273990929.69003296 0 0 0 0 74563082.527553678 151220842.43248367 0 151220842.43248367 332078293.57011414 0 0 0 0 13094314.697630644 115506794.98680496 0 115506794.98680496 319288721.34196424 0 0 0 0 -9232621.505684495 92298761.796585083 0 92298761.796585083 322276025.42900848 0 0 0 0 8181973.4250653982 100504694.51884079 0 100504694.51884079 288016884.32091522 0 0 0 0 34835588.517348379 105391514.86239243 0 105391514.86239243 289981974.20484161 0 0 0 0 23790808.602521867 99456660.935793877 0 99456660.935793877 246433588.53774261 0 0 0 0 40035742.932166517 126159103.38476181 0 126159103.38476181 289845853.31907165 0 0 0 0 10210075.667777389 122353863.33441162 0 122353863.33441162 280668222.30458832 0 0 0 0 10690382.324129641 80629801.962806702 0 80629801.962806702 226432028.06156921 0 0 0 0 15758853.264505625 91114397.558807373 0 91114397.558807373 247573563.53609467 0 0 0 0 47721349.234670222 83778866.624511719 0 83778866.624511719 196198460.26678467 0 0 0 0 -22799132.140599802 113896718.42491341 0 113896718.42491341 300097201.14652252 0 0 0 0 -19371457.581204295 89923890.08398819 0 89923890.08398819 302905205.27022552 0 0 0 0 -21770753.738787293 70254174.958095551 0 70254174.958095551 319344858.29338646 0 0 0 0 -14320340.212430298 82696478.740814209 0 82696478.740814209 252349280.42236328 0 0 0 0 -9477633.415376246 92529797.017223358 0 92529797.017223358 270936683.78824008 0 0 0 0 -7250992.3920007348 107501331.3151474 0 107501331.3151474 270829274.52481526 0 0 0 0 -13372587.380221784 117634819.93743515 0 117634819.93743515 291115911.13875961 0 0 0 0 -22875133.038036823 111693118.38897324 0 111693118.38897324 287421548.67048645 0 0 0 0 -17743367.356886253 124317415.37051201 0 124317415.37051201 269031782.11943054 0 0 0 0 -19369140.010677457 123070833.73474312 0 123070833.73474312 288233733.13062286 0 0 0 0 1340489.7595615983 116509535.22104645 0 116509535.22104645 259304222.43719864 0 0 0 0 -8722868.63260144 64089008.32056427 0 64089008.32056427 305952099.87404251 0 0 0 0 -5641335.3546015918 64488479.066184998 0 64488479.066184998 190110130.09775925 0 0 0 0 4628198.0050745308 155621817.12016296 0 155621817.12016296 168328138.07093811 0 0 0 0 -17270125.483062766 104914167.40646172 0 104914167.40646172 167751323.8543396 0 0 0 0 -14223189.444292754 119745674.13517761 0 119745674.13517761 208340210.6545372 0 0 0 0 -16091968.074822355 121393817.85347366 0 121393817.85347366 329342546.57022095 0 0 0 0 -24338472.678895228 147837238.30130768 0 147837238.30130768 307031525.353302 0 0 0 0 -27316488.921353757 118521866.54543304 0 118521866.54543304 290850672.18418884 0 0 0 0 -22247818.919670105 138877859.03679657 0 138877859.03679657 257818549.02116394 0 0 0 0 -31581721.700920597 132794935.06573677 0 132794935.06573677 278395126.1300354 0 0 0 0 -30910329.027918652 27590280.492641449 0 27590280.492641449 7706790.4823226929 0 0 0 0 9060410.1215022206 3471556.8810577393 0 3471556.8810577393 2349213.9758605957 0 0 0 0 200514071.50805587 155309165.10592651 0 155309165.10592651 57050277.751846313 0 0 0 0 57759292.800417304 118698882.36950684 0 118698882.36950684 57526487.423236847 0 0 0 0 31560551.122402698 187393004.76053619 0 187393004.76053619 204890270.50960159 0 0 0 0 79538786.834941894 178446787.21009827 0 178446787.21009827 312894288.72533417 0 0 0 0 29833279.536707051 160372466.3948555 0 160372466.3948555 306334630.10710144 0 0 0 0 -78652052.104079187 -29175774.481014252 0 -29175774.481014252 22914379.158586502 0 0 0 0 262649018.96137905 270886965.51508904 0 270886965.51508904 263004821.96287537 0 0 0 0 -179887.26971527285 168582775.61120987 0 168582775.61120987 454291695.53240967 0 0 0 0 -58511.796621028705 251538.14439617284 0 251538.14439617284 1068154.1902374923 0 0 0 0 79565552.172010988 229017054.20969391 0 229017054.20969391 552362189.11994934 0 0 0 0 40405245.098514438 96100913.073806763 0 96100913.073806763 431297433.75755358 0 0 0 0 144332125.28010404 85159971.962890625 0 85159971.962890625 431888091.45036316 0 0 0 0 54347040.833034366 59485239.339447021 0 59485239.339447021 562630915.84527588 0 0 0 0 46489891.884922966 30628411.004554749 0 30628411.004554749 410938273.87328386 0 0 0 0 49036822.822421312 110471216.7512207 0 110471216.7512207 411849873.05930817 0 0 0 0 6017041.2299934514 114299564.91507626 0 114299564.91507626 474293102.85467529 0 0 0 0 4480009.9587059915 130010611.8001709 0 130010611.8001709 332889608.11559677 0 0 0 0 23147529.036558248 53186102.510347366 0 53186102.510347366 375158614.31515503 0 0 0 0 31375376.998869773 61092519.155296326 0 61092519.155296326 360068978.51865387 0 0 0 0 42607612.848591015 43425500.689117432 0 43425500.689117432 359528139.25140905 0 0 0 0 169010.71605678642 50363167.531070709 0 50363167.531070709 382051801.95266724 0 0 0 0 -18726296.692898244 128949776.68218231 0 128949776.68218231 297915065.36904907 0 0 0 0 -14899745.758175015 101548621.38422394 0 101548621.38422394 317978450.30886078 0 0 0 0 -30992138.557811871 116591715.08848953 0 116591715.08848953 341954234.3248291 0 0 0 0 -12865131.648200125 108712077.64186096 0 108712077.64186096 320166262.20527267 0 0 0 0 -17848603.689594656 108739056.52226257 0 108739056.52226257 386310600.23003387 0 0 0 0 1068653.346948415 83201288.502464294 0 83201288.502464294 339526304.90791798 0 0 0 0 17655656.004519969 51787012.480876923 0 51787012.480876923 352509036.08613873 0 0 0 0 -1353387.0310413241 81543331.971652985 0 81543331.971652985 346510172.04553223 0 0 0 0 17492209.056927174 72272527.294078827 0 72272527.294078827 324425838.0388279 0 0 0 0 -17820772.63885209 100855410.04914474 0 100855410.04914474 330289088.7230835 0 0 0 0 -14474392.465296388 83933200.742357254 0 83933200.742357254 341301710.34540558 0 0 0 0 -1354158.3770574033 14031584.196777344 0 14031584.196777344 504315625.45752716 0 0 0 0 399324.23189323751 341842.47129382938 0 341842.47129382938 377765.7235388048 0 0 0 0 2074371.8045818806 -4306006.9737195969 0 -4306006.9737195969 293202823.01959229 0 0 0 0 -3198540.9199725091 12234118.929897308 0 12234118.929897308 266079963.78145409 0 0 0 0 41931503.340288125 35407036.676841736 0 35407036.676841736 342251470.75276184 0 0 0 0 27094712.352272704 57900884.772502899 0 57900884.772502899 354051149.53510284 0 0 0 0 56099423.544620499 67731867.549354553 0 67731867.549354553 356526004.21582222 0 0 0 0 49141009.007588133 49875559.156764984 0 49875559.156764984 339302105.5847168 0 0 0 0 -60559.882003340615 4554061.4872627258 0 4554061.4872627258 300928499.90275192 0 0 0 0 33560649.339129679 123899997.2930603 0 123899997.2930603 178269930.09594727 0 0 0 0 63040992.559767477 54280736.573208809 0 54280736.573208809 9381069.0458221436 0 0 0 0 34896708.427495264 -11250207.767644882 0 -11250207.767644882 -8497886.9417648315 0 0 0 0 -140317.75485794901 -42341.125254549086 0 -42341.125254549086 52776.740142308176 0 0 0 0 -14594201.926701836 7832096.2370796204 0 7832096.2370796204 103289315.2232666 0 0 0 0 86123.682086328481 2884568.6518135071 0 2884568.6518135071 23787963.159706116 0 0 0 0 1125102.0307081416 920670.36924475431 0 920670.36924475431 812635.36012774333 0 0 0 0 5926470.8112530112 -1856390.2272720337 0 -1856390.2272720337 3528754.9817810059 0 0 0 0 -11871638.343426287 11675823.837695122 0 11675823.837695122 -3304254.8724594116 0 0 0 0 32677274.883970827 17790805.334938049 0 17790805.334938049 -32373948.618095398 0 0 0 0 -18610418.627402581 2967700.0214252472 0 2967700.0214252472 20464683.959121704 0 0 0 0 -7428623.4978118837 10025711.64938736 0 10025711.64938736 47889906.857273102 0 0 0 0 -11148858.73886615 -5919552.8151321411 0 -5919552.8151321411 16183964.329612732 0 0 0 0 -5352465.6107345745 1217319.2722644806 0 1217319.2722644806 18422828.171424866 0 0 0 0 -14787658.288142622 -1810818.8450126648 0 -1810818.8450126648 11558377.663238525 0 0 0 0 3091448.0626761317 -115634.93361663818 0 -115634.93361663818 3530427.7889328003 0 0 0 0 -439269.29439544585 -19949.034602247179 0 -19949.034602247179 238053.43784260005 0 0 0 0 -2528627.4608662277 -164121.63988113403 0 -164121.63988113403 16445556.987937927 0 0 0 0 -611632.61535067263 405380.82676924765 0 405380.82676924765 1746895.4037033468 0 0 0 0 -6338258.7762618065 -15581921.160446167 0 -15581921.160446167 -18695983.676681519 0 0 0 0 -2108504.5792648792 5876989.4168872833 0 5876989.4168872833 11108005.055885315 0 0 0 0 15683230.86976701 24321042.885585785 0 24321042.885585785 104396561.41897583 0 0 0 0 2440268.9900722504 1076055.1287841797 0 1076055.1287841797 6392774.6914672852 0 0 0 0 1635256.7938317847 1273595.6215091795 0 1273595.6215091795 1727141.1111041121 0 0 0 0 -4820827.4630435705 19969853.207324982 0 19969853.207324982 136735533.37997437 0 0 0 0 -14977484.269060373 -5181250.3487854004 0 -5181250.3487854004 -14895243.260070801 0 0 0 0 -957063.81093054847 -1615221.2120061219 0 -1615221.2120061219 3184563.2977509871 0 0 0 0 -3915.7652660608292 -63354.013916015625 0 -63354.013916015625 1218331.2481079102 0 0 0 0 -733720.63988921419 -505537.68809295446 0 -505537.68809295446 2362519.1362569481 0 0 0 0 -4027458.4672527313 -21776903.119720459 0 -21776903.119720459 -19255506.821060181 0 0 0 0 -13622190.57489866 -13100003.826797485 0 -13100003.826797485 -22079248.846679688 0 0 0 0 -6875153.2210898399 -12358471.445144653 0 -12358471.445144653 -23880067.909698486 0 0 0 0 -6501610.5410480499 -21017717.283218384 0 -21017717.283218384 -19475711.607940674 0 0 0 0 -12504928.723826647 -10114617.441314697 0 -10114617.441314697 -23334888.518432617 0 0 0 0 -1788478.2457499295 -2580422.8272435889 0 -2580422.8272435889 3464345.056447342 0 0 0 0 -11204533.299473524 -13430008.622909546 0 -13430008.622909546 -23188347.780975342 0 0 0 0 -5128693.404381752 -17618895.306365967 0 -17618895.306365967 -18970595.135204315 0 0 0 0 -2807441.5686532855 -19199369.521026611 0 -19199369.521026611 -21223545.298019409 0 0 0 0 -6818042.4785461426 -20765546.134132385 0 -20765546.134132385 -14439648.639465332 0 0 0 0 2808655.2017834187 -21762305.439346313 0 -21762305.439346313 -20248894.026016235 0 0 0 0 6478421.3010792732 2733534.6627960205 0 2733534.6627960205 -55162239.49792099 0 0 0 0 1896178.5485547781 -24198798.041488647 0 -24198798.041488647 -17677217.50112915 0 0 0 0 12817390.420317531 -9344012.2721710205 0 -9344012.2721710205 -56315070.410545349 0 0 0 0 -2090814.3129836505 -1563927.9542666003 0 -1563927.9542666003 1463891.8309718743 0 0 0 0 -1320517.3197087049 -11297975.993133545 0 -11297975.993133545 -31674427.615844727 0 0 0 0 9563464.7175514996 -17424140.037345886 0 -17424140.037345886 -37377161.028808594 0 0 0 0 791163.00091028214 -4169798.6155395508 0 -4169798.6155395508 -40360352.156692505 0 0 0 0 -17143068.89956069 -603576.22831726074 0 -603576.22831726074 -24131047.536132812 0 0 0 0 -4348765.6553099155 -7520762.6157836914 0 -7520762.6157836914 -30000112.940078735 0 0 0 0 -8996330.9152507782 -1396063.3340606689 0 -1396063.3340606689 -36213918.74307251 0 0 0 0 -15055898.830272436 4339410.3542022705 0 4339410.3542022705 -32042758.2837677 0 0 0 0 1794001.4649404287 -10649928.715025902 0 -10649928.715025902 -32214325.3125 0 0 0 0 4299606.4060434848 -22075452.739967346 0 -22075452.739967346 -43750539.456352234 0 0 0 0 4092499.5101740956 -12088908.405952454 0 -12088908.405952454 -28363590.247177124 0 0 0 0 2972160.0314839184 -13030947.20222187 0 -13030947.20222187 4432738.9824295044 0 0 0 0 3730288.1250408888 9452781.6729125977 0 9452781.6729125977 5460299.7289009094 0 0 0 0 -4242826.2472310066 8195036.1644973755 0 8195036.1644973755 5923157.0510673523 0 0 0 0 5876592.3590267897 717134.42152404785 0 717134.42152404785 -3837618.5681228638 0 0 0 0 2682596.651369133 -1318621.7590235919 0 -1318621.7590235919 1115116.9158305004 0 0 0 0 -486001.31768208742 598703.61106872559 0 598703.61106872559 1111398.8152313232 0 0 0 0 1054192.4522892777 -693004.27239899337 0 -693004.27239899337 3771440.9410695694 0 0 0 0 553185.21625783108 163253.9707654044 0 163253.9707654044 441356.32341253757 0 0 0 0 4904845.884370327 -2467736.8215255737 0 -2467736.8215255737 88539716.556716919 0 0 0 0 -10500057.847619951 44086405.389232635 0 44086405.389232635 196231255.75236511 0 0 0 0 17532808.712722898 57602566.770378113 0 57602566.770378113 109950767.30039597 0 0 0 0 13946378.730168223 63942230.376084328 0 63942230.376084328 196135731.96068573 0 0 0 0 25002293.986430049 46102968.620796204 0 46102968.620796204 189200186.52121735 0 0 0 0 51102.892112104222 -30269.068030565977 0 -30269.068030565977 264456.59869547188 0 0 0 0 15907875.262886226 45427455.288841248 0 45427455.288841248 193308952.95892334 0 0 0 0 31380028.920292675 50465021.768877029 0 50465021.768877029 189173356.62683105 0 0 0 0 23084760.142507315 50812254.613548279 0 50812254.613548279 194239944.28019381 0 0 0 0 -2520540.0758802891 51958992.223381042 0 51958992.223381042 195427961.29140472 0 0 0 0 557335.82132777572 63646628.745288849 0 63646628.745288849 226216614.00141907 0 0 0 0 -20370545.22806491 49446167.740942001 0 49446167.740942001 212798078.68519592 0 0 0 0 -17659482.008486032 62692453.154743195 0 62692453.154743195 253503261.31476712 0 0 0 0 -24845801.412340224 59094153.788406372 0 59094153.788406372 291873471.17221069 0 0 0 0 -20851890.336595148 75738745.698049545 0 75738745.698049545 261906813.90803528 0 0 0 0 -7743519.9189691544 -4116728.506986618 0 -4116728.506986618 208053689.15640259 0 0 0 0 3840914.4344416857 -2508696.4174499512 0 -2508696.4174499512 130932396.05989075 0 0 0 0 -9066314.7356150746 27753263.571746826 0 27753263.571746826 221899724.82809448 0 0 0 0 -2061459.5986129045 32287601.289115906 0 32287601.289115906 135614522.98855543 0 0 0 0 -66549754.316564798 15879800.466371864 0 15879800.466371864 -178055527.96628296 0 0 0 0 -150234326.66417885 48317951.346689939 0 48317951.346689939 288399200.88990092 0 0 0 0 769525.11068450799 -2101222.7019167719 0 -2101222.7019167719 2610971.0237083407 0 0 0 0 -210753604.63043022 14205608.929907441 0 14205608.929907441 58942413.972180963 0 0 0 0 -155388122.33481002 -107375435.45567864 0 -107375435.45567864 38535870.432060719 0 0 0 0 -46235912.52503109 -2869757.5802736282 0 -2869757.5802736282 58181172.834706306 0 0 0 0 -62098119.859689713 -7471982.2384214401 0 -7471982.2384214401 60002466.476222992 0 0 0 0 -68835596.002805918 -70213375.279050171 0 -70213375.279050171 54229138.516575813 0 0 0 0 2830581.1298856735 -88472869.172626019 0 -88472869.172626019 40793887.13295567 0 0 0 0 21637991.775792122 -64147903.456521034 0 -64147903.456521034 49142845.130513668 0 0 0 0 -44348514.0809412 -13346804.38284111 0 -13346804.38284111 55170680.311123848 0 0 0 0 -14633749.339031219 -15379922.877593994 0 -15379922.877593994 49996088.123877048 0 0 0 0 -51767207.360367775 25103888.034387529 0 25103888.034387529 48921465.953760147 0 0 0 0 -36274606.820230484 -4548773.6054034233 0 -4548773.6054034233 52127642.576979637 0 0 0 0 66882729.952316284 -342519606.17364639 0 -342519606.17364639 -154122499.93437836 0 0 0 0 694419233.35256577 81369891.223922253 0 81369891.223922253 -400700226.92839009 0 0 0 0 157019968.29714775 45159127.813064337 0 45159127.813064337 15161057.572328448 0 0 0 0 118730623.46749949 -55061126.546159208 0 -55061126.546159208 142442563.83356071 0 0 0 0 250912106.63238049 -32606778.534870148 0 -32606778.534870148 79089501.332468688 0 0 0 0 -627134.58790105069 1314426.1348704109 0 1314426.1348704109 3461990.4927505963 0 0 0 0 146075854.85489464 125117199.9999035 0 125117199.9999035 43977722.597507954 0 0 0 0 229576054.4013176 148836610.71248221 0 148836610.71248221 -127445551.56101108 0 0 0 0 -221894246.78757048 -352711418.44234252 0 -352711418.44234252 215289062.30385423 0 0 0 0 55771711.575546265 -5494568.1999003887 0 -5494568.1999003887 148975502.87661514 0 0 0 0 14856480.616484642 -143346426.79089022 0 -143346426.79089022 -241562612.01765227 0 0 0 0 5966567.7039261535 -4832687.7884228937 0 -4832687.7884228937 3502226.3536327328 0 0 0 0 -1262187.6957827979 -24643.543731773738 0 -24643.543731773738 1605490.7750116154 0 0 0 0 8829250.8261389732 97504918.360209227 0 97504918.360209227 32431280.763446592 0 0 0 0 83479882.619581938 -144166079.01449022 0 -144166079.01449022 33934525.815128326 0 0 0 0 4271711.631223876 -4671116.5173816783 0 -4671116.5173816783 3986373.0533011695 0 0 0 0 -128086064.70615911 -390011735.5874939 0 -390011735.5874939 -137520174.14250278 0 0 0 0 29412248.663118124 101120637.70759292 0 101120637.70759292 16871372.802331567 0 0 0 0 124426909.49608624 133849789.86755252 0 133849789.86755252 7534441.3153548241 0 0 0 0 84796665.321900249 57584465.681951106 0 57584465.681951106 50579508.157804966 0 0 0 0 172207726.11701035 130916241.59596026 0 130916241.59596026 76052610.087005794 0 0 0 0 225620820.05448532 -36362586.379055738 0 -36362586.379055738 27467894.959151387 0 0 0 0 402838146.23292851 270855402.64070177 0 270855402.64070177 -6094543.5187910199 0 0 0 0 -98829002.945578694 -59454069.646994889 0 -59454069.646994889 115076937.53098583 0 0 0 0 315577297.62856102 508173020.68804651 0 508173020.68804651 445462386.76432222 0 0 0 0 -228473674.32626975 415576832.34914047 0 415576832.34914047 -617457413.51615095 0 0 0 0 601891.17311547045 -1000266.797289049 0 -1000266.797289049 2470765.0024119187 0 0 0 0 -104709470.90809679 -4446340.7651808262 0 -4446340.7651808262 119895961.15346813 0 0 0 0 -123603223.87512684 124572876.11680841 0 124572876.11680841 810433800.61786437 0 0 0 0 -9355151.2658557892 -379044174.93949521 0 -379044174.93949521 1596422968.0936098 0 0 0 0 210373738.86411285 -375223006.71728706 0 -375223006.71728706 395251218.86149013 0 0 0 0 53107166.873835795 116554961.41392399 0 116554961.41392399 -206002414.68701029 0 0 0 0 30084473.528227329 -299175415.66276836 0 -299175415.66276836 323972933.36656094 0 0 0 0 95579583.871349573 59919107.83727181 0 59919107.83727181 -23585741.774208069 0 0 0 0 120473969.68634892 25978326.54661274 0 25978326.54661274 -62040980.867846727 0 0 0 0 141535817.94506788 71392629.525550365 0 71392629.525550365 -80391649.753792703 0 0 0 0 398948.56607368652 -1385774.7795194332 0 -1385774.7795194332 2575515.0347315259 0 0 0 0 180300442.85622382 84946155.063197851 0 84946155.063197851 -50338312.681635737 0 0 0 0 -1393576.6468032633 9941562.5525209755 0 9941562.5525209755 42804376.27440872 0 0 0 0 -78514011.177585065 -5523824.9228277802 0 -5523824.9228277802 102159565.28762555 0 0 0 0 -108026466.39141408 58059998.879507899 0 58059998.879507899 62403285.226029396 0 0 0 0 -27332289.266058207 35304360.85186255 0 35304360.85186255 82940012.462122917 0 0 0 0 5861231.2500085831 114990274.66856146 0 114990274.66856146 231621829.09132767 0 0 0 0 -15485186.161530256 19478357.480751395 0 19478357.480751395 96687629.849253654 0 0 0 0 1692889.9143393503 66160.474024001043 0 66160.474024001043 -935867.37775251595 0 0 0 0 70442048.884169787 32145001.191520989 0 32145001.191520989 -13802043.998976707 0 0 0 0 151160803.66176629 178668296.03056198 0 178668296.03056198 91340218.566490889 0 0 0 0 147359721.35713506 128832825.51327032 0 128832825.51327032 71994040.894703403 0 0 0 0 -67144404.807366371 24136813.717303753 0 24136813.717303753 56049004.158260345 0 0 0 0 257708.79113770247 12235568.147154387 0 12235568.147154387 47095867.759973727 0 0 0 0 -62199695.079705298 8180332.6602463722 0 8180332.6602463722 61896200.270347595 0 0 0 0 -50821988.751575589 4614171.1660385132 0 4614171.1660385132 66269370.284927368 0 0 0 0 -47253866.046362877 13697644.453231812 0 13697644.453231812 40804943.529426575 0 0 0 0 -762589.98989903647 13319563.849718001 0 13319563.849718001 6429890.5271449974 0 0 0 0 250159214.08099508 -253629795.96497059 0 -253629795.96497059 -190342111.46788406 0 0 0 0 -26265387.380656481 92996784.512153611 0 92996784.512153611 28988425.8260106 0 0 0 0 -7716491.4288342297 60888927.992238998 0 60888927.992238998 78879076.445400238 0 0 0 0 3855975.8871596372 12310159.156470846 0 12310159.156470846 40206452.503055811 0 0 0 0 -26556174.720481873 28286984.390161991 0 28286984.390161991 9464614.6459226608 0 0 0 0 126179761.74961138 236215225.08169937 0 236215225.08169937 106990006.27760911 0 0 0 0 -1533364.1182269626 10188863.092889693 0 10188863.092889693 15019641.383427247 0 0 0 0 -38789404.938521624 1212355.67902565 0 1212355.67902565 48552903.139472961 0 0 0 0 -42066818.777691007 -2177572.6006660461 0 -2177572.6006660461 52380809.572822571 0 0 0 0 -36875351.122588158 -3191312.8860244751 0 -3191312.8860244751 52045411.388896942 0 0 0 0 224650417.55173123 135812129.69750428 0 135812129.69750428 -3039264.3650244474 0 0 0 0 -42201850.897528172 -159903353.50191832 0 -159903353.50191832 -12527069.71046257 0 0 0 0 350662116.62663031 42597782.996357441 0 42597782.996357441 -22279958.915642738 0 0 0 0 348356999.35981321 -83227231.14118433 0 -83227231.14118433 56392155.37651825 0 0 0 0 128614546.07943287 -49207067.42346406 0 -49207067.42346406 144439749.47451782 0 0 0 0 331499651.95827794 -286674910.33820724 0 -286674910.33820724 341192594.46126175 0 0 0 0 462217236.19984174 -156737886.72678614 0 -156737886.72678614 84488168.449086189 0 0 0 0 115838010.13145857 -7233893.6580848694 0 -7233893.6580848694 32570833.443996429 0 0 0 0 299716798.61171526 77801930.467334867 0 77801930.467334867 -44261126.495182037 0 0 0 0 148965200.1958462 53484028.617298305 0 53484028.617298305 -45911922.231177568 0 0 0 0 -79197560.429490268 -76304467.063241065 0 -76304467.063241065 91595359.481648922 0 0 0 0 95172936.53091979 156708353.29946291 0 156708353.29946291 -202408725.49984366 0 0 0 0 -47693374.448249817 -107349802.74308968 0 -107349802.74308968 44639175.725887775 0 0 0 0 60534.572655913653 -707916.31901936326 0 -707916.31901936326 1418464.5626798733 0 0 0 0 118736839.38557488 -10646695.239720821 0 -10646695.239720821 30933360.995002031 0 0 0 0 -44843967.237135053 38444434.664985657 0 38444434.664985657 18831456.304998398 0 0 0 0 -13667897.382877827 -38544223.542074203 0 -38544223.542074203 -25241975.81180954 0 0 0 0 -12291246.509944916 -31205915.897604942 0 -31205915.897604942 115230580.97119904 0 0 0 0 20462138.351377763 -120480068.41351056 0 -120480068.41351056 100269167.85397243 0 0 0 0 6444694.1474808902 -57216509.577722669 0 -57216509.577722669 151178894.2413702 0 0 0 0 3872924.5589531064 -90127899.761980534 0 -90127899.761980534 301085561.59964943 0 0 0 0 -2507276.6570467376 6870003.6382704722 0 6870003.6382704722 9203039.5572222993 0 0 0 0 53159740.664522171 25794415.012347221 0 25794415.012347221 45015384.358613014 0 0 0 0 -26373386.223870277 32785262.608502626 0 32785262.608502626 45882396.476195425 0 0 0 0 108719907.81222987 25853088.873265505 0 25853088.873265505 19098895.57140255 0 0 0 0 -12916340.545689225 13693801.189341784 0 13693801.189341784 47011994.644804746 0 0 0 0 -16501038.542653441 -51974435.952974796 0 -51974435.952974796 36815697.369062424 0 0 0 0 117410737.21431586 -494693.60223054886 0 -494693.60223054886 -1746810.2667503357 0 0 0 0 172683661.51610059 -67181836.58512342 0 -67181836.58512342 -20192299.394077301 0 0 0 0 166832464.68385357 65552863.086664334 0 65552863.086664334 -25695706.795578003 0 0 0 0 127876646.610816 -94290540.25856781 0 -94290540.25856781 -30351417.952648163 0 0 0 0 369657645.74088573 -103445373.19841433 0 -103445373.19841433 -43425924.565410614 0 0 0 0 -58624046.516327381 -71328425.138476372 0 -71328425.138476372 763697584.90733719 0 0 0 0 614142014.37725854 276399109.30876684 0 276399109.30876684 22166537.912916183 0 0 0 0 -1576663.261190176 103607157.60408878 0 103607157.60408878 205663603.17124987 0 0 0 0 6654514.0721855164 -116895966.3537159 0 -116895966.3537159 36459792.557224274 0 0 0 0 158941795.34474182 -153234833.0725193 0 -153234833.0725193 -18137996.491227388 0 0 0 0 125441121.43427181 -92569595.212719917 0 -92569595.212719917 13472105.322647095 0 0 0 0 30136237.207119465 -56942459.466209412 0 -56942459.466209412 26686179.164756775 0 0 0 0 73207196.384438515 -91366543.264982224 0 -91366543.264982224 13634466.797275066 0 0 0 0 117076797.7567873 -41344520.237073898 0 -41344520.237073898 10051580.356340408 0 0 0 0 65446329.659547567 -48660146.510681033 0 -48660146.510681033 25795935.213956833 0 0 0 0 66271763.700793266 -50047585.865662575 0 -50047585.865662575 8838802.7281146049 0 0 0 0 41666539.57850945 -39364699.173275709 0 -39364699.173275709 24251411.633123398 0 0 0 0 45515871.81656599 -22389932.163811684 0 -22389932.163811684 23829784.295988083 0 0 0 0 61417930.759409025 -24090480.601880074 0 -24090480.601880074 16132330.003919601 0 0 0 0 98912395.160349444 -8914356.7698712349 0 -8914356.7698712349 21437701.089147568 0 0 0 0 75791182.319068015 16808261.328260303 0 16808261.328260303 34997164.405280113 0 0 0 0 28884676.614927828 1590349.9789743423 0 1590349.9789743423 30086985.973861217 0 0 0 0 4426338.5598502951 5778806.4103631256 0 5778806.4103631256 15663959.566170814 0 0 0 0 7351110.7477843761 -1536392.9100980759 0 -1536392.9100980759 10151005.871902466 0 0 0 0 40426258.091262937 -24617946.495197296 0 -24617946.495197296 23986211.066057205 0 0 0 0 27541136.894589901 -13514057.018382072 0 -13514057.018382072 14857788.789815903 0 0 0 0 7309241.0186052322 -43711306.425720215 0 -43711306.425720215 31729356.117282748 0 0 0 0 671983.00082026282 274323.11795893684 0 274323.11795893684 2655558.7624287903 0 0 0 0 -23264509.220123291 -13997692.559837341 0 -13997692.559837341 30606335.017990112 0 0 0 0 -64079395.953185916 -29065632.969356537 0 -29065632.969356537 51375159.303181648 0 0 0 0 7655639.273147583 -3447319.5907621384 0 -3447319.5907621384 13008165.274394989 0 0 0 0 -142002.95508269174 -2641794.430343031 0 -2641794.430343031 30690956.318229221 0 0 0 0 81759587.860964596 308110330.10753918 0 308110330.10753918 142151284.37540436 0 0 0 0 62177906.1661129 -125082752.39701843 0 -125082752.39701843 121095841.48774719 0 0 0 0 348803070.35478115 -380565301.74271393 0 -380565301.74271393 -55581264.823753357 0 0 0 0 333330251.47729588 40949476.758651733 0 40949476.758651733 28026758.976760864 0 0 0 0 47925384.352061272 142744746.80941772 0 142744746.80941772 255005433.68418884 0 0 0 0 -43323567.578188896 21873333.602752686 0 21873333.602752686 310199630.58118629 0 0 0 0 -17235430.144855499 -25986797.131317139 0 -25986797.131317139 10948851.453674316 0 0 0 0 -23665253.455579758 -326074963.21538544 0 -326074963.21538544 7618631.4834136963 0 0 0 0 2230505.4805765152 -30511315.256554604 0 -30511315.256554604 -15243680.357189178 0 0 0 0 1474556.7732793665 -10437633.821827181 0 -10437633.821827181 23035530.171079904 0 0 0 0 -28848116.267195225 -69228984.543937683 0 -69228984.543937683 -87819913.909667969 0 0 0 0 -964595.6071562944 -416540.65479180589 0 -416540.65479180589 1728557.1677146107 0 0 0 0 -96669043.447072268 94907158.876062393 0 94907158.876062393 -56076442.274200439 0 0 0 0 12515431.608751535 53817765.174407959 0 53817765.174407959 -46042721.987350464 0 0 0 0 -145435016.01516259 15039683.643968582 0 15039683.643968582 12457906.288375854 0 0 0 0 -71672378.731997013 -29985860.732448578 0 -29985860.732448578 20318029.847671509 0 0 0 0 25001052.761746407 -14535987.089862823 0 -14535987.089862823 -18452933.283921719 0 0 0 0 8813263.3208785057 -7271929.3480141163 0 -7271929.3480141163 9692447.5489006042 0 0 0 0 14971217.187848568 -4901594.2656745911 0 -4901594.2656745911 -4761571.9095573425 0 0 0 0 20667945.558999062 21928298.222698212 0 21928298.222698212 37634215.682229996 0 0 0 0 19575661.410923481 8342041.7410373688 0 8342041.7410373688 14664346.186616898 0 0 0 0 33223234.077798426 13608759.306471825 0 13608759.306471825 3041418.9028015137 0 0 0 0 28123809.708271831 -10255505.50609827 0 -10255505.50609827 -27180214.549251556 0 0 0 0 44327439.913394094 -33102456.595903397 0 -33102456.595903397 -30308752.067939758 0 0 0 0 79331366.957978725 34668005.928894043 0 34668005.928894043 -6802038.2676963806 0 0 0 0 -1599101.3801145554 -20554736.247083664 0 -20554736.247083664 4074117.9110298157 0 0 0 0 8743444.0944757462 -51205878.721506119 0 -51205878.721506119 -104057610.16796875 0 0 0 0 -20985032.343658447 -23192833.567893982 0 -23192833.567893982 -22107793.453536987 0 0 0 0 -28057376.792607307 -74933247.023410797 0 -74933247.023410797 -74312132.347549438 0 0 0 0 -57785621.070676446 -118903301.57197762 0 -118903301.57197762 -107597745.11012268 0 0 0 0 3345875.6458469303 -1656542.6874716114 0 -1656542.6874716114 -4482983.8934345618 0 0 0 0 4867084.2357805176 6086377.8420840893 0 6086377.8420840893 8874450.2369668372 0 0 0 0 11923629.724953413 -3836780.2214336395 0 -3836780.2214336395 23687336.152404785 0 0 0 0 18279809.039952755 2336577.9876308441 0 2336577.9876308441 9439080.171946764 0 0 0 0 12241918.107872248 7204300.2050976753 0 7204300.2050976753 12905401.840400696 0 0 0 0 643553.11069135554 50244.526765543967 0 50244.526765543967 4156129.5363514088 0 0 0 0 17830163.091430664 13282706.699953079 0 13282706.699953079 16213755.187036514 0 0 0 0 44879729.977337837 -45912138.87729454 0 -45912138.87729454 55205210.248569489 0 0 0 0 3615946.6303152074 4631533.2755191606 0 4631533.2755191606 5201395.5278828964 0 0 0 0 6410448.1109991074 89854290.451944351 0 89854290.451944351 100264992.07676411 0 0 0 0 38616771.484026909 158045242.58348083 0 158045242.58348083 230751587.70693302 0 0 0 0 -1146898.978382146 -233249.81013219804 0 -233249.81013219804 6243390.0326418467 0 0 0 0 15578287.331679344 -55767157.125709534 0 -55767157.125709534 -2167299.7251386642 0 0 0 0 560358580.32767868 188253510.74927711 0 188253510.74927711 235265916.28172874 0 0 0 0 489599637.79507828 284172347.61885452 0 284172347.61885452 119673821.3922224 0 0 0 0 -904787.16784516349 2651603.8264767164 0 2651603.8264767164 3204029.5373865217 0 0 0 0 91343203.562997818 -30815674.35777688 0 -30815674.35777688 66495909.862766266 0 0 0 0 76856607.794531822 -56307183.865154743 0 -56307183.865154743 126424780.2330761 0 0 0 0 -1098261.8029909479 -928916.07824646588 0 -928916.07824646588 2414377.499041846 0 0 0 0 7240028.4865856171 -46003885.959132195 0 -46003885.959132195 136727088.20928955 0 0 0 0 7131059.426448822 -13493318.645956993 0 -13493318.645956993 29781370.830255508 0 0 0 0 14469199.864483595 -10382621.001560688 0 -10382621.001560688 28854225.577445984 0 0 0 0 21789771.236200333 -28899203.138955832 0 -28899203.138955832 44568318.20031929 0 0 0 0 32653161.580365181 -39599013.691615105 0 -39599013.691615105 31476932.656806946 0 0 0 0 38321068.809637547 -29260439.251164436 0 -29260439.251164436 20247237.437454224 0 0 0 0 91995882.066005707 -83251114.529279709 0 -83251114.529279709 21948230.282482147 0 0 0 0 112001338.04864168 -36708605.77964735 0 -36708605.77964735 -34453806.94282341 0 0 0 0 59699017.109099388 18261183.383888483 0 18261183.383888483 -48260597.811820984 0 0 0 0 45108495.856118202 -30559169.632691383 0 -30559169.632691383 10931887.218345165 0 0 0 0 -6268887.1802873611 20339949.455299377 0 20339949.455299377 49407237.760603786 0 0 0 0 -457810.41057109833 32497285.448382378 0 32497285.448382378 21473011.810566902 0 0 0 0 -8332252.949200511 -12747819.475956947 0 -12747819.475956947 42615461.469076157 0 0 0 0 28458882.155651093 -39761009.578886986 0 -39761009.578886986 28271484.278087616 0 0 0 0 28429920.445400238 -38566128.173805237 0 -38566128.173805237 37775378.518676758 0 0 0 0 -24449333.245507479 -38712488.0236485 0 -38712488.0236485 43602901.432325363 0 0 0 0 4480163.9823789597 -14783440.823626995 0 -14783440.823626995 21808437.556175232 0 0 0 0 502893662.07990789 489040404.49793887 0 489040404.49793887 429460732.04764032 0 0 0 0 97356841.902619362 -129967861.47040188 0 -129967861.47040188 760248747.17411089 0 0 0 0 -382136368.63442516 154608402.4055655 0 154608402.4055655 950601125.35603809 0 0 0 0 -1309280.8292383766 2716053.7974495161 0 2716053.7974495161 6173265.5316794151 0 0 0 0 328996658.72708321 313645809.31051302 0 313645809.31051302 -100323630.82613659 0 0 0 0 3746972.6909648031 2949267.8258791827 0 2949267.8258791827 2239964.2527407603 0 0 0 0 324186074.95026815 241475251.39863354 0 241475251.39863354 -201698690.39930058 0 0 0 0 -192533202.42528534 122029529.06577015 0 122029529.06577015 109496880.71370363 0 0 0 0 267550465.66384915 136668874.28091094 0 136668874.28091094 -231860592.03207684 0 0 0 0 469532367.31436515 401674519.7064569 0 401674519.7064569 51073251.267360687 0 0 0 0 265249310.58071327 206806462.74107075 0 206806462.74107075 -124120146.50460744 0 0 0 0 71371043.045758247 169702345.06556797 0 169702345.06556797 302655082.70531082 0 0 0 0 140955591.71046829 103121609.28156662 0 103121609.28156662 321827232.34947777 0 0 0 0 38157124.467412949 55912852.612698555 0 55912852.612698555 53672218.352706909 0 0 0 0 -103753801.86590958 104739894.679456 0 104739894.679456 197895021.05545616 0 0 0 0 65294150.710730553 -94660343.656467557 0 -94660343.656467557 143363408.75041533 0 0 0 0 -91621871.734111786 97866924.049993515 0 97866924.049993515 -57508397.738424301 0 0 0 0 10079156.812078066 7770145.6035521664 0 7770145.6035521664 6428933.5018923748 0 0 0 0 -215327751.18717766 280275727.18980455 0 280275727.18980455 -31941602.116535842 0 0 0 0 1760173.7696974576 3242027.6835557595 0 3242027.6835557595 34140690.101705164 0 0 0 0 -7384160.1860275269 -71716222.881219864 0 -71716222.881219864 77110019.114123881 0 0 0 0 -82568501.49474287 -110634045.75597763 0 -110634045.75597763 10815463.930278778 0 0 0 0 -207509061.25122595 -96229378.510551453 0 -96229378.510551453 35089167.662002563 0 0 0 0 -9197455.0589469932 -15350588.530549083 0 -15350588.530549083 86365281.780756846 0 0 0 0 -55319863.619587898 -63268694.019740641 0 -63268694.019740641 108999294.380445 0 0 0 0 -7015907.7338180542 -23857433.169561982 0 -23857433.169561982 86605619.908146605 0 0 0 0 -71536615.737125397 -8992326.6958822012 0 -8992326.6958822012 140197287.46220601 0 0 0 0 -87963596.955783844 24645270.734160125 0 24645270.734160125 111811224.69346401 0 0 0 0 -60353606.676463127 43436178.323843092 0 43436178.323843092 64020687.928419113 0 0 0 0 -5204417.016824089 -2141781.558885199 0 -2141781.558885199 23053433.250902716 0 0 0 0 -51620134.301503181 -50020142.579385459 0 -50020142.579385459 210622096.90073454 0 0 0 0 -6891821.3624782562 53611232.045126058 0 53611232.045126058 128424402.78736973 0 0 0 0 -7194949.5203132629 64747183.052907556 0 64747183.052907556 376562567.05192852 0 0 0 0 37327702.933582306 -26335426.343468726 0 -26335426.343468726 140259099.08863747 0 0 0 0 95937818.448449135 -99956907.20161891 0 -99956907.20161891 227426005.24211407 0 0 0 0 -13839514.017685175 9073120.1130561829 0 9073120.1130561829 27992268.465748787 0 0 0 0 -1515346.9889423067 -8098207.9264858514 0 -8098207.9264858514 -5079353.0030999407 0 0 0 0 122544850.36590624 -29940718.306259155 0 -29940718.306259155 -19696883.231430054 0 0 0 0 -8160245.8000339866 -86397041.620080948 0 -86397041.620080948 202621688.24154663 0 0 0 0 -1283.4145102500916 -41430308.764507294 0 -41430308.764507294 144092974.31552124 0 0 0 0 54267736.372935802 -149886562.67257643 0 -149886562.67257643 233069037.13220215 0 0 0 0 -13463158.560211658 -74220785.583473206 0 -74220785.583473206 313716045.53716278 0 0 0 0 -26733377.540359497 -87706015.35414505 0 -87706015.35414505 353526495.2966156 0 0 0 0 -24349811.456181049 -42141957.62815094 0 -42141957.62815094 223903833.44686127 0 0 0 0 5372938.1069772243 -17686425.917812347 0 -17686425.917812347 200794225.32933807 0 0 0 0 -33662010.101526022 -46977554.400260925 0 -46977554.400260925 274177184.55563354 0 0 0 0 20190635.413510323 -76714932.179897308 0 -76714932.179897308 83523188.010704041 0 0 0 0 24074210.254907131 -54042119.687004089 0 -54042119.687004089 70533158.614961624 0 0 0 0 -1733980.0455605546 -11704534.362240959 0 -11704534.362240959 -6643454.0463860929 0 0 0 0 23350598.378759384 -59977532.467468262 0 -59977532.467468262 57760353.338172913 0 0 0 0 -14282581.868067265 -33286711.571155548 0 -33286711.571155548 102799043.43695068 0 0 0 0 4713011.48860199 -34592926.487215042 0 -34592926.487215042 98512121.170379639 0 0 0 0 6846646.2788615227 56731612.9765625 0 56731612.9765625 227482011.33351135 0 0 0 0 -4549276.4206798077 7888564.5581474304 0 7888564.5581474304 57638625.888462067 0 0 0 0 -58314656.614013195 -26739043.954238892 0 -26739043.954238892 105952751.93129349 0 0 0 0 -15018828.576539755 -41301213.3394835 0 -41301213.3394835 43542912.226646423 0 0 0 0 -39877546.358301163 7153778.5647617877 0 7153778.5647617877 79170012.274232984 0 0 0 0 -11809256.024736295 -18109360.023922622 0 -18109360.023922622 80603948.203643322 0 0 0 0 -47058465.959514141 -91292977.370845795 0 -91292977.370845795 43534148.544428229 0 0 0 0 -28786223.259792328 -60051113.443532482 0 -60051113.443532482 51839193.080138326 0 0 0 0 -18938941.402820587 -31992070.931782931 0 -31992070.931782931 115076039.29498556 0 0 0 0 -8928034.6281958055 -11165267.817100428 0 -11165267.817100428 57984826.30947578 0 0 0 0 47752371.694886208 8507677.051448822 0 8507677.051448822 40615792.633501053 0 0 0 0 11578419.318214893 -30386521.634933472 0 -30386521.634933472 78686384.980941772 0 0 0 0 -12758675.092678472 -13777965.253669225 0 -13777965.253669225 21854750.924755424 0 0 0 0 -25726525.435461998 -55975218.730136871 0 -55975218.730136871 68373436.086860657 0 0 0 0 10183641.94799757 -20290405.937320709 0 -20290405.937320709 39491683.054924011 0 0 0 0 -12160545.915331364 -42071250.174098969 0 -42071250.174098969 79552466.960666656 0 0 0 0 -40029962.673498154 -28588362.880008698 0 -28588362.880008698 61513812.782253265 0 0 0 0 -26709231.641419649 33301560.732940674 0 33301560.732940674 20390509.590141296 0 0 0 0 183711.99228674406 2887587.3243773496 0 2887587.3243773496 13510002.179382578 0 0 0 0 -73832310.593466341 22120768.037353516 0 22120768.037353516 15518981.457519531 0 0 0 0 -42515881.565756738 22259136.22291863 0 22259136.22291863 12676888.500968933 0 0 0 0 -73673564.936740637 19770637.951339722 0 19770637.951339722 -4814763.9763793945 0 0 0 0 -29465252.499903917 -20459256.017528534 0 -20459256.017528534 42808664.772842407 0 0 0 0 7007085.6621705294 -17619001.970779419 0 -17619001.970779419 27593863.17338562 0 0 0 0 -48030615.95851028 3994624.8530979156 0 3994624.8530979156 45625629.837768555 0 0 0 0 25122638.982354641 46420407.604263306 0 46420407.604263306 26133254.695281982 0 0 0 0 -108499735.96262836 178005186.85396576 0 178005186.85396576 125998360.57462215 0 0 0 0 -65045640.235355139 27339342.522122383 0 27339342.522122383 36388591.218414307 0 0 0 0 -3440044.2540508346 -7068130.174241554 0 -7068130.174241554 4498166.1638989151 0 0 0 0 61531073.245495319 -56642757.11566925 0 -56642757.11566925 140555.5061340332 0 0 0 0 -111055658.04116058 -188843994.16822815 0 -188843994.16822815 42477145.580698967 0 0 0 0 -503236.47986532911 -2607766.3839477077 0 -2607766.3839477077 37307854.057272643 0 0 0 0 -23368853.653947353 1551291.2684822083 0 1551291.2684822083 9962677.8068847656 0 0 0 0 -1378425.4539709503 -620964.21772985905 0 -620964.21772985905 21378354.658578113 0 0 0 0 -23620752.429040909 1619170.1790161133 0 1619170.1790161133 13318336.047180176 0 0 0 0 -1602059.6960430772 14089195.384323001 0 14089195.384323001 37832260.030295536 0 0 0 0 1693030.8381383587 -1309069.6015877351 0 -1309069.6015877351 18165557.518057272 0 0 0 0 -1567595.210607982 -7096627.762180334 0 -7096627.762180334 12134323.072122946 0 0 0 0 16701438.759132385 22319926.483947754 0 22319926.483947754 -2579885.8043212891 0 0 0 0 -654935.57128909323 3537975.0051302835 0 3537975.0051302835 4994002.4018887356 0 0 0 0 25955529.394923687 58312172.246513367 0 58312172.246513367 28914073.048706055 0 0 0 0 -26233125.949928284 33556919.312438965 0 33556919.312438965 -8317918.9130821228 0 0 0 0 -4318672.9402761459 -13254654.932126999 0 -13254654.932126999 86665217.359336853 0 0 0 0 -102755663.87614155 -45899227.968151093 0 -45899227.968151093 43490843.414024353 0 0 0 0 -17150821.865900517 -22275514.579462051 0 -22275514.579462051 85088232.876396179 0 0 0 0 -69427135.113398552 673580.24979019165 0 673580.24979019165 91270975.393053055 0 0 0 0 -10710933.277925713 -6123424.0868103318 0 -6123424.0868103318 53810180.798461117 0 0 0 0 61216038.335285187 -90633225.712181211 0 -90633225.712181211 53377110.046378493 0 0 0 0 -72348700.740461349 -98269798.581842214 0 -98269798.581842214 74981986.388026908 0 0 0 0 -15781304.142944336 22902878.863471389 0 22902878.863471389 47530487.435768843 0 0 0 0 12796779.240709305 4550797.0038878322 0 4550797.0038878322 9536696.8503597081 0 0 0 0 65265777.62309885 125221992.61408925 0 125221992.61408925 142375720.98126316 0 0 0 0 159116471.02972221 23046615.126031399 0 23046615.126031399 28470949.151164889 0 0 0 0 1868632.3790136427 517464.07358450815 0 517464.07358450815 -447244.98405509396 0 0 0 0 26091489.591487885 -7999018.8456788063 0 -7999018.8456788063 13026789.033329725 0 0 0 0 169986702.58019185 -1573452.9300197959 0 -1573452.9300197959 2040622.0356674194 0 0 0 0 21799240.701717377 60051344.601816654 0 60051344.601816654 44701250.871614456 0 0 0 0 22127581.004772186 50256937.362875938 0 50256937.362875938 43245475.391590238 0 0 0 0 -47675725.755420685 70096038.030163765 0 70096038.030163765 208492203.00932455 0 0 0 0 111010994.75017357 135841253.01090401 0 135841253.01090401 103978210.38990927 0 0 0 0 4709324.6244823933 13309465.616205215 0 13309465.616205215 41827925.833824158 0 0 0 0 -11781743.861054206 -2194838.1110858116 0 -2194838.1110858116 47650410.879581459 0 0 0 0 -90195249.641721725 -11209136.862674177 0 -11209136.862674177 114451074.35064125 0 0 0 0 10429848.722099304 50708995.915588856 0 50708995.915588856 59305835.267927647 0 0 0 0 16228816.28942585 65485262.41827625 0 65485262.41827625 73922649.218609333 0 0 0 0 -62288552.241329193 -7573.999137878418 0 -7573.999137878418 43216466.562675476 0 0 0 0 -12208253.937082347 6910331.0039230157 0 6910331.0039230157 47012535.362838462 0 0 0 0 -36412469.689405441 16424222.817646027 0 16424222.817646027 34727814.934135437 0 0 0 0 7268930.5116157532 47008333.375659466 0 47008333.375659466 61047226.242427826 0 0 0 0 -57210196.728525639 19575810.444911957 0 19575810.444911957 48961273.908592224 0 0 0 0 -60352597.753308296 8832654.6410102844 0 8832654.6410102844 110385238.83701324 0 0 0 0 -70483115.84236908 -47219921.507394791 0 -47219921.507394791 70531206.424423218 0 0 0 0 -855403.09299749613 -182271.10558743216 0 -182271.10558743216 39356659.981983751 0 0 0 0 -35908634.160208225 -48770261.867172241 0 -48770261.867172241 27210178.790220261 0 0 0 0 -2755646.5342258671 -9217046.4599079881 0 -9217046.4599079881 3785379.8049380183 0 0 0 0 42700144.069882393 102790952.6438396 0 102790952.6438396 109823486.98076308 0 0 0 0 132880139.21927071 44187405.340038769 0 44187405.340038769 79931616.372852802 0 0 0 0 24315137.844808578 72845006.579765677 0 72845006.579765677 131552911.39456986 0 0 0 0 210597799.49417925 149329756.29585949 0 149329756.29585949 155067261.85839295 0 0 0 0 -57421816.399232864 88465924.638287246 0 88465924.638287246 180054663.3312704 0 0 0 0 -54944308.802215576 59300818.949119866 0 59300818.949119866 106715803.9245621 0 0 0 0 15136729.827419281 31429246.851622522 0 31429246.851622522 100320948.04120706 0 0 0 0 -26145900.332095146 52717278.610266209 0 52717278.610266209 91335160.326408744 0 0 0 0 -53415287.328821182 58791091.283809423 0 58791091.283809423 204242446.4646951 0 0 0 0 -16457565.88614893 38024276.603689909 0 38024276.603689909 11007698.886208057 0 0 0 0 3635757.7076175213 1576753.8231286015 0 1576753.8231286015 158341.48363883607 0 0 0 0 -18834924.260025024 73065312.097073078 0 73065312.097073078 -4912067.5285358429 0 0 0 0 -7636353.1554145813 27235674.702444315 0 27235674.702444315 -41849167.686148882 0 0 0 0 39043511.263130188 80953170.297206104 0 80953170.297206104 3649059.0578377247 0 0 0 0 40945355.455224991 36816074.068965614 0 36816074.068965614 -27588142.870867491 0 0 0 0 33647520.003542185 109182533.76507381 0 109182533.76507381 63613539.607426405 0 0 0 0 66014994.784549713 52230089.428357363 0 52230089.428357363 -63246821.032321215 0 0 0 0 21178132.362616777 -10251773.130816907 0 -10251773.130816907 -110493338.35086918 0 0 0 0 5198731.9389546234 -3508889.6564779626 0 -3508889.6564779626 3670760.1214891952 0 0 0 0 14684537.173116207 5651245.6835260391 0 5651245.6835260391 15767363.747256637 0 0 0 0 2417153.9297628403 6710546.487557888 0 6710546.487557888 24418244.807602048 0 0 0 0 17377658.763763428 -935000.50347328186 0 -935000.50347328186 18880598.817872047 0 0 0 0 12763641.395617485 7673598.4178285599 0 7673598.4178285599 23684204.014039993 0 0 0 0 26544943.478496552 8912279.4930355549 0 8912279.4930355549 17192623.876483917 0 0 0 0 24987551.188098907 14295105.141389847 0 14295105.141389847 21781319.984773636 0 0 0 0 11313765.322360992 11242768.204762459 0 11242768.204762459 54559073.514537811 0 0 0 0 682806.77060654759 -360930.75808948581 0 -360930.75808948581 -42575.331214020029 0 0 0 0 16610284.464888215 32154677.102984712 0 32154677.102984712 -54946689.460554123 0 0 0 0 5378088.2750094719 1909785.0849777542 0 1909785.0849777542 1045565.6462709093 0 0 0 0 13396471.949289322 -6058353.5336833 0 -6058353.5336833 6158099.5938129425 0 0 0 0 22952722.393404007 -2124651.5348374844 0 -2124651.5348374844 5099902.929880619 0 0 0 0 17607306.040272713 1685.0695750713348 0 1685.0695750713348 -5796999.0931310654 0 0 0 0 22610125.365322113 -5629204.0994062424 0 -5629204.0994062424 -2004180.1288080215 0 0 0 0 14128755.168775558 -1072502.3610210419 0 -1072502.3610210419 3029038.1899300814 0 0 0 0 9954912.0357093811 674579.51168394089 0 674579.51168394089 4519289.6334753036 0 0 0 0 12806050.849348068 1869421.87758255 0 1869421.87758255 4498136.338215366 0 0 0 0 9962314.8041191101 -2602789.934155941 0 -2602789.934155941 2810294.8033256531 0 0 0 0 11873292.531477867 5895716.3946968056 0 5895716.3946968056 3624440.0305297961 0 0 0 0 6517604.596408844 14058220.638159752 0 14058220.638159752 15559473.681137085 0 0 0 0 41392512.806718349 -39880471.355280876 0 -39880471.355280876 46141890.390630722 0 0 0 0 21257108.351370811 23470731.519504547 0 23470731.519504547 29753938.956046104 0 0 0 0 17239612.513886645 5655010.1775432322 0 5655010.1775432322 3478317.2995673176 0 0 0 0 3411764.5247808294 2741659.933552159 0 2741659.933552159 1681717.9316426665 0 0 0 0 25225535.026561737 -30327368.416881561 0 -30327368.416881561 108488358.15945053 0 0 0 0 13627859.984684944 -17345709.177089691 0 -17345709.177089691 122073479.94376755 0 0 0 0 19491347.925526321 -3805759.6989222765 0 -3805759.6989222765 30015756.144119263 0 0 0 0 13828295.468846321 -53455988.289750099 0 -53455988.289750099 114630653.24875736 0 0 0 0 51123209.701704979 -926863.71262264252 0 -926863.71262264252 9448621.0618944168 0 0 0 0 8772301.0422075465 5796362.8139896449 0 5796362.8139896449 3048094.361632376 0 0 0 0 1939459.6181610725 1602701.8021160234 0 1602701.8021160234 1770756.627275249 0 0 0 0 32910069.262337089 55146206.239637971 0 55146206.239637971 204396866.54039764 0 0 0 0 9240501.606754506 3316737.5186149487 0 3316737.5186149487 169776.57433642074 0 0 0 0 7677467.6737737656 2372693.216146946 0 2372693.216146946 15528578.529380798 0 0 0 0 6485858.4058924913 5063165.8415334821 0 5063165.8415334821 13801879.701892376 0 0 0 0 -1751320.2393177869 3841423.2295518266 0 3841423.2295518266 2412520.2129409909 0 0 0 0 9604376.5923271179 -279173.29144096375 0 -279173.29144096375 18993758.689176559 0 0 0 0 12476718.19244051 9578660.5944504738 0 9578660.5944504738 12256493.405895233 0 0 0 0 4397509.796147773 47455.289440192282 0 47455.289440192282 6927709.3236322124 0 0 0 0 9657147.9451026917 12448946.302686691 0 12448946.302686691 16365432.819574356 0 0 0 0 19772446.711975098 4953258.0317630768 0 4953258.0317630768 15187248.02808857 0 0 0 0 15668616.591976166 9323636.392162323 0 9323636.392162323 19355914.502556801 0 0 0 0 16489037.234576225 13072362.314239979 0 13072362.314239979 14056506.031143188 0 0 0 0 6235455.1779613495 9250671.1646432877 0 9250671.1646432877 13404499.543488741 0 0 0 0 10601385.147660732 13371214.341312051 0 13371214.341312051 -3308277.8789081573 0 0 0 0 13093869.215665817 5123583.7032294273 0 5123583.7032294273 5731453.9796829224 0 0 0 0 16793196.314851761 -24337959.5955019 0 -24337959.5955019 24727152.778336644 0 0 0 0 8459520.9904156066 -4566624.048017649 0 -4566624.048017649 21921465.229327708 0 0 0 0 10824361.677721322 -12458843.444213271 0 -12458843.444213271 32473217.08429718 0 0 0 0 13775501.3087883 -16674577.653583527 0 -16674577.653583527 35254055.099104404 0 0 0 0 12232679.914914131 -23187850.358431816 0 -23187850.358431816 34260915.227397203 0 0 0 0 -2265712.7732820511 997787.6246509552 0 997787.6246509552 21897808.169715881 0 0 0 0 19486740.851810455 24623339.37892437 0 24623339.37892437 73917747.818377972 0 0 0 0 19481506.072613314 16711776.874041202 0 16711776.874041202 34361171.435974836 0 0 0 0 -19241662.602684021 -25218085.97832489 0 -25218085.97832489 11091141.693878174 0 0 0 0 4500530.5126647949 38696030.143207073 0 38696030.143207073 39027669.452539444 0 0 0 0 11797353.259325027 45021289.275696278 0 45021289.275696278 35534808.714614868 0 0 0 0 23495862.332698822 52382377.094240189 0 52382377.094240189 44587023.37652874 0 0 0 0 21822348.679513976 9146340.9416945335 0 9146340.9416945335 16666015.710558955 0 0 0 0 20698372.222313166 -17343662.680210114 0 -17343662.680210114 38303127.773012161 0 0 0 0 28561686.580753326 -9563408.8331356049 0 -9563408.8331356049 -4506862.539981842 0 0 0 0 21578533.534261514 6824342.9649238186 0 6824342.9649238186 4516910.7854316831 0 0 0 0 45779735.285364151 24649025.666356087 0 24649025.666356087 -18199042.750439167 0 0 0 0 47831706.407108784 18244906.61702919 0 18244906.61702919 7205827.5010499954 0 0 0 0 23157681.783000946 14069670.927876949 0 14069670.927876949 -4449654.2806358337 0 0 0 0 68857777.488422781 46851026.373449199 0 46851026.373449199 17768158.846495628 0 0 0 0 69796062.689615399 2493810.9550802559 0 2493810.9550802559 -821472.03802490234 0 0 0 0 15914454.543300629 6985484.8684835434 0 6985484.8684835434 -1032406.2956573963 0 0 0 0 43138862.474329948 1635528.4650788307 0 1635528.4650788307 66580343.856345177 0 0 0 0 8793108.8213356137 -27623392.2265172 0 -27623392.2265172 55489453.103937149 0 0 0 0 -10694652.791494846 14368516.475574493 0 14368516.475574493 118901138.44524288 0 0 0 0 8239088.0911359787 -4062573.0750160217 0 -4062573.0750160217 125684462.73460102 0 0 0 0 48943178.115571976 24470952.357788086 0 24470952.357788086 112175336.23442769 0 0 0 0 873731.7740778923 9154672.185833931 0 9154672.185833931 197164126.83336639 0 0 0 0 56097555.298784256 10026723.641910553 0 10026723.641910553 109221919.11921358 0 0 0 0 84688561.434383154 67817973.030780792 0 67817973.030780792 211826233.9524231 0 0 0 0 36731756.043331146 -6307626.6656265259 0 -6307626.6656265259 45832303.475646973 0 0 0 0 27690258.179531574 -32290433.120114326 0 -32290433.120114326 56201130.78250885 0 0 0 0 26005216.144309998 -20445730.090270996 0 -20445730.090270996 31217160.274308443 0 0 0 0 39588093.89043951 -20486399.678800583 0 -20486399.678800583 65497035.296731949 0 0 0 0 63800850.540386558 -28603432.305710316 0 -28603432.305710316 60252934.436145782 0 0 0 0 36538936.089591503 -27251260.393261909 0 -27251260.393261909 96699234.196256638 0 0 0 0 121660181.86203575 -9323013.1215600967 0 -9323013.1215600967 98064401.263004661 0 0 0 0 22341540.853387356 -3796106.0363817215 0 -3796106.0363817215 89985914.749983788 0 0 0 0 10013734.925538063 -27023662.401544571 0 -27023662.401544571 103116685.31975842 0 0 0 0 7781423.1666069031 -9556031.6206760406 0 -9556031.6206760406 87358394.037149429 0 0 0 0 9862317.812494278 -30244081.975898743 0 -30244081.975898743 70317264.320594788 0 0 0 0 8096208.6542093754 -33671505.797184229 0 -33671505.797184229 78694219.096912384 0 0 0 0 6008376.708814621 -32463902.048065186 0 -32463902.048065186 79529782.567703247 0 0 0 0 25172672.119815826 -40146975.290941238 0 -40146975.290941238 78253627.345272064 0 0 0 0 11694560.766090393 -24104228.074127197 0 -24104228.074127197 60610895.635837555 0 0 0 0 17022313.95371151 -28797181.043140411 0 -28797181.043140411 57149026.396625519 0 0 0 0 12076306.810355186 -18793985.130716324 0 -18793985.130716324 63556170.731689453 0 0 0 0 51352162.897548199 41855910.867026329 0 41855910.867026329 15115757.558727264 0 0 0 0 54250665.460242271 29659222.501913071 0 29659222.501913071 -22005504.710673332 0 0 0 0 57609967.014127731 40857433.592123032 0 40857433.592123032 12975265.541969299 0 0 0 0 11088652.394866467 23845157.321727037 0 23845157.321727037 107315996.15205383 0 0 0 0 16448662.489616871 -12054621.115350723 0 -12054621.115350723 78874663.514461517 0 0 0 0 28935275.497870088 -34014061.338526249 0 -34014061.338526249 178034717.31634712 0 0 0 0 73441036.6536026 106701992.57417107 0 106701992.57417107 127966359.08601284 0 0 0 0 18768808.369551897 51146592.829516411 0 51146592.829516411 21767445.246808052 0 0 0 0 47035628.430848837 34018676.176764011 0 34018676.176764011 30844547.704135895 0 0 0 0 -2001285.2973077297 -5319690.9355835915 0 -5319690.9355835915 -8269095.7119140625 0 0 0 0 56384.795554966317 101500.95679038204 0 101500.95679038204 1426142.8979929425 0 0 0 0 -23105831.938770294 -11673166.869491577 0 -11673166.869491577 14125958.539898872 0 0 0 0 76382258.240448266 36398845.790648341 0 36398845.790648341 -13583668.311714172 0 0 0 0 523167.58648608439 178230.76886854973 0 178230.76886854973 166492.15326895006 0 0 0 0 19798720.712211609 -66759502.557748795 0 -66759502.557748795 283206858.78172207 0 0 0 0 21923423.522033334 -62007022.466588974 0 -62007022.466588974 141742731.09307861 0 0 0 0 -2480874.9144195318 -6718064.3940458298 0 -6718064.3940458298 126695237.3217926 0 0 0 0 15583331.518968105 -29049980.136324883 0 -29049980.136324883 77150297.759849548 0 0 0 0 -201089.71860933304 -33711369.328105927 0 -33711369.328105927 133384601.91685295 0 0 0 0 721070.33995845588 274371.93024431542 0 274371.93024431542 371076.93679557368 0 0 0 0 -11288349.416231632 -33503059.168464184 0 -33503059.168464184 91700592.848178864 0 0 0 0 4568102.7272572517 -12445722.931474686 0 -12445722.931474686 77957290.998589993 0 0 0 0 17228066.817898154 -11285770.04450798 0 -11285770.04450798 -7027536.3996715546 0 0 0 0 13456374.195006132 -33659307.231974602 0 -33659307.231974602 12751798.61865139 0 0 0 0 -66535.637972615194 -150643.06100868806 0 -150643.06100868806 2046993.6183214709 0 0 0 0 -30069546.620773554 -12871623.115470886 0 -12871623.115470886 6036846.3433322906 0 0 0 0 44929800.344216347 54084078.177310944 0 54084078.177310944 7631655.4730968475 0 0 0 0 -57632629.161727428 10478855.20341301 0 10478855.20341301 15387829.713291883 0 0 0 0 58290991.198582888 89166915.316082954 0 89166915.316082954 48484305.471372604 0 0 0 0 147151920.68022442 -14631496.547709465 0 -14631496.547709465 15644099.503371716 0 0 0 0 107966320.36448771 52952322.110266715 0 52952322.110266715 97926184.703250885 0 0 0 0 87688361.792296886 50613839.119573593 0 50613839.119573593 105176771.88393402 0 0 0 0 83802825.065087885 72234537.160899818 0 72234537.160899818 152525414.44202423 0 0 0 0 20370180.244580507 17388607.751076698 0 17388607.751076698 186668325.67903709 0 0 0 0 69638812.878747463 15672047.89378643 0 15672047.89378643 122377917.87939835 0 0 0 0 73378194.113530159 4887286.5985431671 0 4887286.5985431671 150916593.16633034 0 0 0 0 48720479.717119932 -10354556.303868294 0 -10354556.303868294 98182665.102272034 0 0 0 0 22104200.618458748 -11231891.240907669 0 -11231891.240907669 146180465.71104431 0 0 0 0 3207633.7657170296 -33237617.240401268 0 -33237617.240401268 128715332.27259827 0 0 0 0 3062480.9275363684 -30299263.568609715 0 -30299263.568609715 112279573.44335556 0 0 0 0 1794251.0467786789 -35709799.745576859 0 -35709799.745576859 106670139.05287552 0 0 0 0 8440853.1167964935 -20564425.587071419 0 -20564425.587071419 95105714.634656906 0 0 0 0 16775150.932976723 -35765546.419290543 0 -35765546.419290543 43233978.306341171 0 0 0 0 19398660.812120438 -10350126.296679497 0 -10350126.296679497 82268112.768696785 0 0 0 0 111069436.4527359 14603117.28397274 0 14603117.28397274 54784431.781950474 0 0 0 0 19006059.895204544 -23423289.573282242 0 -23423289.573282242 92434917.476959229 0 0 0 0 196383263.17734575 36724019.03030014 0 36724019.03030014 1906300.6857509613 0 0 0 0 31371220.900251329 -34123852.233012199 0 -34123852.233012199 26036691.540967941 0 0 0 0 6735309.7160511017 22800429.323309898 0 22800429.323309898 31835238.081085443 0 0 0 0 913660.79409024259 442401.69468333572 0 442401.69468333572 171048.68784350157 0 0 0 0 2974639.8755910397 14438670.432888508 0 14438670.432888508 -18622455.970924377 0 0 0 0 54409576.221292019 6768644.5285520554 0 6768644.5285520554 -18008248.974262238 0 0 0 0 16442573.299965382 14341830.289028645 0 14341830.289028645 61651326.019634247 0 0 0 0 483417.58155182749 227414.97669421043 0 227414.97669421043 50320.40531046316 0 0 0 0 59185581.232344627 146414893.16846561 0 146414893.16846561 116746356.56579971 0 0 0 0 148429205.43493116 123168095.63844395 0 123168095.63844395 116768335.41345406 0 0 0 0 107524016.98016787 82113979.120482445 0 82113979.120482445 75595789.216658592 0 0 0 0 107995973.17587714 75085382.557994515 0 75085382.557994515 76821285.371543884 0 0 0 0 106107139.19160461 71413529.444286346 0 71413529.444286346 84163123.797415257 0 0 0 0 55947403.732318401 11841847.831884861 0 11841847.831884861 52513320.500900269 0 0 0 0 172839.36880913051 162140.31306185201 0 162140.31306185201 183868.28671234474 0 0 0 0 42279940.506874919 38042066.96202755 0 38042066.96202755 13368977.863153458 0 0 0 0 172120585.7654717 -2839715.3068118095 0 -2839715.3068118095 -74738292.013988495 0 0 0 0 179424688.33175898 -18546042.763648987 0 -18546042.763648987 -46616899.067014694 0 0 0 0 200622969.06371713 63555909.445211411 0 63555909.445211411 53682489.819916964 0 0 0 0 140208835.13214588 111674259.28541994 0 111674259.28541994 113966963.40431786 0 0 0 0 -43073354.485298872 6692720.1555595398 0 6692720.1555595398 45838845.795685768 0 0 0 0 -37652044.035443306 9530160.7332072258 0 9530160.7332072258 25946229.127290726 0 0 0 0 3669217.8001053333 -63141092.59479332 0 -63141092.59479332 89111526.353358269 0 0 0 0 -86170147.986635208 -16829043.052122116 0 -16829043.052122116 100994693.84327793 0 0 0 0 -51788233.033848763 -13368389.278803825 0 -13368389.278803825 39877632.690647125 0 0 0 0 -28835106.30546546 14694391.965581894 0 14694391.965581894 50333404.165800095 0 0 0 0 -3292550.1588821672 3464368.7430954995 0 3464368.7430954995 37329248.759969935 0 0 0 0 -71501366.227495134 54633963.389831543 0 54633963.389831543 17003582.318698883 0 0 0 0 416576.89255059999 -10845990.860448088 0 -10845990.860448088 12698571.936049761 0 0 0 0 -3043489.4616610045 6211960.0986916199 0 6211960.0986916199 11385750.949300431 0 0 0 0 -730311.63471657038 -3357070.5038866997 0 -3357070.5038866997 10857043.699696779 0 0 0 0 -111401217.51014233 54136191.292882919 0 54136191.292882919 21017196.242830276 0 0 0 0 -832228.14723353088 -2210812.2848632615 0 -2210812.2848632615 16690032.400114238 0 0 0 0 10880086.766589165 -4343377.7616581917 0 -4343377.7616581917 26653660.295196533 0 0 0 0 -142202390.31454849 -358701648.91851234 0 -358701648.91851234 -111989844.50656223 0 0 0 0 -255529345.77464819 -4047129.7990894318 0 -4047129.7990894318 39452245.664266825 0 0 0 0 -147883301.02673364 -198978446.53841448 0 -198978446.53841448 -146059303.33157349 0 0 0 0 -257614385.41665399 68796914.000989914 0 68796914.000989914 7171950.0133972168 0 0 0 0 329010605.00858593 -22474865.949975967 0 -22474865.949975967 -342383273.58960915 0 0 0 0 -80601090.643190309 -6026443.0571006536 0 -6026443.0571006536 23716811.115098953 0 0 0 0 -670319.57145214081 298172136.51035786 0 298172136.51035786 835046054.07497025 0 0 0 0 429713493.25202084 -285627205.98819828 0 -285627205.98819828 172585730.63352203 0 0 0 0 -277643009.08543015 38410339.229441643 0 38410339.229441643 177578852.86450863 0 0 0 0 -16652428.131277442 10102848.277699471 0 10102848.277699471 36325810.006656647 0 0 0 0 -2407026.6473445026 -1933068.5323072509 0 -1933068.5323072509 30994211.665572073 0 0 0 0 221454469.20117378 126434396.40115738 0 126434396.40115738 28547864.327030182 0 0 0 0 536262893.67494011 264703541.13650799 0 264703541.13650799 -100071772.67245197 0 0 0 0 3819131.5107505592 551177.9097628938 0 551177.9097628938 -152758.16279653739 0 0 0 0 119547279.36608291 264448458.60175896 0 264448458.60175896 653339606.68642616 0 0 0 0 52485815.718511581 73214190.066041946 0 73214190.066041946 162406421.35654068 0 0 0 0 -7989855.8340725899 23269146.897371292 0 23269146.897371292 32460385.98058176 0 0 0 0 -7838539.2687916756 17020094.558882713 0 17020094.558882713 3092365.4167501926 0 0 0 0 165407203.3714692 117834568.68640187 0 117834568.68640187 -8813165.4657030106 0 0 0 0 198179662.0310216 215029234.60470486 0 215029234.60470486 30208352.473772049 0 0 0 0 160424571.38272548 153594850.5302341 0 153594850.5302341 -39804384.941982269 0 0 0 0 243563601.5993228 161114512.37949371 0 161114512.37949371 -85410786.400402069 0 0 0 0 355956937.16146421 -65987848.52530241 0 -65987848.52530241 -42932820.354077816 0 0 0 0 529558691.77762318 262422298.91968179 0 262422298.91968179 -56763376.0558815 0 0 0 0 -11564922.706064939 285955608.3205862 0 285955608.3205862 130374380.67586899 0 0 0 0 237938272.6759094 143119842.36842561 0 143119842.36842561 -136154611.43159103 0 0 0 0 -17094151.432751656 -5915804.9726324081 0 -5915804.9726324081 27436596.467270851 0 0 0 0 -176860665.28818047 98758714.259728909 0 98758714.259728909 -27218160.992874146 0 0 0 0 -9692039.2347693443 -6234008.6625747681 0 -6234008.6625747681 27982794.147755623 0 0 0 0 178511.1752620746 -1937386.8704736279 0 -1937386.8704736279 23383471.065666959 0 0 0 0 -17655077.424805403 -6150336.2276091576 0 -6150336.2276091576 33351443.654527664 0 0 0 0 -18935771.553627014 -20287314.63241601 0 -20287314.63241601 20761468.852253079 0 0 0 0 -12854032.536943913 -15202205.514131546 0 -15202205.514131546 30145011.574930191 0 0 0 0 -13036791.978512764 -11959339.691290379 0 -11959339.691290379 17138080.10299778 0 0 0 0 651112401.85092449 75338333.268865585 0 75338333.268865585 -21573992.854705811 0 0 0 0 305365352.26196909 250620587.10556507 0 250620587.10556507 -101797148.04550791 0 0 0 0 185009186.54049349 102086682.87380409 0 102086682.87380409 66814852.929010391 0 0 0 0 -3731903.5698189167 1503853.9046921209 0 1503853.9046921209 4722485.144219772 0 0 0 0 198397967.55905914 213257818.52502823 0 213257818.52502823 44288425.344461441 0 0 0 0 1568099.2975600252 -1915718.2791845263 0 -1915718.2791845263 1897519.850025693 0 0 0 0 402052876.02757716 49862854.647639871 0 49862854.647639871 225115124.45337391 0 0 0 0 207953787.51992989 357373455.26164007 0 357373455.26164007 201629236.47807884 0 0 0 0 518145825.75760055 306084473.86606646 0 306084473.86606646 30729922.386775494 0 0 0 0 7833314.9060517848 331336.89224869013 0 331336.89224869013 190542465.91180086 0 0 0 0 3482935.6921203304 -7232438.2311045453 0 -7232438.2311045453 13841336.36145249 0 0 0 0 364148649.20818442 170681727.52776903 0 170681727.52776903 147887781.24688292 0 0 0 0 -443603.22353974194 -569596.76483086566 0 -569596.76483086566 2062566.1366685841 0 0 0 0 -2014998.7779004574 106009107.08813608 0 106009107.08813608 254713472.97345209 0 0 0 0 101473751.73387802 140933782.33989573 0 140933782.33989573 232804834.68815231 0 0 0 0 233451177.70425814 -211820931.19147229 0 -211820931.19147229 22422207.243157387 0 0 0 0 24753913.872821331 309878984.27227974 0 309878984.27227974 56904045.374507964 0 0 0 0 -10361749.802786469 -31260469.698671788 0 -31260469.698671788 20862519.823140621 0 0 0 0 3820296.9785380363 22499305.877854347 0 22499305.877854347 36737602.070309043 0 0 0 0 -11158.367050647736 11243399.425547481 0 11243399.425547481 18356323.946452141 0 0 0 0 -102875031.89674711 -107483287.56053448 0 -107483287.56053448 123020409.48726559 0 0 0 0 116320668.87360096 75775365.025956154 0 75775365.025956154 -29421294.109929323 0 0 0 0 -2709224.5184377353 583181.09605646506 0 583181.09605646506 2403944.1175720198 0 0 0 0 20985895.992033005 121507216.28347921 0 121507216.28347921 111836731.46210289 0 0 0 0 -8305066.428999424 -22672582.068766117 0 -22672582.068766117 42146077.932152271 0 0 0 0 -9696196.3570656776 -27301348.87432909 0 -27301348.87432909 48409887.386859894 0 0 0 0 -11461092.216494083 -14513807.889265299 0 -14513807.889265299 44516441.36197567 0 0 0 0 -27896686.5186432 -9270438.4360399246 0 -9270438.4360399246 40048595.502915382 0 0 0 0 -31245713.919895604 -14091919.532999277 0 -14091919.532999277 49494358.059156418 0 0 0 0 -25539794.814035535 -20022726.125230789 0 -20022726.125230789 49732265.567662239 0 0 0 0 -38126633.710358083 -2433621.6646430492 0 -2433621.6646430492 34360294.077904224 0 0 0 0 -45448441.986411572 -5441860.4768061638 0 -5441860.4768061638 50970328.381063938 0 0 0 0 -43506030.634204626 -5687682.9102429152 0 -5687682.9102429152 65539335.630504608 0 0 0 0 -29014550.246069431 -18391031.096235275 0 -18391031.096235275 69479837.052282691 0 0 0 0 -23890439.002693653 -16198647.992555141 0 -16198647.992555141 47346804.302740574 0 0 0 0 -22995668.990906745 -23650610.224466801 0 -23650610.224466801 69965891.056663513 0 0 0 0 -31653473.95172739 -3468467.1487088203 0 -3468467.1487088203 110081344.66827559 0 0 0 0 -19703316.829636812 -8267253.3990020752 0 -8267253.3990020752 68891800.172263145 0 0 0 0 -66136954.228070021 -49383484.316108704 0 -49383484.316108704 109215020.20046663 0 0 0 0 16494450.664439201 -71459309.430883408 0 -71459309.430883408 78608119.633352041 0 0 0 0 2567159.8595929472 -4079675.6936712093 0 -4079675.6936712093 7223848.6238128962 0 0 0 0 37906954.321147203 -43545147.191716909 0 -43545147.191716909 5718488.1169462204 0 0 0 0 97994636.645956635 247855467.35812163 0 247855467.35812163 281465977.1546402 0 0 0 0 -30422899.906807959 212130629.27681482 0 212130629.27681482 303187938.21201766 0 0 0 0 2204516.4200105667 -6809167.6663656235 0 -6809167.6663656235 7006903.6439304352 0 0 0 0 -20221457.402497113 -10915751.167553842 0 -10915751.167553842 25794281.329323769 0 0 0 0 15479483.413144588 -28856803.970387936 0 -28856803.970387936 35687597.053166389 0 0 0 0 -9649939.3764466308 -36351092.807591647 0 -36351092.807591647 34097851.21547699 0 0 0 0 17502897.298385322 -19456982.876964509 0 -19456982.876964509 16415143.932302475 0 0 0 0 1198301.7835128307 -19039400.613291264 0 -19039400.613291264 34442178.467098236 0 0 0 0 10631615.723357439 -16169583.212231636 0 -16169583.212231636 33260268.091751099 0 0 0 0 -5219067.1091275215 -11641745.705467224 0 -11641745.705467224 34465202.066607952 0 0 0 0 -5163567.1416597366 -9608746.2440242767 0 -9608746.2440242767 22684351.877724171 0 0 0 0 6133951.8869681358 -11230581.886985302 0 -11230581.886985302 31626229.746711254 0 0 0 0 -9641457.435397625 -2700923.8214793205 0 -2700923.8214793205 49760611.593964577 0 0 0 0 13476779.860560656 -14513232.118774891 0 -14513232.118774891 58764320.013286114 0 0 0 0 4655935.9499977827 -7888981.2682201862 0 -7888981.2682201862 54157917.152597427 0 0 0 0 33957591.443625212 15478089.170764446 0 15478089.170764446 61166619.141674757 0 0 0 0 -30977670.935766935 -18993470.800411701 0 -18993470.800411701 47555278.3231287 0 0 0 0 -10675895.669150114 80694.04866361618 0 80694.04866361618 58743966.601994514 0 0 0 0 -24157701.459286571 -12904140.027010441 0 -12904140.027010441 49642633.362935066 0 0 0 0 -22235405.692218348 -14769048.542018741 0 -14769048.542018741 40909547.214529991 0 0 0 0 -22582733.262756646 -19041683.823969841 0 -19041683.823969841 43389412.402121544 0 0 0 0 -25464781.673182964 -18859772.915640831 0 -18859772.915640831 44308455.040731907 0 0 0 0 -28445901.524788141 -25291616.977543831 0 -25291616.977543831 39453345.156890869 0 0 0 0 -71295408.509788036 31210750.691583157 0 31210750.691583157 205842113.21205902 0 0 0 0 589438.72909108305 639448.53461916 0 639448.53461916 -298433.37023002561 0 0 0 0 -298974.78603629075 1015079.2885353495 0 1015079.2885353495 1647275.4987203688 0 0 0 0 6373793.4152076244 -29212796.66740036 0 -29212796.66740036 118779434.87202358 0 0 0 0 -14545467.380921125 -21845079.592180729 0 -21845079.592180729 27482598.611888885 0 0 0 0 -30254764.93993111 -73336718.271617204 0 -73336718.271617204 -57154816.833212852 0 0 0 0 -34242838.382603571 -40973078.267630041 0 -40973078.267630041 35012281.467092514 0 0 0 0 -4317115.5087969899 -26759267.509361506 0 -26759267.509361506 -50608336.506119728 0 0 0 0 -24002153.600453615 -18819664.816976547 0 -18819664.816976547 5120201.0745925903 0 0 0 0 -9253024.6635609865 -20727621.395235062 0 -20727621.395235062 -24324195.680611134 0 0 0 0 -17148277.503595114 -11124972.510281086 0 -11124972.510281086 -17234879.265140533 0 0 0 0 -12369630.876217365 -9261791.8984270096 0 -9261791.8984270096 -28066354.850315094 0 0 0 0 -18330062.831588566 -14904766.779494286 0 -14904766.779494286 -8299620.8789405823 0 0 0 0 -117474264.69235086 -33580064.177476883 0 -33580064.177476883 245250153.35044861 0 0 0 0 -107386.62491698284 601052.61625044979 0 601052.61625044979 625319.10200784449 0 0 0 0 54095430.139724851 -63415926.414735317 0 -63415926.414735317 60661925.68793869 0 0 0 0 -12842861.943067074 -16687673.70524025 0 -16687673.70524025 -7801354.8034257889 0 0 0 0 -19727501.490824819 -15121104.830561638 0 -15121104.830561638 -5270503.3643531799 0 0 0 0 9617499.0580949783 -300952.98044776917 0 -300952.98044776917 -4471025.3869915009 0 0 0 0 -873531.49065696914 -527930.66899494734 0 -527930.66899494734 9512701.0532282609 0 0 0 0 -10459513.307529211 3767709.0788602829 0 3767709.0788602829 40723450.408143044 0 0 0 0 -4202885.3620185852 -13116122.288179398 0 -13116122.288179398 23244939.731285095 0 0 0 0 4494380.8781027794 7870865.0957889557 0 7870865.0957889557 37467950.782103539 0 0 0 0 1159110.1673002243 11665137.298431873 0 11665137.298431873 83156799.980255604 0 0 0 0 1194502.2603754317 1234042.2135853227 0 1234042.2135853227 421536.70188008994 0 0 0 0 -9312588.1186243892 -37761885.823591173 0 -37761885.823591173 -6805483.697511673 0 0 0 0 -18457783.559790134 -5885179.8983249664 0 -5885179.8983249664 42527314.436070919 0 0 0 0 -20779408.874185085 -7847833.6907730103 0 -7847833.6907730103 42772732.600250244 0 0 0 0 -17233463.050097942 -4963058.835855484 0 -4963058.835855484 43114978.462330341 0 0 0 0 -6561103.9724521637 -2187699.5071296692 0 -2187699.5071296692 40917041.839665413 0 0 0 0 -20001775.567443132 -11430331.873304963 0 -11430331.873304963 35230366.597309113 0 0 0 0 -16472905.895748019 -3787570.7755103111 0 -3787570.7755103111 53042708.801106453 0 0 0 0 -15801315.649773777 -1862246.1863236427 0 -1862246.1863236427 56300433.585075378 0 0 0 0 -4444700.3260473404 -1793258.0791972922 0 -1793258.0791972922 9283044.619563017 0 0 0 0 -6038267.5176678896 2472833.523235321 0 2472833.523235321 52102679.535885811 0 0 0 0 6287292.6045806706 -12809909.097454309 0 -12809909.097454309 42843751.930091858 0 0 0 0 -18499078.789156556 -8265099.8745851517 0 -8265099.8745851517 44878112.266553402 0 0 0 0 -11434698.902698517 5391459.5618782043 0 5391459.5618782043 32457495.337409973 0 0 0 0 -12987321.037272811 -6516919.740134716 0 -6516919.740134716 41012769.524032593 0 0 0 0 -2481581.0938282982 51607693.639661789 0 51607693.639661789 -671652.23415291309 0 0 0 0 36159345.756152503 -174927097.78703642 0 -174927097.78703642 27660254.371816635 0 0 0 0 -161305708.90934312 71073298.319340229 0 71073298.319340229 212661115.6708622 0 0 0 0 -20637129.909812689 62259670.476892471 0 62259670.476892471 17501295.168828011 0 0 0 0 -1610663.9030961918 -23555.360313905403 0 -23555.360313905403 667443.28829064127 0 0 0 0 -25288890.808663607 -38732199.605881691 0 -38732199.605881691 51336613.612467289 0 0 0 0 -90296593.968521774 -30126642.285234451 0 -30126642.285234451 69530755.865375519 0 0 0 0 -27251383.15776363 -2323253.4413604736 0 -2323253.4413604736 76235300.341001272 0 0 0 0 -124165978.6316358 40207358.796955585 0 40207358.796955585 124567259.49357414 0 0 0 0 5693504.2468407042 67906553.756480217 0 67906553.756480217 98022548.79816246 0 0 0 0 9535136.6594037041 30130544.976387024 0 30130544.976387024 49152408.466392517 0 0 0 0 -48636207.673145443 24501941.857933521 0 24501941.857933521 66748673.16961956 0 0 0 0 -15519116.671076983 7977156.5417098999 0 7977156.5417098999 49329346.134933472 0 0 0 0 -24196159.601533592 -5150730.7693426609 0 -5150730.7693426609 46616469.774225235 0 0 0 0 -6958907.505497247 4449484.8062238693 0 4449484.8062238693 38656444.769142151 0 0 0 0 -12543628.594338059 4931945.1320075989 0 4931945.1320075989 40519217.22824955 0 0 0 0 18193525.163730644 9574591.0541191101 0 9574591.0541191101 34404212.631984711 0 0 0 0 -3761932.2672015605 14845647.517970085 0 14845647.517970085 36425015.528051376 0 0 0 0 309277.6276114583 5994838.7399044037 0 5994838.7399044037 43789785.157661438 0 0 0 0 -360470.87131628394 8240120.3457500935 0 8240120.3457500935 36263027.439891815 0 0 0 0 -15197590.663034797 4771017.7796020508 0 4771017.7796020508 41023647.250842094 0 0 0 0 7644431.627732072 6519467.4996039867 0 6519467.4996039867 31880768.332292557 0 0 0 0 -15189766.335342944 -1390501.5984535217 0 -1390501.5984535217 42054495.408816278 0 0 0 0 -118915718.91834307 -21986591.619228363 0 -21986591.619228363 79647351.843101501 0 0 0 0 6739710.912070334 17666746.866631508 0 17666746.866631508 42320591.025520205 0 0 0 0 -7797195.0417289911 -8325750.1192850275 0 -8325750.1192850275 26471025.348243251 0 0 0 0 -2015133.182767868 53812644.485710144 0 53812644.485710144 -105928689.87941265 0 0 0 0 -9431440.1649022102 32071947.336013794 0 32071947.336013794 82073419.441890717 0 0 0 0 -25153569.420071602 74774.795860290527 0 74774.795860290527 19644369.88716507 0 0 0 0 -13371596.041085362 88582172.639853001 0 88582172.639853001 96612288.902511597 0 0 0 0 -47723089.742129326 -32710199.479654312 0 -32710199.479654312 93902572.743479252 0 0 0 0 -83214014.106022835 -92363594.952838898 0 -92363594.952838898 -60999734.969658852 0 0 0 0 -48303078.904128075 -40814687.741205215 0 -40814687.741205215 44547540.865831375 0 0 0 0 -45531843.758120537 -20398192.33026123 0 -20398192.33026123 64838360.894508362 0 0 0 0 -20467707.222467065 10127855.303962708 0 10127855.303962708 29869423.80815506 0 0 0 0 -29100895.173652053 -2888737.4498748779 0 -2888737.4498748779 35359737.780911446 0 0 0 0 -15188956.961833119 4888966.4787216187 0 4888966.4787216187 34549624.300004959 0 0 0 0 -38631756.413785994 578036.13439750671 0 578036.13439750671 42640575.241035461 0 0 0 0 -29344416.797312498 9324951.2999277115 0 9324951.2999277115 40650792.393712997 0 0 0 0 -43581081.917082131 11140655.740143776 0 11140655.740143776 43978342.898067474 0 0 0 0 -920451.29375737696 2703926.1730056982 0 2703926.1730056982 39155198.56974858 0 0 0 0 -102069893.90157948 74734363.250650406 0 74734363.250650406 -14058785.691131592 0 0 0 0 16416.958618269768 235613.89617616776 0 235613.89617616776 370842.00746580958 0 0 0 0 -98583372.838086128 116628624.66570091 0 116628624.66570091 92897112.965112686 0 0 0 0 -31755825.363111734 43456830.234422684 0 43456830.234422684 113873388.22780252 0 0 0 0 -21840494.648032248 905443.20904254913 0 905443.20904254913 41543109.081373692 0 0 0 0 -21907669.923852623 3634250.6332845688 0 3634250.6332845688 34664424.038920939 0 0 0 0 -23903059.480001092 3976558.9791069031 0 3976558.9791069031 40758711.480913222 0 0 0 0 -15674424.080795407 9016918.9881949425 0 9016918.9881949425 40048200.694871902 0 0 0 0 -29916991.219834268 13265219.459813118 0 13265219.459813118 34925395.75812912 0 0 0 0 -26218143.578269839 6765349.4747307301 0 6765349.4747307301 18177839.752016068 0 0 0 0 -1381826.292676456 1607117.6202757019 0 1607117.6202757019 38799191.017433316 0 0 0 0 -32205637.369603142 6185760.1091845036 0 6185760.1091845036 41559462.069358826 0 0 0 0 -46434083.020505905 15897601.297680855 0 15897601.297680855 30837003.142957687 0 0 0 0 164147.75444882177 393692.43703560811 0 393692.43703560811 575763.58078126237 0 0 0 0 -7249682.9629751146 -17937198.015645623 0 -17937198.015645623 16802727.465333939 0 0 0 0 68995667.151059628 -46474734.458349228 0 -46474734.458349228 -6190966.7995424271 0 0 0 0 -1473731.8430265635 42315990.019708812 0 42315990.019708812 -31372936.902227402 0 0 0 0 -48805112.276248455 -11184297.327578545 0 -11184297.327578545 4229174.5100364685 0 0 0 0 54661690.554985046 -18664343.538011551 0 -18664343.538011551 -45010630.368024826 0 0 0 0 53198193.923226357 7995338.2008152008 0 7995338.2008152008 53533129.149626255 0 0 0 0 59168377.656262875 4448617.6393918991 0 4448617.6393918991 54181683.020708084 0 0 0 0 37440318.878540516 -32337037.633964539 0 -32337037.633964539 -4937750.4302458763 0 0 0 0 39056008.427979231 -56015277.3816576 0 -56015277.3816576 38286860.778245926 0 0 0 0 39936440.410792112 -33179844.176527023 0 -33179844.176527023 54680301.753749847 0 0 0 0 29968111.701068878 -47384182.537759781 0 -47384182.537759781 36326387.374002218 0 0 0 0 -26540604.594057322 -32480904.741772652 0 -32480904.741772652 56845768.834815025 0 0 0 0 89244872.01982975 -81037021.99672699 0 -81037021.99672699 44411746.233787537 0 0 0 0 88703164.249342203 -130742296.43782234 0 -130742296.43782234 164364922.19574165 0 0 0 0 137286126.44902611 102096619.10902405 0 102096619.10902405 183362565.45729911 0 0 0 0 -16808699.074757218 -51441100.383662224 0 -51441100.383662224 114728678.45334625 0 0 0 0 4130123.6474759579 -39230920.505572796 0 -39230920.505572796 30066566.309093475 0 0 0 0 -33848725.540768862 40924986.334720612 0 40924986.334720612 118549598.70800018 0 0 0 0 -18001139.137209833 -24825117.793488979 0 -24825117.793488979 43373456.570316315 0 0 0 0 58760913.892640114 53577267.320796967 0 53577267.320796967 117705437.37778091 0 0 0 0 35396761.562753677 -20068110.190670013 0 -20068110.190670013 25427820.339351654 0 0 0 0 66319420.085892916 -48331049.819580078 0 -48331049.819580078 77374606.970722198 0 0 0 0 100426349.66313982 -40983160.892795563 0 -40983160.892795563 22789189.229618192 0 0 0 0 108753304.7851634 101818947.73841286 0 101818947.73841286 232899407.51589203 0 0 0 0 283493409.32606411 -30972469.213689804 0 -30972469.213689804 78714144.135151386 0 0 0 0 25064057.389140129 -53247860.532466888 0 -53247860.532466888 275159486.16306543 0 0 0 0 25184298.46303463 -35381316.481870651 0 -35381316.481870651 112691819.47073364 0 0 0 0 27402340.170212746 15215438.518672943 0 15215438.518672943 140871485.5933466 0 0 0 0 9489649.3861978054 47577868.190761089 0 47577868.190761089 148303632.8916893 0 0 0 0 -4275098.0739612579 21941975.933013916 0 21941975.933013916 100787709.02812195 0 0 0 0 977376.12054920197 -44111811.339017868 0 -44111811.339017868 137118883.02156305 0 0 0 0 -17052440.692948818 -23167544.682559013 0 -23167544.682559013 115213110.35342407 0 0 0 0 5492049.5615506172 -68214207.390750885 0 -68214207.390750885 81787492.810367584 0 0 0 0 -18426442.020100117 -44764063.761052132 0 -44764063.761052132 67790210.48506546 0 0 0 0 63393094.109860897 -81379874.020458221 0 -81379874.020458221 57316799.193175316 0 0 0 0 6350139.9439338446 -61559035.863170624 0 -61559035.863170624 130496609.18148041 0 0 0 0 192435.98206544935 -196699.07871384174 0 -196699.07871384174 1151410.1003418379 0 0 0 0 183872178.74931955 75426367.215297699 0 75426367.215297699 35885263.783859253 0 0 0 0 123472436.78526902 -113221526.6985817 0 -113221526.6985817 120330834.08620453 0 0 0 0 -138117.64839526825 -145506.57148209494 0 -145506.57148209494 833136.3042856548 0 0 0 0 77857478.701493025 -43650777.382901669 0 -43650777.382901669 17032935.651187897 0 0 0 0 49149272.029797554 -44429086.430300713 0 -44429086.430300713 -114306130.11647606 0 0 0 0 -29618852.302747846 123231863.62302637 0 123231863.62302637 275313647.72213745 0 0 0 0 -5989728.8272640705 -2070007.8877353668 0 -2070007.8877353668 9623575.3529729843 0 0 0 0 -85112.83959908929 447355.17550750508 0 447355.17550750508 5509527.5705356039 0 0 0 0 -9820006.5366439819 -20659200.591352463 0 -20659200.591352463 35369640.321928024 0 0 0 0 -4231950.0418437254 -2954874.4233094919 0 -2954874.4233094919 6043104.7806979585 0 0 0 0 10973600.398946047 -41626776.365151405 0 -41626776.365151405 38732135.329465866 0 0 0 0 36182200.802527428 -17800504.027729034 0 -17800504.027729034 16375324.225386769 0 0 0 0 -519040.67700287746 -1519436.9983921591 0 -1519436.9983921591 1329434.6840458382 0 0 0 0 14241939.626802444 -48231473.810925484 0 -48231473.810925484 42494420.85299778 0 0 0 0 1539894.2097288026 1399202.0413112799 0 1399202.0413112799 991788.54989795387 0 0 0 0 -80422806.736344695 94690707.407319546 0 94690707.407319546 17862162.275876999 0 0 0 0 -8325396.1167082787 63602746.212217331 0 63602746.212217331 -56605660.232759476 0 0 0 0 -8674340.6629598141 -58687836.439240456 0 -58687836.439240456 9498223.435295105 0 0 0 0 -45363435.082373142 23969134.241888046 0 23969134.241888046 183673922.52416229 0 0 0 0 121249788.11159575 120504646.99923635 0 120504646.99923635 -106631376.2583828 0 0 0 0 821297.25040584686 602870.45605990849 0 602870.45605990849 346226.644966783 0 0 0 0 -50990058.885700107 3009540.0531976223 0 3009540.0531976223 125502344.15740204 0 0 0 0 -26483660.981754661 -46115607.868035316 0 -46115607.868035316 123677014.65014648 0 0 0 0 2086619.26334095 24465747.020803452 0 24465747.020803452 51400467.079494476 0 0 0 0 -40340094.275104523 -6900981.2058668137 0 -6900981.2058668137 112208866.77679634 0 0 0 0 2252812.5007001273 31860425.959559843 0 31860425.959559843 37550766.514629364 0 0 0 0 40840237.327172279 127135702.67404175 0 127135702.67404175 153405917.49507427 0 0 0 0 54582077.271916151 28711136.324234009 0 28711136.324234009 11451697.64774704 0 0 0 0 16410676.610306859 8096512.3529479504 0 8096512.3529479504 8373012.9243392944 0 0 0 0 10306545.41397202 -6051174.7385530472 0 -6051174.7385530472 2005499.2410736084 0 0 0 0 12109163.522244632 3302554.4446630478 0 3302554.4446630478 8217804.6632537842 0 0 0 0 8896665.9568133354 -1860806.2030439377 0 -1860806.2030439377 34412677.530515671 0 0 0 0 -4590938.0664179325 4087719.3396992683 0 4087719.3396992683 9115514.1498990059 0 0 0 0 -151120.94492946658 1530914.8447263185 0 1530914.8447263185 7834587.5349737518 0 0 0 0 -3822799.1209206581 2532352.0228307247 0 2532352.0228307247 11329120.961156845 0 0 0 0 -913343.17154330015 -4176835.6425450444 0 -4176835.6425450444 12958017.924922943 0 0 0 0 -1181827.9430376887 -1887474.9362626076 0 -1887474.9362626076 4342000.538192749 0 0 0 0 -962373.61338033655 -835110.04806871619 0 -835110.04806871619 9263756.6612928808 0 0 0 0 -55996895.615398645 -23542204.463452339 0 -23542204.463452339 6429386.5256233215 0 0 0 0 206534550.63404989 91410888.949567795 0 91410888.949567795 -151542337.60324097 0 0 0 0 24002359.395692825 -52297663.668069839 0 -52297663.668069839 -61509961.071180344 0 0 0 0 7645579.54708004 -6067236.6127128601 0 -6067236.6127128601 6087965.1479129791 0 0 0 0 -744814.0560631752 -1052902.8847875595 0 -1052902.8847875595 10262675.904372402 0 0 0 0 1562232.4945030212 1190485.4800868034 0 1190485.4800868034 10218137.739596739 0 0 0 0 -26034.023824572563 6497393.4803875387 0 6497393.4803875387 5497472.0468864441 0 0 0 0 15421284.981348038 8416116.715502739 0 8416116.715502739 11603981.913246632 0 0 0 0 -3577687.231294632 3550047.6092329025 0 3550047.6092329025 10772866.307837486 0 0 0 0 -198745.17956825811 3465134.9787000446 0 3465134.9787000446 13148959.442475032 0 0 0 0 -1929794.0858011246 2805747.2807568908 0 2805747.2807568908 25227760.236795485 0 0 0 0 -15183940.900579453 -6529107.9534864426 0 -6529107.9534864426 15545551.660720348 0 0 0 0 -8811377.0892190933 13023487.899090886 0 13023487.899090886 19834983.895695925 0 0 0 0 -1324845.3146867752 6773447.2502728701 0 6773447.2502728701 5402216.6486111879 0 0 0 0 -985537.87385654356 1906312.6518788075 0 1906312.6518788075 12452293.383360278 0 0 0 0 1180243.0183682237 5714773.369414256 0 5714773.369414256 9711757.5301728882 0 0 0 0 -11376245.020858288 5271292.4948127493 0 5271292.4948127493 15018484.190154314 0 0 0 0 -3785756.0987242758 13967546.029558167 0 13967546.029558167 13977666.212548256 0 0 0 0 10876987.866348267 45254136.351226807 0 45254136.351226807 -11767508.898034573 0 0 0 0 -22211351.596583366 4689282.3117542267 0 4689282.3117542267 26663811.711098194 0 0 0 0 53761864.848622322 50361074.502360582 0 50361074.502360582 13098636.587470055 0 0 0 0 -36854256.51730895 19941156.711827755 0 19941156.711827755 25914979.706594467 0 0 0 0 42722200.656291962 19109376.092512131 0 19109376.092512131 -11537035.563617706 0 0 0 0 -8858474.763250351 38888369.892266273 0 38888369.892266273 91376188.941053391 0 0 0 0 -754644.11351585854 1363717.3216760457 0 1363717.3216760457 1311880.7406675704 0 0 0 0 36044147.625316381 14068736.71650517 0 14068736.71650517 11415232.489059448 0 0 0 0 -1335802.4548406601 6698336.6318244934 0 6698336.6318244934 21282612.507277489 0 0 0 0 26490435.573524952 -10589414.445542336 0 -10589414.445542336 17779068.720825195 0 0 0 0 28834067.381472349 26442108.676573753 0 26442108.676573753 11708204.453526497 0 0 0 0 45479148.252338409 66999222.417268753 0 66999222.417268753 85418070.070295334 0 0 0 0 6949771.9142010594 13645307.561813869 0 13645307.561813869 12539568.328471439 0 0 0 0 -5422918.3566861153 -6378736.397339344 0 -6378736.397339344 -473981.84087371826 0 0 0 0 -10762872.96966362 -36945577.343984842 0 -36945577.343984842 54381625.306241989 0 0 0 0 -13395507.59087944 18563454.699591637 0 18563454.699591637 71409681.219215393 0 0 0 0 2803366.1542158276 12421433.091468045 0 12421433.091468045 25302803.030896097 0 0 0 0 -5081193.0130290985 26897851.522463799 0 26897851.522463799 23596225.331638336 0 0 0 0 -8998308.2578606606 20801995.136838913 0 20801995.136838913 67097921.727210999 0 0 0 0 -20782937.732917309 36613398.685306549 0 36613398.685306549 81100096.727535248 0 0 0 0 -12367583.417784497 -430273.7500605043 0 -430273.7500605043 36423292.335285559 0 0 0 0 -18409971.20310092 30123461.907175303 0 30123461.907175303 65199229.56942749 0 0 0 0 -16253797.58638382 22490504.494947433 0 22490504.494947433 74246109.302894592 0 0 0 0 -31740657.226407707 13135896.907389164 0 13135896.907389164 40648581.759216309 0 0 0 0 -148518787.42631269 -34532623.30043602 0 -34532623.30043602 83562465.255773544 0 0 0 0 -4777458.304560706 -2694157.0623803628 0 -2694157.0623803628 41699966.343878254 0 0 0 0 -28557702.146832138 7040144.6424589157 0 7040144.6424589157 42474289.46820277 0 0 0 0 -120103308.39727983 -1879101.4317380786 0 -1879101.4317380786 86045467.229484558 0 0 0 0 -117731761.66556993 -54258654.196050704 0 -54258654.196050704 81250275.388786316 0 0 0 0 -59597707.972743988 -40583533.347179413 0 -40583533.347179413 78710357.364871979 0 0 0 0 -34781722.177333832 -56171629.358486176 0 -56171629.358486176 77338491.105472565 0 0 0 0 -19479687.240544081 -33346007.470262051 0 -33346007.470262051 72946846.879940033 0 0 0 0 -65892098.018903732 -46437920.48482132 0 -46437920.48482132 88893267.96090126 0 0 0 0 -91859817.911456048 10110096.185323954 0 10110096.185323954 62620688.288063049 0 0 0 0 -61396481.66849947 -32353605.921274185 0 -32353605.921274185 71061863.022102356 0 0 0 0 -85426153.336023331 -42405153.65521431 0 -42405153.65521431 83575723.632110596 0 0 0 0 -49276263.446075439 -38149008.79240036 0 -38149008.79240036 71554313.474853516 0 0 0 0 -76490617.878486633 -23314190.271644592 0 -23314190.271644592 77489982.005558014 0 0 0 0 -4494788.1737623215 12617464.638857126 0 12617464.638857126 19305232.041172862 0 0 0 0 -27032588.792206764 -10452180.901363373 0 -10452180.901363373 51646313.042766571 0 0 0 0 -3783011.8638022086 -286383.31571656466 0 -286383.31571656466 27868719.626528561 0 0 0 0 -39710906.921826839 -22619494.398801804 0 -22619494.398801804 72361485.906648636 0 0 0 0 -9676192.7959650978 -15976951.214421228 0 -15976951.214421228 53275675.359289169 0 0 0 0 -18687952.529529095 -52001302.222263336 0 -52001302.222263336 66418685.91995573 0 0 0 0 -20241284.242803574 -35793913.152669907 0 -35793913.152669907 64033279.982168198 0 0 0 0 3301.0449485778809 6489433.0765271187 0 6489433.0765271187 12256837.418146133 0 0 0 0 23047101.545783997 3845756.695526123 0 3845756.695526123 75976074.357254028 0 0 0 0 324979.64592504385 6033254.9617531244 0 6033254.9617531244 13313948.700276915 0 0 0 0 -39270767.864068985 2129672.1434831619 0 2129672.1434831619 27556785.938102722 0 0 0 0 -6287854.3825120274 -1250886.1535806756 0 -1250886.1535806756 40769422.696347177 0 0 0 0 -5140210.0054612523 1826419.3512541931 0 1826419.3512541931 12672006.532142796 0 0 0 0 -7783348.4318695068 -41485818.691429138 0 -41485818.691429138 8967729.4663352966 0 0 0 0 -20586404.246944964 5132241.6356960069 0 5132241.6356960069 45278302.279422127 0 0 0 0 -17733419.971029282 760746.01551580429 0 760746.01551580429 15101272.500106812 0 0 0 0 -11842727.57192759 29109.884522697888 0 29109.884522697888 40212063.004819356 0 0 0 0 -31439050.047646761 -74069837.257000208 0 -74069837.257000208 90628727.245269775 0 0 0 0 166782104.16827631 40489745.445146561 0 40489745.445146561 79017109.409967422 0 0 0 0 10286095.753456831 -16436530.290228844 0 -16436530.290228844 157510138.97244835 0 0 0 0 -42657532.770125389 65989457.838832855 0 65989457.838832855 64479431.556457758 0 0 0 0 11841.705273060594 12397.804224621505 0 12397.804224621505 850632.44578055292 0 0 0 0 161171747.47098351 -88009152.94453907 0 -88009152.94453907 -2787488.7028846741 0 0 0 0 24793520.573787928 66646197.363566399 0 66646197.363566399 109072365.10293007 0 0 0 0 88966528.759424686 -140905462.3671999 0 -140905462.3671999 47482648.117340088 0 0 0 0 21009565.077247262 -124432274.16716123 0 -124432274.16716123 94071379.066809654 0 0 0 0 -27764.163746290607 -204785.51822136901 0 -204785.51822136901 1953839.2630347684 0 0 0 0 -44437184.713495731 -49090738.987376213 0 -49090738.987376213 11504547.549907207 0 0 0 0 -24489813.189632177 -5204289.6305403709 0 -5204289.6305403709 37761000.431747437 0 0 0 0 58117626.518189907 47450549.331279755 0 47450549.331279755 29764191.258451462 0 0 0 0 69491319.211560249 103914629.10038471 0 103914629.10038471 108142555.88391495 0 0 0 0 195730804.81573129 105853309.08620358 0 105853309.08620358 90120503.141695976 0 0 0 0 221413128.58451939 -29348442.87808609 0 -29348442.87808609 150032884.6554203 0 0 0 0 98356566.694868565 99157203.981759071 0 99157203.981759071 48838813.014553905 0 0 0 0 74601422.956644535 37109738.178276062 0 37109738.178276062 32923987.851668358 0 0 0 0 -7862737.1795887947 -13152554.884901047 0 -13152554.884901047 55649112.97376442 0 0 0 0 764777.19991289265 504302.40023023449 0 504302.40023023449 315798.34037795849 0 0 0 0 128665876.73699787 32457886.584699154 0 32457886.584699154 -93227929.726280212 0 0 0 0 87897218.221725345 140555351.09595633 0 140555351.09595633 139294840.08828354 0 0 0 0 147348722.17269254 129546876.53257704 0 129546876.53257704 69231458.600054502 0 0 0 0 55520225.680886745 27346480.549578667 0 27346480.549578667 137907130.99983978 0 0 0 0 174195658.49755883 88523776.456606865 0 88523776.456606865 77418231.770912647 0 0 0 0 148674862.70780802 117558554.70000219 0 117558554.70000219 81367567.386940956 0 0 0 0 8256178.255140543 64821432.968010902 0 64821432.968010902 237786920.90348673 0 0 0 0 154267390.32900429 158691775.845891 0 158691775.845891 122117316.69813728 0 0 0 0 99826157.076467752 47124946.092652321 0 47124946.092652321 118914213.35413143 0 0 0 0 92972497.388967991 58908739.831470966 0 58908739.831470966 98655746.333938599 0 0 0 0 3748044.6053624153 -5951110.2660360336 0 -5951110.2660360336 109315849.25987005 0 0 0 0 -8872074.1974284649 26357210.369746208 0 26357210.369746208 14358429.098825455 0 0 0 0 20579522.832878113 -21615702.634153843 0 -21615702.634153843 54623729.34762764 0 0 0 0 -11226433.791825414 59539808.473754883 0 59539808.473754883 -72779575.429354668 0 0 0 0 1537713.4755403949 1286928.8902232265 0 1286928.8902232265 900478.13098913617 0 0 0 0 -18419269.94286561 83359764.698313236 0 83359764.698313236 103457742.36432266 0 0 0 0 22914863.938594222 -47562733.043733597 0 -47562733.043733597 34061904.687975883 0 0 0 0 -7963660.1186602116 -5339181.3143720627 0 -5339181.3143720627 138592907.24305916 0 0 0 0 393276.35422088497 -76342.0531875249 0 -76342.0531875249 669085.64353549853 0 0 0 0 25808254.910244465 -38787482.124118805 0 -38787482.124118805 34394986.92770195 0 0 0 0 2339919.9038486481 13133761.21154213 0 13133761.21154213 4381696.2355203629 0 0 0 0 -12003455.042437553 6340943.1234827042 0 6340943.1234827042 13403665.659931183 0 0 0 0 975658.37484098307 2313047.9876360735 0 2313047.9876360735 3229703.1182003655 0 0 0 0 8796195.2817282677 15056557.138319016 0 15056557.138319016 19725500.219200134 0 0 0 0 2248600.8573988932 947980.11675300915 0 947980.11675300915 -2910104.8105308823 0 0 0 0 37831327.150572658 9491870.5501506329 0 9491870.5501506329 -6884410.3179397583 0 0 0 0 53162093.3841694 64084775.276879072 0 64084775.276879072 83055877.62802124 0 0 0 0 31697022.573447227 18901309.958248138 0 18901309.958248138 14420856.593200684 0 0 0 0 30290612.624685764 22843457.019254684 0 22843457.019254684 36857430.287065506 0 0 0 0 30747313.998304844 23241358.15753746 0 23241358.15753746 1980640.6612911224 0 0 0 0 26138928.855855942 11127556.511257172 0 11127556.511257172 14819053.981651306 0 0 0 0 14759547.185625076 8984825.3732414246 0 8984825.3732414246 -5481068.993730545 0 0 0 0 17946839.617453337 21127252.167143822 0 21127252.167143822 29945872.999948502 0 0 0 0 20019182.401734352 -2367752.4032278061 0 -2367752.4032278061 27727851.207714438 0 0 0 0 2639616.7666165829 -772107.91931629181 0 -772107.91931629181 58717832.213247299 0 0 0 0 42097831.184128284 3614579.0877351761 0 3614579.0877351761 56981669.189479828 0 0 0 0 -3579668.4497092664 -17864721.874532223 0 -17864721.874532223 66252225.538848877 0 0 0 0 17311686.613516808 -1655945.9784698486 0 -1655945.9784698486 77854415.121489525 0 0 0 0 36229311.725414038 -7367101.1988782883 0 -7367101.1988782883 36545652.303467751 0 0 0 0 28967462.607904673 17792522.276920199 0 17792522.276920199 89641315.252902985 0 0 0 0 107349724.07316333 136898435.14065063 0 136898435.14065063 138005655.51398849 0 0 0 0 474452.84670537245 949177.8341415606 0 949177.8341415606 940510.86693825573 0 0 0 0 -87510728.784014702 -23748782.589916229 0 -23748782.589916229 105902786.53703308 0 0 0 0 673390593.79480934 68369265.087253928 0 68369265.087253928 27991636.189064026 0 0 0 0 -20669457.981825829 61872831.67779541 0 61872831.67779541 177832842.0422287 0 0 0 0 -14748576.679600954 38248969.154602051 0 38248969.154602051 3228486.7539196014 0 0 0 0 21186587.470294476 -290373.83488416672 0 -290373.83488416672 -3670443.5171794891 0 0 0 0 -64073028.735859871 14397885.531825066 0 14397885.531825066 9154857.1138973236 0 0 0 0 953279.85169377411 2439935.4052360677 0 2439935.4052360677 3093753.7014128752 0 0 0 0 646337825.37993765 -128831141.44004226 0 -128831141.44004226 -80162165.306861877 0 0 0 0 195679027.43829823 -112875621.5850811 0 -112875621.5850811 152145855.49834061 0 0 0 0 248954239.48034954 -25099770.271958351 0 -25099770.271958351 95979803.330260277 0 0 0 0 388153180.70881796 65302073.173616409 0 65302073.173616409 14235164.196544647 0 0 0 0 131363050.1209178 -3902894.2252559662 0 -3902894.2252559662 31148362.018753052 0 0 0 0 199153391.28927898 166117141.33909035 0 166117141.33909035 -114120805.10612488 0 0 0 0 138294054.82746696 -14756822.788652897 0 -14756822.788652897 -167868669.88241577 0 0 0 0 -51684009.153626442 61055849.016122818 0 61055849.016122818 14914152.75406754 0 0 0 0 206618301.43198204 110023096.43408775 0 110023096.43408775 50650321.23110199 0 0 0 0 53890718.68010664 8059352.2850933075 0 8059352.2850933075 18955637.330398679 0 0 0 0 25384023.917721748 43654492.9478302 0 43654492.9478302 78918720.963188171 0 0 0 0 -73517046.934848785 -45389650.644323349 0 -45389650.644323349 112999536.19522381 0 0 0 0 36232965.965234995 9658182.1594705582 0 9658182.1594705582 160186483.12410355 0 0 0 0 215929550.43608475 88259764.041525841 0 88259764.041525841 205733861.58579731 0 0 0 0 157535986.42673302 -28413507.356515884 0 -28413507.356515884 90854131.780294418 0 0 0 0 213805554.98925209 -41054402.409484386 0 -41054402.409484386 132403097.95103645 0 0 0 0 34577795.829892159 -32267449.625509262 0 -32267449.625509262 126182249.86922073 0 0 0 0 38566471.834365845 39914722.701646805 0 39914722.701646805 130200815.95228004 0 0 0 0 8286292.291212379 1812150.5003078356 0 1812150.5003078356 2612995.2152549103 0 0 0 0 -46499594.573121071 93104302.187469482 0 93104302.187469482 -75072391.27192688 0 0 0 0 -11899738.216957092 -36676085.18983078 0 -36676085.18983078 94479720.936721802 0 0 0 0 -59959276.74312973 28975428.665794373 0 28975428.665794373 23977916.157958984 0 0 0 0 -116003050.95894337 84100563.756778717 0 84100563.756778717 82071489.790998936 0 0 0 0 -63749957.503008842 -86589447.168525696 0 -86589447.168525696 171628840.91806412 0 0 0 0 411791034.66162777 -80057012.70435524 0 -80057012.70435524 -181863756.6631546 0 0 0 0 740323738.58205938 209304762.38278198 0 209304762.38278198 69650067.759144306 0 0 0 0 654876258.39995122 21328046.078853607 0 21328046.078853607 -28085397.069015503 0 0 0 0 327285537.05190468 -197738891.01057816 0 -197738891.01057816 27057481.017668247 0 0 0 0 225000379.89769053 -26180530.843678474 0 -26180530.843678474 60359669.499542236 0 0 0 0 103857318.94736004 -75927988.100631714 0 -75927988.100631714 92526521.395437241 0 0 0 0 264658275.89084196 -41893215.583305359 0 -41893215.583305359 14674877.762161255 0 0 0 0 91254734.808489323 -47232427.511196136 0 -47232427.511196136 49620989.0728302 0 0 0 0 264180351.07186332 21129011.291260898 0 21129011.291260898 23516574.080741882 0 0 0 0 473089828.99816036 -41163197.66418457 0 -41163197.66418457 -27289840.360794067 0 0 0 0 218278993.95816326 -7033620.3210887909 0 -7033620.3210887909 -16197629.305978775 0 0 0 0 355865993.49089646 18888924.464000702 0 18888924.464000702 -17086405.891162872 0 0 0 0 201776074.30770433 30305000.509192467 0 30305000.509192467 5985828.8782119751 0 0 0 0 112073497.80812454 10018450.871585846 0 10018450.871585846 29904649.230396271 0 0 0 0 18861350.915046692 9904513.8693237305 0 9904513.8693237305 39130931.307121277 0 0 0 0 59908557.881679058 6718998.825296402 0 6718998.825296402 54300000.149154663 0 0 0 0 -15957116.952228546 -39844295.595062256 0 -39844295.595062256 48703038.299575806 0 0 0 0 -58247956.149301529 28663197.993377686 0 28663197.993377686 23422147.094676971 0 0 0 0 -64172349.704479218 27765363.572732925 0 27765363.572732925 61611061.309684753 0 0 0 0 -59188982.223635674 30211648.540971756 0 30211648.540971756 22139105.215240479 0 0 0 0 -57918754.366752625 -15810380.037189484 0 -15810380.037189484 5095938.0839424133 0 0 0 0 -57633758.558311462 -11643857.914253235 0 -11643857.914253235 42513850.957618713 0 0 0 0 -50989821.336622238 -25729327.977069855 0 -25729327.977069855 16107520.650455475 0 0 0 0 -35186528.120187759 -41527557.286125183 0 -41527557.286125183 31172886.729398727 0 0 0 0 -37284588.145069122 -12299236.879177094 0 -12299236.879177094 50930667.23708725 0 0 0 0 -28151373.920137107 31263838.352534771 0 31263838.352534771 60296345.969161987 0 0 0 0 -26599023.481172562 54921089.043930054 0 54921089.043930054 5612355.443359375 0 0 0 0 -9381366.7546691895 6035137.14594841 0 6035137.14594841 39706419.370433807 0 0 0 0 -22825371.901129007 -9505407.2254772186 0 -9505407.2254772186 82352757.118171692 0 0 0 0 -1051928.21208758 -1281331.6601403728 0 -1281331.6601403728 394275.48102404852 0 0 0 0 55783314.259284019 46258331.402126312 0 46258331.402126312 121747720.75478679 0 0 0 0 219354324.3497014 78607498.729017258 0 78607498.729017258 -273028907.16850281 0 0 0 0 270611876.69676399 20623273.242145538 0 20623273.242145538 27239562.66639328 0 0 0 0 108311732.15865421 29071840.344404221 0 29071840.344404221 -4881219.9117202759 0 0 0 0 -418007.66147451662 -1768746.3027594276 0 -1768746.3027594276 1068673.6292804317 0 0 0 0 176838044.28791368 75717761.604869843 0 75717761.604869843 28556285.435928345 0 0 0 0 115361295.50894451 -9330172.7685928345 0 -9330172.7685928345 -88418747.216903687 0 0 0 0 313048162.00893378 91066400.277565002 0 91066400.277565002 -32231757.034414291 0 0 0 0 303024895.80476618 -58290166.454565048 0 -58290166.454565048 13381545.034171104 0 0 0 0 347436431.81905103 75198873.419178009 0 75198873.419178009 -37588103.161590576 0 0 0 0 -35594362.173478246 20571181.394471645 0 20571181.394471645 11752661.843624115 0 0 0 0 606607428.83928156 733873.6165266037 0 733873.6165266037 -106905043.50927734 0 0 0 0 1165347.7981562421 3869054.1929613692 0 3869054.1929613692 6603587.2500964925 0 0 0 0 359392660.38718963 195435318.29501152 0 195435318.29501152 -96739556.905448914 0 0 0 0 -5211988.7942867279 15428061.203010559 0 15428061.203010559 1697732.8181838989 0 0 0 0 -10418821.728028297 24570517.157615662 0 24570517.157615662 -2474098.0138149261 0 0 0 0 2828109.5497488976 24227630.60744381 0 24227630.60744381 702768.20119857788 0 0 0 0 -14361072.679936886 5874501.1795167923 0 5874501.1795167923 5937593.3856315613 0 0 0 0 4766591.1329231262 15169594.559566498 0 15169594.559566498 3211494.1334071159 0 0 0 0 4609424.3592104912 11899683.028259277 0 11899683.028259277 18717797.102058411 0 0 0 0 1319957.6740794182 20792466.863891602 0 20792466.863891602 15420099.394393921 0 0 0 0 1160914123.6216574 -900497676.06498146 0 -900497676.06498146 315975932.23005056 0 0 0 0 7376256.8577215029 3352175.7455813047 0 3352175.7455813047 -5837047.85683088 0 0 0 0 80834.935925960541 20607173.725162506 0 20607173.725162506 21615906.304222107 0 0 0 0 322299500.79255295 103118144.13487053 0 103118144.13487053 27745949.827766418 0 0 0 0 1608089.9555561375 6572931.9012085097 0 6572931.9012085097 11442441.70263939 0 0 0 0 327022714.88923311 97531506.060405731 0 97531506.060405731 26955439.912841797 0 0 0 0 406815052.88422978 100255246.27816391 0 100255246.27816391 -3496021.0884170532 0 0 0 0 404248421.5841918 128753265.38457108 0 128753265.38457108 61912432.169692993 0 0 0 0 355759982.66658264 170606612.64715862 0 170606612.64715862 133381310.02937317 0 0 0 0 -104452586.94543552 240619771.43920135 0 240619771.43920135 369977720.29460907 0 0 0 0 1402436.3646508376 1898926.2822239241 0 1898926.2822239241 -422537.01173280925 0 0 0 0 29594071.742134094 60336795.425521851 0 60336795.425521851 143430421.46546936 0 0 0 0 210498063.07965803 99177423.298080444 0 99177423.298080444 85455484.899398804 0 0 0 0 636961882.70588446 159905393.46498871 0 159905393.46498871 14611920.90637207 0 0 0 0 488001.13569918205 623684.16685824841 0 623684.16685824841 4177573.3006231152 0 0 0 0 487647187.19728661 254037543.36666489 0 254037543.36666489 121012268.92467499 0 0 0 0 737368649.47504818 210407425.98690414 0 210407425.98690414 108419673.80691719 0 0 0 0 755181.94073880883 -2267556.912974352 0 -2267556.912974352 6006823.7848499492 0 0 0 0 338073085.27083015 -394333325.22399902 0 -394333325.22399902 242426960.21966171 0 0 0 0 -33936581.054055691 942976658.23106384 0 942976658.23106384 105810686.54224777 0 0 0 0 375612533.29480553 -190492029.87449026 0 -190492029.87449026 79235471.897891998 0 0 0 0 -1493554751.4348946 1210050234.3952484 0 1210050234.3952484 164016843.46792555 0 0 0 0 -164056913.68911362 -31272364.43429184 0 -31272364.43429184 203897473.5528717 0 0 0 0 -86460458.867201328 -376130008.21404457 0 -376130008.21404457 814933824.76951981 0 0 0 0 140927494.4972105 -238571625.66803741 0 -238571625.66803741 203882141.16431046 0 0 0 0 -24610534.451969147 -165670738.56600571 0 -165670738.56600571 310515408.85591125 0 0 0 0 -53379756.134805322 -58555138.216654778 0 -58555138.216654778 90693889.768791199 0 0 0 0 -14954680.744306564 -215784483.63712692 0 -215784483.63712692 218648322.74025536 0 0 0 0 -25886289.16131115 -140312453.64964676 0 -140312453.64964676 -16703662.275278032 0 0 0 0 -149427799.80880702 83104467.210583687 0 83104467.210583687 -12491478.154903412 0 0 0 0 -82781774.615458488 -30613500.040290833 0 -30613500.040290833 169940834.96699142 0 0 0 0 -118532245.66733885 106414145.10362244 0 106414145.10362244 74801859.793588638 0 0 0 0 -147950674.62124622 50931801.271856308 0 50931801.271856308 -28459724.9177742 0 0 0 0 -227533791.4369297 410892807.16939926 0 410892807.16939926 -48393604.878974915 0 0 0 0 -103753257.79160547 43123488.452070236 0 43123488.452070236 287555938.46530151 0 0 0 0 -379441321.62638378 150975498.09320831 0 150975498.09320831 637130870.61007118 0 0 0 0 24910084.045737505 21962950.51722908 0 21962950.51722908 2921169.5402069092 0 0 0 0 19413137.170170188 29857091.345536709 0 29857091.345536709 5873851.6838607788 0 0 0 0 7584396.4995737467 5126222.4566018637 0 5126222.4566018637 -9604428.6740575843 0 0 0 0 2584590.2866401672 26538160.123973846 0 26538160.123973846 4415001.9817647934 0 0 0 0 19085496.293454528 25645765.045251369 0 25645765.045251369 -2372630.1354255676 0 0 0 0 20179834.933832049 22710632.752193928 0 22710632.752193928 4712737.7966117859 0 0 0 0 5143738.3551182747 20403074.539205551 0 20403074.539205551 4540928.6070842743 0 0 0 0 16884220.25861907 18133490.004005432 0 18133490.004005432 118679.60244846344 0 0 0 0 24658467.0713346 5843374.5151963234 0 5843374.5151963234 -7632169.1270484924 0 0 0 0 29568115.100358833 14469275.847058773 0 14469275.847058773 -21346414.980579376 0 0 0 0 1368130.3697772026 120019268.3143177 0 120019268.3143177 -189984255.50618267 0 0 0 0 -30476888.270808041 28953091.715784073 0 28953091.715784073 47633917.733415604 0 0 0 0 5826673.4523349404 6267986.2645969391 0 6267986.2645969391 7282081.3719177246 0 0 0 0 954813.74320023274 1347542.2653525486 0 1347542.2653525486 13302508.408458035 0 0 0 0 3264594.9581341813 7860942.1802152246 0 7860942.1802152246 -7350994.2319595478 0 0 0 0 -658759.93703389168 6940501.8494300842 0 6940501.8494300842 8799447.5874223709 0 0 0 0 2424754.3116794494 3005151.498080099 0 3005151.498080099 7856820.1552302688 0 0 0 0 -922051.63761401176 10110670.897449493 0 10110670.897449493 10463678.909633636 0 0 0 0 -1841887.7921559811 5989645.6446475983 0 5989645.6446475983 8539352.3672199249 0 0 0 0 184701.51646226645 4944643.4333732128 0 4944643.4333732128 5275402.3875732422 0 0 0 0 -262429.58811886609 1943195.7331790924 0 1943195.7331790924 14350489.758602142 0 0 0 0 409157.63753241301 6571370.9929890633 0 6571370.9929890633 14519597.116107941 0 0 0 0 1843619.1093764303 3159766.1359795062 0 3159766.1359795062 8578718.4189618304 0 0 0 0 -504901.68570238352 4276170.2965288162 0 4276170.2965288162 13360845.354705811 0 0 0 0 9293493.1377099752 5788357.8295783997 0 5788357.8295783997 15612414.244380951 0 0 0 0 8960516.7575367689 1555590.1488304138 0 1555590.1488304138 14215037.399938583 0 0 0 0 -551197.97102087736 4552148.1864433289 0 4552148.1864433289 15943672.528335571 0 0 0 0 771269.46927846712 -2373468.2727764682 0 -2373468.2727764682 7345613.2277187482 0 0 0 0 -220966024.65918016 55226302.760911942 0 55226302.760911942 60510786.386367798 0 0 0 0 12594460.813664317 2192761.5691127777 0 2192761.5691127777 12652960.118667603 0 0 0 0 21108375.296587288 18873276.205873013 0 18873276.205873013 14668647.545703888 0 0 0 0 120039414.38226891 -6070711.3674278259 0 -6070711.3674278259 -6657232.8101844788 0 0 0 0 2166415.5896844864 16696035.093154907 0 16696035.093154907 19188859.021255493 0 0 0 0 438708.99461451062 1353108.1960169617 0 1353108.1960169617 2067719.9514379576 0 0 0 0 1359422.3464899063 8545502.7257461548 0 8545502.7257461548 18768041.298191071 0 0 0 0 484634.528132512 1029651.1338835657 0 1029651.1338835657 2135013.3908019736 0 0 0 0 2535056.5361003876 44357611.137893677 0 44357611.137893677 10102500.828918457 0 0 0 0 22512886.170252919 16827255.803214073 0 16827255.803214073 29893696.67276001 0 0 0 0 -808648.26169670536 4751542.7901747599 0 4751542.7901747599 3733464.9604272582 0 0 0 0 19805177.959066868 17023196.531650543 0 17023196.531650543 13608485.003874779 0 0 0 0 29899462.019873969 51847174.309076071 0 51847174.309076071 151143075.55207825 0 0 0 0 10621125.55806303 -13818808.814275742 0 -13818808.814275742 76728835.057628632 0 0 0 0 437587.79239225388 21412499.117660522 0 21412499.117660522 83387216.247702599 0 0 0 0 28449716.459300339 37415518.631798267 0 37415518.631798267 36974982.954444885 0 0 0 0 -3237672.0802228451 -21355512.083385468 0 -21355512.083385468 29058800.54703331 0 0 0 0 -49233159.997307539 10962402.353210449 0 10962402.353210449 120851875.11143494 0 0 0 0 12481888.83096838 -56167533.552623749 0 -56167533.552623749 200783237.90468216 0 0 0 0 513431.2549273998 735817.02169196866 0 735817.02169196866 -833528.67463507131 0 0 0 0 10055354.452665687 211828898.81711578 0 211828898.81711578 262949892.8086853 0 0 0 0 -45506501.1691221 -81477262.764810562 0 -81477262.764810562 190308823.45951271 0 0 0 0 -78581136.884371668 -227411416.47068906 0 -227411416.47068906 630578754.57605743 0 0 0 0 115928983.63088399 -188650697.4668808 0 -188650697.4668808 212735337.42671204 0 0 0 0 101055934.64972049 -210681580.67176056 0 -210681580.67176056 492797175.12477875 0 0 0 0 20214407.648230076 -43056942.394937515 0 -43056942.394937515 86742847.200595856 0 0 0 0 3414.3102004636312 -410906.71236901358 0 -410906.71236901358 659686.50015404448 0 0 0 0 11612565.043059349 -4670811.1908073425 0 -4670811.1908073425 100020455.16994858 0 0 0 0 -5462721.9711244106 -15510984.266863346 0 -15510984.266863346 631286269.85631561 0 0 0 0 -414659718.83200103 -12669539.039494514 0 -12669539.039494514 2206842438.9609604 0 0 0 0 128448438.50852364 -431355507.99968433 0 -431355507.99968433 995162213.35927963 0 0 0 0 -368366580.15064418 177178560.04609871 0 177178560.04609871 1578748211.8109875 0 0 0 0 -18363288.107792318 39740941.372407913 0 39740941.372407913 415349163.48359585 0 0 0 0 -690814.85958740476 432304.45565336943 0 432304.45565336943 1172414.3208497129 0 0 0 0 58009108.468495786 -7926417.1645088196 0 -7926417.1645088196 -145379364.58826828 0 0 0 0 -7793421.1897747517 144619728.78238869 0 144619728.78238869 116692562.54103851 0 0 0 0 -21630668.289133549 -88147582.901966095 0 -88147582.901966095 223572571.95717621 0 0 0 0 46072861.2504282 92344598.66163063 0 92344598.66163063 -164495879.71715927 0 0 0 0 -4267672.541832434 484429.90148346871 0 484429.90148346871 3750656.0234456751 0 0 0 0 -338702784.90157741 356662891.95301437 0 356662891.95301437 2199865579.9026699 0 0 0 0 579488904.43333852 451721370.00173378 0 451721370.00173378 350010395.32404327 0 0 0 0 -1930432.3863466042 1645494.4438441563 0 1645494.4438441563 5220246.2133872062 0 0 0 0 507136780.17033947 -712647415.97296143 0 -712647415.97296143 972900964.52895355 0 0 0 0 -6823349.3942376599 4136055.5182395764 0 4136055.5182395764 7949221.0078857355 0 0 0 0 -3337202.1419868469 7546402.0231437683 0 7546402.0231437683 -6204189.1765022278 0 0 0 0 -21977371.441462994 -43025767.011217117 0 -43025767.011217117 -17176908.902362823 0 0 0 0 -2271065.4466660456 1117718.0452838941 0 1117718.0452838941 576166.5377176851 0 0 0 0 -213406898.0414834 70674095.945672512 0 70674095.945672512 163004115.30465317 0 0 0 0 321795947.25194883 11518831.453239441 0 11518831.453239441 45082465.304251671 0 0 0 0 281094323.27446437 -253298377.3056469 0 -253298377.3056469 228427467.04725659 0 0 0 0 -27823792.199524879 -20832815.66343689 0 -20832815.66343689 461946436.42085266 0 0 0 0 -44604817.851954937 -251207508.98017502 0 -251207508.98017502 305601575.56825829 0 0 0 0 -16098557.060597777 -254552052.19831991 0 -254552052.19831991 167144384.88087463 0 0 0 0 423387.68981780746 -1150614.7316011749 0 -1150614.7316011749 2543385.0047800541 0 0 0 0 175043969.18736911 145429390.12735224 0 145429390.12735224 71084450.301986694 0 0 0 0 30280361.245741367 -185707444.02343941 0 -185707444.02343941 232696374.00666046 0 0 0 0 141517473.17527983 -217535631.40189636 0 -217535631.40189636 83519250.160644531 0 0 0 0 19877606.671675801 24798237.41530323 0 24798237.41530323 15986878.152381897 0 0 0 0 -879820.81640157406 -879903.525878774 0 -879903.525878774 760472.29480548203 0 0 0 0 -804782.23797082901 -230210247.34242439 0 -230210247.34242439 250490113.4422226 0 0 0 0 -42427785.21749711 -244268818.42247581 0 -244268818.42247581 252640938.77629852 0 0 0 0 118801805.30563831 -137748904.1185894 0 -137748904.1185894 218935022.82625389 0 0 0 0 47246185.888518333 68677733.544868469 0 68677733.544868469 -49552907.590382576 0 0 0 0 -91816337.103522301 468648.7503118515 0 468648.7503118515 50922799.728507996 0 0 0 0 -284916907.03749752 -88086833.85077095 0 -88086833.85077095 271845537.54670715 0 0 0 0 154026231.60588408 410848120.32032967 0 410848120.32032967 401097929.38184357 0 0 0 0 555036238.64014018 -456659756.81187057 0 -456659756.81187057 378325572.73321557 0 0 0 0 -710009.06356504443 -6300518.2332837982 0 -6300518.2332837982 16771185.883782104 0 0 0 0 -8116369.3069740897 1573934.9971538186 0 1573934.9971538186 10394107.179358745 0 0 0 0 -6867120.4342451096 20452677.979219437 0 20452677.979219437 6843902.2344455719 0 0 0 0 -4256488.3700790405 1982480.38256073 0 1982480.38256073 1340941.3144702911 0 0 0 0 230005156.91912103 43346354.810222626 0 43346354.810222626 -109690009.62275505 0 0 0 0 1555845.024161458 -340368120.18784332 0 -340368120.18784332 678347397.21863556 0 0 0 0 -209255929.11402714 18901839.583274841 0 18901839.583274841 1038744123.3314743 0 0 0 0 -299081736.54749227 -339843288.28574944 0 -339843288.28574944 2202193800.7315068 0 0 0 0 -56108448.260820404 835456305.2195015 0 835456305.2195015 2268670208.4040413 0 0 0 0 -214761245.11619291 -25912453.263195753 0 -25912453.263195753 674833257.36268234 0 0 0 0 -1562033.0100084015 -1763912.2542993128 0 -1763912.2542993128 10741816.072585493 0 0 0 0 -49289558.877108946 49356294.388281822 0 49356294.388281822 660894370.02427673 0 0 0 0 17079940.999485254 -54708192.591144562 0 -54708192.591144562 -41777591.812826157 0 0 0 0 -448098678.88327223 -20555797.047559738 0 -20555797.047559738 94798119.738586426 0 0 0 0 378278841.94638431 -203915733.12088585 0 -203915733.12088585 -216088651.67235374 0 0 0 0 -366580139.94125617 145065355.98875046 0 145065355.98875046 390310733.86024857 0 0 0 0 415952786.59544128 -1031516583.5489655 0 -1031516583.5489655 781467853.26578522 0 0 0 0 453801.05609280174 -1451083.9823450632 0 -1451083.9823450632 4216734.9001986384 0 0 0 0 212558761.63018769 -1328131667.8279867 0 -1328131667.8279867 1191628993.3518829 0 0 0 0 -45558224.70369117 -766998350.70274353 0 -766998350.70274353 2258485643.0450344 0 0 0 0 86236674.939227387 -279351211.55475426 0 -279351211.55475426 1268958490.823137 0 0 0 0 212912976.45835429 -529521319.45123482 0 -529521319.45123482 1419522655.1750622 0 0 0 0 290422579.62928677 86348679.903112411 0 86348679.903112411 119263070.56172943 0 0 0 0 375443761.57764328 227451834.83995628 0 227451834.83995628 -93221112.179359436 0 0 0 0 -148294037.1173802 269313647.73479462 0 269313647.73479462 -195437877.32002831 0 0 0 0 -1051404.9393255459 -1691542.5870627426 0 -1691542.5870627426 4606605.9529336914 0 0 0 0 -12222282.825702071 508199177.19496536 0 508199177.19496536 216618715.81478882 0 0 0 0 453403380.04719603 364416615.00500298 0 364416615.00500298 24886516.919219971 0 0 0 0 -116201647.76047683 43155979.420837402 0 43155979.420837402 316250011.8732357 0 0 0 0 3533918.237358117 -701638.96026040986 0 -701638.96026040986 164536.01695269719 0 0 0 0 37848125.636833325 466574523.76735973 0 466574523.76735973 974939033.52433395 0 0 0 0 33624099.868552566 310347481.59718513 0 310347481.59718513 98927135.102203369 0 0 0 0 132163350.08965194 185251396.08321953 0 185251396.08321953 250128241.73048019 0 0 0 0 2294690.0094671249 -5417382.2860627174 0 -5417382.2860627174 19604598.350811481 0 0 0 0 1214481.2181015015 11317882.639771938 0 11317882.639771938 25928499.217754602 0 0 0 0 -10206848.958866119 6670771.0138783455 0 6670771.0138783455 6794651.5656113625 0 0 0 0 26085203.470934391 -10175081.402159691 0 -10175081.402159691 39636510.200455666 0 0 0 0 12831176.13842988 14475214.943648815 0 14475214.943648815 53770891.495622635 0 0 0 0 9283795.0847978592 -44017246.919719458 0 -44017246.919719458 56247092.50092645 0 0 0 0 -39049256.909036636 -59778194.532364249 0 -59778194.532364249 77633804.417408943 0 0 0 0 -17055350.51331377 8667823.2675317526 0 8667823.2675317526 31210371.24501133 0 0 0 0 8254027.8569307327 -27827866.320707798 0 -27827866.320707798 -805946.2396696806 0 0 0 0 -5179768.4628095366 2931066.4954411392 0 2931066.4954411392 12714525.452729195 0 0 0 0 29820407.663715601 16716574.82832092 0 16716574.82832092 6561437.4556436539 0 0 0 0 -44300057.397954941 37091434.792637527 0 37091434.792637527 219606031.40355968 0 0 0 0 -11736588.527812958 -104512659.42524421 0 -104512659.42524421 60191565.884365618 0 0 0 0 9474905.6754770279 20648398.827666402 0 20648398.827666402 15000885.676556587 0 0 0 0 -1007776.9148294916 -2586092.0112084337 0 -2586092.0112084337 14275539.753007188 0 0 0 0 -14225301.602792621 5952310.678817749 0 5952310.678817749 55710777.485781908 0 0 0 0 20302265.405568123 1269263.8655860424 0 1269263.8655860424 1755423.9142913818 0 0 0 0 3192681.2042855844 1220642.6186755712 0 1220642.6186755712 860775.84936701879 0 0 0 0 20341371.09603405 11227033.005130768 0 11227033.005130768 538711.54288673401 0 0 0 0 24853924.827293396 2046022.9067134857 0 2046022.9067134857 17707414.878023148 0 0 0 0 16203662.616275787 19190651.426023483 0 19190651.426023483 38682627.967550278 0 0 0 0 16957906.793375373 9299161.1523346901 0 9299161.1523346901 13439340.966430664 0 0 0 0 -14008.06915116962 -442510.43506764062 0 -442510.43506764062 7426011.5404306315 0 0 0 0 -31510882.950166225 -8465628.7782379389 0 -8465628.7782379389 22714692.94545126 0 0 0 0 42815730.652560234 27084899.476782084 0 27084899.476782084 29818039.68567276 0 0 0 0 237545651.92111778 30198570.002020597 0 30198570.002020597 -74645612.587667823 0 0 0 0 64527.328710780712 -1057977.9483025139 0 -1057977.9483025139 615088.28709951928 0 0 0 0 412973.71049179928 315118.7956199022 0 315118.7956199022 10749454.463125005 0 0 0 0 2018115.9916758537 12680284.513743877 0 12680284.513743877 4266093.614739418 0 0 0 0 -22025728.60768652 9278037.2292182446 0 9278037.2292182446 16297666.92042923 0 0 0 0 66306956.341897011 46371246.793467999 0 46371246.793467999 -2441128.975815773 0 0 0 0 -1153104.955574275 2473680.4880927033 0 2473680.4880927033 3193177.9795352388 0 0 0 0 -33967099.07269001 81079249.065987825 0 81079249.065987825 30628078.759440899 0 0 0 0 38357620.198638916 26809452.684808731 0 26809452.684808731 21250570.260836601 0 0 0 0 -37559632.550014913 -4194931.9055497125 0 -4194931.9055497125 29384316.007034302 0 0 0 0 -4823103.5038276725 1439803.4616591891 0 1439803.4616591891 16155535.324461346 0 0 0 0 42926300.58473587 14138894.655843258 0 14138894.655843258 17295723.177223206 0 0 0 0 21248878.594720125 -1749259.5645611286 0 -1749259.5645611286 -2167631.587896347 0 0 0 0 23099198.511808395 -7393849.4034531116 0 -7393849.4034531116 14570665.45313549 0 0 0 0 9908148.2436821461 16590858.397191405 0 16590858.397191405 26150402.19767189 0 0 0 0 16642124.273762703 18616611.260425568 0 18616611.260425568 23976258.061532974 0 0 0 0 -4937574.6937298775 22039188.534062386 0 22039188.534062386 9054964.2104291916 0 0 0 0 7640776.3524570465 7121165.8055105209 0 7121165.8055105209 23961318.271331787 0 0 0 0 20620508.887336731 5765602.4723167419 0 5765602.4723167419 18050629.208604813 0 0 0 0 -19939585.365192413 5523244.6061117649 0 5523244.6061117649 36997757.808851242 0 0 0 0 267634.03711399157 4010305.7486889488 0 4010305.7486889488 15372216.590842297 0 0 0 0 -11192365.927276611 -1784178.6851987839 0 -1784178.6851987839 28898590.522337914 0 0 0 0 -15538207.547252655 -6922539.3702287674 0 -6922539.3702287674 24707075.691539764 0 0 0 0 2799867.2606048584 55496815.084737778 0 55496815.084737778 -7363463.9638748169 0 0 0 0 -1824037.6725600837 -780923.66603992321 0 -780923.66603992321 4074038.5009674123 0 0 0 0 5336790.8402357101 231994.38549137115 0 231994.38549137115 17549718.685035706 0 0 0 0 -7264723.0510540009 7204139.0230665207 0 7204139.0230665207 15206974.268680096 0 0 0 0 -14198028.662577868 11377670.991596699 0 11377670.991596699 19892763.182182312 0 0 0 0 -3329150.0950727463 13268969.839672089 0 13268969.839672089 24095500.774106979 0 0 0 0 -4949669.8710608482 11249145.586357355 0 11249145.586357355 15587508.011283875 0 0 0 0 -10657834.78216362 1514667.0489883423 0 1514667.0489883423 9817657.6873512268 0 0 0 0 -6887178.381696701 519447.68313622475 0 519447.68313622475 13069563.364537239 0 0 0 0 9894986.375295639 5337347.1848273277 0 5337347.1848273277 8531868.7236275673 0 0 0 0 13042045.673710823 3393890.4420900345 0 3393890.4420900345 16232212.098469734 0 0 0 0 17775003.369227409 7916719.5609133244 0 7916719.5609133244 9226385.3824930191 0 0 0 0 4335116.3052129745 -4323437.1538558006 0 -4323437.1538558006 19021834.613884926 0 0 0 0 -2050138.2480392456 2092864.4573965073 0 2092864.4573965073 20939799.030970097 0 0 0 0 -1329168.1976577924 444943.02964378858 0 444943.02964378858 10060922.247197814 0 0 0 0 11845497.284927368 4000199.4772593975 0 4000199.4772593975 7315459.0492277145 0 0 0 0 499210.93238211237 744768.66759746056 0 744768.66759746056 1429423.6768871313 0 0 0 0 -2187561.2906308174 3114220.1919808388 0 3114220.1919808388 17695104.544327736 0 0 0 0 1899131.0202017426 2116888.7730928659 0 2116888.7730928659 9496308.7039813995 0 0 0 0 476971.6829225386 -1056938.9686723799 0 -1056938.9686723799 7078574.6186535414 0 0 0 0 1020903.3099572659 -7794637.8002843857 0 -7794637.8002843857 7086545.6916651726 0 0 0 0 2322874.9777565002 38608771.5548172 0 38608771.5548172 17167810.857481003 0 0 0 0 -1996152.0846579843 -2705685.2862209603 0 -2705685.2862209603 7237778.8583362252 0 0 0 0 -7819991.1957387924 -9621054.2385730743 0 -9621054.2385730743 27152776.914349556 0 0 0 0 7413431.9386916161 -4775741.4838547707 0 -4775741.4838547707 -48757432.589068413 0 0 0 0 -354496.43121147156 -6850070.7281103134 0 -6850070.7281103134 -13111790.171392441 0 0 0 0 -3789235.1627054214 7854302.3427414894 0 7854302.3427414894 15711470.876521111 0 0 0 0 13019941.758960724 7983950.7661352158 0 7983950.7661352158 1803336.335133791 0 0 0 0 -2811694.8825206757 -902309.79409313202 0 -902309.79409313202 5738770.6872415543 0 0 0 0 -12564970.072477341 -8355965.2023677826 0 -8355965.2023677826 -8399237.5930500031 0 0 0 0 -448083.26216183475 -1666782.2277070428 0 -1666782.2277070428 490634.08268794976 0 0 0 0 7383970.9916698933 8273021.4966049194 0 8273021.4966049194 6567738.2072277069 0 0 0 0 6992533.7971355915 1241725.8600492477 0 1241725.8600492477 7174230.2763082981 0 0 0 0 4622943.0574140549 3882767.1563663483 0 3882767.1563663483 4243195.8758487701 0 0 0 0 13808448.308327079 2657084.8709053993 0 2657084.8709053993 -1557142.6918096542 0 0 0 0 1462746.6477389224 -6243927.6698277667 0 -6243927.6698277667 52611041.143939972 0 0 0 0 720579.16204778012 721770.56051343307 0 721770.56051343307 1070498.0752412342 0 0 0 0 2226348.2338583469 4648278.7453556061 0 4648278.7453556061 5162954.4544391632 0 0 0 0 -4352.6969174491242 -257984.44720073789 0 -257984.44720073789 6296685.1662940886 0 0 0 0 2927985.3318955898 1669273.6417226791 0 1669273.6417226791 4342262.8318496943 0 0 0 0 12869824.914611816 14413677.408779144 0 14413677.408779144 14207317.692497253 0 0 0 0 -56323.233117669821 2629507.3985824585 0 2629507.3985824585 7963934.1325073242 0 0 0 0 -1031093.3267807967 1074409.4534977898 0 1074409.4534977898 9046744.039368581 0 0 0 0 2764863.9180491557 5390529.8456962649 0 5390529.8456962649 5938902.0471004397 0 0 0 0 -3205939.2564067841 7071682.6171875 0 7071682.6171875 11065319.479572296 0 0 0 0 -145404.71273755841 1697831.704810096 0 1697831.704810096 10206828.688068938 0 0 0 0 -2306638.7428050898 4081939.2449196298 0 4081939.2449196298 25668168.183645628 0 0 0 0 -341415931.74212503 37084080.55158186 0 37084080.55158186 26014795.653795242 0 0 0 0 -900369.82811276894 -2901742.9285511114 0 -2901742.9285511114 11404008.895310849 0 0 0 0 3307646.1837029457 240636975.01423788 0 240636975.01423788 14607975.424762622 0 0 0 0 270093937.91423416 -150330836.5778141 0 -150330836.5778141 -47566281.729995728 0 0 0 0 -26236134.005870819 -111153921.81355882 0 -111153921.81355882 196003310.34084463 0 0 0 0 -126122322.95935917 8408378.2373976707 0 8408378.2373976707 177077206.50991249 0 0 0 0 -21746913.906374931 67802774.840843201 0 67802774.840843201 -27900599.765190274 0 0 0 0 5873000.543090852 -58449259.2883555 0 -58449259.2883555 -22847078.996700287 0 0 0 0 760489.76522791572 785709.70613670058 0 785709.70613670058 825254.69573769066 0 0 0 0 112101.40961503983 31731490.9597435 0 31731490.9597435 6123773.35987854 0 0 0 0 118899.74696979136 9563242.2619010471 0 9563242.2619010471 24378248.686192364 0 0 0 0 2665273.1259355545 19558367.87125206 0 19558367.87125206 13233509.821868896 0 0 0 0 -1305576.5753183365 15223889.972476959 0 15223889.972476959 8423169.9561405182 0 0 0 0 2482904.3608601093 27041989.913375854 0 27041989.913375854 35837881.179275513 0 0 0 0 -1516993.3341732025 -5213123.7188835144 0 -5213123.7188835144 65194168.090547919 0 0 0 0 -5399110.9411568642 -6610121.6554262638 0 -6610121.6554262638 89575227.766027927 0 0 0 0 10139027.142144203 13617328.435742855 0 13617328.435742855 25732244.430752754 0 0 0 0 13252656.369922876 5486409.8623719215 0 5486409.8623719215 15911830.458015442 0 0 0 0 -13807072.857648849 10497138.57056427 0 10497138.57056427 62238886.913853645 0 0 0 0 14619984.48324728 -24728520.905308247 0 -24728520.905308247 74853522.199773192 0 0 0 0 -25244162.566627979 12108756.984146595 0 12108756.984146595 89227626.102734566 0 0 0 0 -12226280.214283943 25481367.430524826 0 25481367.430524826 13286788.625982761 0 0 0 0 -47441911.292750359 74579519.376992702 0 74579519.376992702 -36512612.882391036 0 0 0 0 -3913194.8488302231 -5083342.5365846157 0 -5083342.5365846157 71789152.285143852 0 0 0 0 1190897.3259767517 960214.12723233737 0 960214.12723233737 1017141.7244240036 0 0 0 0 5719044.6174511909 14015597.362955689 0 14015597.362955689 58962727.971552849 0 0 0 0 7867202.1620812416 22988689.9348979 0 22988689.9348979 84210722.656591147 0 0 0 0 1087153.2944042468 4379237.922409622 0 4379237.922409622 6262092.3153204639 0 0 0 0 -4659191.8975634575 21538947.866069317 0 21538947.866069317 -6978491.4603722095 0 0 0 0 2314997.0781654818 2745392.2334394786 0 2745392.2334394786 2120564.1388039147 0 0 0 0 12388095.096783876 1732821.7317681313 0 1732821.7317681313 -6361982.129887104 0 0 0 0 -11185635.038169965 3500970.5415745974 0 3500970.5415745974 25466108.766544342 0 0 0 0 -1096563.0237252759 6199921.3273837902 0 6199921.3273837902 19819940.237610474 0 0 0 0 -4094798.3198223114 -2824626.6442470551 0 -2824626.6442470551 29056085.032339096 0 0 0 0 -566850.07193684578 6557982.5776364803 0 6557982.5776364803 9549407.7070159912 0 0 0 0 864979.25788617134 2447025.0416841507 0 2447025.0416841507 10611436.37348938 0 0 0 0 74632.232515555806 1576833.3713220367 0 1576833.3713220367 8334408.7342523709 0 0 0 0 -56188.70862379251 7345556.3260565465 0 7345556.3260565465 4410612.3053255379 0 0 0 0 1814614.89427948 12084562.453291893 0 12084562.453291893 38178656.5349617 0 0 0 0 -10511599.906626701 20116782.575091362 0 20116782.575091362 44799514.334918976 0 0 0 0 785342.74695562664 8588434.081610065 0 8588434.081610065 20599033.409973636 0 0 0 0 -18828755.826800585 26194991.951286316 0 26194991.951286316 19529353.053520203 0 0 0 0 -18174523.283589602 11448646.390163422 0 11448646.390163422 35015131.932796478 0 0 0 0 -9973874.4835371971 2284819.0827541351 0 2284819.0827541351 30053473.22536087 0 0 0 0 -11262123.920740448 610378.85280323029 0 610378.85280323029 37905405.966266632 0 0 0 0 -6022848.3472185135 -7857255.9101867676 0 -7857255.9101867676 29112194.182601929 0 0 0 0 -623060.69348812103 -17535851.996665955 0 -17535851.996665955 47951144.20526123 0 0 0 0 -11533370.000708401 706809.44167947769 0 706809.44167947769 45857802.245975494 0 0 0 0 26014049.033504128 -34531574.889339447 0 -34531574.889339447 50270097.130866051 0 0 0 0 -2990676.4582602978 -6054111.0048847198 0 -6054111.0048847198 47438804.841265678 0 0 0 0 -3670821.3125736713 -1393214.2823066711 0 -1393214.2823066711 70198345.213340759 0 0 0 0 6513791.0196061134 -12532569.786376953 0 -12532569.786376953 22968030.453969002 0 0 0 0 12370076.598574519 -14377427.075989723 0 -14377427.075989723 23483930.45923996 0 0 0 0 3552154.9613714218 -16162431.12465477 0 -16162431.12465477 22383929.016050339 0 0 0 0 -5279096.807094574 -7168634.4662885666 0 -7168634.4662885666 27335811.421890259 0 0 0 0 -9361601.6240420341 -5349220.8630084991 0 -5349220.8630084991 27246348.098789215 0 0 0 0 -2456841.7356977463 -10286704.53327179 0 -10286704.53327179 29439971.56502533 0 0 0 0 -4090166.5941689014 -5194024.2812328339 0 -5194024.2812328339 19123353.022621155 0 0 0 0 2794574.9977674484 -13150057.772608757 0 -13150057.772608757 18479944.980361938 0 0 0 0 -6734876.8997116089 -6536136.7192993164 0 -6536136.7192993164 15922516.697257996 0 0 0 0 7593148.9842844009 -15781835.362228394 0 -15781835.362228394 19821856.067813873 0 0 0 0 1158957.0115866661 -11369330.800426245 0 -11369330.800426245 18820606.160259247 0 0 0 0 5431656.6326274872 -2745847.3107290268 0 -2745847.3107290268 852858.06788635254 0 0 0 0 379633650.83967817 -710801597.890625 0 -710801597.890625 1332070602.8073502 0 0 0 0 3318500.8005644889 -2912459.2298973389 0 -2912459.2298973389 6521983.4800515138 0 0 0 0 10384752.460770441 2035904.8819978544 0 2035904.8819978544 -542854.55117633194 0 0 0 0 240290936.48213026 -827978330.46687412 0 -827978330.46687412 2293519435.636879 0 0 0 0 904215.03576450946 -2338303.1079008169 0 -2338303.1079008169 885439.75377319753 0 0 0 0 2640483.3641991615 -292577.18916511536 0 -292577.18916511536 17060236.432942152 0 0 0 0 534382.09414987965 -1536123.9052582067 0 -1536123.9052582067 7446974.8291250188 0 0 0 0 8586684.870159626 5908299.5674648285 0 5908299.5674648285 20448916.781939507 0 0 0 0 128497.29476571083 -3850507.4104471207 0 -3850507.4104471207 31120237.187259674 0 0 0 0 288959.28366211336 -218030.09965842823 0 -218030.09965842823 185074.89495648071 0 0 0 0 348990.91038362333 -1340235.0860018283 0 -1340235.0860018283 13062681.101621907 0 0 0 0 -1088605.9950988293 950018.67447757721 0 950018.67447757721 7044402.7539653778 0 0 0 0 -7750402.7984509468 -9749471.3252258301 0 -9749471.3252258301 17276827.884155273 0 0 0 0 -70231.131242210045 -132827.32954096049 0 -132827.32954096049 2422171.4741052967 0 0 0 0 3749351.8074388504 2831636.4056301117 0 2831636.4056301117 16049443.033556342 0 0 0 0 26911784.648017906 276236498.56677914 0 276236498.56677914 2205049826.8868647 0 0 0 0 3849217.5361537901 1704451.9767824803 0 1704451.9767824803 4481357.892768668 0 0 0 0 -36136958.183622323 151740406.24787903 0 151740406.24787903 2186365362.9661746 0 0 0 0 4321869.2192482948 999316.60674571991 0 999316.60674571991 18043392.214334488 0 0 0 0 2365355.9671245092 -3159449.9430036237 0 -3159449.9430036237 12465602.079299783 0 0 0 0 -40402312.19551228 147716109.72003222 0 147716109.72003222 2203202355.2033043 0 0 0 0 3314438.526912929 -683412.06189164333 0 -683412.06189164333 2844889.8812322696 0 0 0 0 8837347.0957438946 2244973.0400247574 0 2244973.0400247574 13426477.915923119 0 0 0 0 3695349.7747881785 1199059.3141546696 0 1199059.3141546696 18290968.639989853 0 0 0 0 49987160.103234246 -311913068.38710213 0 -311913068.38710213 2063365323.5844011 0 0 0 0 3122718.096971035 1111570.3153781891 0 1111570.3153781891 18926575.792142868 0 0 0 0 3924062.6279957471 265708.90343511663 0 265708.90343511663 -2453280.4938441049 0 0 0 0 -13559539.617725439 -44675487.286785126 0 -44675487.286785126 2187206850.4468164 0 0 0 0 2554444.4816534519 3677386.5085382462 0 3677386.5085382462 18510683.680547714 0 0 0 0 26218659.103833258 23656143.142106175 0 23656143.142106175 14255048.787085533 0 0 0 0 12310092.741841555 14294670.258342743 0 14294670.258342743 23533179.404019356 0 0 0 0 40663.758044110727 -128402.10533613013 0 -128402.10533613013 5522168.5853168024 0 0 0 0 435950321.02993959 941277802.42242169 0 941277802.42242169 2204686716.1307526 0 0 0 0 3555595.9578445563 271636.67560378788 0 271636.67560378788 6823945.2480384465 0 0 0 0 6282036.203492986 3787353.2467986504 0 3787353.2467986504 8247623.5253671436 0 0 0 0 4898628.4577345848 5376647.7927899361 0 5376647.7927899361 16002631.080385208 0 0 0 0 4062077.4507506229 3871840.3073620591 0 3871840.3073620591 8116503.203110097 0 0 0 0 1455984.772313118 2933227.0417778492 0 2933227.0417778492 7870977.6698541641 0 0 0 0 430169667.97708321 -139548456.28681242 0 -139548456.28681242 -364130813.73364067 0 0 0 0 3938435.0719455825 2000264.2758508432 0 2000264.2758508432 10279760.401741229 0 0 0 0 4534222.4720229395 5378256.3826455921 0 5378256.3826455921 11812538.07117659 0 0 0 0 4945318.8256282806 2875482.6729288995 0 2875482.6729288995 11520908.538124323 0 0 0 0 6751447.2497897148 8376375.0927386284 0 8376375.0927386284 18864625.412657738 0 0 0 0 2805969.2883381844 3773197.3928508759 0 3773197.3928508759 22531612.954584122 0 0 0 0 2123548.4827420954 2517561.8944251807 0 2517561.8944251807 6854023.0712891351 0 0 0 0 7700869.90289855 -98841.792081058025 0 -98841.792081058025 20847493.058876038 0 0 0 0 -232765.1507191658 2456715.0684094429 0 2456715.0684094429 12492479.638970494 0 0 0 0 -79393070.93558979 -33154806.69939208 0 -33154806.69939208 13450210.224684 0 0 0 0 -73315539.032887459 197733217.460109 0 197733217.460109 -50786442.364075661 0 0 0 0 3310565.7661416014 4045665.6676599868 0 4045665.6676599868 6250673.5243506161 0 0 0 0 1536619.5235928046 1481204.3338302071 0 1481204.3338302071 2588027.2176556862 0 0 0 0 111141842.82423657 -434715088.15566349 0 -434715088.15566349 461456263.68266153 0 0 0 0 74358831.349836349 211451000.70299816 0 211451000.70299816 67210325.186030388 0 0 0 0 -146395866.17108345 44095918.707554102 0 44095918.707554102 52498933.681598902 0 0 0 0 -212177199.14241219 50696654.274039984 0 50696654.274039984 290115712.46291757 0 0 0 0 74856803.40961647 115580261.49393845 0 115580261.49393845 -6113035.0236701965 0 0 0 0 235306.90807845024 -435102.93235142622 0 -435102.93235142622 2120222.0985822976 0 0 0 0 -32102607.703115463 -65055063.283049107 0 -65055063.283049107 242557195.76546621 0 0 0 0 71250643.928411484 -63289219.333203375 0 -63289219.333203375 18486054.115377903 0 0 0 0 -35523777.133193076 -5632428.6832473353 0 -5632428.6832473353 19484689.762214184 0 0 0 0 -26280825.459902287 -17951951.294025302 0 -17951951.294025302 9765107.7928009033 0 0 0 0 -81966502.779184341 40133201.854700089 0 40133201.854700089 5889509.0143728256 0 0 0 0 256388.8022441864 3125644.5881309509 0 3125644.5881309509 24076876.323591232 0 0 0 0 8841825.2142620087 10155919.650965691 0 10155919.650965691 33539411.777565002 0 0 0 0 8869679.282451421 10368813.042118728 0 10368813.042118728 29469860.998708725 0 0 0 0 36141708.143041372 57278148.968486041 0 57278148.968486041 21346796.920314863 0 0 0 0 269639788.73562717 149300355.46960092 0 149300355.46960092 -247257414.81797218 0 0 0 0 -17783214.000422478 -23283903.991941214 0 -23283903.991941214 64056975.558882892 0 0 0 0 6949535.0438906401 -67252.286882510874 0 -67252.286882510874 -700390.29246230097 0 0 0 0 20492684.880943298 7036736.0700750351 0 7036736.0700750351 18880898.028081775 0 0 0 0 -3902889.2489701174 3808394.6745301187 0 3808394.6745301187 8926790.178594429 0 0 0 0 -134865850.68803024 330883177.94453001 0 330883177.94453001 -166374986.22844791 0 0 0 0 -1239288.8795338068 -2723500.718609673 0 -2723500.718609673 13404435.216195956 0 0 0 0 7950694.0227775574 10895008.836575508 0 10895008.836575508 34122797.128069878 0 0 0 0 13643582.36101532 7569889.8734359741 0 7569889.8734359741 29781015.647964478 0 0 0 0 -1182773.5950498525 1350125.03190766 0 1350125.03190766 3414448.5368390046 0 0 0 0 86488013.591255665 79573329.749281868 0 79573329.749281868 2495755.0714297295 0 0 0 0 4938.309338869527 533120.69268704997 0 533120.69268704997 17530399.677138474 0 0 0 0 -192938738.71829796 -158910562.49091077 0 -158910562.49091077 -43289867.975132644 0 0 0 0 13928809.28631115 5939470.2763123512 0 5939470.2763123512 28728859.894843102 0 0 0 0 8942430.0203590393 4557086.5972661972 0 4557086.5972661972 34421913.740362167 0 0 0 0 8912522.322786808 4973650.568482399 0 4973650.568482399 29965860.356985092 0 0 0 0 4207630.8824946824 4342009.4325331524 0 4342009.4325331524 20892738.472322166 0 0 0 0 4981401.451808691 5719218.754359955 0 5719218.754359955 14255880.357840687 0 0 0 0 351405723.20539087 911013669.72068131 0 911013669.72068131 1677223552.4928515 0 0 0 0 4844518.9973273277 3911892.3525611162 0 3911892.3525611162 14206979.217064977 0 0 0 0 1594417.2913596663 230654.44299471588 0 230654.44299471588 6065996.71827708 0 0 0 0 3829581.1575040817 4060219.4212775081 0 4060219.4212775081 17093216.62220639 0 0 0 0 931380912.65162754 1053468949.8798814 0 1053468949.8798814 1202678546.0464449 0 0 0 0 5563389.0002666768 4433159.1932913503 0 4433159.1932913503 3764523.6149373194 0 0 0 0 4503658.776506424 2235735.0774587393 0 2235735.0774587393 14823973.325030804 0 0 0 0 4051011.6091508865 4672013.412260294 0 4672013.412260294 13809473.290052712 0 0 0 0 4374888.1640453339 5432865.7237877846 0 5432865.7237877846 11500976.902644131 0 0 0 0 511681343.82106382 1227864145.6864173 0 1227864145.6864173 2688151878.1702018 0 0 0 0 127652.02907361853 -28529.339329737239 0 -28529.339329737239 1013939.0274498374 0 0 0 0 619524400.40036273 894087591.71417344 0 894087591.71417344 1973529093.7672975 0 0 0 0 145259901.86434996 719302926.84936023 0 719302926.84936023 2035373288.4318547 0 0 0 0 254508344.30890313 869918152.52542567 0 869918152.52542567 2204759494.1560345 0 0 0 0 356985458.31925511 870251934.13584876 0 870251934.13584876 1973950862.0626075 0 0 0 0 134992711.19515672 639365985.92004383 0 639365985.92004383 1781492741.7448552 0 0 0 0 -86166771.784760579 373767461.09930944 0 373767461.09930944 1886752997.0560117 0 0 0 0 -49012260.616890281 582212527.45461619 0 582212527.45461619 2204628385.218874 0 0 0 0 235429638.49265736 490541541.3245163 0 490541541.3245163 1355058269.887311 0 0 0 0 342258434.74529803 667524211.7228508 0 667524211.7228508 1395224956.9510212 0 0 0 0 356566589.30353016 751162997.21005321 0 751162997.21005321 1526475081.7346239 0 0 0 0 372310705.73835301 745914495.90285397 0 745914495.90285397 1495670803.2374592 0 0 0 0 341100806.45039433 681623349.17070055 0 681623349.17070055 1368608366.4855194 0 0 0 0 681703.71834448352 -814426.86371055455 0 -814426.86371055455 6094792.4513698276 0 0 0 0 250233167.62225217 588418361.54024339 0 588418361.54024339 1721580624.9975572 0 0 0 0 -542139802.9326452 -336170115.0086627 0 -336170115.0086627 1199132886.4383078 0 0 0 0 -189139405.32856584 110984422.82711136 0 110984422.82711136 1418379001.2348213 0 0 0 0 -433298590.73154467 110054081.10055542 0 110054081.10055542 2204266617.2315235 0 0 0 0 17542722.371105969 348753781.02438593 0 348753781.02438593 1484642522.5611541 0 0 0 0 -345496901.16241163 222617499.23984361 0 222617499.23984361 1338057319.3756866 0 0 0 0 -424259400.67777884 -328370771.308146 0 -328370771.308146 -19980308.419244796 0 0 0 0 -176965804.42211848 1221963272.144747 0 1221963272.144747 -52694377.671069145 0 0 0 0 -150583500.82502857 10054200.004352808 0 10054200.004352808 806001832.15695953 0 0 0 0 210524160.14038843 874653434.32947254 0 874653434.32947254 350281618.46303988 0 0 0 0 206572518.88718593 806468635.49645162 0 806468635.49645162 1377941255.5296316 0 0 0 0 26783.438343817368 464310.61345130578 0 464310.61345130578 1203238.5447460199 0 0 0 0 -449003649.97089756 688013472.94056988 0 688013472.94056988 603958184.61227798 0 0 0 0 -30195183.002545953 419226531.35218453 0 419226531.35218453 -29625482.515392303 0 0 0 0 -105356481.0548389 418834468.62730837 0 418834468.62730837 756036652.24500275 0 0 0 0 464738424.62836528 -148281633.46302223 0 -148281633.46302223 455123033.31143284 0 0 0 0 213860086.78458548 -626332559.73486805 0 -626332559.73486805 1417453769.9310746 0 0 0 0 93893415.391404152 164982048.10959435 0 164982048.10959435 1413465894.9346688 0 0 0 0 -30834.167340052081 1584863.9771286836 0 1584863.9771286836 3347691.7328700274 0 0 0 0 -5627329.8559384346 8925917.1186256409 0 8925917.1186256409 41079717.751722336 0 0 0 0 4142105.9565148996 3435363.9596177181 0 3435363.9596177181 -23291.626723751193 0 0 0 0 13231890.543231487 13777070.093113899 0 13777070.093113899 31175023.108387709 0 0 0 0 359250084.48459232 661865856.84637356 0 661865856.84637356 1345617616.8764539 0 0 0 0 1305587.0862573499 1729227.7374316696 0 1729227.7374316696 3372803.9723970108 0 0 0 0 357920515.77603996 656382805.06330919 0 656382805.06330919 1368642848.2748833 0 0 0 0 334333365.70510876 443482642.30632877 0 443482642.30632877 982635150.75383568 0 0 0 0 2349869.2073184252 32346103.739400387 0 32346103.739400387 7528112.0435352325 0 0 0 0 18011917.832266569 48394300.367165565 0 48394300.367165565 13894697.612700462 0 0 0 0 22765516.261988401 65606152.537960052 0 65606152.537960052 -264794075.25564671 0 0 0 0 -151607150.43838716 101332572.28673553 0 101332572.28673553 276282594.25787735 0 0 0 0 -124747562.88689852 64611349.157592773 0 64611349.157592773 90688963.956655502 0 0 0 0 -36812519.484599113 -3229565.957034111 0 -3229565.957034111 22990109.084962368 0 0 0 0 -60299063.650520325 50985253.382096291 0 50985253.382096291 33723991.737038136 0 0 0 0 -779442.03509712219 49811998.534241676 0 49811998.534241676 33403715.428541183 0 0 0 0 -39061439.713803291 22698883.398611069 0 22698883.398611069 31456789.498354971 0 0 0 0 -1517382.6128435135 3797532.9560928345 0 3797532.9560928345 11388345.914954185 0 0 0 0 -825756.28511762619 -32714253.87843132 0 -32714253.87843132 12267243.342325211 0 0 0 0 -52182935.406862974 -32083548.364753723 0 -32083548.364753723 14219038.407142639 0 0 0 0 3325266.9676141739 10538630.60098362 0 10538630.60098362 22006937.058799744 0 0 0 0 13145031.260814667 12856703.123966217 0 12856703.123966217 -1987114.3738670349 0 0 0 0 3809046.1466941833 -5710816.4947080612 0 -5710816.4947080612 9527035.6017932892 0 0 0 0 -597275.10995142814 1389567.1070314802 0 1389567.1070314802 3776770.7246981505 0 0 0 0 432307.5071835462 -2587849.5065313913 0 -2587849.5065313913 8329923.0222772136 0 0 0 0 19332921.121906281 13931628.031503677 0 13931628.031503677 687543.99637794495 0 0 0 0 23005836.096660614 21854663.683256149 0 21854663.683256149 24127644.824417114 0 0 0 0 14842058.500108957 59559.724396705627 0 59559.724396705627 -10928732.778434753 0 0 0 0 -451741.10949273047 401482.47030668799 0 401482.47030668799 -439237.25136472285 0 0 0 0 -278049078.05989832 -242504428.98717368 0 -242504428.98717368 77173780.980932236 0 0 0 0 5132421.6051025391 -23071270.400051117 0 -23071270.400051117 6030323.6670951843 0 0 0 0 -282861.35978636192 -2402463.2727150936 0 -2402463.2727150936 5021004.8484058734 0 0 0 0 -114364952.92185199 -226874506.80012465 0 -226874506.80012465 -43459083.54649353 0 0 0 0 -240932589.77446032 -4784566.7825460434 0 -4784566.7825460434 93353078.004837036 0 0 0 0 -80819627.373236656 9398250.1975078583 0 9398250.1975078583 -55428182.987681746 0 0 0 0 -112302096.05685744 -27310757.000274658 0 -27310757.000274658 217191449.14989853 0 0 0 0 30070842.062244833 120131495.01639938 0 120131495.01639938 326114837.73552704 0 0 0 0 9343660.5283597708 -92701942.19556427 0 -92701942.19556427 340166287.2801168 0 0 0 0 106451.0827319026 26287656.513212204 0 26287656.513212204 162162921.02054405 0 0 0 0 282588908.88632882 -78518765.182762146 0 -78518765.182762146 109902971.86468506 0 0 0 0 10481349.012790769 -36795324.854774475 0 -36795324.854774475 95900381.306596756 0 0 0 0 -149398477.07225439 -125261555.66852164 0 -125261555.66852164 189663848.83723068 0 0 0 0 164136540.74230719 59724343.057466507 0 59724343.057466507 525426439.57145083 0 0 0 0 546567337.53250575 438658038.33303493 0 438658038.33303493 500033593.75288963 0 0 0 0 220071863.73277414 142674950.80545425 0 142674950.80545425 325476858.471838 0 0 0 0 203949865.12119249 218272880.08808136 0 218272880.08808136 439537098.62040138 0 0 0 0 258404068.3575573 -5003574.7611351013 0 -5003574.7611351013 266842040.24400139 0 0 0 0 185832835.07202053 -12689802.401890755 0 -12689802.401890755 -88327310.571943283 0 0 0 0 316747117.79133403 63456031.979722977 0 63456031.979722977 69482288.151489258 0 0 0 0 123715637.59975672 37268438.84107399 0 37268438.84107399 79408658.586685181 0 0 0 0 -30202168.834192872 -168213260.23068619 0 -168213260.23068619 43111369.567920685 0 0 0 0 -40914142.716200233 -25084386.322536469 0 -25084386.322536469 151387462.70278931 0 0 0 0 -36972658.147556305 -56747183.443504333 0 -56747183.443504333 -67568111.749612808 0 0 0 0 162674611.62742209 -52165870.351282358 0 -52165870.351282358 -98526932.954116821 0 0 0 0 -70540482.106114805 -15792720.366065979 0 -15792720.366065979 -107432735.7310791 0 0 0 0 -175578168.00201795 -220874651.8400116 0 -220874651.8400116 -307476853.11478424 0 0 0 0 -244672105.07312766 -28776442.764048934 0 -28776442.764048934 -12230623.882720947 0 0 0 0 -724168.05353819404 -202835.10935397726 0 -202835.10935397726 454854.21473887563 0 0 0 0 -498534.95959413797 903786.13231942523 0 903786.13231942523 254771.44553715736 0 0 0 0 -839294.05649542809 -40047512.765827179 0 -40047512.765827179 39021539.800323486 0 0 0 0 -135430994.96818572 -31377280.948108673 0 -31377280.948108673 -6747923.412771225 0 0 0 0 16398423.73209393 -62990422.474649429 0 -62990422.474649429 -169576096.60924721 0 0 0 0 45969329.921993971 -107965642.9925499 0 -107965642.9925499 -118829281.85284042 0 0 0 0 -92638522.052154422 -117141988.59662533 0 -117141988.59662533 -87366149.132882118 0 0 0 0 113361969.91422755 7131152.7129297256 0 7131152.7129297256 -81738207.041379929 0 0 0 0 38656371.50935328 -40434023.384263992 0 -40434023.384263992 -93183130.480872631 0 0 0 0 91853264.153798819 15848405.363474846 0 15848405.363474846 -71867005.46264267 0 0 0 0 6578263.1152958274 4038017.4498581886 0 4038017.4498581886 -31529509.831253052 0 0 0 0 5698347.8682304621 12646091.221147537 0 12646091.221147537 -71979082.312796116 0 0 0 0 -21848052.399303854 13486499.9008919 0 13486499.9008919 -149956.40507125854 0 0 0 0 -1233474.1845150706 6009663.9818317015 0 6009663.9818317015 -1640156.9371767007 0 0 0 0 -11508339.586340547 -19802741.190629005 0 -19802741.190629005 -45089322.272271156 0 0 0 0 16327251.392932653 46110405.420929909 0 46110405.420929909 -7616740.3176460266 0 0 0 0 -20034137.798225999 28461677.586322784 0 28461677.586322784 6275509.7341003418 0 0 0 0 8539564.1749664843 -31789942.084749222 0 -31789942.084749222 -40206382.748668671 0 0 0 0 -10214973.767347336 13317254.884832382 0 13317254.884832382 -9245890.3039169312 0 0 0 0 11835085.236246824 26141927.026569366 0 26141927.026569366 -12488206.074707031 0 0 0 0 7081921.4367091656 17991114.947502136 0 17991114.947502136 -8313587.8119430542 0 0 0 0 34191436.313740253 13337156.156387329 0 13337156.156387329 -18407857.832771301 0 0 0 0 32612969.803568363 4825734.7401008606 0 4825734.7401008606 -37329812.627309799 0 0 0 0 14600289.87981987 14268452.416805267 0 14268452.416805267 -17024743.875015259 0 0 0 0 35390377.113162041 14526512.525161743 0 14526512.525161743 -17764356.010040283 0 0 0 0 55626117.545583248 -3253937.2681369781 0 -3253937.2681369781 -3022980.6783485413 0 0 0 0 53292137.342085838 24536766.533779144 0 24536766.533779144 -16767622.772693634 0 0 0 0 23959052.364149332 -3614076.9417724609 0 -3614076.9417724609 36988347.335666656 0 0 0 0 33325058.951450348 559929.25519943237 0 559929.25519943237 -5618716.8705501556 0 0 0 0 11085269.501496315 17572495.53128624 0 17572495.53128624 5572799.5458068848 0 0 0 0 28072407.176452637 24114990.127037048 0 24114990.127037048 -38233696.359945297 0 0 0 0 22667036.208077431 38211967.739681244 0 38211967.739681244 -7912860.0892410278 0 0 0 0 -24489351.957368851 26835960.095144272 0 26835960.095144272 88929527.016895294 0 0 0 0 13531338.521379471 -14110383.564956665 0 -14110383.564956665 55241976.045391083 0 0 0 0 -21568397.54739511 51272474.327372074 0 51272474.327372074 28312102.636749268 0 0 0 0 4867552.0575294495 48068083.02223587 0 48068083.02223587 -19449414.884824753 0 0 0 0 -2752606.9529628754 9756540.6852874756 0 9756540.6852874756 50132374.524230957 0 0 0 0 10714083.464744091 18059004.801951408 0 18059004.801951408 22383242.92880249 0 0 0 0 3356728.712852478 15287770.047779083 0 15287770.047779083 37823127.119407654 0 0 0 0 -4963004.7786026001 23328357.191057205 0 23328357.191057205 31544126.547628403 0 0 0 0 9372459.2303714752 6615644.4895496368 0 6615644.4895496368 38251875.040054321 0 0 0 0 6129322.7104578018 13004627.269117355 0 13004627.269117355 33814112.664901733 0 0 0 0 39908099.702111244 -2781367.8618249893 0 -2781367.8618249893 29597731.862854004 0 0 0 0 8145543.5740871429 9431951.6338062286 0 9431951.6338062286 37497469.585643768 0 0 0 0 17667646.590857029 9217334.3405513763 0 9217334.3405513763 19052950.185405731 0 0 0 0 21453569.580162048 16326402.880263329 0 16326402.880263329 19731732.849742889 0 0 0 0 5157875.6646251678 20580568.883190155 0 20580568.883190155 23710440.584638596 0 0 0 0 -1818722.2758573843 751523.3508323431 0 751523.3508323431 2488603.761243578 0 0 0 0 14394237.654731989 26549594.123013496 0 26549594.123013496 -7249488.0329883099 0 0 0 0 5513732.2639360428 17658344.617471695 0 17658344.617471695 35610553.942527771 0 0 0 0 3762906.227853775 14232093.380865097 0 14232093.380865097 39760609.842070103 0 0 0 0 19586951.21201992 11419507.866704941 0 11419507.866704941 21616668.172169685 0 0 0 0 227113.13572645187 -46477104.753329277 0 -46477104.753329277 37527202.174480438 0 0 0 0 -221573.08290963154 -523948.29942475259 0 -523948.29942475259 1917512.8538383488 0 0 0 0 3500628.0829854012 9117073.0018119812 0 9117073.0018119812 4203682.0748806 0 0 0 0 -25778011.319771528 -20658299.454690933 0 -20658299.454690933 -6697318.9641799927 0 0 0 0 622253.29539486347 460595.54034889489 0 460595.54034889489 2451387.3211933076 0 0 0 0 -41045924.488579392 6333941.3457727432 0 6333941.3457727432 42230817.839893341 0 0 0 0 -72887011.028847456 130713227.32428932 0 130713227.32428932 -50746474.545733452 0 0 0 0 -3371270.786199321 -754549.76104828343 0 -754549.76104828343 11820923.282683313 0 0 0 0 1208344.2654775823 11310981.006210206 0 11310981.006210206 31347177.410739437 0 0 0 0 14431578.191664219 30312836.871143341 0 30312836.871143341 -36470468.561519623 0 0 0 0 -16840441.154864788 47349159.676639557 0 47349159.676639557 -45528989.709046364 0 0 0 0 70308003.391017556 35528112.170151711 0 35528112.170151711 -56165017.158448219 0 0 0 0 51850563.443937659 69478415.531830311 0 69478415.531830311 -75294263.694480896 0 0 0 0 59889487.071454644 108521386.39321995 0 108521386.39321995 -82017860.594842434 0 0 0 0 -97130648.461885571 18554673.390209675 0 18554673.390209675 109237611.7850523 0 0 0 0 100132703.32831407 22936796.813236237 0 22936796.813236237 147825684.7506361 0 0 0 0 146342785.79179814 134904607.97999489 0 134904607.97999489 64903828.649978638 0 0 0 0 -21140302.902362585 -92606790.64557457 0 -92606790.64557457 369366906.264364 0 0 0 0 23836848.694206685 174942743.47154474 0 174942743.47154474 306891824.63112259 0 0 0 0 168263654.64372551 22233132.845916748 0 22233132.845916748 455831315.11882591 0 0 0 0 -92427679.084222496 -196388842.31377411 0 -196388842.31377411 164394313.89755177 0 0 0 0 -156905829.54027879 27049689.844366074 0 27049689.844366074 115918818.81225586 0 0 0 0 1517033.1926972214 9038690.0515852496 0 9038690.0515852496 32545554.857443281 0 0 0 0 -192384449.89952326 214118711.1633172 0 214118711.1633172 60518337.374660492 0 0 0 0 55037223.317596972 -134698589.72097588 0 -134698589.72097588 167259750.45375061 0 0 0 0 704197.6559627899 395164.57829308882 0 395164.57829308882 194443.43032770604 0 0 0 0 -7239601.2752795219 47591561.432207108 0 47591561.432207108 232660889.54537964 0 0 0 0 -7451723.4407935143 -14811483.193258286 0 -14811483.193258286 17367994.786148071 0 0 0 0 13692852.090153217 115510807.76898956 0 115510807.76898956 -1806902.8066139221 0 0 0 0 27052457.31037724 26715599.518564463 0 26715599.518564463 21125290.643379211 0 0 0 0 -12005266.776910782 15458550.617164612 0 15458550.617164612 -27818146.946846008 0 0 0 0 -99548423.550444603 101087052.10660744 0 101087052.10660744 26985562.892549515 0 0 0 0 -1580151.68152273 984698.30241700821 0 984698.30241700821 3099775.1589497607 0 0 0 0 -151877500.85529318 -136539832.93107748 0 -136539832.93107748 361724214.41957474 0 0 0 0 -35990001.969146907 21358228.825740814 0 21358228.825740814 26086338.502716064 0 0 0 0 960160.42301375826 8901063.1367101073 0 8901063.1367101073 29149673.291171685 0 0 0 0 -141575073.24118304 -241043765.11096382 0 -241043765.11096382 476406067.46968079 0 0 0 0 -132195333.42032576 -267476624.0007453 0 -267476624.0007453 514711495.46725464 0 0 0 0 12786624.654320598 -167089081.04717636 0 -167089081.04717636 229173080.63180161 0 0 0 0 337648804.81548506 -546658927.84420395 0 -546658927.84420395 299162110.411273 0 0 0 0 18941734.582555901 -284006234.865592 0 -284006234.865592 665994117.3157959 0 0 0 0 -17962641.576723576 -369102383.18182087 0 -369102383.18182087 546724019.47026825 0 0 0 0 247906950.65029496 -344701279.82279587 0 -344701279.82279587 585880356.59942436 0 0 0 0 -140105517.29492649 -268443134.86104131 0 -268443134.86104131 558094932.15277863 0 0 0 0 -113318225.82704318 -312752233.20648193 0 -312752233.20648193 531968121.92185974 0 0 0 0 -74357931.934266448 -290487995.41650772 0 -290487995.41650772 437175472.08924103 0 0 0 0 -134513900.97077954 -295336010.06269264 0 -295336010.06269264 650114378.26270676 0 0 0 0 39406116.951582938 -330828758.14796448 0 -330828758.14796448 567905934.05999756 0 0 0 0 75264337.356489331 -267961170.68648529 0 -267961170.68648529 663039743.92571259 0 0 0 0 4124535.2256506644 11509924.015923236 0 11509924.015923236 13854686.860752391 0 0 0 0 255203723.50055438 -365932578.81612158 0 -365932578.81612158 668730348.66663742 0 0 0 0 216377172.96753797 -284448039.37171173 0 -284448039.37171173 622691420.57998276 0 0 0 0 192613987.43075845 -330012919.04737091 0 -330012919.04737091 759860174.2937088 0 0 0 0 104754192.64923951 -266405066.09835625 0 -266405066.09835625 820469024.42001343 0 0 0 0 272519481.5535261 -326167358.82976627 0 -326167358.82976627 758121455.69721222 0 0 0 0 345721966.18405622 -622452292.43356371 0 -622452292.43356371 791501625.93614197 0 0 0 0 679256829.96644735 -822870857.04234314 0 -822870857.04234314 877028134.06300545 0 0 0 0 2282656.4062709976 2809459.6588447811 0 2809459.6588447811 -2249831.9680053107 0 0 0 0 221737494.56616995 -308793814.35906029 0 -308793814.35906029 909711906.64726257 0 0 0 0 276839811.98166275 -412163713.34235764 0 -412163713.34235764 630220910.271842 0 0 0 0 -18885305.609224796 -38642463.795508385 0 -38642463.795508385 955515995.90955925 0 0 0 0 -117954387.11346662 -116649683.03007412 0 -116649683.03007412 385193815.4661541 0 0 0 0 -119961375.87488699 -107625899.07863426 0 -107625899.07863426 602584676.52912712 0 0 0 0 -134399482.04468811 -305821736.12511253 0 -305821736.12511253 594533584.61225247 0 0 0 0 -131041564.12067676 -287250552.52758026 0 -287250552.52758026 496515322.90749359 0 0 0 0 -136880428.07379639 -288507665.05497456 0 -288507665.05497456 527640459.19700623 0 0 0 0 -133605675.42631996 -275059019.41419792 0 -275059019.41419792 513364213.05555344 0 0 0 0 -189831511.15138566 -150913670.22982407 0 -150913670.22982407 458242160.22506934 0 0 0 0 77932129.06368351 -202026985.08444118 0 -202026985.08444118 461115158.23300552 0 0 0 0 -454349950.91408241 139633431.42222688 0 139633431.42222688 913791024.26939678 0 0 0 0 -1077732.0397134807 3027979.7848298987 0 3027979.7848298987 7822944.2915708646 0 0 0 0 -200649618.19730085 -317976010.5130949 0 -317976010.5130949 488579027.03228092 0 0 0 0 299152323.47531652 -761423921.03345394 0 -761423921.03345394 1044856541.3133451 0 0 0 0 -692498.70707189699 1284639.6479727346 0 1284639.6479727346 4419554.7450749055 0 0 0 0 145212239.50863534 -873244669.36944461 0 -873244669.36944461 2603417283.8866043 0 0 0 0 -569876639.49711144 -355096355.95952058 0 -355096355.95952058 2204892284.93857 0 0 0 0 -7078274.7876018435 -73432062.541651726 0 -73432062.541651726 1423259231.9360008 0 0 0 0 7570216.594070673 16471191.187179565 0 16471191.187179565 991035678.73139763 0 0 0 0 180378131.28262392 -341759041.38710165 0 -341759041.38710165 1147286793.7631531 0 0 0 0 161242463.86917469 -282172125.13402271 0 -282172125.13402271 754689772.03940201 0 0 0 0 57107143.125707865 -228223423.96907425 0 -228223423.96907425 735151045.65951157 0 0 0 0 181496860.76130593 -257008591.29755116 0 -257008591.29755116 741062526.7268219 0 0 0 0 -54985985.547760904 -102363295.48795509 0 -102363295.48795509 763434661.1736145 0 0 0 0 -29688186.179635555 -99926699.080710411 0 -99926699.080710411 21730776.208251953 0 0 0 0 63536834.53846997 -186416770.67171288 0 -186416770.67171288 556775816.7988112 0 0 0 0 27299071.904646575 -13403315.482528687 0 -13403315.482528687 543107336.75775146 0 0 0 0 -309632081.05959463 542617329.04302859 0 542617329.04302859 1337386549.8908844 0 0 0 0 -270302148.7301771 677142402.72699165 0 677142402.72699165 242614378.8578155 0 0 0 0 486741589.45085454 139376469.64371109 0 139376469.64371109 2205620537.0360365 0 0 0 0 -336308308.17389965 89336000.091690063 0 89336000.091690063 2214118033.9036283 0 0 0 0 -251638418.01215696 8925771.7088236809 0 8925771.7088236809 1398662257.0434761 0 0 0 0 -212363506.73616558 -355551129.6639204 0 -355551129.6639204 2205011637.0609264 0 0 0 0 239877285.5104602 -406330071.5330658 0 -406330071.5330658 819570959.48381615 0 0 0 0 160385888.46664381 -274488574.74628925 0 -274488574.74628925 998334354.83111191 0 0 0 0 1237263.5853327007 9597759.4565503206 0 9597759.4565503206 13126859.493815802 0 0 0 0 222095689.79469371 -603477158.79277611 0 -603477158.79277611 1215803079.3892069 0 0 0 0 448231950.77905411 -1076060727.8990564 0 -1076060727.8990564 2201170327.051434 0 0 0 0 1216508.3764057432 4073527.7508824803 0 4073527.7508824803 4792304.5932975933 0 0 0 0 214000311.17193794 68054447.140945196 0 68054447.140945196 -17511363.795028687 0 0 0 0 5876273.4194332473 5802183.5134516396 0 5802183.5134516396 3385727.0969184041 0 0 0 0 -369021191.7885623 385551313.29719162 0 385551313.29719162 2201479794.0347633 0 0 0 0 160592700.74106306 189730325.90411186 0 189730325.90411186 822917912.50752258 0 0 0 0 1381120.2206075601 1123976607.858757 0 1123976607.858757 1017315069.2011871 0 0 0 0 -215305.09416077298 3626722.8295093253 0 3626722.8295093253 526081.1865644902 0 0 0 0 -131299339.79522185 -136263237.18731308 0 -136263237.18731308 522783859.36940956 0 0 0 0 -151102971.85013223 -5312538.0521640778 0 -5312538.0521640778 89113131.535324097 0 0 0 0 -1569709.005679226 5825678.1429510433 0 5825678.1429510433 4643194.2112109587 0 0 0 0 18811276.315526247 -14087320.289571762 0 -14087320.289571762 23470672.113571167 0 0 0 0 -2055505.4840571035 2202810.132185854 0 2202810.132185854 6152210.5989191569 0 0 0 0 -2294980.0185316205 7146916.8935451508 0 7146916.8935451508 2361798.7926769257 0 0 0 0 -2368362.2441770136 7164089.9366025925 0 7164089.9366025925 2755786.7913246155 0 0 0 0 730693.79046463966 4383292.4871292114 0 4383292.4871292114 2709136.2463493347 0 0 0 0 -2437603.7595141269 3273417.166435685 0 3273417.166435685 5630682.5838022456 0 0 0 0 -3369810.2726858854 816008.22503852844 0 816008.22503852844 3657916.253341198 0 0 0 0 -2272208.844999969 -1034637.7167644501 0 -1034637.7167644501 6778221.0431289673 0 0 0 0 -4822750.6601130962 -3720514.4380683899 0 -3720514.4380683899 -247481.95013475418 0 0 0 0 -1727505.7717501521 -1740587.3105139732 0 -1740587.3105139732 -7626668.1966705322 0 0 0 0 234938.62753212382 323247.91832069494 0 323247.91832069494 -431497.36241440475 0 0 0 0 58485771.708539963 60932821.813899994 0 60932821.813899994 -14875390.693325043 0 0 0 0 -6547675.056164667 25843767.634558797 0 25843767.634558797 -96485.076622009277 0 0 0 0 85558348.346618891 -21312804.586700439 0 -21312804.586700439 -19578255.167551041 0 0 0 0 22348260.164972544 54206303.225914001 0 54206303.225914001 -52760927.003902435 0 0 0 0 -21781534.428269386 12664546.192896843 0 12664546.192896843 11643954.060127258 0 0 0 0 -2340744.7445512414 8306408.538397789 0 8306408.538397789 -4048821.7875404358 0 0 0 0 20972238.243914604 12073277.209972382 0 12073277.209972382 -37779623.667240143 0 0 0 0 1734444.938555008 2801638.8097378649 0 2801638.8097378649 -3870027.3670048788 0 0 0 0 -164590828.61162901 -107807885.0932045 0 -107807885.0932045 1544619518.6374874 0 0 0 0 61503703.924757957 -131414960.73282623 0 -131414960.73282623 754930028.2707634 0 0 0 0 -45814957.148336828 269053390.19286871 0 269053390.19286871 1219474768.6014709 0 0 0 0 -974577.88638666249 94409.1282001324 0 94409.1282001324 2225478.6173786325 0 0 0 0 -292214529.26466006 633314714.15386391 0 633314714.15386391 1668069148.1650047 0 0 0 0 -353776945.71384037 288994224.2289753 0 288994224.2289753 1909522534.0171394 0 0 0 0 -502143021.38317448 857426834.16124916 0 857426834.16124916 2201045495.6997223 0 0 0 0 -75076577.389100462 504254725.37381649 0 504254725.37381649 813957837.13630676 0 0 0 0 -54557972.436077461 593989391.71492767 0 593989391.71492767 1147676016.0164108 0 0 0 0 -85890728.236709833 100445894.36554718 0 100445894.36554718 936070804.66407776 0 0 0 0 3452880.8853132427 311554203.90193176 0 311554203.90193176 728459819.64581299 0 0 0 0 48314214.415005326 76846606.710483551 0 76846606.710483551 305636280.45027542 0 0 0 0 140137871.48059297 -62534540.207399368 0 -62534540.207399368 65017956.451824188 0 0 0 0 379686718.16698873 472896534.05560303 0 472896534.05560303 572074623.0867424 0 0 0 0 644793452.49002051 1385631530.7231827 0 1385631530.7231827 1223600421.3086281 0 0 0 0 779099260.48831105 625533804.2315805 0 625533804.2315805 -295022159.07431412 0 0 0 0 2834830.167433904 1625470.7136815637 0 1625470.7136815637 2038977.7943244837 0 0 0 0 6112940.587673516 -621264452.53421021 0 -621264452.53421021 2204695677.4733076 0 0 0 0 -29068773.636726677 -418745147.62401962 0 -418745147.62401962 1041908773.5741043 0 0 0 0 -156325274.13624048 117519770.9997139 0 117519770.9997139 -67415218.563896179 0 0 0 0 -164417243.50125885 65780985.484985352 0 65780985.484985352 185667728.00245667 0 0 0 0 -7976617.2391602993 -136593580.43073273 0 -136593580.43073273 164217612.22842336 0 0 0 0 -122421894.79438853 -3965414.8655548096 0 -3965414.8655548096 15420405.119560242 0 0 0 0 -54184837.27175951 -49475489.317050934 0 -49475489.317050934 -44268675.477867126 0 0 0 0 -6116588.8662648201 -92654247.361423492 0 -92654247.361423492 -5491383.408138752 0 0 0 0 -711190.26092611731 -1029727.1628138535 0 -1029727.1628138535 -424806.24806078523 0 0 0 0 72390080.710665226 -55492428.25034523 0 -55492428.25034523 -362774216.77627182 0 0 0 0 -15034671.424095631 -48325636.222391129 0 -48325636.222391129 -93744024.238647461 0 0 0 0 7041858.6884160377 -20583648.374898314 0 -20583648.374898314 92751853.586242676 0 0 0 0 -1228921.4989173412 -159429123.85710907 0 -159429123.85710907 50066068.146003723 0 0 0 0 93476931.437160373 -15730230.176774979 0 -15730230.176774979 113879483.54319763 0 0 0 0 -2510947.6756376326 26379631.977558136 0 26379631.977558136 355168805.041008 0 0 0 0 102333211.85716975 -92259126.294845581 0 -92259126.294845581 346320664.61853027 0 0 0 0 -6174050.5232466012 188500443.37940335 0 188500443.37940335 90482979.336616516 0 0 0 0 43700387.11685729 -89454468.362785339 0 -89454468.362785339 152990579.42750549 0 0 0 0 -25465608.288894325 -153925427.02750397 0 -153925427.02750397 -52882307.64094162 0 0 0 0 -10699953.938261151 -112295954.3264122 0 -112295954.3264122 -36527078.628767967 0 0 0 0 -112194.07249884028 77168.523108895868 0 77168.523108895868 -20051.453901320696 0 0 0 0 94490469.315614209 291520475.62173033 0 291520475.62173033 -93151989.524906158 0 0 0 0 97074125.6065768 50263466.142726898 0 50263466.142726898 -122937254.48072815 0 0 0 0 8585295.4882048368 33309160.985132217 0 33309160.985132217 3330401.8899078369 0 0 0 0 46301042.326422811 -243224340.84589577 0 -243224340.84589577 -80461191.101024628 0 0 0 0 35673892.162832975 -19518109.335144043 0 -19518109.335144043 84963691.879646301 0 0 0 0 204328310.64707994 -147486585.28128433 0 -147486585.28128433 104620623.2331543 0 0 0 0 -13678450.354799271 43155152.530125618 0 43155152.530125618 671258494.09451294 0 0 0 0 10371033.772123009 -18517186.454218268 0 -18517186.454218268 20305383.414779663 0 0 0 0 10397129.360873342 -19460167.986354828 0 -19460167.986354828 48673498.377426147 0 0 0 0 89158873.899831027 1230002.4358093739 0 1230002.4358093739 -9734665.755771637 0 0 0 0 72558333.433524996 -79421884.134294987 0 -79421884.134294987 -41124927.817703247 0 0 0 0 -16040576.444167972 -40624749.326965332 0 -40624749.326965332 17252546.524650574 0 0 0 0 -107244232.75901408 -71263243.210195541 0 -71263243.210195541 20521579.624160767 0 0 0 0 -4260225.4506932497 -42228064.189519882 0 -42228064.189519882 17422359.633252144 0 0 0 0 -23520252.237712353 -13029295.036275864 0 -13029295.036275864 46713886.541217804 0 0 0 0 7350870.4241982773 -5975578.6999835968 0 -5975578.6999835968 4760271.4461669922 0 0 0 0 -74881584.240984604 34597377.412123203 0 34597377.412123203 -13595990.841995239 0 0 0 0 -16679150.293247744 -1244572.5930023193 0 -1244572.5930023193 6614617.0657577515 0 0 0 0 -9987682.4184309244 9359613.0855789185 0 9359613.0855789185 -3717231.9518470764 0 0 0 0 -3616525.1700339192 -1685047.8355724216 0 -1685047.8355724216 1155052.7932413556 0 0 0 0 -719523.83121348941 199350.72006532364 0 199350.72006532364 2131008.9909425005 0 0 0 0 -19155302.503221236 2788868.3508605957 0 2788868.3508605957 6391923.2608604431 0 0 0 0 -10384918.556087494 10985525.693946838 0 10985525.693946838 12515154.087806702 0 0 0 0 28690355.841857627 -47361597.402633667 0 -47361597.402633667 27529296.521344185 0 0 0 0 -128294.3830813838 67259.035874389112 0 67259.035874389112 783700.7895193696 0 0 0 0 68295529.149416819 101053850.08898592 0 101053850.08898592 119989382.02350998 0 0 0 0 -8568964.0620067567 47995130.172533035 0 47995130.172533035 86426446.376304626 0 0 0 0 -4248140.7112626284 67654447.503091812 0 67654447.503091812 175840429.53667021 0 0 0 0 -7768784.6101966277 -29929231.084053993 0 -29929231.084053993 49763383.212089539 0 0 0 0 -12047796.17612344 -38995188.728040695 0 -38995188.728040695 153240382.17070007 0 0 0 0 -5886126.7915981486 -12089244.154327869 0 -12089244.154327869 45657896.193840027 0 0 0 0 -10830916.414626211 3779004.6425514221 0 3779004.6425514221 130503300.38164902 0 0 0 0 -9893023.7877939343 6877194.5585575104 0 6877194.5585575104 90041695.848129272 0 0 0 0 20581140.992567122 18678200.378513336 0 18678200.378513336 71181418.184059143 0 0 0 0 -1478610.0671312809 -1895100.8195381165 0 -1895100.8195381165 64935739.762390137 0 0 0 0 6494472.5686709285 2901231.1939029694 0 2901231.1939029694 34155952.096755981 0 0 0 0 31677630.193414569 36489028.84183073 0 36489028.84183073 -22147004.947689056 0 0 0 0 954073.41258181934 -185469.47604420781 0 -185469.47604420781 -170088.15953490883 0 0 0 0 -21222874.076980114 25943337.821346283 0 25943337.821346283 242885858.39790535 0 0 0 0 -13676016.829797745 58231015.563205719 0 58231015.563205719 229851431.64968109 0 0 0 0 40297050.771307468 77472885.707077026 0 77472885.707077026 159287148.42524719 0 0 0 0 112477083.65220368 -19304679.086060524 0 -19304679.086060524 21951435.591285706 0 0 0 0 129330988.07850242 91067202.258975983 0 91067202.258975983 61573556.682849884 0 0 0 0 26126814.5700984 27559646.690345764 0 27559646.690345764 -3341959.5008277893 0 0 0 0 25997144.398279667 -7029683.7393493652 0 -7029683.7393493652 -843376.87343454361 0 0 0 0 -8496674.3203136623 -11506035.27895546 0 -11506035.27895546 19579921.314926147 0 0 0 0 -14721697.844361514 1699142.7136859894 0 1699142.7136859894 7204281.936259985 0 0 0 0 1330913.933876174 772601.06409859657 0 772601.06409859657 1032649.6022303328 0 0 0 0 -7341803.7886763811 8610673.6785926819 0 8610673.6785926819 998714.5695400238 0 0 0 0 15261907.834130228 31618441.054288864 0 31618441.054288864 38807607.217502594 0 0 0 0 4190944.4673782885 15904002.042455196 0 15904002.042455196 50664589.415630341 0 0 0 0 -5775214.3087449074 47165177.615692139 0 47165177.615692139 129717643.46422386 0 0 0 0 -9339226.4341275394 23298192.881874084 0 23298192.881874084 140751087.41376114 0 0 0 0 -22327365.976560801 -7245997.7989997864 0 -7245997.7989997864 65179760.448513031 0 0 0 0 -23857548.881861717 12235102.177055359 0 12235102.177055359 180071355.14968586 0 0 0 0 30340395.176426172 -18861181.687051773 0 -18861181.687051773 -25007933.536949158 0 0 0 0 7836092.8120504618 17825295.490699768 0 17825295.490699768 52750738.186882019 0 0 0 0 15117240.147279263 13451254.549179077 0 13451254.549179077 55246142.085914612 0 0 0 0 48187832.641559601 103229812.68422318 0 103229812.68422318 145103374.13947678 0 0 0 0 4469865.2400224209 35957650.154001236 0 35957650.154001236 55546910.676753998 0 0 0 0 -17249135.100430965 84975780.274248123 0 84975780.274248123 44982338.372032166 0 0 0 0 -13100112.833963871 -35461464.344463348 0 -35461464.344463348 10240868.31297493 0 0 0 0 92230056.794564009 28482715.070840836 0 28482715.070840836 31852124.47441864 0 0 0 0 -21487035.809082508 -16950733.796852112 0 -16950733.796852112 8169337.5704269409 0 0 0 0 300255.23636802053 -699989.75568243489 0 -699989.75568243489 199727.74114226084 0 0 0 0 65204847.466200352 -77803054.312824249 0 -77803054.312824249 -20305148.866569519 0 0 0 0 -21334.164820504375 -303862.02348862216 0 -303862.02348862216 655857.41491914541 0 0 0 0 4509542.9706068039 38431786.121162415 0 38431786.121162415 73184173.237704277 0 0 0 0 9223356.4301757812 -96224048.274024963 0 -96224048.274024963 -20005423.628707886 0 0 0 0 -10258123.046908379 17409688.356529236 0 17409688.356529236 83239323.940389633 0 0 0 0 -27100006.933170974 -5042180.0970935822 0 -5042180.0970935822 58225506.116226196 0 0 0 0 21065065.969725788 7601023.6784572601 0 7601023.6784572601 -22060276.96723175 0 0 0 0 824453.92701010848 -666336.06557440013 0 -666336.06557440013 75959.039775600191 0 0 0 0 3578944.4576215446 -1575588.7810564041 0 -1575588.7810564041 33809916.131958008 0 0 0 0 -9388287.0991107225 -11497783.45483017 0 -11497783.45483017 36914495.323364377 0 0 0 0 514849.59213915467 -1541432.8670694828 0 -1541432.8670694828 20411556.867435455 0 0 0 0 -2980027.8745895624 -8933633.8036594391 0 -8933633.8036594391 32271618.013207436 0 0 0 0 224014.33089429839 -426212.08893782645 0 -426212.08893782645 123872.3296834901 0 0 0 0 1286417.8356722146 1090838.3900237083 0 1090838.3900237083 11207991.783100128 0 0 0 0 221098.24766635895 7209974.3434486389 0 7209974.3434486389 -3676508.5529031754 0 0 0 0 14660073.754663706 15653031.078929901 0 15653031.078929901 -1590071.9128875732 0 0 0 0 9206.4630690277554 -107347.68939214945 0 -107347.68939214945 133194.7810357064 0 0 0 0 -53833401.023555756 -38635842.360927582 0 -38635842.360927582 167224850.34010315 0 0 0 0 -49772506.95275259 -64088393.311325073 0 -64088393.311325073 43795791.618621826 0 0 0 0 -56780494.989161968 -37426823.908401489 0 -37426823.908401489 -21898237.145350456 0 0 0 0 -215059.67484386405 -608492.33399766684 0 -608492.33399766684 1483285.7603743821 0 0 0 0 92628125.879366159 67412985.862163544 0 67412985.862163544 8951581.9719352722 0 0 0 0 32465626.066513538 77740706.418153763 0 77740706.418153763 189391220.55575562 0 0 0 0 69880995.587004662 -43047213.320774078 0 -43047213.320774078 -57958115.517772675 0 0 0 0 8626682.3047811985 19683279.541217804 0 19683279.541217804 35547786.749177933 0 0 0 0 26976542.119504906 32979933.802073002 0 32979933.802073002 95489475.870498657 0 0 0 0 -10058562.830781221 -7784368.5457420349 0 -7784368.5457420349 56618817.620418549 0 0 0 0 18866829.621174663 -11296655.816234589 0 -11296655.816234589 94641656.107429504 0 0 0 0 39386430.734443903 13323956.965015411 0 13323956.965015411 69803476.573204041 0 0 0 0 15938377.505611487 48190096.252543926 0 48190096.252543926 63779494.432155609 0 0 0 0 360889.14891389594 -237152.15773325786 0 -237152.15773325786 85902.135236509144 0 0 0 0 39852804.084246635 -17850246.917726517 0 -17850246.917726517 42981273.618278503 0 0 0 0 -401739.80568981171 -11099490.694202423 0 -11099490.694202423 82173909.613414764 0 0 0 0 7124848.9024487138 2567633.3607025146 0 2567633.3607025146 48326463.811134338 0 0 0 0 849472.514819987 -478565.25712665543 0 -478565.25712665543 87271.91226931382 0 0 0 0 72775808.452033892 933838.58395290375 0 933838.58395290375 -19300615.707817078 0 0 0 0 -7111863.0665134192 -5030434.7872085571 0 -5030434.7872085571 56240134.848223448 0 0 0 0 377338.59713886317 -299322.99684195966 0 -299322.99684195966 -199672.4302794002 0 0 0 0 4594181.0102309138 -752715.37596035004 0 -752715.37596035004 13326191.284317017 0 0 0 0 17371784.758560658 -8812443.0645694733 0 -8812443.0645694733 1159271.3851966858 0 0 0 0 -2102179.2692216635 -8794862.9211807251 0 -8794862.9211807251 18463918.275314331 0 0 0 0 6395034.1479461789 -15555588.078615189 0 -15555588.078615189 19255397.028438568 0 0 0 0 -7041076.548240155 -15869243.427093506 0 -15869243.427093506 42561585.63028717 0 0 0 0 17837404.142132163 6893725.985786438 0 6893725.985786438 23965027.50062561 0 0 0 0 265945.66558098048 -219365.87850225717 0 -219365.87850225717 -161015.57648050785 0 0 0 0 15661271.511540115 -23964736.385914803 0 -23964736.385914803 26627838.302894592 0 0 0 0 29334930.860868067 -17347440.969610214 0 -17347440.969610214 -3356070.8967313766 0 0 0 0 6456761.0337112546 5818895.0020523071 0 5818895.0020523071 4060922.3011884689 0 0 0 0 -10269769.911272287 7713614.3703393936 0 7713614.3703393936 52272297.432365417 0 0 0 0 2864871.6002374291 5706330.2952551842 0 5706330.2952551842 12717938.924930573 0 0 0 0 -2926759.8331522346 2518672.3521385193 0 2518672.3521385193 12818212.216995239 0 0 0 0 2214311.9593567401 5673062.8997592926 0 5673062.8997592926 27816267.425807953 0 0 0 0 11433426.341780245 -2952468.8059597015 0 -2952468.8059597015 17360843.4688797 0 0 0 0 -82215.538942042156 -500042.74730500206 0 -500042.74730500206 200972.55618795007 0 0 0 0 13746921.099712253 72375.941694259644 0 72375.941694259644 30086062.079016685 0 0 0 0 16182211.041955471 44041818.636795044 0 44041818.636795044 61266180.085639954 0 0 0 0 6433977.8977274895 -5084233.9531021118 0 -5084233.9531021118 26010242.986450195 0 0 0 0 -6565.0343203595839 -321934.49635315686 0 -321934.49635315686 133798.3183613196 0 0 0 0 -202904.12592405081 -16777059.2551651 0 -16777059.2551651 69523798.484928131 0 0 0 0 42290136.674294233 -35009585.31842804 0 -35009585.31842804 18477010.668887198 0 0 0 0 2012938.9313788414 -62184247.355289459 0 -62184247.355289459 131469507.18431854 0 0 0 0 44431218.232650757 -10252105.828800201 0 -10252105.828800201 9996154.4698753357 0 0 0 0 57507976.485378742 66287274.15562439 0 66287274.15562439 116359646.48662567 0 0 0 0 50474562.716088653 59978121.179141998 0 59978121.179141998 88973800.152627945 0 0 0 0 15613016.802302122 40976238.812160492 0 40976238.812160492 108130254.22193146 0 0 0 0 34740521.896235883 51725252.686313152 0 51725252.686313152 84661859.127376556 0 0 0 0 12898778.266580701 47077803.936977386 0 47077803.936977386 93717221.601556778 0 0 0 0 41531470.853552401 34124442.677026272 0 34124442.677026272 85353564.580360413 0 0 0 0 -13041093.906249404 28166588.480588913 0 28166588.480588913 87418607.530277252 0 0 0 0 3816286.7058315575 15801472.326822281 0 15801472.326822281 70108161.049816132 0 0 0 0 32557108.154483646 29646863.429187775 0 29646863.429187775 61328194.805366516 0 0 0 0 10740410.587192765 38932347.849960327 0 38932347.849960327 138037762.61402512 0 0 0 0 11131721.269615471 16329433.06268692 0 16329433.06268692 85589929.969493866 0 0 0 0 20278.511667668819 35891919.054317474 0 35891919.054317474 51553494.250541687 0 0 0 0 855614.09999212623 -4882.0642127990723 0 -4882.0642127990723 48822546.770545959 0 0 0 0 -9693030.8624520302 50893791.439189911 0 50893791.439189911 114787446.88426208 0 0 0 0 -6441747.9783062935 51370754.400411606 0 51370754.400411606 111955674.35455322 0 0 0 0 -6861229.9923014641 46858510.237930298 0 46858510.237930298 63577237.115789413 0 0 0 0 20790110.58239603 28648091.706092834 0 28648091.706092834 70824937.474739075 0 0 0 0 69462376.08404243 90232506.59150219 0 90232506.59150219 81956837.205917358 0 0 0 0 -21280084.529670238 97281112.307224274 0 97281112.307224274 139334146.28966904 0 0 0 0 -15209762.385921001 74914127.919178009 0 74914127.919178009 71318745.769619942 0 0 0 0 16865896.431506157 11535719.943958282 0 11535719.943958282 27722252.380298615 0 0 0 0 -6927497.7568769455 63017590.865909576 0 63017590.865909576 94085757.843801498 0 0 0 0 -66891248.61181736 58136513.159229279 0 58136513.159229279 94519939.686012268 0 0 0 0 -166911.19275726797 -483867.97597890347 0 -483867.97597890347 1231743.4394856915 0 0 0 0 -17454487.586349726 -3217816.2308235168 0 -3217816.2308235168 -566843.30553817749 0 0 0 0 10215914.877753198 32170312.497609138 0 32170312.497609138 63815700.269203186 0 0 0 0 13857429.067789555 32138414.506202698 0 32138414.506202698 63572772.696155548 0 0 0 0 -15083367.757680655 65208654.676803589 0 65208654.676803589 126366610.8444519 0 0 0 0 -11362662.369140863 8325749.3511314392 0 8325749.3511314392 6164355.1143951416 0 0 0 0 7025675.2802784443 -48262228.189891815 0 -48262228.189891815 23312340.853826523 0 0 0 0 21421844.87413168 14149294.816047668 0 14149294.816047668 -8529280.8289871216 0 0 0 0 -199142.80174141051 -133520.78692381456 0 -133520.78692381456 633584.57217904925 0 0 0 0 57712432.158684015 111253934.24020767 0 111253934.24020767 199553616.76032257 0 0 0 0 34222290.174201965 13779914.836460114 0 13779914.836460114 211545738.86070061 0 0 0 0 34573570.344153166 27476738.175785065 0 27476738.175785065 124447193.79921341 0 0 0 0 95337377.619242191 19079884.324590683 0 19079884.324590683 106994525.02381134 0 0 0 0 -3813275.2236862183 46410749.304096222 0 46410749.304096222 116624841.13890457 0 0 0 0 57362262.177250892 72205192.818337798 0 72205192.818337798 100471318.34120178 0 0 0 0 -3607018.4398713112 51968856.418384552 0 51968856.418384552 177555224.28922272 0 0 0 0 1110973.7816434205 34244445.728708744 0 34244445.728708744 124665919.8324585 0 0 0 0 -4240590.0684411526 15644179.482558727 0 15644179.482558727 102044009.95799255 0 0 0 0 42579421.426458478 24593561.215145111 0 24593561.215145111 90837277.544631958 0 0 0 0 29615064.901837587 41995852.607727051 0 41995852.607727051 109053798.95771337 0 0 0 0 -11142662.761155367 30294874.801229477 0 30294874.801229477 90779069.261266708 0 0 0 0 -20888000.91777873 -9162936.7084102631 0 -9162936.7084102631 65085249.630962372 0 0 0 0 -10680556.397277117 20370730.732650757 0 20370730.732650757 98576026.969938278 0 0 0 0 -8843794.6252068728 5447977.8995934725 0 5447977.8995934725 58930803.611763 0 0 0 0 -10554201.551885366 11262970.250627518 0 11262970.250627518 73807838.472251892 0 0 0 0 -6243921.0215742588 6361457.9819355011 0 6361457.9819355011 58860159.250663519 0 0 0 0 -1112170.9667844772 21416647.929420471 0 21416647.929420471 60018132.313308716 0 0 0 0 4082869.641084671 20478798.049648285 0 20478798.049648285 47460665.316009521 0 0 0 0 -21386189.058410823 15974623.021065474 0 15974623.021065474 105277257.92139435 0 0 0 0 -17916098.961118698 3912947.4138660431 0 3912947.4138660431 66197447.291511536 0 0 0 0 -8631344.897172451 9341453.4881572723 0 9341453.4881572723 68172776.274841309 0 0 0 0 -6148486.9167029858 -302526.24757766724 0 -302526.24757766724 39807171.166152954 0 0 0 0 -14471397.858281612 2254476.7719402313 0 2254476.7719402313 66784173.627735138 0 0 0 0 -12011373.218531132 558879.93915748596 0 558879.93915748596 49310043.41292572 0 0 0 0 2520724.3437616341 981073.87599752098 0 981073.87599752098 564087.20083420724 0 0 0 0 49342719.505882919 31624950.399360657 0 31624950.399360657 7767619.9660110474 0 0 0 0 910348.25304357288 221013.60106332973 0 221013.60106332973 201661.34239564836 0 0 0 0 -71472575.186686754 -6618206.3018951416 0 -6618206.3018951416 98019191.790397644 0 0 0 0 -16895180.185314894 23003551.614206314 0 23003551.614206314 62255697.095535278 0 0 0 0 12472880.53705883 -39478493.884132385 0 -39478493.884132385 137920505.81568146 0 0 0 0 21657246.801738262 -8488863.0830745697 0 -8488863.0830745697 73293759.566696167 0 0 0 0 -36873981.13482523 -13231477.262004852 0 -13231477.262004852 73499922.650936127 0 0 0 0 485774750.03029251 -1505020.5381622314 0 -1505020.5381622314 43056564.822151184 0 0 0 0 4006080.1033820286 1624368.6510190591 0 1624368.6510190591 797810.11561781168 0 0 0 0 -106578746.86399031 48738313.000324249 0 48738313.000324249 57299530.469862938 0 0 0 0 -35027723.996288814 57060326.089791775 0 57060326.089791775 215903099.16798401 0 0 0 0 126879151.26747561 115071906.90984726 0 115071906.90984726 98669597.791290283 0 0 0 0 125454.89827257185 -484627.55686544115 0 -484627.55686544115 1909313.2104861736 0 0 0 0 4271518.7267608643 20338110.471832275 0 20338110.471832275 42238439.971382141 0 0 0 0 21646825.644654274 46796404.45472908 0 46796404.45472908 70157276.173986435 0 0 0 0 -756366.45325500285 -809097.75863869023 0 -809097.75863869023 5853711.563904345 0 0 0 0 26187609.11019516 23132616.681303024 0 23132616.681303024 34306943.149662018 0 0 0 0 20428880.544920892 28925390.182458282 0 28925390.182458282 29099223.799659729 0 0 0 0 13739580.579444408 7569732.7621707916 0 7569732.7621707916 -79871611.175796509 0 0 0 0 1311725.2376680374 17550742.129199982 0 17550742.129199982 8247439.9660339355 0 0 0 0 -81146313.570125878 7522075.912312746 0 7522075.912312746 103121586.58194733 0 0 0 0 63397412.628078938 212705208.02565384 0 212705208.02565384 199631167.92193985 0 0 0 0 -140855617.79228306 2061589.1512680054 0 2061589.1512680054 390037489.02898216 0 0 0 0 87004604.105589867 -79388925.677751541 0 -79388925.677751541 103969081.72571945 0 0 0 0 11291909.108858258 39240125.874740124 0 39240125.874740124 49427252.945402145 0 0 0 0 49356219.684025392 29777466.949775219 0 29777466.949775219 17001444.723391533 0 0 0 0 7593238.309134841 -59423997.253688812 0 -59423997.253688812 -24047846.836135 0 0 0 0 -26526655.280189276 -314655450.72187209 0 -314655450.72187209 -182256206.31653976 0 0 0 0 -4358556.5668863067 -12093737.888272928 0 -12093737.888272928 28124074.650868393 0 0 0 0 -322618002.6222468 42130935.445175767 0 42130935.445175767 410376683.91835785 0 0 0 0 491780512.36068249 -56599817.596546173 0 -56599817.596546173 -301017428.61048126 0 0 0 0 18139389.198622391 3891645.4647340924 0 3891645.4647340924 10022993.551309586 0 0 0 0 -297994287.34980154 -269157955.5939064 0 -269157955.5939064 52929049.899391174 0 0 0 0 -16299900.600609779 -36174940.761623383 0 -36174940.761623383 -40475290.920940399 0 0 0 0 -6352332.0051521016 -11189842.843923772 0 -11189842.843923772 28617978.191344511 0 0 0 0 -76943228.403225899 73241410.819072723 0 73241410.819072723 132879183.80519104 0 0 0 0 112800557.86167336 157669054.29033661 0 157669054.29033661 127923788.97801971 0 0 0 0 133034256.22064281 103604765.99711227 0 103604765.99711227 155607827.18856812 0 0 0 0 140965303.07751822 160888032.38852978 0 160888032.38852978 94442931.219604492 0 0 0 0 18346970.355707645 50634325.097225189 0 50634325.097225189 172675198.69188309 0 0 0 0 169072961.9266572 110026426.36358929 0 110026426.36358929 90531162.683540344 0 0 0 0 -22377097.988699913 13320493.104064941 0 13320493.104064941 166535696.14915085 0 0 0 0 -56558439.761766911 69834592.169628143 0 69834592.169628143 78371902.09412384 0 0 0 0 -265331342.51739597 -304790629.10476303 0 -304790629.10476303 380592851.55085754 0 0 0 0 -12261183.176257133 -438514383.64541626 0 -438514383.64541626 136912248.2733593 0 0 0 0 -352859407.39067793 -168381923.91596222 0 -168381923.91596222 186578039.57705688 0 0 0 0 -298155882.39801216 14062613.470428467 0 14062613.470428467 142919629.31079102 0 0 0 0 576293162.62114906 61084085.423110962 0 61084085.423110962 17538415.265022278 0 0 0 0 2410483.2295812252 834832.33458719403 0 834832.33458719403 470710.25990493968 0 0 0 0 135659370.21422982 120339711.75475883 0 120339711.75475883 213867936.25138855 0 0 0 0 179435765.6702857 192231186.740345 0 192231186.740345 171002789.09515572 0 0 0 0 494609206.59657431 -131929067.37496758 0 -131929067.37496758 -50663941.424118042 0 0 0 0 331162.74548413279 -147656.00170892105 0 -147656.00170892105 1608205.7816459164 0 0 0 0 176641792.57110023 176383937.65184784 0 176383937.65184784 98610410.005395889 0 0 0 0 15173741.428061008 -41002492.243412018 0 -41002492.243412018 34302694.981998801 0 0 0 0 -41259400.594199657 -59959240.413860321 0 -59959240.413860321 112101006.77815247 0 0 0 0 147052746.05141401 -77185561.156044006 0 -77185561.156044006 35285630.483317375 0 0 0 0 -10558566.505491257 -240158449.95549774 0 -240158449.95549774 174701946.26760864 0 0 0 0 -150189511.16981316 -46039352.140197754 0 -46039352.140197754 122485948.4831543 0 0 0 0 8721637.5225906372 -14376826.84352684 0 -14376826.84352684 34348960.61214447 0 0 0 0 -4429044.9128417969 -15604477.664966583 0 -15604477.664966583 48128160.108764648 0 0 0 0 8720886.2338624001 -41462079.430763245 0 -41462079.430763245 50806245.199874878 0 0 0 0 -4037803.3157060146 -13782750.577148438 0 -13782750.577148438 44304654.740631104 0 0 0 0 6624130.3662297726 3025733.5759277344 0 3025733.5759277344 11803298.714119911 0 0 0 0 43663720.842931271 -19342855.810148239 0 -19342855.810148239 18823208.319580078 0 0 0 0 630019.39298586734 137825.71224468388 0 137825.71224468388 5185649.0708489567 0 0 0 0 5544451.6020074179 6091264.3312288672 0 6091264.3312288672 7486598.3496852964 0 0 0 0 7545727.3439980745 11595533.840373993 0 11595533.840373993 5070829.9201345444 0 0 0 0 9237889.0997641087 15361133.770375252 0 15361133.770375252 2822698.9854297638 0 0 0 0 -163091.37377053499 15906786.792741299 0 15906786.792741299 19479553.201660156 0 0 0 0 969199.89927196503 18736589.830432892 0 18736589.830432892 14580384.125053406 0 0 0 0 6805810.7782236589 10425235.659600683 0 10425235.659600683 11014731.214432385 0 0 0 0 1782434.1265716553 22734886.90927887 0 22734886.90927887 12341846.203364849 0 0 0 0 -21185228.818087101 27592942.358146667 0 27592942.358146667 41277399.683822632 0 0 0 0 2344236.5612893105 24096567.752262115 0 24096567.752262115 9080235.1355438232 0 0 0 0 -3830745.2416129112 -2728971.3231468201 0 -2728971.3231468201 44433385.184402466 0 0 0 0 -3844791.1663870811 -4845621.5916213989 0 -4845621.5916213989 50340158.669254303 0 0 0 0 2470552.2992486954 258524.10634231567 0 258524.10634231567 9774665.1055221558 0 0 0 0 37085406.467719078 133990603.5394516 0 133990603.5394516 146803380.53981066 0 0 0 0 -33420062.888707638 51806920.547761917 0 51806920.547761917 65428169.972545624 0 0 0 0 171804473.4302063 49015844.096920013 0 49015844.096920013 -7306678.8032722473 0 0 0 0 1859214.4020876517 56273.563801314682 0 56273.563801314682 -678102.72581420839 0 0 0 0 727433.59330496844 3312764.0509728231 0 3312764.0509728231 -2537835.8510194719 0 0 0 0 34088251.223492146 30076389.083518982 0 30076389.083518982 19577990.53503418 0 0 0 0 48901962.139970303 40133860.374163628 0 40133860.374163628 9091188.2152481079 0 0 0 0 14730640.752861977 55929148.154148102 0 55929148.154148102 63870649.536973953 0 0 0 0 5661249.5309305191 19722944.770479202 0 19722944.770479202 9187266.401258789 0 0 0 0 16248949.943228722 36752305.07024765 0 36752305.07024765 14607243.236290932 0 0 0 0 55792.853587028105 8002902.3160428964 0 8002902.3160428964 -2470947.7217275649 0 0 0 0 19534352.267629147 22806260.730358124 0 22806260.730358124 14044729.521369934 0 0 0 0 17546281.778446913 19848177.957951546 0 19848177.957951546 15843765.030548096 0 0 0 0 -2132447.7872354984 26058627.60304451 0 26058627.60304451 31676368.699272156 0 0 0 0 58409977.815534592 -25300876.896705627 0 -25300876.896705627 -16976379.120300293 0 0 0 0 47048702.323876381 20543820.681503296 0 20543820.681503296 47574983.002319336 0 0 0 0 -2308292.8648419082 -1213696.9034679048 0 -1213696.9034679048 2465320.7551239505 0 0 0 0 -7335263.331217289 33098272.808218002 0 33098272.808218002 59432054.555763245 0 0 0 0 6024769.1088204384 35887947.732215881 0 35887947.732215881 41015329.873535156 0 0 0 0 4531767.7788504362 43516400.336010456 0 43516400.336010456 52630041.299674988 0 0 0 0 -15977538.531372547 24340493.835224152 0 24340493.835224152 51757445.139480591 0 0 0 0 65992062.123931885 31201896.565605164 0 31201896.565605164 7143957.7458343506 0 0 0 0 -915856.17311079055 388413.09114492312 0 388413.09114492312 2316040.255458124 0 0 0 0 23173264.630598068 24465071.78789711 0 24465071.78789711 66630820.521911621 0 0 0 0 -4792342.5884913085 2119668.5348714176 0 2119668.5348714176 21026748.641664941 0 0 0 0 -17124504.987311959 -6845831.0897212029 0 -6845831.0897212029 30681306.638195038 0 0 0 0 4534389.1042880714 -15788324.625456214 0 -15788324.625456214 28041609.251052856 0 0 0 0 -873301.53424835205 12473753.103084564 0 12473753.103084564 28759397.38218689 0 0 0 0 278667.47313767672 3926197.3682289124 0 3926197.3682289124 5840224.0625457764 0 0 0 0 601180.16614771681 6627246.6857025102 0 6627246.6857025102 10029967.376064263 0 0 0 0 -954855.16807961464 4864586.4995117188 0 4864586.4995117188 6537079.2972869873 0 0 0 0 -1103935.1583249238 7919185.4456223473 0 7919185.4456223473 12888778.321562052 0 0 0 0 5079484.5437035561 17731106.324325562 0 17731106.324325562 20438135.908843994 0 0 0 0 1114568.8922433225 8602635.6643112265 0 8602635.6643112265 8626715.6879852042 0 0 0 0 -1296489.7126316754 4343387.7973423041 0 4343387.7973423041 4341411.4452499822 0 0 0 0 -29584052.891603947 21522453.090690613 0 21522453.090690613 25593744.365905762 0 0 0 0 6310662.9637155533 8377831.760843277 0 8377831.760843277 12758752.319862366 0 0 0 0 -1154470.4105181694 14748433.159572601 0 14748433.159572601 20029538.455368042 0 0 0 0 -5008225.702501297 14262292.592903137 0 14262292.592903137 28441352.332229614 0 0 0 0 -2594789.6828469038 21702943.83889389 0 21702943.83889389 29166441.604480743 0 0 0 0 -1174784.79144907 17734292.103948593 0 17734292.103948593 27106409.0209198 0 0 0 0 9868359.6119775772 9521983.4836540222 0 9521983.4836540222 36126348.465595245 0 0 0 0 104095.80628539377 -396084.65680148453 0 -396084.65680148453 1178657.3154601431 0 0 0 0 -1802663.4964055757 1286777.9422977678 0 1286777.9422977678 6095481.689807428 0 0 0 0 -7935784.4210109711 12350988.996982574 0 12350988.996982574 51756839.460037231 0 0 0 0 7205720.3706548214 12811396.04780674 0 12811396.04780674 -11768119.953800201 0 0 0 0 -16541225.201929741 16022404.182798982 0 16022404.182798982 41944222.610122681 0 0 0 0 -9655738.9923019409 14193849.078346252 0 14193849.078346252 32279478.636611938 0 0 0 0 -89615476.127381325 57929988.370819092 0 57929988.370819092 31201428.592517853 0 0 0 0 13309254.305418015 -3704737.7862243652 0 -3704737.7862243652 19824560.92591095 0 0 0 0 -380906.79238857888 889927.7172259409 0 889927.7172259409 1263278.9633115642 0 0 0 0 -195441.20189538028 5951377.9992137272 0 5951377.9992137272 5797251.663181169 0 0 0 0 592968.02658326831 3336149.2201130167 0 3336149.2201130167 3578074.9914363697 0 0 0 0 -602424.80343437195 252107.08988857269 0 252107.08988857269 10064516.136512756 0 0 0 0 -4208871.0080491127 7417964.7660096008 0 7417964.7660096008 10853706.311134178 0 0 0 0 -2208510.4986829953 4651620.4023702443 0 4651620.4023702443 11710572.359335311 0 0 0 0 -339651.01894363761 5677443.9620723724 0 5677443.9620723724 11173498.857971191 0 0 0 0 4677340.8996582031 15664433.045692444 0 15664433.045692444 29175823.750320435 0 0 0 0 664249.22737371922 3345553.9750556946 0 3345553.9750556946 13161766.394927979 0 0 0 0 406267.33923427406 3668320.0231244192 0 3668320.0231244192 4746513.8188606016 0 0 0 0 -191860.30255403742 5505126.1679296494 0 5505126.1679296494 10388997.81338501 0 0 0 0 35302.766283035278 1568681.9929351807 0 1568681.9929351807 21664878.969486237 0 0 0 0 -1348562.8660990596 4194531.0752944946 0 4194531.0752944946 1873257.8567199707 0 0 0 0 1124801.717499733 2526449.0358276367 0 2526449.0358276367 21738011.52509594 0 0 0 0 180705.71750941826 5136614.1986154318 0 5136614.1986154318 10018083.988334656 0 0 0 0 1695967.6860558582 9764703.1372904629 0 9764703.1372904629 9537655.5900509339 0 0 0 0 91670.470705975677 1402858.5534527339 0 1402858.5534527339 10345946.596634034 0 0 0 0 358472.33744677878 210507.19098693877 0 210507.19098693877 -696090.2241756916 0 0 0 0 9519432.5198764801 75375139.18992424 0 75375139.18992424 44127832.200839996 0 0 0 0 791343.70703931013 5398625.2124699019 0 5398625.2124699019 7341165.3560538292 0 0 0 0 -1236747.172246933 4698082.5920600891 0 4698082.5920600891 4138120.7387542725 0 0 0 0 116474396.68722248 -16093158.569740295 0 -16093158.569740295 -100782461.817276 0 0 0 0 -227795386.91764736 -131797645.92474365 0 -131797645.92474365 -58679044.718284607 0 0 0 0 113932.91842231946 378594.54759483784 0 378594.54759483784 546183.88926464319 0 0 0 0 8111847.6191387177 18818205.797012329 0 18818205.797012329 4190789.4307937622 0 0 0 0 2505796.6303349514 7323211.3895463906 0 7323211.3895463906 6542847.7268209457 0 0 0 0 657332.3497920169 1221133.9753477685 0 1221133.9753477685 -1037716.7398233414 0 0 0 0 -15796009.693740845 26780191.489971161 0 26780191.489971161 40871748.507408142 0 0 0 0 15588631.046779156 49961644.851959229 0 49961644.851959229 51626044.942306519 0 0 0 0 -7079202.0169277191 36441971.25932312 0 36441971.25932312 47132260.730209351 0 0 0 0 73081202.082891464 64319976.681678772 0 64319976.681678772 30592886.273292542 0 0 0 0 -28993.260903358459 4811530.5723953247 0 4811530.5723953247 9631961.7917881012 0 0 0 0 -2515092.0230293572 1102540.3577744961 0 1102540.3577744961 -7394965.1648254395 0 0 0 0 7683574.9231882095 12271635.984100342 0 12271635.984100342 -5156647.9302062988 0 0 0 0 -973992.33435844863 5092376.204043068 0 5092376.204043068 15184531.085300259 0 0 0 0 4884947.2399278609 7617539.726836307 0 7617539.726836307 1951174.281025745 0 0 0 0 4574895.1779603958 -272110.23956680298 0 -272110.23956680298 14185459.950698853 0 0 0 0 2090276.5906015635 5845661.4194078445 0 5845661.4194078445 7936286.3824386597 0 0 0 0 2031150.8188887909 5985524.831679441 0 5985524.831679441 10589465.895519666 0 0 0 0 -879466.76211926062 178341.32826215774 0 178341.32826215774 2226047.5213483241 0 0 0 0 -1361020.7989138276 4112002.4458377548 0 4112002.4458377548 6127186.0496110022 0 0 0 0 -17453184.021876812 -13457169.634414673 0 -13457169.634414673 -9088548.7768173218 0 0 0 0 24230780.333451748 26118666.355484009 0 26118666.355484009 -73269629.315952301 0 0 0 0 -4954738.6652325392 859552.60740566254 0 859552.60740566254 14848586.583190918 0 0 0 0 -12343812.483379364 77268696.489906311 0 77268696.489906311 -10719867.627914429 0 0 0 0 -42494163.43084383 64704700.186592102 0 64704700.186592102 68223437.329223633 0 0 0 0 -34060830.455099106 -3299990.8593940735 0 -3299990.8593940735 115448420.97223282 0 0 0 0 -9388090.8973522186 10040470.236595154 0 10040470.236595154 12734221.030015945 0 0 0 0 28731441.267267704 8643615.3960800171 0 8643615.3960800171 42648532.748157501 0 0 0 0 20505263.627083778 -48589034.164649963 0 -48589034.164649963 67864899.694328308 0 0 0 0 2398136.3396463394 24146385.118186951 0 24146385.118186951 27206954.00957489 0 0 0 0 -13153528.032102823 1195817.4255008698 0 1195817.4255008698 44104997.990997314 0 0 0 0 -9254900.9634027481 12967617.163444519 0 12967617.163444519 47200563.283325195 0 0 0 0 16424936.640097618 16747095.724365234 0 16747095.724365234 47729907.430199623 0 0 0 0 5857191.774711132 13868790.332738876 0 13868790.332738876 63184612.660476685 0 0 0 0 27210419.51303339 15020360.735706329 0 15020360.735706329 63221483.33987236 0 0 0 0 15073877.364160538 -23712093.726436615 0 -23712093.726436615 24720092.46786499 0 0 0 0 46472929.402144909 7334841.6762046814 0 7334841.6762046814 62802204.971324921 0 0 0 0 61455455.374003023 16669443.162950754 0 16669443.162950754 50526711.093910217 0 0 0 0 -6908936.3978891373 -19754184.064735413 0 -19754184.064735413 279598995.42621613 0 0 0 0 25153657.424235821 -25293229.187225342 0 -25293229.187225342 146675715.49584961 0 0 0 0 28638604.400619388 32401695.791372299 0 32401695.791372299 113057792.96448517 0 0 0 0 20069647.829552054 -6061377.7346730232 0 -6061377.7346730232 104409602.63071442 0 0 0 0 2810180.3425879478 -1484920.9985389709 0 -1484920.9985389709 114874109.05657578 0 0 0 0 3622974.7120158672 18557987.775892258 0 18557987.775892258 104360847.49842072 0 0 0 0 3711184.8963594437 -8535537.3451385498 0 -8535537.3451385498 88582480.060079575 0 0 0 0 -4656765.0178079605 9848963.0818815231 0 9848963.0818815231 84661238.690551758 0 0 0 0 -24856076.617125988 9638144.5362091064 0 9638144.5362091064 93038951.774856567 0 0 0 0 -24305674.736515045 -10723779.666931152 0 -10723779.666931152 83593094.23714447 0 0 0 0 -5956157.6716103554 -6763753.524974823 0 -6763753.524974823 84438493.731021881 0 0 0 0 -4274813.2726945877 -13833181.793588638 0 -13833181.793588638 58759257.516014099 0 0 0 0 -12500838.565158367 2276693.9521102905 0 2276693.9521102905 77490844.216209412 0 0 0 0 17221112.664686896 32982316.735025048 0 32982316.735025048 72727515.401519775 0 0 0 0 -22087726.101716995 14415055.489997864 0 14415055.489997864 74755493.298442841 0 0 0 0 18093039.590466499 -2813398.7218360901 0 -2813398.7218360901 53611681.135704041 0 0 0 0 -2901839.2387535572 2442564.127866745 0 2442564.127866745 61499710.249259949 0 0 0 0 -9311611.0546250343 5571391.021156311 0 5571391.021156311 71280907.685592651 0 0 0 0 10021985.679805756 50539253.481075287 0 50539253.481075287 35456636.254089355 0 0 0 0 60070664.650807381 27162194.389289856 0 27162194.389289856 5349303.2988395691 0 0 0 0 -109664003.86779976 7480274.6880187988 0 7480274.6880187988 85422291.629966736 0 0 0 0 -12702225.793096066 20342483.937400818 0 20342483.937400818 -7455789.1540222168 0 0 0 0 1999210.8387153444 2001949.7208849583 0 2001949.7208849583 -1633621.7933679149 0 0 0 0 -57326129.531347036 -82477793.114664078 0 -82477793.114664078 -18554400.565414429 0 0 0 0 14139772.850223064 -7024393.3607025146 0 -7024393.3607025146 49409703.190162659 0 0 0 0 21933080.169320107 18711619.77557373 0 18711619.77557373 287773.50106811523 0 0 0 0 24044824.584947586 32066619.702713013 0 32066619.702713013 47402269.367179871 0 0 0 0 6080964.4846329689 28321270.03361702 0 28321270.03361702 55799506.137031555 0 0 0 0 7903632.2482497692 8324989.4168510437 0 8324989.4168510437 61660463.09198761 0 0 0 0 3183810.9552531242 12796807.981071472 0 12796807.981071472 75518348.609291077 0 0 0 0 -5258138.4526860714 -1802246.0049915314 0 -1802246.0049915314 50317243.974357605 0 0 0 0 -61944.552018227281 -17568173.492458344 0 -17568173.492458344 52903325.983562469 0 0 0 0 -29563779.919892408 104910.28443908691 0 104910.28443908691 168058125.78833771 0 0 0 0 -66809.671664807684 449390.93208724447 0 449390.93208724447 1712747.8344708979 0 0 0 0 -64323551.076146893 -76611999.173091888 0 -76611999.173091888 59386896.704116821 0 0 0 0 253910301.8997955 115135217.32659912 0 115135217.32659912 -45964300.570838928 0 0 0 0 57594371.31636107 11204173.298700333 0 11204173.298700333 50990424.216110229 0 0 0 0 -15572286.425272197 8577836.7656097412 0 8577836.7656097412 -4755386.708770752 0 0 0 0 -121665900.37702025 -23011587.318096161 0 -23011587.318096161 56236801.817832947 0 0 0 0 14933963.68835175 35337173.39018631 0 35337173.39018631 22407605.575938225 0 0 0 0 -157417.31962528633 523621.21435946971 0 523621.21435946971 4881257.1833282709 0 0 0 0 77814122.872875631 62769010.230905056 0 62769010.230905056 8738561.7969894409 0 0 0 0 -79868064.959694386 30604842.778434753 0 30604842.778434753 41067811.665588379 0 0 0 0 -217442.76419775072 2108255.7622245317 0 2108255.7622245317 8137720.6954680383 0 0 0 0 -8596663.13373743 19716940.555839539 0 19716940.555839539 31317245.677192688 0 0 0 0 -28424102.006029963 35826321.423675537 0 35826321.423675537 23078275.632827759 0 0 0 0 -21382403.968546361 47617140.547569275 0 47617140.547569275 1485742.5009613037 0 0 0 0 27344196.484071072 114120339.13113403 0 114120339.13113403 136652916.14631653 0 0 0 0 -268421.95488837361 18355202.044975281 0 18355202.044975281 36884652.769775391 0 0 0 0 -11015415.238691323 -12273769.28362751 0 -12273769.28362751 90656933.22000885 0 0 0 0 171481450.55761358 124027057.42253494 0 124027057.42253494 52603503.045684814 0 0 0 0 620616.94768498628 130672801.65761948 0 130672801.65761948 976565678.41950989 0 0 0 0 162950172.29071099 17230853.719538927 0 17230853.719538927 74671418.207061768 0 0 0 0 -279932290.77327156 654456226.58532524 0 654456226.58532524 2199407286.9910069 0 0 0 0 -115263882.80914485 98190567.250930786 0 98190567.250930786 810699573.74436569 0 0 0 0 824017719.80649638 1235814142.5041351 0 1235814142.5041351 1043442339.4672928 0 0 0 0 309962135.17494833 -460722321.77991056 0 -460722321.77991056 514312663.50608826 0 0 0 0 693785.48646434129 672298.17403914873 0 672298.17403914873 6480944.627912581 0 0 0 0 103855797.02411151 155846152.99615479 0 155846152.99615479 414298323.81125641 0 0 0 0 -657456.60271367256 88448.909387402236 0 88448.909387402236 15157396.527135059 0 0 0 0 -76688906.275683224 60638037.20524025 0 60638037.20524025 -29441502.820053101 0 0 0 0 -2737429.1383530498 -6807038.6092033386 0 -6807038.6092033386 24217567.652985781 0 0 0 0 -18431061.110764533 -43758621.786109924 0 -43758621.786109924 565929205.89975739 0 0 0 0 123975579.66353756 17032477.661727905 0 17032477.661727905 -185381522.55502319 0 0 0 0 -507322.47225164983 231530.54602057487 0 231530.54602057487 4315404.9561184775 0 0 0 0 -24296149.693248305 40579345.772566319 0 40579345.772566319 -31541692.575119019 0 0 0 0 -19931913.969867289 82032049.10559845 0 82032049.10559845 77325114.739826202 0 0 0 0 -2651280.4182877541 7042462.5633850098 0 7042462.5633850098 10343658.220657349 0 0 0 0 302405.0534796142 3268304.7890364528 0 3268304.7890364528 13809779.09508002 0 0 0 0 -66196273.469198108 -50344557.711036682 0 -50344557.711036682 -26567036.330993652 0 0 0 0 486106753.47126961 23974466.783218384 0 23974466.783218384 -64713711.205879211 0 0 0 0 -1774864.3497901042 9655448.5915316865 0 9655448.5915316865 2445208.0048530456 0 0 0 0 -121730385.8036797 220540443.89179993 0 220540443.89179993 135901104.23321533 0 0 0 0 -123878657.4934752 64078091.330997467 0 64078091.330997467 95475041.131454468 0 0 0 0 -323993882.17061663 -92974674.099884033 0 -92974674.099884033 -11980823.922576904 0 0 0 0 -1631331.4109131009 1080390.0319864862 0 1080390.0319864862 2726054.1855213344 0 0 0 0 -13040431.288930416 -167934507.58193207 0 -167934507.58193207 107052467.06456375 0 0 0 0 -18847933.450110734 43303853.425409317 0 43303853.425409317 58036867.057876587 0 0 0 0 2046946.4412151524 -3744114.6107241213 0 -3744114.6107241213 12959030.975351438 0 0 0 0 -49162652.451990604 6129354.4024009705 0 6129354.4024009705 38869832.768441468 0 0 0 0 -2270815.7338011265 2029279.4694137573 0 2029279.4694137573 -113052510.14239502 0 0 0 0 76330652.659409791 171783482.17486572 0 171783482.17486572 -18631647.656364441 0 0 0 0 215413170.23503059 30137443.050296783 0 30137443.050296783 -135147650.74741554 0 0 0 0 -147232433.7014631 -57237347.088933945 0 -57237347.088933945 42368467.042160034 0 0 0 0 3472259.7910643201 -4560610.0983864404 0 -4560610.0983864404 7768295.1362511292 0 0 0 0 -58950656.514198847 -214945698.21011925 0 -214945698.21011925 554290423.14110565 0 0 0 0 -12651304.896063425 677960634.64647675 0 677960634.64647675 2203098217.3967667 0 0 0 0 -120548700.85547523 115964812.74420166 0 115964812.74420166 516120065.82839012 0 0 0 0 -231213354.19780645 -244662574.92913055 0 -244662574.92913055 2200505597.2464218 0 0 0 0 54292585.422265142 -734367012.01685333 0 -734367012.01685333 1489213854.7084503 0 0 0 0 -458928818.10218579 -326774139.92866135 0 -326774139.92866135 2200289751.2317314 0 0 0 0 515702366.62192273 -476162099.22642136 0 -476162099.22642136 32614655.028450012 0 0 0 0 1588466.0434667626 -1530238.6417087726 0 -1530238.6417087726 3995155.4275153875 0 0 0 0 -64308371.661568165 95735274.214168549 0 95735274.214168549 291705385.84786797 0 0 0 0 -580072.3178845048 -375193535.52905655 0 -375193535.52905655 777168523.53533936 0 0 0 0 220809229.21324688 98054974.688819408 0 98054974.688819408 25664214.785102844 0 0 0 0 137787410.5192222 -131161896.13784885 0 -131161896.13784885 68225864.894317627 0 0 0 0 18792780.594410956 58566136.755659103 0 58566136.755659103 -28139100.230606079 0 0 0 0 -25757829.985057712 26368281.644527435 0 26368281.644527435 7016591.5191459656 0 0 0 0 -15930685.260982513 18541442.170280457 0 18541442.170280457 18013295.329888791 0 0 0 0 1104302.6877970216 11140892.866352446 0 11140892.866352446 604200.42546572909 0 0 0 0 -39816296.914202631 16953552.297522545 0 16953552.297522545 53729041.080490112 0 0 0 0 -13150038.045152068 101049412.45129204 0 101049412.45129204 99148474.098365784 0 0 0 0 2927417.7924438934 10259120.791224971 0 10259120.791224971 1146735.2407644356 0 0 0 0 288518103.41293716 -119940029.33776855 0 -119940029.33776855 76490797.703155518 0 0 0 0 46777663.703884602 115400015.89974976 0 115400015.89974976 64471076.828842163 0 0 0 0 104488334.26429176 -7101848.0343227386 0 -7101848.0343227386 -100010635.68782806 0 0 0 0 -47252718.753034994 -43987107.842416584 0 -43987107.842416584 -43007270.527267456 0 0 0 0 614139.78362327139 -460484.52284796908 0 -460484.52284796908 349197.62466311455 0 0 0 0 57318889.236132622 -25532989.070266724 0 -25532989.070266724 -5182596.1591491699 0 0 0 0 366332.63204735611 -437928.53967293166 0 -437928.53967293166 1893422.6554918587 0 0 0 0 12707906.849210024 16738268.428684235 0 16738268.428684235 -41284188.068870544 0 0 0 0 30581311.502911329 265515451.86789894 0 265515451.86789894 31784156.288818359 0 0 0 0 21476166.325116158 -67037889.465332031 0 -67037889.465332031 36833650.601104736 0 0 0 0 16022072.212697983 -67109723.031829834 0 -67109723.031829834 108524053.01889038 0 0 0 0 -62749624.403908759 -79534644.859600067 0 -79534644.859600067 25313003.220649719 0 0 0 0 -35974.413542995928 -174925.73604636267 0 -174925.73604636267 3498164.1420677304 0 0 0 0 -67470863.233165026 -29809075.907485962 0 -29809075.907485962 28369966.223937988 0 0 0 0 -12717786.901039004 1722182.0184326172 0 1722182.0184326172 46233030.060752869 0 0 0 0 62957136.640449166 41077235.127257347 0 41077235.127257347 36459590.269577026 0 0 0 0 -56792244.517457247 15745635.993026733 0 15745635.993026733 57902506.196495056 0 0 0 0 537133.93172605103 924898.35724765062 0 924898.35724765062 944081.80354976654 0 0 0 0 190150137.61299086 110436590.05673981 0 110436590.05673981 -19175331.321998596 0 0 0 0 43146875.04766202 50685988.808071136 0 50685988.808071136 1812410.7196731567 0 0 0 0 19291373.90728426 94175962.435646057 0 94175962.435646057 74996804.484420776 0 0 0 0 14350563.097961307 29265069.458595276 0 29265069.458595276 -767909.38682031631 0 0 0 0 -417182.91731953621 6871400.441280365 0 6871400.441280365 45620506.620381832 0 0 0 0 -30000702.540210903 42238505.237822533 0 42238505.237822533 30015585.514251709 0 0 0 0 130965.81625189469 1756286.4553699791 0 1756286.4553699791 3637456.0919384509 0 0 0 0 -2474865.9573862609 2743870.2180557027 0 2743870.2180557027 1819156.952995792 0 0 0 0 -85594896.17643714 -20266866.414905548 0 -20266866.414905548 19573121.119472027 0 0 0 0 -23276262.345892191 96611060.079950333 0 96611060.079950333 71583548.038719177 0 0 0 0 -6494959.9443545043 14976860.073400497 0 14976860.073400497 9143139.1179122925 0 0 0 0 -20803503.459214091 23175627.350095749 0 23175627.350095749 -21633247.881019592 0 0 0 0 -67909101.908547044 48425865.946352005 0 48425865.946352005 31468339.473617554 0 0 0 0 -1338615.6738246493 750550.62720469758 0 750550.62720469758 10229716.388585299 0 0 0 0 -54822847.177747548 -154317254.41694355 0 -154317254.41694355 38429034.296340942 0 0 0 0 -9060528.2362203598 42453304.545898438 0 42453304.545898438 8141365.7166595459 0 0 0 0 -2523991.7902659122 1428091.6588810571 0 1428091.6588810571 16002056.397654295 0 0 0 0 -87107651.893437624 -6221663.83751297 0 -6221663.83751297 -1919327.5180358887 0 0 0 0 109621530.91630435 116575668.63701248 0 116575668.63701248 137855609.78970337 0 0 0 0 -13455150.235761642 7874507.236541748 0 7874507.236541748 42266582.436035156 0 0 0 0 449812913.67419124 -294590882.81172562 0 -294590882.81172562 -28137285.906433105 0 0 0 0 -20102370.202753067 -19816242.807655334 0 -19816242.807655334 190187054.58906555 0 0 0 0 -14999080.694970131 -2892762.1458587646 0 -2892762.1458587646 98299277.584823608 0 0 0 0 -32327972.203182697 56380141.08354187 0 56380141.08354187 21678833.423873901 0 0 0 0 -26325740.537068367 -37707091.348869324 0 -37707091.348869324 -8697103.6547393799 0 0 0 0 18343572.964660645 29212321.553192139 0 29212321.553192139 50003818.629821777 0 0 0 0 -9607450.9624948502 15333109.505447388 0 15333109.505447388 28322776.478369713 0 0 0 0 -1102494.7850161958 1973029.9616229981 0 1973029.9616229981 4850150.3255356252 0 0 0 0 -19639481.247582197 -25280390.226350784 0 -25280390.226350784 6336221.5181884766 0 0 0 0 17509197.686356097 39288745.942092896 0 39288745.942092896 31579904.494415283 0 0 0 0 -2402052.0714712143 9672762.8890533447 0 9672762.8890533447 29520888.057224274 0 0 0 0 6523816.817817688 -726162.54748535156 0 -726162.54748535156 24128080.054405212 0 0 0 0 23307049.597434163 21729405.655448914 0 21729405.655448914 18064736.86390686 0 0 0 0 -26661740.616540402 5267367.3727874756 0 5267367.3727874756 40667320.313262939 0 0 0 0 -26292307.492306173 10271000.797645569 0 10271000.797645569 22628278.039627075 0 0 0 0 -84011513.858257294 -13156027.777679443 0 -13156027.777679443 27420399.860537529 0 0 0 0 -94360346.312690735 -28123832.598350525 0 -28123832.598350525 27508084.874603271 0 0 0 0 -62105599.803462267 -26530744.13368988 0 -26530744.13368988 24433384.92024231 0 0 0 0 -89298077.490032196 -31656150.326713562 0 -31656150.326713562 -5798626.6334075928 0 0 0 0 -95262386.166314602 -14186020.585868835 0 -14186020.585868835 13227015.765533447 0 0 0 0 -91981041.703407288 -20465812.591903687 0 -20465812.591903687 19091837.293731689 0 0 0 0 -74249540.702487946 -11010646.332199097 0 -11010646.332199097 27032530.997945786 0 0 0 0 -74334311.607059479 -17213135.793701172 0 -17213135.793701172 6577114.2170715332 0 0 0 0 -81601787.578104019 -24207620.005027771 0 -24207620.005027771 6936498.8910961151 0 0 0 0 -25804180.465446711 49956743.191055298 0 49956743.191055298 3735704.2579717636 0 0 0 0 13170412.373510003 32362927.998085022 0 32362927.998085022 739221.76261901855 0 0 0 0 -1130884.1645861929 225921.20891969278 0 225921.20891969278 1542849.6139467657 0 0 0 0 -95545849.881768703 -12006666.247566223 0 -12006666.247566223 11760016.618797302 0 0 0 0 -98908793.000121117 11518055.213783264 0 11518055.213783264 -26992459.366409302 0 0 0 0 5344961.6359272003 16480026.81262207 0 16480026.81262207 5511996.8525314331 0 0 0 0 13393131.289621197 9298465.1963608861 0 9298465.1963608861 11815367.608718872 0 0 0 0 21754887.948057413 -16630569.422458649 0 -16630569.422458649 -37754127.122519493 0 0 0 0 -9652811.2964543104 19647359.184267044 0 19647359.184267044 17731430.647880554 0 0 0 0 -35254.845883230446 9796.3572071846575 0 9796.3572071846575 134693.84269669652 0 0 0 0 43152395.604396105 -82177796.735295296 0 -82177796.735295296 -47586031.776916504 0 0 0 0 -71093795.825781107 -30335681.763946533 0 -30335681.763946533 -9496498.136516571 0 0 0 0 -62929371.646590948 -32051411.310914993 0 -32051411.310914993 -77023202.684799194 0 0 0 0 -2583710.6402945518 -7596987.6788864136 0 -7596987.6788864136 4355317.7822799683 0 0 0 0 -68177042.966944456 -5353805.6551542282 0 -5353805.6551542282 14463067.299598694 0 0 0 0 -8617048.3802399635 -468960.35163497925 0 -468960.35163497925 -1821025.2327423096 0 0 0 0 -35830312.461868763 -4149109.2179450989 0 -4149109.2179450989 6006966.033416748 0 0 0 0 -682646.31006632769 2640870.270853206 0 2640870.270853206 18545394.858213298 0 0 0 0 -2585875.3428594489 -2207803.6920044497 0 -2207803.6920044497 3016319.60784401 0 0 0 0 -8357768.9456968307 -3245186.2595672607 0 -3245186.2595672607 -5920934.1710205078 0 0 0 0 -37051580.249832273 -16003165.099449158 0 -16003165.099449158 36770707.795406342 0 0 0 0 -14215365.060496211 13664103.553583145 0 13664103.553583145 25972693.701904297 0 0 0 0 8227768.8907194138 -3370394.3521270752 0 -3370394.3521270752 3766003.0604858398 0 0 0 0 -63360.998791287653 683057.38642407209 0 683057.38642407209 2359565.831862241 0 0 0 0 17712687.18570137 25155222.28604126 0 25155222.28604126 33562544.771331787 0 0 0 0 21314646.432872772 13237919.338928223 0 13237919.338928223 22037318.570648193 0 0 0 0 14112106.657466888 13107152.111358643 0 13107152.111358643 22440741.445022583 0 0 0 0 18651977.475137234 16328220.046821594 0 16328220.046821594 18564446.891494751 0 0 0 0 22115331.226039886 -841259.33549499512 0 -841259.33549499512 37550898.645584106 0 0 0 0 23583811.22096777 8785667.8494682312 0 8785667.8494682312 8862566.8576049805 0 0 0 0 12203049.705476761 10870059.0521698 0 10870059.0521698 31185962.983001709 0 0 0 0 -1248853.220214085 1642331.3985655021 0 1642331.3985655021 9076367.6917912364 0 0 0 0 12648642.194272041 12989360.020736694 0 12989360.020736694 25008514.170318604 0 0 0 0 -8353551.1010760069 -501325.30824279785 0 -501325.30824279785 3544412.850769043 0 0 0 0 -930104.81202003476 6870367.2214327604 0 6870367.2214327604 19498978.097836681 0 0 0 0 12911230.352635145 6023503.4398651123 0 6023503.4398651123 18562827.468200684 0 0 0 0 -1429266.0905749514 5890557.0752667338 0 5890557.0752667338 14909935.035572514 0 0 0 0 -2998715.5607537171 -2502248.6721000038 0 -2502248.6721000038 8647922.9414512143 0 0 0 0 -834447.11783437734 2266444.0472016297 0 2266444.0472016297 1735406.5468807891 0 0 0 0 -12382384.094942749 10822812.181148529 0 10822812.181148529 9966255.1772384644 0 0 0 0 304178.79039770365 -5691788.6407527924 0 -5691788.6407527924 -4280487.8817596436 0 0 0 0 29749240.859002113 -14305487.195632935 0 -14305487.195632935 28027035.35836792 0 0 0 0 34705730.987738848 -7867887.0826950073 0 -7867887.0826950073 13846647.686065674 0 0 0 0 258906.87883758545 3762267.5798339844 0 3762267.5798339844 15674101.882751465 0 0 0 0 -4252477.1774983406 9244954.012512207 0 9244954.012512207 11014589.799186707 0 0 0 0 -578389.51991560578 741613.93429407477 0 741613.93429407477 5199833.3458460867 0 0 0 0 7483619.9424345493 11859668.396102905 0 11859668.396102905 12812752.036956787 0 0 0 0 -20550412.269657612 -4170140.3834915161 0 -4170140.3834915161 5559342.4185714722 0 0 0 0 -6899133.4329582453 -6883735.2066631317 0 -6883735.2066631317 502989.81118774414 0 0 0 0 -10448209.916474342 2371039.8412857056 0 2371039.8412857056 12881489.219482422 0 0 0 0 7336695.2004150152 -11964523.216451645 0 -11964523.216451645 3647248.6945953369 0 0 0 0 38225.176211444661 -163415.87317136675 0 -163415.87317136675 -255585.61163745821 0 0 0 0 8781026.3586421013 8787659.5392417908 0 8787659.5392417908 20774425.801773071 0 0 0 0 13395694.979541562 19696917.727794886 0 19696917.727794886 -32608904.727210999 0 0 0 0 13286526.23436971 19935451.438270569 0 19935451.438270569 -1918376.3169631958 0 0 0 0 6476658.2320521474 7750486.2926177979 0 7750486.2926177979 14442558.320543289 0 0 0 0 1105092.6107388479 1171498.1343839578 0 1171498.1343839578 924011.49175085127 0 0 0 0 -6947564.1412712336 6478748.875541687 0 6478748.875541687 9520573.8493585587 0 0 0 0 -4489926.4432941675 29632133.430171967 0 29632133.430171967 3749545.4090652466 0 0 0 0 547849.67635524273 225654.06090927124 0 225654.06090927124 -49768629.861824036 0 0 0 0 -38392.017787071563 443906.26903092163 0 443906.26903092163 6742291.6852630526 0 0 0 0 -24892609.057792425 24683076.932735443 0 24683076.932735443 12843929.934753418 0 0 0 0 64556255.122977257 -9844824.1561813354 0 -9844824.1561813354 -3970945.0489501953 0 0 0 0 -31342275.376992881 10912555.230045319 0 10912555.230045319 17224155.185134888 0 0 0 0 71814.038376143435 620432.06173652969 0 620432.06173652969 5123929.6339957193 0 0 0 0 -5675512.2757027447 -7709680.221473217 0 -7709680.221473217 1330565.0428695679 0 0 0 0 24921482.820037842 70824424.819801331 0 70824424.819801331 60720914.612487793 0 0 0 0 -188825507.2349 -23238884.056022644 0 -23238884.056022644 117687512.38626671 0 0 0 0 -166899575.96143788 -33107545.038658142 0 -33107545.038658142 83305543.688095093 0 0 0 0 -89553946.622557878 30592606.507415771 0 30592606.507415771 130019515.64551544 0 0 0 0 -49573165.506795645 5597434.6341400146 0 5597434.6341400146 15248763.632232666 0 0 0 0 -55734818.235956192 13329756.349227905 0 13329756.349227905 16571008.843505859 0 0 0 0 -109711270.0480504 -5730875.7684402466 0 -5730875.7684402466 18312101.204269409 0 0 0 0 77113748.071938097 27048602.407810211 0 27048602.407810211 -5453089.5202636719 0 0 0 0 12218259.717850685 35351104.966766357 0 35351104.966766357 3833654.9401054382 0 0 0 0 16984242.859682798 168144.8410949707 0 168144.8410949707 -913456.4787902832 0 0 0 0 19585421.57407999 13590059.509773254 0 13590059.509773254 -1248429.4239516258 0 0 0 0 -923962.29928517342 315774.36223602295 0 315774.36223602295 9685069.354309082 0 0 0 0 -49774260.388039127 8383957.0722732544 0 8383957.0722732544 8240791.7660522461 0 0 0 0 -54262725.979634225 20776341.220638275 0 20776341.220638275 -22945004.296936035 0 0 0 0 -7407285.6942517757 17519413.073013306 0 17519413.073013306 -1659204.7923583984 0 0 0 0 -56025046.321403325 17908527.087593079 0 17908527.087593079 14908800.427703857 0 0 0 0 -8011548.3419837952 6083264.8701477051 0 6083264.8701477051 11892428.906410217 0 0 0 0 -68092798.049059063 -8014996.3680591583 0 -8014996.3680591583 20069234.352127075 0 0 0 0 -74156682.37765336 7702476.236076355 0 7702476.236076355 20916520.910415649 0 0 0 0 -43254646.74154073 -10022338.82598114 0 -10022338.82598114 20768593.656143188 0 0 0 0 -33968084.898498178 15101397.136367798 0 15101397.136367798 23052440.016479492 0 0 0 0 13070954.230953693 7991121.1437835693 0 7991121.1437835693 14297710.65971756 0 0 0 0 -1742310.9394412041 18405357.106887817 0 18405357.106887817 12403652.331359863 0 0 0 0 -16075080.057645977 -48745066.433132648 0 -48745066.433132648 26186533.642532349 0 0 0 0 -2963070.3868148075 1060645.8511143066 0 1060645.8511143066 19382009.305194467 0 0 0 0 -159317590.33426309 -29167081.913467407 0 -29167081.913467407 38457700.211074829 0 0 0 0 -116159102.06807566 -49934426.436180115 0 -49934426.436180115 21587463.618843079 0 0 0 0 -133534254.98061514 -7711509.4434356689 0 -7711509.4434356689 38192811.902526855 0 0 0 0 -93081737.035172224 -31507399.662651062 0 -31507399.662651062 28032474.127144337 0 0 0 0 -116106428.08087742 2696819.2022018433 0 2696819.2022018433 25205636.590431213 0 0 0 0 -133208148.51658493 29267479.885314941 0 29267479.885314941 -12512842.306915283 0 0 0 0 -82856824.223620653 2170656.2898178101 0 2170656.2898178101 17641922.561889648 0 0 0 0 459573.34165359056 2470192.0045053344 0 2470192.0045053344 7666663.8530222625 0 0 0 0 14678253.615233183 54781423.55185318 0 54781423.55185318 29898839.268569112 0 0 0 0 -2119882.7575453529 -106256.73288445733 0 -106256.73288445733 19632313.194421455 0 0 0 0 -192602054.11614156 -97540798.782951355 0 -97540798.782951355 64099629.710601807 0 0 0 0 -149627091.98920184 -88380474.163957596 0 -88380474.163957596 -10851837.909729004 0 0 0 0 -92346485.654124975 -16929170.919250488 0 -16929170.919250488 -63687409.646865845 0 0 0 0 -3892537.0391293764 5119256.360373497 0 5119256.360373497 19935280.93888855 0 0 0 0 -47000932.437314026 -196732891.43689376 0 -196732891.43689376 110446210.68493652 0 0 0 0 -203384806.37206006 -86607971.977157593 0 -86607971.977157593 59048592.664627075 0 0 0 0 5734360.7150661582 3109921.9558902085 0 3109921.9558902085 8572692.5933483113 0 0 0 0 13065776.566757441 4256962.4127502441 0 4256962.4127502441 6443710.9663780779 0 0 0 0 29115700.511472762 -46518326.031398773 0 -46518326.031398773 108792133.52378845 0 0 0 0 711940.28567241738 877336.6759991888 0 877336.6759991888 781473.39969615638 0 0 0 0 67097660.357721686 -76020694.666778564 0 -76020694.666778564 -447609891.40116882 0 0 0 0 -201352221.3962037 -56946650.739021301 0 -56946650.739021301 81551093.006568909 0 0 0 0 -194628838.23835665 -79589318.580858231 0 -79589318.580858231 -162499449.32067871 0 0 0 0 -100311.39451134857 313790.52272170782 0 313790.52272170782 1227543.8752738819 0 0 0 0 -142078753.1768775 338303947.96333313 0 338303947.96333313 -1186143217.5953276 0 0 0 0 -249003833.11616182 -186828748.89412689 0 -186828748.89412689 468752498.41239929 0 0 0 0 766806.87172064837 371361.52859805711 0 371361.52859805711 14235181.302534044 0 0 0 0 -4765595.4406439066 -6533546.4598121643 0 -6533546.4598121643 6152420.5873718262 0 0 0 0 -317518452.82761121 27051043.192905426 0 27051043.192905426 144087254.13969803 0 0 0 0 -133672485.2493211 -34665137.963882446 0 -34665137.963882446 162141839.75724792 0 0 0 0 11536750.589624733 -12048997.693881035 0 -12048997.693881035 -2052490.3292236328 0 0 0 0 -80563347.192796469 -37018202.620380402 0 -37018202.620380402 29532016.902252197 0 0 0 0 2286623.4782022461 4609707.9325116202 0 4609707.9325116202 -2666376.2287137061 0 0 0 0 20164388.960864842 3518652.046459198 0 3518652.046459198 -2041075.3745727539 0 0 0 0 -120206770.90985638 151153194.0681572 0 151153194.0681572 577351276.84499741 0 0 0 0 36482591.67414239 10233219.004461288 0 10233219.004461288 -22227224.310020447 0 0 0 0 536062.2610420147 790165.05591962487 0 790165.05591962487 -993019.10419505835 0 0 0 0 442710.9535973157 -801027.54862546548 0 -801027.54862546548 5654039.4264027327 0 0 0 0 476785699.38426054 805057505.07195663 0 805057505.07195663 1435166978.3169327 0 0 0 0 451126049.55419689 672649162.2248764 0 672649162.2248764 797560076.62985229 0 0 0 0 23360188.017900571 182234485.80000305 0 182234485.80000305 1080492566.311554 0 0 0 0 -74158684.265290707 89954969.649356842 0 89954969.649356842 2206492972.089756 0 0 0 0 89124336.3469515 500886750.5538826 0 500886750.5538826 2409903400.3748398 0 0 0 0 1187210291.2763684 -1001689974.2693329 0 -1001689974.2693329 3103781263.4826279 0 0 0 0 -543524774.56947494 43449637.817626953 0 43449637.817626953 1291529546.9032707 0 0 0 0 -668140060.76677704 -55841170.549854279 0 -55841170.549854279 2223342500.7190666 0 0 0 0 -310570814.35952103 -225774483.12951756 0 -225774483.12951756 1742617599.5512161 0 0 0 0 -326570451.82161641 -166032503.41034222 0 -166032503.41034222 1594017872.2103958 0 0 0 0 16817392.176475126 -619348137.59983063 0 -619348137.59983063 2204578716.466929 0 0 0 0 800387090.3852185 21319254.981777191 0 21319254.981777191 2492916810.3871918 0 0 0 0 277374.17324155883 -975600.35577106569 0 -975600.35577106569 2071860.2141920179 0 0 0 0 161574395.51048094 -967726703.26952648 0 -967726703.26952648 1292229979.3056107 0 0 0 0 200203641.66723257 106536362.78514862 0 106536362.78514862 -124762060.42581558 0 0 0 0 328972757.08302623 -628580660.20385361 0 -628580660.20385361 725320225.15345764 0 0 0 0 -257138355.20133531 -420670868.26117325 0 -420670868.26117325 1772029640.5611162 0 0 0 0 -260038440.51836532 -369329593.07357657 0 -369329593.07357657 1598900886.0740814 0 0 0 0 310872366.67255574 -226906745.8623333 0 -226906745.8623333 70883326.036026001 0 0 0 0 107395567.70798731 118962569.79516983 0 118962569.79516983 8303108.1612405777 0 0 0 0 -197955245.88919717 136044621.12292099 0 136044621.12292099 62360437.799606323 0 0 0 0 -42044346.081793427 111085276.40771103 0 111085276.40771103 66252504.149423599 0 0 0 0 155988.87306589837 -899305.53482832643 0 -899305.53482832643 5091080.438617222 0 0 0 0 44755939.899477795 52251474.092995644 0 52251474.092995644 73530728.875228882 0 0 0 0 -105504423.44182347 19626021.854773521 0 19626021.854773521 6095240.8234939575 0 0 0 0 13661999.18776083 2603998.2774620056 0 2603998.2774620056 -5721060.4124450684 0 0 0 0 -19225729.991534039 105895322.65169525 0 105895322.65169525 31909408.426677704 0 0 0 0 67656036.432005763 15755928.666469574 0 15755928.666469574 -63873559.780990601 0 0 0 0 237714.70069341222 456497.50667725503 0 456497.50667725503 815246.3801433146 0 0 0 0 -425356.46865859767 -598555.50976767763 0 -598555.50976767763 2612757.5607220083 0 0 0 0 -6438904.958176136 -112299009.3736763 0 -112299009.3736763 -111101730.58834457 0 0 0 0 -31733221.655092359 -30774784.689975739 0 -30774784.689975739 -43050385.922439575 0 0 0 0 7485859.4329288006 -2034189.9182376862 0 -2034189.9182376862 18957351.101726532 0 0 0 0 44533241.191504002 -29381308.832675934 0 -29381308.832675934 -68501000.361831665 0 0 0 0 97390997.597647429 -55326049.668968201 0 -55326049.668968201 -101390897.89907837 0 0 0 0 98863696.847682953 -14559475.661331177 0 -14559475.661331177 -208207558.47688293 0 0 0 0 -27956009.229873419 84154792.538982391 0 84154792.538982391 -133931155.65037537 0 0 0 0 26583964.124140263 -45441617.386726379 0 -45441617.386726379 114074184.01983643 0 0 0 0 69631841.46772337 32128845.533035278 0 32128845.533035278 15041435.913833618 0 0 0 0 -82864.846941665281 -86684.547094564885 0 -86684.547094564885 303398.66620910168 0 0 0 0 2554372.8563461304 5202771.1839523315 0 5202771.1839523315 35263352.180767059 0 0 0 0 -72720951.448926449 -53832151.559812546 0 -53832151.559812546 -40082608.478096008 0 0 0 0 -2368507.6125679016 -9417626.2402954102 0 -9417626.2402954102 16554826.183143616 0 0 0 0 7725464.9029312134 -4203901.0093078613 0 -4203901.0093078613 14152335.001785278 0 0 0 0 -11878443.311627984 5523849.1365737915 0 5523849.1365737915 35561490.78767395 0 0 0 0 -22878775.017436981 -1304198.4361610413 0 -1304198.4361610413 33391278.224060059 0 0 0 0 10318628.669890881 22314627.749584198 0 22314627.749584198 -25926244.439445496 0 0 0 0 -93002639.823284343 -140645981.78483725 0 -140645981.78483725 236481495.96861267 0 0 0 0 -567677.79759634286 -884558.89851249382 0 -884558.89851249382 3812377.3945735469 0 0 0 0 -130110937.79741859 110937797.74108505 0 110937797.74108505 101701992.42327118 0 0 0 0 48105594.148112327 -99910696.347078323 0 -99910696.347078323 166553324.88588715 0 0 0 0 181616339.94283438 -88208158.747592926 0 -88208158.747592926 90585131.896759033 0 0 0 0 -125863344.77632236 62089158.227844238 0 62089158.227844238 231835655.19647217 0 0 0 0 14615424.208708286 -58761456.803276062 0 -58761456.803276062 308697224.59819031 0 0 0 0 8797335.4985210299 127886786.61334038 0 127886786.61334038 596075296.39472961 0 0 0 0 -20103405.456998944 -294095753.48107147 0 -294095753.48107147 723151732.96955872 0 0 0 0 -6201571.1001052856 46448469.84394455 0 46448469.84394455 462080982.88188934 0 0 0 0 -306118802.45416558 -146863707.54623032 0 -146863707.54623032 1495555229.5304079 0 0 0 0 -125785900.29426026 40267200.624816895 0 40267200.624816895 996137225.74898148 0 0 0 0 -230729252.06975698 -182393896.00051117 0 -182393896.00051117 1089242510.6896858 0 0 0 0 -111392406.589499 -30024998.77091217 0 -30024998.77091217 666993603.30566216 0 0 0 0 43620282.845009565 254267811.48696899 0 254267811.48696899 377045946.24872971 0 0 0 0 -368021060.49746096 164491224.32805252 0 164491224.32805252 1850384351.4786873 0 0 0 0 -88082733.297726393 401877250.54699326 0 401877250.54699326 1352906732.7189636 0 0 0 0 154855654.99749726 700249854.40316153 0 700249854.40316153 1366732146.6917267 0 0 0 0 -7713463.8554251194 171516224.0693512 0 171516224.0693512 1462180853.2431927 0 0 0 0 -200038873.98794422 -131702183.35015774 0 -131702183.35015774 1857243973.2245102 0 0 0 0 -675094.82556080353 66608.295738700777 0 66608.295738700777 2233612.1977605042 0 0 0 0 -573290904.78041291 -206547580.4781723 0 -206547580.4781723 2204824893.4136987 0 0 0 0 -25626519.829914887 133075834.48321152 0 133075834.48321152 2205335826.4433441 0 0 0 0 441043595.75634193 59594398.131080627 0 59594398.131080627 1993055419.4617949 0 0 0 0 -12709787.001277693 143014556.22894096 0 143014556.22894096 2211572937.5692596 0 0 0 0 -1619034.3401799598 373113.2949625738 0 373113.2949625738 3692329.7298982604 0 0 0 0 10280337.179651115 139512532.38815784 0 139512532.38815784 2204687990.8752098 0 0 0 0 -556679.47487159993 -186884.06892350689 0 -186884.06892350689 2473730.421633251 0 0 0 0 144935860.41640663 727233903.17602968 0 727233903.17602968 1809010669.2547073 0 0 0 0 -17367.622573208064 -442243.50917650014 0 -442243.50917650014 2218738.0200861394 0 0 0 0 341829450.67193604 253172115.77006531 0 253172115.77006531 2105016621.2326355 0 0 0 0 -481993179.89760017 35259585.215171814 0 35259585.215171814 2595559332.08564 0 0 0 0 -292276271.49017906 -84487585.071716309 0 -84487585.071716309 218109181.52929688 0 0 0 0 -13895787.239411771 -384294951.00702095 0 -384294951.00702095 688278253.27346039 0 0 0 0 -48626549.602030754 130017610.8208313 0 130017610.8208313 396657454.86212158 0 0 0 0 -10479924.217071656 233911931.73759204 0 233911931.73759204 2177614430.015686 0 0 0 0 -72879076.862938643 193121072.91270447 0 193121072.91270447 1977462364.164875 0 0 0 0 -104402407.31452489 -268726175.47818756 0 -268726175.47818756 1502642417.489975 0 0 0 0 12655432.055666924 -81522447.838478088 0 -81522447.838478088 1295829142.2164459 0 0 0 0 -57933573.410242796 -156128966.04946136 0 -156128966.04946136 1307509504.8942175 0 0 0 0 73238215.489284992 -242602932.67884254 0 -242602932.67884254 569042689.35012817 0 0 0 0 118098820.89856982 -109742327.1932373 0 -109742327.1932373 575631152.26863265 0 0 0 0 235404889.14131212 -112598644.83174229 0 -112598644.83174229 -176192337.47225189 0 0 0 0 54785950.824406862 187811918.11229324 0 187811918.11229324 -140158840.71109247 0 0 0 0 23645929.31913054 10335948.173253059 0 10335948.173253059 -129432618.53188324 0 0 0 0 -90458228.683977604 -86845172.086791992 0 -86845172.086791992 -57563495.784343719 0 0 0 0 -63899540.782786846 44410027.185661316 0 44410027.185661316 -79085481.759571075 0 0 0 0 -151127.53040481725 -406903.91268019285 0 -406903.91268019285 4436649.4133654833 0 0 0 0 -161550228.88817644 93354998.885404587 0 93354998.885404587 -38409634.10168457 0 0 0 0 -146979704.20306015 -61913430.212862015 0 -61913430.212862015 27401092.324768066 0 0 0 0 -117818463.04967481 -20634909.449559212 0 -20634909.449559212 -13698702.304763794 0 0 0 0 139257152.72975659 -15045229.20463562 0 -15045229.20463562 -55738589.643157959 0 0 0 0 9792615.5329881907 18072345.659618378 0 18072345.659618378 -133211951.54201603 0 0 0 0 365288.56585395441 281388.51124019548 0 281388.51124019548 -695859.20972744375 0 0 0 0 10113359.754093803 10639416.282744765 0 10639416.282744765 -7154887.7058258057 0 0 0 0 5306173.2404559255 -12860774.330228806 0 -12860774.330228806 4587824.1840782166 0 0 0 0 7847416.391477108 -1949292.7895755768 0 -1949292.7895755768 -5408141.8264732361 0 0 0 0 37604.742385877966 -421115.88745002309 0 -421115.88745002309 4232972.4770740792 0 0 0 0 6855.3462433440145 566942.78617283329 0 566942.78617283329 -116250.31470547616 0 0 0 0 -8781770.8692990541 10026660.495418549 0 10026660.495418549 179680.83760070801 0 0 0 0 -48867754.723912656 -23738305.898914814 0 -23738305.898914814 -10270041.195259094 0 0 0 0 -57085807.287693024 -17043404.226154327 0 -17043404.226154327 -15473213.255859375 0 0 0 0 -23608780.001574039 -36372136.636192322 0 -36372136.636192322 -36420164.299051285 0 0 0 0 -59026068.075885534 -34259493.687568665 0 -34259493.687568665 -10182965.327041626 0 0 0 0 350491.56008651387 196595.45514323935 0 196595.45514323935 1061291.1932628155 0 0 0 0 -17979798.283912182 -6615530.6288757324 0 -6615530.6288757324 -3076285.8101654053 0 0 0 0 5641928.5027464628 7344896.7852706909 0 7344896.7852706909 4853493.3655166626 0 0 0 0 3516520.8472700119 3374666.3454208374 0 3374666.3454208374 6951475.7059173584 0 0 0 0 -8455280.8345983028 -12206961.20753479 0 -12206961.20753479 -16859794.913162231 0 0 0 0 -1605741.4413870191 -56398.106832228601 0 -56398.106832228601 1667242.6340341642 0 0 0 0 -30074217.790350437 -17915880.379333496 0 -17915880.379333496 7346745.7194061279 0 0 0 0 -15421189.862960815 -15318439.219810486 0 -15318439.219810486 -1831124.6764764786 0 0 0 0 -29256137.110003769 -23653301.860165358 0 -23653301.860165358 -8771161.0514602661 0 0 0 0 -17188310.370905638 -16480094.467675209 0 -16480094.467675209 -2578177.3026504517 0 0 0 0 -50695160.273052573 -23858775.896751404 0 -23858775.896751404 -5961407.0348892212 0 0 0 0 -38089992.687142372 -31600486.657711029 0 -31600486.657711029 -10176611.298171997 0 0 0 0 -36637887.721642971 -25598315.633682251 0 -25598315.633682251 -6418328.8502216339 0 0 0 0 1434542.3287371397 51749.431446075439 0 51749.431446075439 27589018.782264709 0 0 0 0 379414.58586080675 -968913.64056970179 0 -968913.64056970179 2263298.28881488 0 0 0 0 -43030860.501521111 -27435240.810508728 0 -27435240.810508728 -4079524.2403144836 0 0 0 0 -42498248.65158391 -28672064.660245895 0 -28672064.660245895 -8207185.6257171631 0 0 0 0 -36539609.35334003 -45581007.198436737 0 -45581007.198436737 -34281016.039543152 0 0 0 0 -33903301.597520471 -22221050.561214447 0 -22221050.561214447 -17647741.90296936 0 0 0 0 -36256737.661017932 -28013634.857249975 0 -28013634.857249975 -2925867.1854705811 0 0 0 0 18491883.442364335 15174414.326486588 0 15174414.326486588 25449467.903800964 0 0 0 0 -76757250.634824038 -55797663.473716736 0 -55797663.473716736 -26281951.433868408 0 0 0 0 304467.43345114752 -884389.83249724284 0 -884389.83249724284 1370386.2579995617 0 0 0 0 5854509.1193293333 30936445.661554337 0 30936445.661554337 46944514.840385437 0 0 0 0 1521228.6143237352 17421948.512889862 0 17421948.512889862 24152613.476100922 0 0 0 0 -3582551.1927295923 20281520.435295105 0 20281520.435295105 67872235.901046753 0 0 0 0 -7526901.4586202502 8965544.588031292 0 8965544.588031292 42458643.602508545 0 0 0 0 -9523309.3798880577 13397669.445163727 0 13397669.445163727 63039098.077198029 0 0 0 0 -9992495.9351844788 8344008.3055820465 0 8344008.3055820465 70124227.138267517 0 0 0 0 -354901.45689058304 5532211.2515449524 0 5532211.2515449524 11786496.530169487 0 0 0 0 -1149779.6483250856 -3924614.1544742584 0 -3924614.1544742584 48320468.946235657 0 0 0 0 -10874078.870066047 9953506.1333503723 0 9953506.1333503723 42478567.818840027 0 0 0 0 273101.82729238668 -104691.67336459272 0 -104691.67336459272 -19509.837494105101 0 0 0 0 -33873339.111400127 26643019.001726151 0 26643019.001726151 94729642.354343414 0 0 0 0 -23211842.123921752 18094518.305668831 0 18094518.305668831 99096726.517688751 0 0 0 0 -24285540.201881528 25460311.702453613 0 25460311.702453613 69827480.975618839 0 0 0 0 15564529.051506042 38232543.499198914 0 38232543.499198914 46513116.641314268 0 0 0 0 -17725542.450021029 38082738.819916725 0 38082738.819916725 79970771.977432251 0 0 0 0 43708609.362985373 32286562.409402847 0 32286562.409402847 14045899.123756409 0 0 0 0 28891835.499057055 62192091.241664886 0 62192091.241664886 52363325.144508362 0 0 0 0 16249549.06622076 42409660.705059052 0 42409660.705059052 58141197.950088501 0 0 0 0 34372358.631337881 56670728.902172089 0 56670728.902172089 60906370.7703619 0 0 0 0 1975253.9893577099 44689650.331943512 0 44689650.331943512 93704758.495464325 0 0 0 0 34699585.917729437 26478386.906752139 0 26478386.906752139 94693055.18145752 0 0 0 0 73018444.661015272 70408218.494564056 0 70408218.494564056 98553998.486915588 0 0 0 0 98999145.714886844 -8836026.5611820221 0 -8836026.5611820221 102558834.47303772 0 0 0 0 23609538.176706314 19992810.867675781 0 19992810.867675781 91555781.670543671 0 0 0 0 557780.92228639126 54582971.934371948 0 54582971.934371948 93898305.23348999 0 0 0 0 -31369809.124052763 22767740.839206696 0 22767740.839206696 105731638.49310875 0 0 0 0 -9817985.0052210093 65394302.948967934 0 65394302.948967934 143337620.63207245 0 0 0 0 -13088172.534000397 -3485455.9336290359 0 -3485455.9336290359 59821731.801567078 0 0 0 0 43776.807809184858 202097.90218810108 0 202097.90218810108 748254.97552450001 0 0 0 0 151228882.98517621 82632512.212836087 0 82632512.212836087 28296347.500213623 0 0 0 0 -10168279.349118829 -22575364.63666153 0 -22575364.63666153 78390824.256978989 0 0 0 0 4032059.6054831743 5984086.4262275696 0 5984086.4262275696 484630.95436859131 0 0 0 0 4619860.7256436348 4418100.2435836792 0 4418100.2435836792 945982.93027973175 0 0 0 0 -48266065.715084434 43961902.59128952 0 43961902.59128952 -4106951.0201325417 0 0 0 0 1813667.5725669861 11219241.57649231 0 11219241.57649231 -10146392.491794586 0 0 0 0 -39729422.711683869 39185027.073581696 0 39185027.073581696 76684847.616451263 0 0 0 0 -44078891.166331038 8459491.2007293701 0 8459491.2007293701 68287851.478149414 0 0 0 0 -95642131.358070254 15574484.085535049 0 15574484.085535049 70755978.937934875 0 0 0 0 -43718940.577851772 -41540226.120939255 0 -41540226.120939255 -18935901.011605263 0 0 0 0 -24408425.616162181 37291745.378684998 0 37291745.378684998 -43421859.478824615 0 0 0 0 -125376402.68459749 6659792.6849441528 0 6659792.6849441528 105363844.58689117 0 0 0 0 -64925944.112931371 -55774576.483830452 0 -55774576.483830452 -15360233.970153809 0 0 0 0 -670917.80957864644 343647.10771052539 0 343647.10771052539 215525.70811580122 0 0 0 0 -14706179.192327738 13528753.195121765 0 13528753.195121765 18643615.283306122 0 0 0 0 2056813.5399764776 7953738.0302906036 0 7953738.0302906036 12381993.89213562 0 0 0 0 5644412.5697367191 70739745.178655624 0 70739745.178655624 42350660.748098373 0 0 0 0 -76655618.108646393 -77764893.229095459 0 -77764893.229095459 -20220359.14440918 0 0 0 0 -88633325.457855701 -64879147.474220276 0 -64879147.474220276 -33417071.162307739 0 0 0 0 -11853636.315820694 -1209685.4044380188 0 -1209685.4044380188 13715399.546127319 0 0 0 0 -486736.35672486003 160111.94284796342 0 160111.94284796342 747719.14865453541 0 0 0 0 -112999730.54210603 -49467043.698165894 0 -49467043.698165894 5435712.1679878235 0 0 0 0 -33628463.394523382 754422.6443939209 0 754422.6443939209 44885173.323223114 0 0 0 0 -143047.588922514 -403397.02920495346 0 -403397.02920495346 145228.07928002626 0 0 0 0 -5315269.9489355087 14572043.443813324 0 14572043.443813324 16927932.225006104 0 0 0 0 -47672554.754016042 -1343843.3043041229 0 -1343843.3043041229 54300931.611667633 0 0 0 0 -705351.44938245439 147811.31937463582 0 147811.31937463582 1316973.9534219429 0 0 0 0 -68968068.080932081 -8346419.5684456825 0 -8346419.5684456825 44327175.178039551 0 0 0 0 -58580327.473410368 22287111.163467407 0 22287111.163467407 7052655.2954597473 0 0 0 0 -23568700.445577145 -6875355.9937973022 0 -6875355.9937973022 11696653.404891968 0 0 0 0 -48799552.957450747 -3722926.7726364136 0 -3722926.7726364136 34940783.777404785 0 0 0 0 -14021513.455771685 23757947.800762177 0 23757947.800762177 39934151.844778061 0 0 0 0 -22619392.055112481 24319737.513839722 0 24319737.513839722 76618698.532791138 0 0 0 0 20365756.258206367 -23294985.359172821 0 -23294985.359172821 53295955.086120605 0 0 0 0 66646069.561056137 34821576.225074768 0 34821576.225074768 6361362.67918396 0 0 0 0 23057305.521802902 49841576.856552124 0 49841576.856552124 48334798.963226318 0 0 0 0 17033772.486095905 32563634.533298492 0 32563634.533298492 12123679.50176239 0 0 0 0 -3971374.7780308723 19605928.186214447 0 19605928.186214447 -20327170.990880013 0 0 0 0 -26750066.419219255 16796087.131502151 0 16796087.131502151 44516732.946884155 0 0 0 0 -67141695.990012169 -18681903.798946381 0 -18681903.798946381 31826775.814796448 0 0 0 0 -23871222.161100388 9425915.103553772 0 9425915.103553772 28286557.369155884 0 0 0 0 -65478203.824507475 18622376.012935638 0 18622376.012935638 46156687.425079346 0 0 0 0 -37011284.751223326 4596765.7470474243 0 4596765.7470474243 24074560.991546631 0 0 0 0 -24371625.49887228 19970512.475646973 0 19970512.475646973 30961210.209545135 0 0 0 0 -16398073.881154537 14133585.071964264 0 14133585.071964264 21611628.593048096 0 0 0 0 15527831.549482346 18268156.685340881 0 18268156.685340881 16334308.43963623 0 0 0 0 16747934.120736122 12236928.540458679 0 12236928.540458679 7626589.0366592407 0 0 0 0 19258476.979557037 32097368.649467468 0 32097368.649467468 24015686.502471924 0 0 0 0 5368861.8029603958 20323290.486373901 0 20323290.486373901 17856817.800445557 0 0 0 0 -48007.167528629303 28397316.071918488 0 28397316.071918488 29944942.249450684 0 0 0 0 5076136.9469575882 46312965.240650177 0 46312965.240650177 60191075.039421082 0 0 0 0 49103351.016906254 -44514165.245524824 0 -44514165.245524824 24996101.813354492 0 0 0 0 89757715.292151451 18085727.678718567 0 18085727.678718567 10465282.485900879 0 0 0 0 -8356.7719794139484 -1215905.1613027961 0 -1215905.1613027961 163086.98379201442 0 0 0 0 79899419.802820206 39890431.51524353 0 39890431.51524353 24468000.109039307 0 0 0 0 -2910315.0272719497 -6020443.5439662673 0 -6020443.5439662673 3237538.417126976 0 0 0 0 75759748.168642044 9644436.818359375 0 9644436.818359375 -5659159.6036987305 0 0 0 0 -301322.25961460918 -185196.45559319109 0 -185196.45559319109 459945.88295480609 0 0 0 0 -3042564.3246854544 668429.65331511409 0 668429.65331511409 6229444.7971695364 0 0 0 0 -8374093.6852401085 -282359.73130303621 0 -282359.73130303621 9506910.4214172363 0 0 0 0 -9504686.6691346169 2157597.1004524231 0 2157597.1004524231 9478789.9934463501 0 0 0 0 17955161.722542763 11286619.466724396 0 11286619.466724396 7766292.2484817505 0 0 0 0 -2092743.8762489797 7187450.3163151518 0 7187450.3163151518 11319948.604320198 0 0 0 0 10620875.665463924 6231611.2424354553 0 6231611.2424354553 10043201.160469055 0 0 0 0 -4762577.5946822166 13061192.187282562 0 13061192.187282562 15399331.548820496 0 0 0 0 -18577790.324570656 10822508.315078735 0 10822508.315078735 22517957.244087219 0 0 0 0 -5791479.6690121889 17009912.65907383 0 17009912.65907383 18823494.927337646 0 0 0 0 -17689288.140282154 10593303.913341522 0 10593303.913341522 18216335.715446472 0 0 0 0 -20232618.900635719 7173524.4792633057 0 7173524.4792633057 19249422.388326645 0 0 0 0 -20396181.339229822 9111113.3420677185 0 9111113.3420677185 21509943.871927261 0 0 0 0 -17644534.461582303 10681194.520013809 0 10681194.520013809 20306651.768035889 0 0 0 0 48724133.6575213 33772839.133277863 0 33772839.133277863 -11394654.400611877 0 0 0 0 -152893.92076392157 1951922.6437529502 0 1951922.6437529502 2286466.9733736068 0 0 0 0 -1556602.9909560229 1893997.9909548461 0 1893997.9909548461 2132675.8354616389 0 0 0 0 -5078325.3768481463 7800819.3476023227 0 7800819.3476023227 8236794.9163894653 0 0 0 0 3939046.656612698 12151239.975209799 0 12151239.975209799 26898655.296061911 0 0 0 0 -3473782.8225402832 23155110.651580811 0 23155110.651580811 -10261215.106049418 0 0 0 0 9351330.8222930431 53724854.240207672 0 53724854.240207672 -11404034.062868714 0 0 0 0 13603117.123148084 47536834.418491364 0 47536834.418491364 -5470669.261177063 0 0 0 0 20453895.536659539 1316668.3487415314 0 1316668.3487415314 18568636.860015869 0 0 0 0 -38949195.13288784 62520368.438446045 0 62520368.438446045 89652172.138473511 0 0 0 0 182184505.83972239 114600460.25927353 0 114600460.25927353 21868481.493759155 0 0 0 0 -54877220.576453209 -11648765.507637024 0 -11648765.507637024 25309077.009552002 0 0 0 0 -90643613.602787018 -5077951.4439163208 0 -5077951.4439163208 55468261.037467957 0 0 0 0 -30751145.794238225 148922491.70157623 0 148922491.70157623 146456605.68861389 0 0 0 0 -45284182.217034698 37601932.291631699 0 37601932.291631699 32490288.089996338 0 0 0 0 -25064890.305535793 45574047.03830719 0 45574047.03830719 -2470927.6529693604 0 0 0 0 -17317169.048537493 2303516.4623222351 0 2303516.4623222351 32479912.810852051 0 0 0 0 -3273536.5494163036 2651739.2676200867 0 2651739.2676200867 12159867.950332642 0 0 0 0 -12743487.734148979 24895445.70463562 0 24895445.70463562 30089736.89226532 0 0 0 0 -2807677.322954806 3748479.1205359809 0 3748479.1205359809 4885190.9109562784 0 0 0 0 -49090551.749691963 -1695228.9680175781 0 -1695228.9680175781 39518096.115680695 0 0 0 0 -3756948.2944582431 572657.50054701045 0 572657.50054701045 21991986.792482138 0 0 0 0 -2431827.7657407522 1124846.0104185939 0 1124846.0104185939 24545864.612629093 0 0 0 0 -5116187.9628682137 2050137.2096710205 0 2050137.2096710205 11620725.097091675 0 0 0 0 -4779114.8561620209 64324.432607628405 0 64324.432607628405 21816658.713947639 0 0 0 0 -2063968.909116745 -25602182.937137604 0 -25602182.937137604 9831265.7932128906 0 0 0 0 -2918107.1897670031 -22448156.800891876 0 -22448156.800891876 19156981.626876831 0 0 0 0 4353852.4155883789 -20155922.508598328 0 -20155922.508598328 11875261.730293274 0 0 0 0 -60912922.59163928 -71013238.208464146 0 -71013238.208464146 -32656048.670455933 0 0 0 0 194730.11791419983 -2703351.5777130127 0 -2703351.5777130127 79918546.248893738 0 0 0 0 -1405397.0520889759 -47863396.765695572 0 -47863396.765695572 10257314.03666687 0 0 0 0 -1447246.1928112507 -13442967.761651993 0 -13442967.761651993 12502711.611465454 0 0 0 0 -1446809.0679225922 -7409627.268951416 0 -7409627.268951416 -4345325.7874794006 0 0 0 0 -45828511.828974724 -26959419.996723175 0 -26959419.996723175 19691639.092559814 0 0 0 0 -3721812.6549666356 -6594682.1426571831 0 -6594682.1426571831 31980213.299230784 0 0 0 0 -1620117.2230028762 3199012.2554058507 0 3199012.2554058507 9705332.9707009941 0 0 0 0 -160838394.94483173 -113292882.64376831 0 -113292882.64376831 -16762585.075714111 0 0 0 0 -190612488.25044036 83334077.794807434 0 83334077.794807434 53847278.53012085 0 0 0 0 -296752393.57754683 24804571.496871948 0 24804571.496871948 130552478.15412903 0 0 0 0 -206768438.84648231 -261466193.2193718 0 -261466193.2193718 92285900.004917145 0 0 0 0 -85093680.15444237 -167908585.68723297 0 -167908585.68723297 12872554.594161987 0 0 0 0 -318058081.0727458 -9129575.203666687 0 -9129575.203666687 166793073.47732544 0 0 0 0 -140576706.30447865 290860089.83730698 0 290860089.83730698 73917499.804904938 0 0 0 0 -5705581.147026062 69127391.878799438 0 69127391.878799438 -933652.61176300049 0 0 0 0 8508231.9422931671 55578515.405891418 0 55578515.405891418 7348766.4484634399 0 0 0 0 21954097.974015474 41411843.140785217 0 41411843.140785217 -15765044.364364624 0 0 0 0 -15933587.204881668 -51249817.415145874 0 -51249817.415145874 -100653176.12080383 0 0 0 0 42394818.377851963 64649742.027511597 0 64649742.027511597 -182928574.83120728 0 0 0 0 225518430.69649786 205976112.88840866 0 205976112.88840866 324603382.60497284 0 0 0 0 58532922.674953297 18558737.064199448 0 18558737.064199448 118705673.82920837 0 0 0 0 125871983.51673613 112829169.19780731 0 112829169.19780731 55811598.023700714 0 0 0 0 101194015.83330622 -145287761.3711319 0 -145287761.3711319 1267381.7548866272 0 0 0 0 16809198.692768931 -325554490.41113663 0 -325554490.41113663 204266986.08815002 0 0 0 0 440378295.78615808 -68418278.149971008 0 -68418278.149971008 15339922.124984741 0 0 0 0 301084538.82767779 98400053.620923996 0 98400053.620923996 1662275.4335174561 0 0 0 0 -59811389.521633379 175922430.70924377 0 175922430.70924377 515819711.46560287 0 0 0 0 -80220000.709830984 22692566.364612579 0 22692566.364612579 -80007829.401992798 0 0 0 0 -162934809.47817224 203708096.88489532 0 203708096.88489532 216939593.91362 0 0 0 0 597490.46048270701 1018046.0438083448 0 1018046.0438083448 2548262.1326726526 0 0 0 0 211867067.18065086 -211173491.17778206 0 -211173491.17778206 129012125.82345581 0 0 0 0 22678689.990141749 -42027315.281219482 0 -42027315.281219482 412145355.43357849 0 0 0 0 91494357.429625154 -65604047.524414062 0 -65604047.524414062 -47028206.963106155 0 0 0 0 -29798925.915179372 72581983.722625732 0 72581983.722625732 11668631.056137085 0 0 0 0 -8682129.584408462 -92150565.448959351 0 -92150565.448959351 -38042341.811203003 0 0 0 0 121164.72145903515 1144058.9947016099 0 1144058.9947016099 143824.35740357637 0 0 0 0 -272424153.71333128 81436157.34305954 0 81436157.34305954 70223419.422325134 0 0 0 0 58352340.103173971 203208903.21237564 0 203208903.21237564 -11783629.38419342 0 0 0 0 3744715.9708278477 -7477273.0522003174 0 -7477273.0522003174 26042884.447387695 0 0 0 0 -69583254.433572531 49110330.597431183 0 49110330.597431183 -10361253.159248352 0 0 0 0 -102388729.05871016 -4973716.616230011 0 -4973716.616230011 -17947704.580062866 0 0 0 0 745435.20934370626 7274952.0670764484 0 7274952.0670764484 897253.17363080382 0 0 0 0 -106739820.43088686 38489877.45633316 0 38489877.45633316 11691926.687225342 0 0 0 0 -37640321.554526329 24132311.708786011 0 24132311.708786011 -1869323.6024017334 0 0 0 0 35133502.348685384 1269628.851858139 0 1269628.851858139 -17228132.374061584 0 0 0 0 1332351.0620627033 3154358.8418620527 0 3154358.8418620527 7593638.8028738648 0 0 0 0 -51164611.473990083 32995447.972801208 0 32995447.972801208 306898594.63873291 0 0 0 0 -41453669.495522976 22635861.192131042 0 22635861.192131042 22156454.943992615 0 0 0 0 -22984265.74103117 39834001.701065063 0 39834001.701065063 8610388.4140892029 0 0 0 0 -40867402.779744864 25381388.271617889 0 25381388.271617889 2994110.9347076416 0 0 0 0 -42709072.88165617 39338327.863273621 0 39338327.863273621 938040.94099998474 0 0 0 0 -34903600.835981727 7202309.44252491 0 7202309.44252491 8380950.1926116943 0 0 0 0 -67694374.670301467 24145208.755870819 0 24145208.755870819 -4727509.6602020264 0 0 0 0 -47757978.427242756 36357159.600473404 0 36357159.600473404 8552958.2711410522 0 0 0 0 -41607079.785635218 37871030.02888298 0 37871030.02888298 -40565246.810112 0 0 0 0 -394162.95201201923 -1357806.5530810431 0 -1357806.5530810431 4128208.3232624084 0 0 0 0 -32183572.088374376 -24287839.821611404 0 -24287839.821611404 34824187.706565857 0 0 0 0 -72840287.711831331 43408019.94407177 0 43408019.94407177 327197.60105895996 0 0 0 0 -72993836.380860567 30716009.37582016 0 30716009.37582016 -1352629.8112640381 0 0 0 0 -59268590.531436086 44568500.763641357 0 44568500.763641357 4504863.4511966705 0 0 0 0 2745648.5166236633 10126074.908486456 0 10126074.908486456 27738803.530256912 0 0 0 0 -53379145.570488214 71517377.782262802 0 71517377.782262802 8561233.3314971924 0 0 0 0 12515693.336101294 53998682.02469635 0 53998682.02469635 261405.2792301178 0 0 0 0 7211896.0267305374 41740871.281541824 0 41740871.281541824 22060488.904945374 0 0 0 0 29079472.363518 4012372.9117660522 0 4012372.9117660522 17107743.724335194 0 0 0 0 -161109845.87502718 87792742.55332756 0 87792742.55332756 65295967.963394165 0 0 0 0 -91122108.472685099 15390464.060249329 0 15390464.060249329 90315103.859973907 0 0 0 0 -409299.58059101203 5076016.73929583 0 5076016.73929583 28381423.197127745 0 0 0 0 -117511305.69780731 -164997436.09086609 0 -164997436.09086609 216025084.69763947 0 0 0 0 19242878.909507275 486315.65939331055 0 486315.65939331055 -135782109.77532196 0 0 0 0 22736243.599316835 35461596.221038818 0 35461596.221038818 24646778.142463684 0 0 0 0 35115262.580692291 -9369820.5244140625 0 -9369820.5244140625 180837324.25834656 0 0 0 0 32314541.156791687 -7240815.5622711182 0 -7240815.5622711182 176574757.78134346 0 0 0 0 3184554.2700990736 -45094096.961333275 0 -45094096.961333275 168070194.96849823 0 0 0 0 31419146.236876249 42193172.398994446 0 42193172.398994446 142854494.96739578 0 0 0 0 51133.03810800449 -371010.82286596298 0 -371010.82286596298 605981.88069424033 0 0 0 0 -43737876.819315434 -100772418.37405396 0 -100772418.37405396 -82806587.832489014 0 0 0 0 -49208117.76707983 -80392471.545024872 0 -80392471.545024872 -31625028.289951324 0 0 0 0 -192921370.15194643 -50956982.030722618 0 -50956982.030722618 64499715.640914917 0 0 0 0 -129556460.44167566 -56279079.167518616 0 -56279079.167518616 -33885082.885406494 0 0 0 0 -557748.52502873365 1913938.2334934783 0 1913938.2334934783 23993028.34318836 0 0 0 0 -87546367.610318661 1493579.8608779907 0 1493579.8608779907 -35251366.197824955 0 0 0 0 -61664810.921904854 13718503.584718227 0 13718503.584718227 47338574.308731079 0 0 0 0 -7337737.3485362418 10528276.52507019 0 10528276.52507019 5856316.1578333378 0 0 0 0 -4898560.9565081596 21480147.811769485 0 21480147.811769485 36004036.520828247 0 0 0 0 -31224319.317137003 54140366.138454437 0 54140366.138454437 70274123.958770752 0 0 0 0 -88099727.007047892 15274535.547466278 0 15274535.547466278 41729759.669372559 0 0 0 0 14570334.434792519 17572837.200012207 0 17572837.200012207 34393126.342834473 0 0 0 0 -13460432.861327529 -20575605.947776794 0 -20575605.947776794 123296517.82551575 0 0 0 0 -69153424.504580736 78434253.567932129 0 78434253.567932129 -22459414.139616013 0 0 0 0 40316740.564139515 -74051394.316520691 0 -74051394.316520691 82349118.069900513 0 0 0 0 1787699.7112383964 438319.20542664081 0 438319.20542664081 -1068270.3305335939 0 0 0 0 31506000.758843303 -27934582.474601746 0 -27934582.474601746 14405064.979804993 0 0 0 0 -29878425.970833838 31252537.670532227 0 31252537.670532227 44146958.794464111 0 0 0 0 -32571529.934623659 10688916.792236328 0 10688916.792236328 7135267.8348464966 0 0 0 0 -65517985.563858151 47863770.372478962 0 47863770.372478962 28013630.920791626 0 0 0 0 -2610847.5430718111 6153239.2267413177 0 6153239.2267413177 13611505.442175686 0 0 0 0 -59004912.530881405 -16951412.659767151 0 -16951412.659767151 55957802.815933228 0 0 0 0 -48182373.836365223 -30495394.864151001 0 -30495394.864151001 72411679.629062653 0 0 0 0 -44590182.762648106 -28978250.88217926 0 -28978250.88217926 -10749616.019714355 0 0 0 0 -2506469.279106067 -164426.36339990422 0 -164426.36339990422 11795590.595518157 0 0 0 0 -15386385.479788303 9952914.5308380127 0 9952914.5308380127 -22921460.095879316 0 0 0 0 -24615581.985493124 15574781.540407181 0 15574781.540407181 9773136.4421844482 0 0 0 0 -14113142.130471051 5983760.2053375244 0 5983760.2053375244 8427418.2159638405 0 0 0 0 14294738.654045463 13064048.542747498 0 13064048.542747498 -9273345.391494751 0 0 0 0 14029478.599417832 9388017.539358139 0 9388017.539358139 -17564441.994636536 0 0 0 0 -646512.00609821093 -123218.00584389269 0 -123218.00584389269 1315787.0767276585 0 0 0 0 61240814.228360951 36461827.505153656 0 36461827.505153656 -15590658.966049194 0 0 0 0 19078672.414050072 18088293.895349503 0 18088293.895349503 -23438235.250839233 0 0 0 0 -27706923.016714573 43637677.618545532 0 43637677.618545532 5516272.8458404541 0 0 0 0 21537350.825318217 24480670.441574097 0 24480670.441574097 -8979166.5011267662 0 0 0 0 -48433131.201206058 73178410.92250061 0 73178410.92250061 -2358300.5021591187 0 0 0 0 15506556.308701873 29387351.051609039 0 29387351.051609039 -7053025.60887146 0 0 0 0 13205784.548566073 29307125.568213463 0 29307125.568213463 44496498.309654236 0 0 0 0 129563103.36109591 19154690.196178436 0 19154690.196178436 35621108.415855408 0 0 0 0 -20807343.693925768 -38146216.829696655 0 -38146216.829696655 -44525392.060920715 0 0 0 0 -1490717.7425360084 30481860.980056763 0 30481860.980056763 197742183.65177155 0 0 0 0 82060046.566863358 67124955.664016724 0 67124955.664016724 120198323.05465698 0 0 0 0 108737847.63239002 48803656.390899658 0 48803656.390899658 -13922463.338813782 0 0 0 0 3933943.7747883648 16281321.13256073 0 16281321.13256073 -28868007.353775024 0 0 0 0 -106274882.62510467 16419994.022987366 0 16419994.022987366 26019214.18649292 0 0 0 0 -146619.12238422531 2540262.8223587647 0 2540262.8223587647 4298742.7499388307 0 0 0 0 410488.11083246907 5640744.7556180507 0 5640744.7556180507 15790828.482757822 0 0 0 0 -27072365.219983101 29425944.232746124 0 29425944.232746124 -3160618.2363357544 0 0 0 0 894991.65398621559 12106728.46978569 0 12106728.46978569 -4957865.5719299316 0 0 0 0 2118997.1309962696 5379931.3727407772 0 5379931.3727407772 11379432.883157164 0 0 0 0 -25408347.053582549 9106133.4282913208 0 9106133.4282913208 -19666066.047111511 0 0 0 0 -72390227.773217976 113326930.1390686 0 113326930.1390686 47071866.369277954 0 0 0 0 13324745.985536635 57571899.67440033 0 57571899.67440033 -78601702.696235657 0 0 0 0 7601080.5276409984 -310993097.67243958 0 -310993097.67243958 172386657.24544907 0 0 0 0 -126137983.33493116 -52648410.504947662 0 -52648410.504947662 547457499.11011505 0 0 0 0 28280740.575718686 -29417536.74864006 0 -29417536.74864006 176979639.45315552 0 0 0 0 91375865.999264032 112037267.58385754 0 112037267.58385754 242111545.27575684 0 0 0 0 319278.53108238417 -468044.41047770903 0 -468044.41047770903 823472.9489954412 0 0 0 0 -17061888.609913707 27766577.345481873 0 27766577.345481873 324704925.27125263 0 0 0 0 5412333.9614016414 17948217.959449768 0 17948217.959449768 323845278.1410675 0 0 0 0 -57740029.699285626 65748175.325462341 0 65748175.325462341 404153659.17912292 0 0 0 0 -30134150.491539717 -7288252.6703567505 0 -7288252.6703567505 -162271012.32398605 0 0 0 0 -21897063.846810102 -77542706.858535767 0 -77542706.858535767 -2029564.9987564087 0 0 0 0 -80704941.224512815 -42950454.732032776 0 -42950454.732032776 -18341037.655090332 0 0 0 0 997739.38860287238 -502852.76911503822 0 -502852.76911503822 287236.4535330385 0 0 0 0 61508973.039901257 -134112926.1309967 0 -134112926.1309967 -232581969.23916626 0 0 0 0 -6670103.3652744293 -169207929.88314056 0 -169207929.88314056 -54768497.980651855 0 0 0 0 39371302.743484497 -164193808.19525909 0 -164193808.19525909 -179477685.23364258 0 0 0 0 88930991.612801373 -152307071.56892395 0 -152307071.56892395 -76941959.481689453 0 0 0 0 -15173162.255621672 -57616173.032497406 0 -57616173.032497406 98948515.042045593 0 0 0 0 -15544915.44627722 -68514415.627056837 0 -68514415.627056837 -10138306.507888794 0 0 0 0 18086163.461196214 -91852271.629798889 0 -91852271.629798889 134178380.65141296 0 0 0 0 -64635195.389801636 -41869520.232369423 0 -41869520.232369423 23204889.810501099 0 0 0 0 -62805462.628220797 -13901554.339546204 0 -13901554.339546204 113136474.98580933 0 0 0 0 -38362590.671569228 15703002.276805878 0 15703002.276805878 52089804.638282776 0 0 0 0 -37482963.968885422 11620932.407619476 0 11620932.407619476 62504127.739707947 0 0 0 0 -15280867.365299702 23006933.271160126 0 23006933.271160126 90375323.28037262 0 0 0 0 -20179444.62352407 34892918.864501953 0 34892918.864501953 70820406.054550171 0 0 0 0 27636064.673098654 100077575.39425278 0 100077575.39425278 222658506.51216125 0 0 0 0 -13759895.116453409 -12031833.329502106 0 -12031833.329502106 9413053.852848053 0 0 0 0 -27870914.607625067 -24404373.956366897 0 -24404373.956366897 2751315.0662689209 0 0 0 0 -43087873.34332633 -11968685.600456238 0 -11968685.600456238 21043827.219390869 0 0 0 0 -27194547.869226933 -15047948.421554565 0 -15047948.421554565 15025137.912391663 0 0 0 0 -12633221.883974791 -29397040.171604156 0 -29397040.171604156 -47665987.444465637 0 0 0 0 -50610037.048547983 -44451931.305246353 0 -44451931.305246353 -362524.0728302002 0 0 0 0 -42675745.987063646 -32406684.798095703 0 -32406684.798095703 -17556898.08442688 0 0 0 0 -6783882.0292437077 -13203829.247079849 0 -13203829.247079849 -12455119.392990112 0 0 0 0 -19255249.284829795 11357445.325704575 0 11357445.325704575 18649472.819091797 0 0 0 0 2084275.0095306411 -1270202.220885314 0 -1270202.220885314 619416.90138537064 0 0 0 0 -32531025.865303278 -57669049.631641388 0 -57669049.631641388 -61082494.978378296 0 0 0 0 5631310.7072583437 -58216949.610107422 0 -58216949.610107422 208616270.67679596 0 0 0 0 155283088.62745106 5695283.4975128174 0 5695283.4975128174 77660644.290962219 0 0 0 0 -119494329.16714546 -129212497.4891243 0 -129212497.4891243 142751250.14823151 0 0 0 0 -92454497.401734799 -75909965.785066605 0 -75909965.785066605 205695858.58626556 0 0 0 0 -29359781.292571783 -134820886.01354218 0 -134820886.01354218 253027237.78097534 0 0 0 0 41356854.531398714 -97958061.125059128 0 -97958061.125059128 118541956.9176178 0 0 0 0 -34278072.553771019 119430151.54563141 0 119430151.54563141 432125872.73509979 0 0 0 0 687524.42530650506 -523747.63531079888 0 -523747.63531079888 526884.09228595346 0 0 0 0 5325835.0702357292 -18080903.253944397 0 -18080903.253944397 -53006875.099155426 0 0 0 0 -8149458.209805537 -67495271.616191864 0 -67495271.616191864 229992375.15089417 0 0 0 0 -19771110.616187334 60544343.080501556 0 60544343.080501556 295048532.78426743 0 0 0 0 -8158463.6992621422 10936085.141098022 0 10936085.141098022 21660157.421974182 0 0 0 0 1971867.9055136871 -1506413.609173432 0 -1506413.609173432 1169894.5483905748 0 0 0 0 11205094.11555779 -44444650.448228836 0 -44444650.448228836 -20580135.964118958 0 0 0 0 25249306.954861641 14036860.315162659 0 14036860.315162659 13521959.749061584 0 0 0 0 -11181743.996691227 12986649.220199585 0 12986649.220199585 18569880.353858948 0 0 0 0 -21957170.270342529 -117443.38977432251 0 -117443.38977432251 40757609.503890991 0 0 0 0 5684800.997859478 -8281978.4300765991 0 -8281978.4300765991 43132657.251121521 0 0 0 0 2061872.0426176037 -1656552.7187500298 0 -1656552.7187500298 1568168.6785158999 0 0 0 0 -9333846.4441258907 -12516742.342876434 0 -12516742.342876434 -2590258.2887248993 0 0 0 0 184690.56446114997 -326820.77589261997 0 -326820.77589261997 2845.0537770092487 0 0 0 0 -746646.78394126892 7188034.3538284302 0 7188034.3538284302 15720518.501495361 0 0 0 0 76611.628711630357 -2624530.0821057013 0 -2624530.0821057013 7428041.0303782225 0 0 0 0 -22479994.986640722 5923748.3700227737 0 5923748.3700227737 10975238.307403564 0 0 0 0 -5438977.3898388296 19270677.516830444 0 19270677.516830444 18189572.28477025 0 0 0 0 -17363207.207758427 -11787817.357707977 0 -11787817.357707977 5404787.1362266541 0 0 0 0 -5562375.6557075977 -9207540.5479631424 0 -9207540.5479631424 243157.27758026123 0 0 0 0 972595.49279086106 -6321286.6575622559 0 -6321286.6575622559 17486851.378341675 0 0 0 0 4914578.223871531 -8480064.6628799438 0 -8480064.6628799438 14345879.890289307 0 0 0 0 427657.9044942148 -9589969.4686660767 0 -9589969.4686660767 23502558.285110474 0 0 0 0 -261170.52525263856 294138.32280212641 0 294138.32280212641 -116005.20738726854 0 0 0 0 6989499.1807861254 4672918.2227783203 0 4672918.2227783203 456325.21430969238 0 0 0 0 7396954.7583381245 -15754901.959785461 0 -15754901.959785461 28460206.639184952 0 0 0 0 -4359777.1449111402 3363995.5209312439 0 3363995.5209312439 1382632.1802520752 0 0 0 0 -3124051.1477892864 1621711.3374078721 0 1621711.3374078721 1312300.3909333684 0 0 0 0 -10743280.147655964 4437459.8175964355 0 4437459.8175964355 15293448.779598236 0 0 0 0 -1021389.2434065342 524978.56610107422 0 524978.56610107422 -102019.43088531494 0 0 0 0 -18384003.134427071 4754175.9424285889 0 4754175.9424285889 21258284.908798218 0 0 0 0 -21154378.361182213 -5131126.9611968994 0 -5131126.9611968994 9647139.8550491333 0 0 0 0 -2201927.4942245483 3627561.9093933105 0 3627561.9093933105 12040943.164197922 0 0 0 0 -1676875.8678799029 -352176.26227763295 0 -352176.26227763295 2849706.4096590728 0 0 0 0 1373570.6841826336 -1522699.4790344238 0 -1522699.4790344238 5325792.4258155823 0 0 0 0 4233466.1606576443 -5133904.2738037109 0 -5133904.2738037109 135338.30505371094 0 0 0 0 -1963.0233833583688 -3592952.9175872803 0 -3592952.9175872803 10006992.828948975 0 0 0 0 3484319.6314950762 -5597304.9950714111 0 -5597304.9950714111 3192149.6066589355 0 0 0 0 2840402.8118444411 -2544939.3060836792 0 -2544939.3060836792 6385981.2991943359 0 0 0 0 -681322.24777488632 725711.11291376501 0 725711.11291376501 -319091.14542096853 0 0 0 0 885696.14158621524 -4628175.943608284 0 -4628175.943608284 7504958.355682373 0 0 0 0 -777251.79589660803 -178441.08931569755 0 -178441.08931569755 2409062.3066710159 0 0 0 0 -308.21892912674417 -740498.86987304688 0 -740498.86987304688 2234984.4131774902 0 0 0 0 1465959.0530735478 -1563568.7884540558 0 -1563568.7884540558 26317175.370422363 0 0 0 0 888684.190374144 -1016933.051854901 0 -1016933.051854901 921945.88301979005 0 0 0 0 59099958.907799184 34919894.449264526 0 34919894.449264526 24288161.774394274 0 0 0 0 2381471.7305449885 -2453251.2698572427 0 -2453251.2698572427 2046906.3808801547 0 0 0 0 -6890133.872551918 -12901416.173301697 0 -12901416.173301697 -895768.35073661804 0 0 0 0 -27651344.66298008 -1942947.0757141113 0 -1942947.0757141113 19692571.952701569 0 0 0 0 -24932198.732090473 -9061854.7320861816 0 -9061854.7320861816 13015378.210525513 0 0 0 0 -4333.1973133171014 -12530340.181789398 0 -12530340.181789398 130617045.01950455 0 0 0 0 12574749.145997945 -31067503.792298317 0 -31067503.792298317 -39783749.01518631 0 0 0 0 26456.125549176504 -349057.82170033082 0 -349057.82170033082 915787.70287661254 0 0 0 0 -32576168.76756984 71878410.542129517 0 71878410.542129517 288475425.98612595 0 0 0 0 67302486.382721677 -84987615.124777794 0 -84987615.124777794 299119716.06020355 0 0 0 0 72267822.238039196 50887387.279533386 0 50887387.279533386 2308310.0885543823 0 0 0 0 31794.059286094358 -838144.62321731448 0 -838144.62321731448 1739451.1245154887 0 0 0 0 3137546.2945702672 -60066587.924446106 0 -60066587.924446106 11892560.488485098 0 0 0 0 -61589748.996516801 -148990666.68602562 0 -148990666.68602562 -113904611.02224731 0 0 0 0 -107862268.36864607 54775065.594121337 0 54775065.594121337 317310755.68205261 0 0 0 0 -111957697.36579186 -158385769.73584747 0 -158385769.73584747 -34483029.680673599 0 0 0 0 151448064.30948976 12633997.309959412 0 12633997.309959412 -132857303.77908182 0 0 0 0 13726785.835139941 96104788.838972092 0 96104788.838972092 150478123.3380127 0 0 0 0 -6734651.005174675 -3856095.1950054169 0 -3856095.1950054169 18276302.363449097 0 0 0 0 -31767445.637090445 -14119516.160604954 0 -14119516.160604954 82931882.831825256 0 0 0 0 522539.89824483683 54727873.541297913 0 54727873.541297913 51997875.748634338 0 0 0 0 -20024778.414446093 68376.288345336914 0 68376.288345336914 14514522.660797119 0 0 0 0 -15286.192470362377 49509.254361912608 0 49509.254361912608 202670.20017834008 0 0 0 0 14284331.689368531 6030977.4628448486 0 6030977.4628448486 7830957.842956543 0 0 0 0 10513056.926459484 -9568273.1651382446 0 -9568273.1651382446 28282645.386993408 0 0 0 0 -13013010.135198519 10858038.137496948 0 10858038.137496948 18533486.348220825 0 0 0 0 -1024628.3197542801 14583511.008636475 0 14583511.008636475 16621332.057235718 0 0 0 0 -5528496.794495903 -4545864.4997825623 0 -4545864.4997825623 -2572007.5764465332 0 0 0 0 521350.90391094983 4087645.1288757324 0 4087645.1288757324 7169966.7389030457 0 0 0 0 -1063327.0536392629 -1245412.169090271 0 -1245412.169090271 8518698.6876525879 0 0 0 0 7290036.871910058 -954275.14699554443 0 -954275.14699554443 359705.42666625977 0 0 0 0 5833596.2399979569 -1628706.2723922729 0 -1628706.2723922729 7673667.9849853516 0 0 0 0 11179644.84007043 -1016713.6940612793 0 -1016713.6940612793 -910048.06881713867 0 0 0 0 8542251.4486220032 4680387.6651763916 0 4680387.6651763916 10803258.728103638 0 0 0 0 11148068.01934655 2503424.5975265503 0 2503424.5975265503 3975830.3716430664 0 0 0 0 12644.110324730103 1607440.412902832 0 1607440.412902832 43578645.661880493 0 0 0 0 807644.80890107807 -14894846.363059998 0 -14894846.363059998 10057620.217941284 0 0 0 0 -4563404.3974855738 -8866067.9563217163 0 -8866067.9563217163 96878987.750823975 0 0 0 0 4147908.8180612307 -1028939.0486869812 0 -1028939.0486869812 35673784.734924316 0 0 0 0 3893909.3703003377 -14682661.533111572 0 -14682661.533111572 96370051.536944389 0 0 0 0 -12219574.414514825 -66201534.464256287 0 -66201534.464256287 70178638.1508255 0 0 0 0 4039825.9902623147 -22739853.226829529 0 -22739853.226829529 96382736.418273926 0 0 0 0 29601536.332907148 -11441153.93132782 0 -11441153.93132782 19296495.480953217 0 0 0 0 77271441.327939138 -45173122.783050537 0 -45173122.783050537 -27060197.767242432 0 0 0 0 91423515.446990639 106242176.39580917 0 106242176.39580917 108997793.60269165 0 0 0 0 -52392.735665431625 67311.944054981694 0 67311.944054981694 681232.2310166806 0 0 0 0 53518062.314349271 80985692.30116272 0 80985692.30116272 62976558.304260254 0 0 0 0 19178971.280852862 42995594.162139893 0 42995594.162139893 46584648.248985291 0 0 0 0 44259700.653135292 21900385.574806213 0 21900385.574806213 -4185356.1572570801 0 0 0 0 60002488.461605571 52331227.631033897 0 52331227.631033897 27608133.944000244 0 0 0 0 -3195391.6641025394 82603336.533573151 0 82603336.533573151 150428003.56185913 0 0 0 0 6649059.8928908706 59209397.854797363 0 59209397.854797363 76264085.944747925 0 0 0 0 23536035.759035844 48726583.146888733 0 48726583.146888733 45407405.39151001 0 0 0 0 -23267086.206111133 41257036.213432312 0 41257036.213432312 103316563.43264008 0 0 0 0 -23506650.0820705 44242876.765586853 0 44242876.765586853 95554899.836551666 0 0 0 0 -7331299.4114376307 23911916.20375061 0 23911916.20375061 43187227.3699646 0 0 0 0 1620260.1526113525 24772881.380241394 0 24772881.380241394 30935319.098876953 0 0 0 0 -1020447.3235185146 36642471.081619263 0 36642471.081619263 66350705.505649567 0 0 0 0 7201498.831061352 21344267.84721756 0 21344267.84721756 32990745.292297363 0 0 0 0 1259749.4352992475 8952507.6204910278 0 8952507.6204910278 15470504.453903198 0 0 0 0 216624.02629619837 8522233.6243057251 0 8522233.6243057251 17270848.031112671 0 0 0 0 -1172419.0110946596 19826463.904159546 0 19826463.904159546 44076509.354171753 0 0 0 0 -39033468.99010893 -17696706.740587234 0 -17696706.740587234 27806660.7059021 0 0 0 0 17449983.80897738 85110839.389095306 0 85110839.389095306 -17072494.482673645 0 0 0 0 -259175.57934547018 23801.991575621068 0 23801.991575621068 1423211.3076277375 0 0 0 0 -25368084.934840024 3302243.2998504639 0 3302243.2998504639 19926490.394378662 0 0 0 0 1257668.7380736545 -7813804.6272201538 0 -7813804.6272201538 10763411.499423981 0 0 0 0 -17678339.846543733 -5470524.6325492859 0 -5470524.6325492859 -2142767.7429275513 0 0 0 0 -1636870.1112470613 1862342.8308434449 0 1862342.8308434449 2020892.9529259354 0 0 0 0 11902418.315217569 23177731.750988007 0 23177731.750988007 -18620948.673171997 0 0 0 0 -2809011.402738899 8154068.721244812 0 8154068.721244812 -3813852.9439849854 0 0 0 0 -2847097.0706680119 -5873639.7888717651 0 -5873639.7888717651 -6900538.8400726318 0 0 0 0 -4354164.8515430912 8307495.358716011 0 8307495.358716011 17393279.741973877 0 0 0 0 -5661354.3130713999 10623383.378292084 0 10623383.378292084 16061285.401245117 0 0 0 0 -7788226.2373680472 -4190931.4024047852 0 -4190931.4024047852 5199829.829750061 0 0 0 0 -3628714.0826266571 4779160.3894432709 0 4779160.3894432709 493361.0257250648 0 0 0 0 -12120250.08034873 -2519406.0625419617 0 -2519406.0625419617 22534790.10080719 0 0 0 0 1147.1883310079575 609222.07389450073 0 609222.07389450073 -16898927.298149109 0 0 0 0 -12646358.694497336 1774659.5352210999 0 1774659.5352210999 10811226.074645996 0 0 0 0 -2482416.6684187101 2034788.0464265272 0 2034788.0464265272 3077647.646771796 0 0 0 0 -1293782.1393010896 1759272.0062727844 0 1759272.0062727844 4337572.8345904201 0 0 0 0 -8049511.0714886785 -2460364.1630249023 0 -2460364.1630249023 -7377167.3908081055 0 0 0 0 -4868156.3511322513 3638187.9031538144 0 3638187.9031538144 5511638.7956252098 0 0 0 0 -2594955.500600934 2082274.6939544678 0 2082274.6939544678 5785058.7880859375 0 0 0 0 -5013498.4344112333 4896379.7279089317 0 4896379.7279089317 5060474.5716546476 0 0 0 0 -2320796.7726300773 1583595.1983673126 0 1583595.1983673126 2330850.5340456837 0 0 0 0 -1869476.4771147966 1238807.2874221802 0 1238807.2874221802 4628113.8237304688 0 0 0 0 -3745182.4170709108 1437958.1925765797 0 1437958.1925765797 6167278.5215173764 0 0 0 0 -941673.22325916588 -182519.41765785217 0 -182519.41765785217 4005859.4016418457 0 0 0 0 -1688640.9093528092 -2693609.0478591919 0 -2693609.0478591919 8873229.347578764 0 0 0 0 -6941.7295070702712 -398251.4795698449 0 -398251.4795698449 3330484.4346491024 0 0 0 0 -974532.60886983224 581167.78648376465 0 581167.78648376465 8220824.452614069 0 0 0 0 86428.634931980079 1972965.4825973511 0 1972965.4825973511 5517700.6764831543 0 0 0 0 -206762.95480053502 849629.24201861024 0 849629.24201861024 816290.93614789844 0 0 0 0 -317195.57396231935 414282.05962780118 0 414282.05962780118 1312607.9660007507 0 0 0 0 -3917131.1340693384 4974188.4106826782 0 4974188.4106826782 1372096.0551681519 0 0 0 0 -140830.34651790609 -17788.661712646484 0 -17788.661712646484 5390604.6837453842 0 0 0 0 -953364.0645944858 1808958.5365886688 0 1808958.5365886688 4654017.8020477295 0 0 0 0 2471718.8094016612 3651983.7703819275 0 3651983.7703819275 -1128944.3930358887 0 0 0 0 2155577.6181821451 2616582.8636894226 0 2616582.8636894226 -4452500.3847351074 0 0 0 0 1355.7942974588811 943371.55544281006 0 943371.55544281006 4604812.5803985596 0 0 0 0 -1167185.5772955013 1930102.2020187378 0 1930102.2020187378 5806225.5141468048 0 0 0 0 -1193152.9601725913 -1103206.4455718994 0 -1103206.4455718994 2382783.1448974609 0 0 0 0 56771.293363639154 133470.92721838504 0 133470.92721838504 150014.18009954691 0 0 0 0 5749237.3910939023 -1817872.583190918 0 -1817872.583190918 -842853.00063514709 0 0 0 0 -7723.2479302002512 -32398.720377661288 0 -32398.720377661288 1225360.9977454485 0 0 0 0 -964518.51956631872 845367.18357467651 0 845367.18357467651 7800838.5675354004 0 0 0 0 446396.5851177685 721310.6563835144 0 721310.6563835144 5222184.162940979 0 0 0 0 26272.986476335675 -4317591.7714004517 0 -4317591.7714004517 3967807.9202492237 0 0 0 0 -1842.3775191354525 -5066329.6917152405 0 -5066329.6917152405 5694993.8346328735 0 0 0 0 -2248336.3807528317 -3341054.668182373 0 -3341054.668182373 8143658.5573348999 0 0 0 0 187274.99263905454 -3603527.3374500275 0 -3603527.3374500275 7130346.0089111328 0 0 0 0 -2416717.9745338485 -5068721.6736221313 0 -5068721.6736221313 6468110.2581939697 0 0 0 0 -2180677.8670316911 -3524616.5845608711 0 -3524616.5845608711 8448601.2558746338 0 0 0 0 -165370.00514971465 -5934458.7228622437 0 -5934458.7228622437 6336632.6137084961 0 0 0 0 -6363180.9107674956 -4365797.5463733673 0 -4365797.5463733673 8424211.3135986328 0 0 0 0 -3543266.9989603534 -7886327.0703468323 0 -7886327.0703468323 5704520.7485046387 0 0 0 0 2893.6492060529358 -5202950.3013000488 0 -5202950.3013000488 6048169.8022537231 0 0 0 0 -204687.01847567596 -4998580.1460762024 0 -4998580.1460762024 5870314.5820999146 0 0 0 0 1192525.5875532292 -2110940.5988006592 0 -2110940.5988006592 11360234.30619812 0 0 0 0 -2952410.7214995883 -10422818.662734985 0 -10422818.662734985 2772533.4913787842 0 0 0 0 2248327.804782006 -5318594.9818115234 0 -5318594.9818115234 4478621.9158573151 0 0 0 0 -1386960.3376348261 -1544957.2520942688 0 -1544957.2520942688 32431471.538267136 0 0 0 0 3568278.3338635135 -94598.642808914185 0 -94598.642808914185 9225636.5847549438 0 0 0 0 -535.19195260855759 -4306263.4802512107 0 -4306263.4802512107 13357926.145805359 0 0 0 0 -358165.42133521475 355.93415832519531 0 355.93415832519531 22374618.000417233 0 0 0 0 -15320918.340278864 -14741400.312726974 0 -14741400.312726974 8274958.861114502 0 0 0 0 -7135427.6162496805 -4310836.8325138092 0 -4310836.8325138092 8740279.1555633545 0 0 0 0 359801.6214733001 -2917340.8499563597 0 -2917340.8499563597 8638977.3381765783 0 0 0 0 -27716619.062672615 -15311917.640823364 0 -15311917.640823364 10370636.860588074 0 0 0 0 -21730478.666795257 -20805172.405647278 0 -20805172.405647278 19845606.005010009 0 0 0 0 -14693011.101895571 -15121189.101028442 0 -15121189.101028442 502582.14929962158 0 0 0 0 -21324344.008287907 2175819.5735549927 0 2175819.5735549927 10872191.858860016 0 0 0 0 -5492081.4136990309 -6351278.2109918594 0 -6351278.2109918594 13906624.153259277 0 0 0 0 -218679.56698608398 17304203.490089417 0 17304203.490089417 38161611.061843872 0 0 0 0 -59742709.986811876 -27720237.652698517 0 -27720237.652698517 24611210.874168396 0 0 0 0 -11911885.308287488 -8262433.1241950989 0 -8262433.1241950989 9216617.5596237183 0 0 0 0 269826.08256508311 -3047101.9185838979 0 -3047101.9185838979 9691485.312226966 0 0 0 0 18301071.803085566 -35651348.172203064 0 -35651348.172203064 -4000697.4392852783 0 0 0 0 -6140169.1726388931 -471222.52925109863 0 -471222.52925109863 6902480.6936912537 0 0 0 0 -1576785.1570601957 2143380.7396600125 0 2143380.7396600125 924482.28443169594 0 0 0 0 -40350299.999539852 35414245.897888184 0 35414245.897888184 36303160.908813477 0 0 0 0 2060354.8917295933 7777316.305847168 0 7777316.305847168 -2393741.0025581121 0 0 0 0 -831820.14921019541 -2187261.1751228711 0 -2187261.1751228711 10602217.631754577 0 0 0 0 -1025934.446833442 416761.85719100386 0 416761.85719100386 3298519.5953810513 0 0 0 0 -6362045.6227520704 448100.84944677353 0 448100.84944677353 25563436.89680481 0 0 0 0 -2064261.3064742088 14650428.988113403 0 14650428.988113403 40465358.288261414 0 0 0 0 570713.77224400034 234663.47657801956 0 234663.47657801956 -150991.66833113879 0 0 0 0 6082233.3942279816 5867439.0611877441 0 5867439.0611877441 7692792.2536010742 0 0 0 0 -8594513.2490434647 -20959146.326293945 0 -20959146.326293945 3663658.9977912903 0 0 0 0 -4150883.0997629464 -5689044.0557985306 0 -5689044.0557985306 29625355.748168945 0 0 0 0 1829787.3219444752 -2840058.9559593201 0 -2840058.9559593201 25233841.479854584 0 0 0 0 -190747.13914310932 3094490.8069267273 0 3094490.8069267273 34965502.092658997 0 0 0 0 3249307.0691800714 28407305.520271301 0 28407305.520271301 52670610.688537598 0 0 0 0 -7361883.7051911801 6487358.8266563416 0 6487358.8266563416 51292306.976676941 0 0 0 0 4792527.9215607643 -5649911.2896881104 0 -5649911.2896881104 20475604.688621521 0 0 0 0 -11067916.074487686 -4151600.2132034302 0 -4151600.2132034302 20335083.901255608 0 0 0 0 6580689.8009971082 9352403.4248275757 0 9352403.4248275757 18298910.139038086 0 0 0 0 -9110962.7111177444 9456717.9230575562 0 9456717.9230575562 18491248.799301147 0 0 0 0 -18853358.081822097 7383348.2901248932 0 7383348.2901248932 34927234.018890381 0 0 0 0 -8243167.468305707 10418537.391590118 0 10418537.391590118 19538583.313285828 0 0 0 0 -23888645.507920921 -7196598.9152135849 0 -7196598.9152135849 16464977.66973877 0 0 0 0 -2705537.678601265 3788675.8688163757 0 3788675.8688163757 19649817.760749817 0 0 0 0 13453376.371106505 32876327.27910614 0 32876327.27910614 3942814.8807945251 0 0 0 0 -1926100.2670998573 48326241.402191162 0 48326241.402191162 309978.95859527588 0 0 0 0 12051597.342220187 95116803.682907104 0 95116803.682907104 84645749.09533453 0 0 0 0 -3978463.3107295036 42862680.348075867 0 42862680.348075867 43823598.588575363 0 0 0 0 -8192664.9422543477 26084569.577566035 0 26084569.577566035 17567100.470855713 0 0 0 0 6724257.0265011787 470106.66488647461 0 470106.66488647461 4676524.4748592377 0 0 0 0 5699490.0437070727 25897457.512123108 0 25897457.512123108 691369.5440826416 0 0 0 0 -18725529.953011125 -37004627.408901215 0 -37004627.408901215 -42674329.983856201 0 0 0 0 44322118.719768912 27765031.845485687 0 27765031.845485687 -83182929.133171082 0 0 0 0 7647144.1160596609 -1599737.7744064331 0 -1599737.7744064331 -1221617.8564224243 0 0 0 0 -25703205.133777857 -10915311.824516296 0 -10915311.824516296 22872318.415626526 0 0 0 0 -4768167.4469838738 -3390316.7297859192 0 -3390316.7297859192 24117284.493247986 0 0 0 0 -78879.427523732185 4690153.6584663391 0 4690153.6584663391 15575858.132965088 0 0 0 0 1457946.8556884527 2379403.5102119446 0 2379403.5102119446 36952414.928836823 0 0 0 0 -2037599.5177665949 -7657210.4684486389 0 -7657210.4684486389 27227183.942214966 0 0 0 0 -5437896.0860614404 2262072.4168567657 0 2262072.4168567657 35511413.574829102 0 0 0 0 5876316.1489503384 -403550.85917663574 0 -403550.85917663574 35840617.451599121 0 0 0 0 -6703645.4037312269 15749720.192741394 0 15749720.192741394 11783397.967956543 0 0 0 0 8113002.7314001322 28159196.704025269 0 28159196.704025269 27460853.139968872 0 0 0 0 490769.2137928009 15371783.47334671 0 15371783.47334671 11803217.318092346 0 0 0 0 24135040.918816924 11839610.409538269 0 11839610.409538269 4584865.6035451889 0 0 0 0 -8955224.8552063704 16023186.505664825 0 16023186.505664825 4947014.8158721924 0 0 0 0 4496870.9095377252 6404335.7846722603 0 6404335.7846722603 28821072.02746582 0 0 0 0 13418022.448959589 12040061.039203644 0 12040061.039203644 -28574720.156791687 0 0 0 0 -558473.31872519851 4993125.6391385645 0 4993125.6391385645 242871.8268483514 0 0 0 0 -4781567.8794022799 -2267989.4205284119 0 -2267989.4205284119 48264304.7865448 0 0 0 0 -2042293.8455809406 4805579.9494332224 0 4805579.9494332224 204377.84353365446 0 0 0 0 935282.90913653374 -12098964.759529114 0 -12098964.759529114 -4274767.7777633667 0 0 0 0 -6956094.1187968254 940716.49996566772 0 940716.49996566772 36569709.778442383 0 0 0 0 11593051.244161606 7364606.6684799194 0 7364606.6684799194 -35734852.878649473 0 0 0 0 -11626126.351102829 -5394317.7504768372 0 -5394317.7504768372 182268.59051513672 0 0 0 0 6444626.1389779449 1137469.3988876343 0 1137469.3988876343 80026.772043704987 0 0 0 0 -7985918.2587330937 -5938275.9266891479 0 -5938275.9266891479 31688696.604858398 0 0 0 0 10691301.36831224 5979023.6278762817 0 5979023.6278762817 2338099.756603241 0 0 0 0 -1336198.2961584926 -1145199.2598800659 0 -1145199.2598800659 34360268.428237915 0 0 0 0 19013455.30765295 -2090977.877166748 0 -2090977.877166748 34306003.662887573 0 0 0 0 -5919541.6238287836 -8001622.3931622505 0 -8001622.3931622505 75676942.821166992 0 0 0 0 -4535815.6616245806 3779432.1637916565 0 3779432.1637916565 67124716.602096558 0 0 0 0 14280146.638321161 -14090828.619606018 0 -14090828.619606018 75238335.315677643 0 0 0 0 -1291627.2034215331 9266058.5989685059 0 9266058.5989685059 37146956.028419495 0 0 0 0 -6240101.4920798838 7487361.942905426 0 7487361.942905426 54057055.929489136 0 0 0 0 -14278654.790804505 7696288.5574417114 0 7696288.5574417114 76271245.434586763 0 0 0 0 -10104203.229022995 28164608.824932098 0 28164608.824932098 69611959.076583862 0 0 0 0 -33689504.736692488 33724491.467021942 0 33724491.467021942 126030121.15484619 0 0 0 0 -21173265.166456401 18667032.180015564 0 18667032.180015564 81638457.669692993 0 0 0 0 -21570229.507938221 17023857.854085922 0 17023857.854085922 111790409.65376282 0 0 0 0 -36590909.818307817 26872543.887420654 0 26872543.887420654 110546464.35926819 0 0 0 0 -12123307.889485717 11252273.699676514 0 11252273.699676514 118070843.03052139 0 0 0 0 -11644514.940160453 -4262800.3958206177 0 -4262800.3958206177 126316035.22050476 0 0 0 0 -29850377.169820607 12620056.700149536 0 12620056.700149536 138621848.11579895 0 0 0 0 -12890622.266360782 18078880.538546085 0 18078880.538546085 183332388.01025391 0 0 0 0 71879508.125886679 -17549196.699207306 0 -17549196.699207306 42224736.291397095 0 0 0 0 -18679759.819176674 -6657013.7529602051 0 -6657013.7529602051 238846475.5561676 0 0 0 0 32890162.748593926 -61416973.244781494 0 -61416973.244781494 182802593.91010284 0 0 0 0 33264944.662772536 -37010742.333869934 0 -37010742.333869934 102435801.11078644 0 0 0 0 5277016.2106304169 19105020.508338928 0 19105020.508338928 29046912.914657593 0 0 0 0 -25673883.42377162 -127972440.28117371 0 -127972440.28117371 -28796700.683437347 0 0 0 0 8648133.3669589162 21082974.402305603 0 21082974.402305603 53887814.168304443 0 0 0 0 3988871.4868807197 9771262.4511489868 0 9771262.4511489868 31465454.911895752 0 0 0 0 44748906.991630673 13651196.900497437 0 13651196.900497437 29445508.014007568 0 0 0 0 18808149.504658818 -15767304.164684296 0 -15767304.164684296 66802327.64050293 0 0 0 0 10911855.760364085 -2160657.9137554169 0 -2160657.9137554169 79526326.969223022 0 0 0 0 -7868156.4722982645 2769893.223613739 0 2769893.223613739 13127634.53212738 0 0 0 0 -4000508.4500956535 4663830.9970626831 0 4663830.9970626831 12865936.389648438 0 0 0 0 -6120216.2993329167 18571031.438596725 0 18571031.438596725 34591672.608856201 0 0 0 0 -18179331.046500564 8084847.4563522339 0 8084847.4563522339 25509394.690962791 0 0 0 0 -13753200.397468984 -14470349.051559448 0 -14470349.051559448 -3061653.4058074951 0 0 0 0 172033.01728666027 -514710.45455218852 0 -514710.45455218852 562151.53406211734 0 0 0 0 -33575534.318656087 -5012230.0425605774 0 -5012230.0425605774 35953551.460337162 0 0 0 0 -3605971.5870187283 -77977.174598693848 0 -77977.174598693848 13887567.559455872 0 0 0 0 -21427.158451060415 27511.807303190231 0 27511.807303190231 1507698.2052856721 0 0 0 0 -3126282.2958739996 208988.73205661774 0 208988.73205661774 6204126.8392410278 0 0 0 0 120372916.26072943 71014033.591285706 0 71014033.591285706 138068981.54391479 0 0 0 0 299123918.1360656 246991984.53356171 0 246991984.53356171 206599726.69254303 0 0 0 0 238043844.63621742 249951981.72489929 0 249951981.72489929 378475715.6171875 0 0 0 0 399648931.18411052 333348009.71414948 0 333348009.71414948 280708212.3184967 0 0 0 0 228543.40109111721 225204.04438015074 0 225204.04438015074 928890.25141015649 0 0 0 0 -103679986.1228888 93882909.879432678 0 93882909.879432678 -53118946.88986969 0 0 0 0 988910.48033888487 -92943.98096036911 0 -92943.98096036911 705924.46094720438 0 0 0 0 114346897.03802766 398680315.45121098 0 398680315.45121098 -564726331.49718475 0 0 0 0 -59689988.817346931 49595560.948963165 0 49595560.948963165 -42953654.786376953 0 0 0 0 750121.8259525114 2596719.5668558301 0 2596719.5668558301 5771074.7297567874 0 0 0 0 18427456.616194606 173432229.04416656 0 173432229.04416656 141953115.50158691 0 0 0 0 -2919911.0045683384 236288635.71888733 0 236288635.71888733 705484234.62409973 0 0 0 0 -1621826.2647922039 2990473.964881897 0 2990473.964881897 8902031.0108032227 0 0 0 0 -1549237.9755964279 3118147.1416053772 0 3118147.1416053772 9123987.7301177979 0 0 0 0 -1961299.7878125906 3157235.3339691162 0 3157235.3339691162 9970065.3699798584 0 0 0 0 -2341374.4971001148 2635359.2185440063 0 2635359.2185440063 9257712.3346481323 0 0 0 0 1018465.7362179431 5598045.8230949473 0 5598045.8230949473 9020029.813308537 0 0 0 0 -1016126.4240012169 5398349.3048324585 0 5398349.3048324585 9078017.654756546 0 0 0 0 3076493.420347631 9533014.6385993958 0 9533014.6385993958 12964396.914672852 0 0 0 0 -80991001.81106329 -24602157.201480865 0 -24602157.201480865 37910697.803253174 0 0 0 0 118854279.86139423 127561692.27444649 0 127561692.27444649 173804075.35943604 0 0 0 0 299016346.36794853 321374088.66325378 0 321374088.66325378 293713198.2276001 0 0 0 0 75939758.481956482 -3821618.1318969727 0 -3821618.1318969727 185665617.44144058 0 0 0 0 22632730.403820276 -145893924.52251434 0 -145893924.52251434 72455255.086402893 0 0 0 0 415521718.76465011 81272415.05191803 0 81272415.05191803 -202650557.69960022 0 0 0 0 -53448391.702783823 2106378.5251693726 0 2106378.5251693726 138388812.63911438 0 0 0 0 93791568.155897081 -20689305.242263794 0 -20689305.242263794 -61353529.479354858 0 0 0 0 63881021.638620675 45647707.95255661 0 45647707.95255661 96045318.713897705 0 0 0 0 3580894.185603925 823455.49094801396 0 823455.49094801396 -5782619.3795815557 0 0 0 0 -1159650.5659244061 45027323.594554901 0 45027323.594554901 -86095902.217147827 0 0 0 0 23127409.000389457 4572344.4923343658 0 4572344.4923343658 -57490746.620651245 0 0 0 0 3731210.5508202044 11567683.35856393 0 11567683.35856393 7432984.5513666645 0 0 0 0 -679083.8389566869 5402819.7146870345 0 5402819.7146870345 12645972.7686774 0 0 0 0 -865212.82822465897 13157360.425575256 0 13157360.425575256 -2289027.7891895771 0 0 0 0 2268459.1665222524 5616790.5970581621 0 5616790.5970581621 4539998.9072865956 0 0 0 0 435716.72743844986 13361344.584541321 0 13361344.584541321 37708398.211486101 0 0 0 0 -2143473.3074491024 10003279.896579742 0 10003279.896579742 18487606.672187805 0 0 0 0 4286493.1612719717 12885841.413288582 0 12885841.413288582 7997819.4731215537 0 0 0 0 -3139261.2748365402 8209530.9852256775 0 8209530.9852256775 15895251.02230835 0 0 0 0 -310793.87573301792 8137649.3946075439 0 8137649.3946075439 12911699.729646325 0 0 0 0 -4407859.1768964529 20025898.770881653 0 20025898.770881653 23367267.541380882 0 0 0 0 -2549386.6630062163 13608828.241912842 0 13608828.241912842 12803957.068237305 0 0 0 0 840384.00195861654 5071753.725732632 0 5071753.725732632 703309.40626700548 0 0 0 0 -8701569.9945617318 7376296.589881897 0 7376296.589881897 55489309.293215752 0 0 0 0 1130376.8000078201 17463581.562316895 0 17463581.562316895 1482623.6804490089 0 0 0 0 -623868.26249784231 1935638.3263702393 0 1935638.3263702393 41370421.709144592 0 0 0 0 -13631093.662970066 12760480.195068359 0 12760480.195068359 36124158.378395081 0 0 0 0 -1320268.3405407667 14222234.748603821 0 14222234.748603821 37298194.426361084 0 0 0 0 2339783.6250528991 11894129.344074249 0 11894129.344074249 32556881.555603027 0 0 0 0 -1210959.4389498234 7391955.4784164429 0 7391955.4784164429 28940662.250244141 0 0 0 0 -902075.10652083158 20260192.213775635 0 20260192.213775635 24010608.179733276 0 0 0 0 -1501378.5650852323 15740329.981575012 0 15740329.981575012 21129276.533332825 0 0 0 0 -1954406.5531754463 3592921.2863147482 0 3592921.2863147482 4507485.4212296307 0 0 0 0 -20206462.781238556 38657480.659133911 0 38657480.659133911 24055612.108177185 0 0 0 0 4230376.6919263098 11335477.641425777 0 11335477.641425777 22346121.169577047 0 0 0 0 -3087670.9290690422 12462597.63092041 0 12462597.63092041 30619502.79460144 0 0 0 0 -11245228.83553654 13368989.971099854 0 13368989.971099854 17982232.472229004 0 0 0 0 -32497107.420732439 7505815.2195281982 0 7505815.2195281982 39090798.417442322 0 0 0 0 -19006858.619825378 -10748708.588222504 0 -10748708.588222504 7326324.9877319336 0 0 0 0 -59178253.48986727 -23695101.981269836 0 -23695101.981269836 16861528.07598877 0 0 0 0 -31468485.751859471 -36544874.013191223 0 -36544874.013191223 -114050448.3283844 0 0 0 0 -52174368.80362504 6319407.6214075089 0 6319407.6214075089 17134389.969100952 0 0 0 0 -4211504.1594743337 -1938029.2908694968 0 -1938029.2908694968 7360881.6364737302 0 0 0 0 -27757746.849005222 -13550809.375286102 0 -13550809.375286102 46201817.29736805 0 0 0 0 -3528235.7579915407 -2066268.8397184089 0 -2066268.8397184089 30389098.338025279 0 0 0 0 -42166097.334699661 -97104693.454520226 0 -97104693.454520226 -94396655.640365601 0 0 0 0 13865032.523241952 -106854101.17764282 0 -106854101.17764282 -98905830.032493591 0 0 0 0 -84782414.565412462 -30948332.605566025 0 -30948332.605566025 -50624781.70085144 0 0 0 0 77347820.420620948 30848640.988382339 0 30848640.988382339 -37505004.488815308 0 0 0 0 -37179147.722058512 17893631.281494141 0 17893631.281494141 -28001671.349937439 0 0 0 0 54647875.192035347 -44606316.861709595 0 -44606316.861709595 -115406346.32091141 0 0 0 0 -50302595.736719489 -5853874.8814611435 0 -5853874.8814611435 117637068.02612305 0 0 0 0 -32094564.368229866 -39935785.34651947 0 -39935785.34651947 176582824.11016846 0 0 0 0 -105219085.42742825 114103027.65840912 0 114103027.65840912 104751397.69565582 0 0 0 0 172628.55743490648 578940.98169398936 0 578940.98169398936 2005225.1193525046 0 0 0 0 -77016419.823015928 25165639.195267677 0 25165639.195267677 326917006.90161896 0 0 0 0 -3756499.2734959167 -5266436.7741476744 0 -5266436.7741476744 32055996.135785997 0 0 0 0 -37775954.972773075 -88778743.524179697 0 -88778743.524179697 278250947.52054596 0 0 0 0 72427540.71900177 -248091483.19510651 0 -248091483.19510651 588271377.78204346 0 0 0 0 65972660.09152174 -95598066.655298233 0 -95598066.655298233 120530998.76148224 0 0 0 0 183839863.18606639 62035051.951477051 0 62035051.951477051 -222434515.15703201 0 0 0 0 -27735213.655133918 -12780369.45736146 0 -12780369.45736146 72532238.633468628 0 0 0 0 -2602025.6230480671 -26685866.83617878 0 -26685866.83617878 110259177.68774033 0 0 0 0 27184622.657719374 -27379118.428712845 0 -27379118.428712845 665108.10810089111 0 0 0 0 16702614.816058874 10090928.80396843 0 10090928.80396843 3257775.5484619141 0 0 0 0 1111998.4633574486 33470277.308685303 0 33470277.308685303 13767091.29800415 0 0 0 0 -19848091.822359085 20132519.568630219 0 20132519.568630219 16192753.703407288 0 0 0 0 955741.55367380427 5699846.4667273704 0 5699846.4667273704 5303428.0140599012 0 0 0 0 34378518.671946049 27783491.816495895 0 27783491.816495895 -6228896.4574050903 0 0 0 0 -20017682.465515673 41831250.387565613 0 41831250.387565613 75521523.420883179 0 0 0 0 -449594.17453098297 13144420.123886108 0 13144420.123886108 34250191.53729248 0 0 0 0 2150369.9863102417 8150822.7404060587 0 8150822.7404060587 21394832.95357573 0 0 0 0 -4331742.6259496212 10227350.374689102 0 10227350.374689102 35778080.270294189 0 0 0 0 4139094.9529149532 14469848.135858536 0 14469848.135858536 26557898.080810547 0 0 0 0 -233508.67117164517 190561.91352878511 0 190561.91352878511 4344701.4526916444 0 0 0 0 2938385.9880299568 16493498.257961273 0 16493498.257961273 42029732.467399597 0 0 0 0 1285096.9347498417 11555225.961933136 0 11555225.961933136 5351751.8909301758 0 0 0 0 -926130.92439663969 1655644.1949088685 0 1655644.1949088685 9025794.2400156781 0 0 0 0 20795169.589262009 -7056507.8303909302 0 -7056507.8303909302 20015954.57169342 0 0 0 0 9765196.9743369818 15383914.46946907 0 15383914.46946907 44473815.774940491 0 0 0 0 -708860.58953809738 20641722.061899185 0 20641722.061899185 57316944.886860847 0 0 0 0 8317876.8707387447 8784106.7563610077 0 8784106.7563610077 38820404.134662628 0 0 0 0 -678695.15909740096 102210.68484205008 0 102210.68484205008 1232691.9079432972 0 0 0 0 -12917391.082621813 -6487222.1444664001 0 -6487222.1444664001 89838859.152614594 0 0 0 0 -13855276.056950092 47915583.225708008 0 47915583.225708008 123587835.81278038 0 0 0 0 8860404.6103949547 73193112.692335129 0 73193112.692335129 102915233.83633423 0 0 0 0 -452441.55060894694 134261.65905625373 0 134261.65905625373 815510.47963435203 0 0 0 0 -47374049.574144363 -73484638.106458664 0 -73484638.106458664 -1749659.3484025002 0 0 0 0 -35219830.986796856 -20344984.105398178 0 -20344984.105398178 71615729.047552109 0 0 0 0 -29443878.794320554 36977998.063034058 0 36977998.063034058 88067835.268035889 0 0 0 0 -19024738.346092701 38949584.456329346 0 38949584.456329346 87933423.587451935 0 0 0 0 -983863.39348101616 40039426.733264923 0 40039426.733264923 68062275.499734879 0 0 0 0 5638498.6389320493 59912726.263482571 0 59912726.263482571 82648415.135688782 0 0 0 0 -12873178.54281044 32042456.620502472 0 32042456.620502472 45568053.940110207 0 0 0 0 -31371586.080076814 24494151.667713165 0 24494151.667713165 71166043.298286438 0 0 0 0 -32411986.303884745 21917595.006439209 0 21917595.006439209 87771113.704454422 0 0 0 0 14689490.260038972 31132130.768737793 0 31132130.768737793 66928488.088428497 0 0 0 0 -24280984.605596066 42236295.572189331 0 42236295.572189331 62006699.788843155 0 0 0 0 -21644029.178309023 25013857.945803404 0 25013857.945803404 67313495.644485474 0 0 0 0 305952.43513617665 39829087.026442051 0 39829087.026442051 44964797.276596069 0 0 0 0 -2200295.1719069481 29706222.823516846 0 29706222.823516846 56841731.224380493 0 0 0 0 -406225.02289891522 -311958.57056258246 0 -311958.57056258246 378686.76375227794 0 0 0 0 -2747115.0396479368 4471323.521364212 0 4471323.521364212 6186708.5014305115 0 0 0 0 -4635266.2287650108 27175673.888549805 0 27175673.888549805 74639751.460124969 0 0 0 0 -107975.29866981506 13445480.858406067 0 13445480.858406067 65143383.94020462 0 0 0 0 5717083.391354084 20541368.131671906 0 20541368.131671906 41623652.710929871 0 0 0 0 2817616.5113880634 18174721.311237335 0 18174721.311237335 40627102.216552734 0 0 0 0 13414180.566953711 34764070.337532997 0 34764070.337532997 46792394.950546265 0 0 0 0 -1186901.8109834886 2159054.6783722155 0 2159054.6783722155 4187216.2459447756 0 0 0 0 18183045.436975002 22207163.999938965 0 22207163.999938965 38341598.211029053 0 0 0 0 -271722.31341663841 1119891.1690536551 0 1119891.1690536551 4201254.2254786566 0 0 0 0 6222348.3908202648 22937095.742073059 0 22937095.742073059 52410134.129436493 0 0 0 0 3748041.3423939045 14580667.441218153 0 14580667.441218153 -1973743.5079251786 0 0 0 0 8851953.4319244325 37361986.354645729 0 37361986.354645729 64420336.329185486 0 0 0 0 3274404.9274058342 13556445.420085907 0 13556445.420085907 35569808.11844635 0 0 0 0 4582033.2168667316 -2524023.1934547424 0 -2524023.1934547424 -1535012.1442108154 0 0 0 0 -3911273.8113363977 4646236.8035677895 0 4646236.8035677895 22602815.988242447 0 0 0 0 8235542.7578450441 26406316.446960449 0 26406316.446960449 14070000.632659912 0 0 0 0 -9274435.7425577641 14385620.678836823 0 14385620.678836823 139318963.39376831 0 0 0 0 6264043.703841418 21881236.544808388 0 21881236.544808388 77816840.723556519 0 0 0 0 16217074.861950994 -797329.44683074951 0 -797329.44683074951 153465480.91553974 0 0 0 0 -9385752.4265818596 43973022.050689697 0 43973022.050689697 87025102.657455444 0 0 0 0 -2248735.6487113535 12124627.71336937 0 12124627.71336937 97510677.715332031 0 0 0 0 -13755589.821451128 31589337.754600525 0 31589337.754600525 150142788.54473877 0 0 0 0 24973998.77679348 52449854.746162415 0 52449854.746162415 81384520.225688934 0 0 0 0 3557606.7664817376 14332748.580979213 0 14332748.580979213 3861845.2989345025 0 0 0 0 2350835.8683328331 25759835.142456055 0 25759835.142456055 3482223.5711135864 0 0 0 0 5911668.3284119368 7095327.4389801025 0 7095327.4389801025 60373237.654586792 0 0 0 0 12057468.236423016 20073918.976729393 0 20073918.976729393 20758127.490024567 0 0 0 0 -34318122.559573412 52391728.959701538 0 52391728.959701538 86152140.454828262 0 0 0 0 -36626685.680731773 24214478.457588196 0 24214478.457588196 93943627.420093536 0 0 0 0 -1919085.9102642136 500901.07379254699 0 500901.07379254699 6112289.7377141938 0 0 0 0 36272917.420986652 57924809.036750793 0 57924809.036750793 11847953.376569748 0 0 0 0 -22814870.328568459 61506620.252349854 0 61506620.252349854 115432322.01895142 0 0 0 0 4366989.5376869692 13625391.577904977 0 13625391.577904977 4848967.9106120113 0 0 0 0 12121901.645681024 11229894.747253418 0 11229894.747253418 -27010899.111357212 0 0 0 0 47544839.20069284 -2505355.31199646 0 -2505355.31199646 -21685654.229255676 0 0 0 0 8295013.5472867489 15358433.157286644 0 15358433.157286644 29053224.000301361 0 0 0 0 -49438128.218674928 17699090.695518494 0 17699090.695518494 381726000.9076004 0 0 0 0 -20955593.064813495 140736075.93839264 0 140736075.93839264 173484057.49264526 0 0 0 0 35078531.128735185 90508748.406417847 0 90508748.406417847 182736283.91621399 0 0 0 0 22113335.802239299 12900757.57408905 0 12900757.57408905 388504373.86819458 0 0 0 0 6122569.8897727728 6946146.5183944702 0 6946146.5183944702 156652818.8077774 0 0 0 0 56156648.695966303 12725109.112762451 0 12725109.112762451 156990633.90022659 0 0 0 0 1782803.3046891519 2241564.7959656343 0 2241564.7959656343 1192292.4983310737 0 0 0 0 -15263485.775416315 23155644.639900208 0 23155644.639900208 248867384.77297974 0 0 0 0 -42067108.972628951 -40480880.084041595 0 -40480880.084041595 324718944.21505737 0 0 0 0 182672973.81884295 -146998878.03680038 0 -146998878.03680038 355442574.5797348 0 0 0 0 1182505.0679144952 470046.37129306048 0 470046.37129306048 175217.97924194485 0 0 0 0 555817211.59208798 126908400.16207504 0 126908400.16207504 -490867364.57679749 0 0 0 0 -157264868.51076341 -15323464.628372192 0 -15323464.628372192 764714777.67639923 0 0 0 0 157863503.78519094 49666742.534431458 0 49666742.534431458 102941479.27835846 0 0 0 0 -206782098.59994423 -34293808.374458313 0 -34293808.374458313 118997647.98513031 0 0 0 0 -121526746.42788616 218908531.57118273 0 218908531.57118273 -183167910.88843536 0 0 0 0 -81158776.852846146 19977977.799526215 0 19977977.799526215 47921666.502815247 0 0 0 0 1730097.8265214046 2982894.9717753977 0 2982894.9717753977 1974844.1761993915 0 0 0 0 -25852861.739437222 40880166.491348267 0 40880166.491348267 -76395806.484992981 0 0 0 0 -3603416.7102307081 -18974672.635486603 0 -18974672.635486603 189536839.39007568 0 0 0 0 -17613321.969190836 32037531.646522522 0 32037531.646522522 164134103.47724915 0 0 0 0 19517693.27365911 -9915605.125869751 0 -9915605.125869751 166194502.89594269 0 0 0 0 16115188.545263767 -60928259.137771606 0 -60928259.137771606 242408959.73776245 0 0 0 0 -82898468.500953913 -1293205.5167503357 0 -1293205.5167503357 69659730.002086639 0 0 0 0 -44807649.975876093 -24308675.251960754 0 -24308675.251960754 83096474.374816895 0 0 0 0 -38228519.676640987 -12358284.484527588 0 -12358284.484527588 57478482.448471069 0 0 0 0 -45060039.907156706 2557446.7097167969 0 2557446.7097167969 75509839.420402527 0 0 0 0 -34473251.519887954 18356395.744604111 0 18356395.744604111 58613805.388809204 0 0 0 0 -88725045.824088573 39494049.072555542 0 39494049.072555542 36699436.275085449 0 0 0 0 -44099621.96397984 3900676.9453010559 0 3900676.9453010559 30327978.916633606 0 0 0 0 -139636735.01642227 -14517695.799041748 0 -14517695.799041748 174700614.75079346 0 0 0 0 -114228961.24540091 28500589.546131134 0 28500589.546131134 63071345.757892609 0 0 0 0 -82450019.625328898 -87078857.857475281 0 -87078857.857475281 230600667.98937988 0 0 0 0 46639593.064468443 -61140842.756973267 0 -61140842.756973267 124826744.89893341 0 0 0 0 -39592654.222563505 -48329960.301391602 0 -48329960.301391602 143926135.78038025 0 0 0 0 -41564614.145513684 -73407584.05452466 0 -73407584.05452466 122736494.75938416 0 0 0 0 -31273943.056848288 -68161168.619697571 0 -68161168.619697571 74557845.464668274 0 0 0 0 37863389.004999518 -87024520.127731323 0 -87024520.127731323 81170534.228012085 0 0 0 0 -80230412.155732259 -21017339.751777649 0 -21017339.751777649 116931521.56558228 0 0 0 0 -78230733.640493631 -52217252.200920105 0 -52217252.200920105 113375532.56949615 0 0 0 0 -78880269.404270172 -40432831.551071167 0 -40432831.551071167 86109317.915130615 0 0 0 0 -56156660.499385357 -38726147.994537354 0 -38726147.994537354 79288061.265830994 0 0 0 0 -62807161.246576071 -54595974.117324829 0 -54595974.117324829 57754473.548439026 0 0 0 0 -76326800.28798306 -28146221.211174011 0 -28146221.211174011 43491956.571212769 0 0 0 0 -36210426.965871215 -19144473.355674744 0 -19144473.355674744 30778765.732872009 0 0 0 0 -8207925.7859755456 80533525.932971954 0 80533525.932971954 698077.8175201416 0 0 0 0 -78836824.270063639 10216056.694999695 0 10216056.694999695 28362974.664161682 0 0 0 0 -28879968.956056356 -20474591.089141846 0 -20474591.089141846 14830145.90435791 0 0 0 0 -60024206.84790498 -15000520.190116882 0 -15000520.190116882 50096868.745773315 0 0 0 0 -160914.26480345277 185547.11378578097 0 185547.11378578097 889423.53207886219 0 0 0 0 -124981749.48171026 93700261.432067871 0 93700261.432067871 10206798.211547852 0 0 0 0 7507731.4004673213 -114291401.99466038 0 -114291401.99466038 -173796126.45405579 0 0 0 0 -222613466.46152401 -1908158.3358840942 0 -1908158.3358840942 51323332.809410095 0 0 0 0 -26274196.319061577 46125223.78837204 0 46125223.78837204 -58803343.487155914 0 0 0 0 -97671062.135801315 -131487762.3837471 0 -131487762.3837471 -64102038.33770752 0 0 0 0 -681955.65716863493 115141.8757353425 0 115141.8757353425 1856707.5992129818 0 0 0 0 -31985161.092207193 115190446.72650146 0 115190446.72650146 -267055092.68976593 0 0 0 0 -38697032.892702341 -24882530.192605972 0 -24882530.192605972 53329048.664916992 0 0 0 0 -913556.60534116463 5667283.324326396 0 5667283.324326396 2186999.7629647888 0 0 0 0 -1636223.613157077 -4573173.9712190479 0 -4573173.9712190479 2936717.9864645302 0 0 0 0 460778.43982338905 -2001120.4770812988 0 -2001120.4770812988 28213711.665426254 0 0 0 0 -19958897.485872984 -14370866.004936218 0 -14370866.004936218 59206045.842941284 0 0 0 0 -58647633.292530179 -29746060.679718971 0 -29746060.679718971 81719313.515823364 0 0 0 0 12909387.900958061 28134679.354530334 0 28134679.354530334 66630043.725791931 0 0 0 0 -3911019.730760592 -3905295.1631303355 0 -3905295.1631303355 3620222.0614769645 0 0 0 0 1296079.9652035832 33164777.120892525 0 33164777.120892525 93851301.66835022 0 0 0 0 -9866866.8771703243 -10841377.821655273 0 -10841377.821655273 78030632.648277283 0 0 0 0 -16426076.612246364 14177593.711670399 0 14177593.711670399 103446797.30874634 0 0 0 0 -624559.31167554855 266971.83919525146 0 266971.83919525146 24621467.771072388 0 0 0 0 -4179104.5297352374 3774539.3765249252 0 3774539.3765249252 31584310.447967529 0 0 0 0 -992133.86259925482 5557639.4840652496 0 5557639.4840652496 2522325.8830087055 0 0 0 0 -8798739.8200420439 20172039.348134995 0 20172039.348134995 -25264785.816978455 0 0 0 0 -3820895.7188382149 6265736.0800018311 0 6265736.0800018311 -2506665.7848510742 0 0 0 0 -12187514.261332639 12849893.231682777 0 12849893.231682777 -5526202.8838500977 0 0 0 0 -68528115.850144714 34548638.318702698 0 34548638.318702698 15523371.474742889 0 0 0 0 -28034836.785548102 1601929.5735969543 0 1601929.5735969543 37375940.167808533 0 0 0 0 -32972963.824035406 12800785.63551712 0 12800785.63551712 34830736.590858459 0 0 0 0 -7741422.7976168394 11381321.829280853 0 11381321.829280853 -2613011.0476074219 0 0 0 0 -19263224.837671757 11709061.726322174 0 11709061.726322174 33242901.073577881 0 0 0 0 -17570317.655493319 7212901.9766731262 0 7212901.9766731262 24123002.700462341 0 0 0 0 -17900603.542591691 12645444.991863251 0 12645444.991863251 33880117.118175507 0 0 0 0 -10860480.094261073 27711222.506237388 0 27711222.506237388 14872368.231002808 0 0 0 0 -7084650.2782171518 4218193.6904258728 0 4218193.6904258728 10769916.631443024 0 0 0 0 -6995458.9420367032 3409181.5701217651 0 3409181.5701217651 11986075.507911682 0 0 0 0 -17805524.46755325 -1431112.7943229675 0 -1431112.7943229675 30475909.468666077 0 0 0 0 -57475.543479442596 -13338013.447814941 0 -13338013.447814941 21687076.957330704 0 0 0 0 -17821337.197359849 -6363985.7348601967 0 -6363985.7348601967 51758049.279792786 0 0 0 0 -405139.98704794561 -192926.30103486404 0 -192926.30103486404 488228.04573266208 0 0 0 0 17875608.894751728 -51026583.83719635 0 -51026583.83719635 48680301.108787537 0 0 0 0 -59408307.94882749 17045525.816339493 0 17045525.816339493 46151253.433792114 0 0 0 0 -120194450.7202152 82037740.090713501 0 82037740.090713501 60661207.991661072 0 0 0 0 -19725248.002173007 58291279.988922119 0 58291279.988922119 -39359278.074279785 0 0 0 0 -143073888.43344736 145469632.36606216 0 145469632.36606216 6197099.7835388184 0 0 0 0 145501281.55604029 -77977605.914653778 0 -77977605.914653778 -10692010.188682556 0 0 0 0 11563736.695613742 -38120600.614250183 0 -38120600.614250183 22803526.2298069 0 0 0 0 -131744050.85954881 39030371.962818146 0 39030371.962818146 89657372.455039978 0 0 0 0 -40169.904151965515 -373777.83144463156 0 -373777.83144463156 1058737.1963044852 0 0 0 0 -165950.35357091067 -916335.4685047993 0 -916335.4685047993 2594884.8850621134 0 0 0 0 -435391.90486907959 -17476375.575237274 0 -17476375.575237274 29764525.3634758 0 0 0 0 24619113.829359055 -19014611.749547958 0 -19014611.749547958 19548471.777961731 0 0 0 0 1419666.5734517872 -3084651.9314880371 0 -3084651.9314880371 2157318.5649490356 0 0 0 0 52519558.065493941 -111428053.55740738 0 -111428053.55740738 -18766242.246814728 0 0 0 0 -184506557.38652769 8755484.9607073665 0 8755484.9607073665 116806429.64815521 0 0 0 0 -45269399.487011671 -109571666.49029541 0 -109571666.49029541 59625606.353248596 0 0 0 0 -311906.68609579251 -1164022.8023984015 0 -1164022.8023984015 2926616.2943581194 0 0 0 0 -73815976.638555974 -12499048.624103546 0 -12499048.624103546 1228933.1618041992 0 0 0 0 -9815713.1713322401 1110444.9625930786 0 1110444.9625930786 6869556.798034668 0 0 0 0 -9448239.6875970364 2368504.7776641846 0 2368504.7776641846 10014755.472190857 0 0 0 0 -3975292.5851718187 5101517.1065826416 0 5101517.1065826416 5651970.9520263672 0 0 0 0 222877.46414972516 -159197.08891320974 0 -159197.08891320974 905115.06865394209 0 0 0 0 239533049.91055071 -146088077.79987526 0 -146088077.79987526 90851115.258392334 0 0 0 0 95340073.708172321 -48367839.598327637 0 -48367839.598327637 -155926566.8882165 0 0 0 0 115709193.04618216 -190901196.36296082 0 -190901196.36296082 57832094.004319429 0 0 0 0 59920386.782726765 -87142427.703128815 0 -87142427.703128815 60582176.199302435 0 0 0 0 214231936.97564149 84780350.338623047 0 84780350.338623047 138402546.95494652 0 0 0 0 120414547.43070889 -201238503.36094856 0 -201238503.36094856 238002244.11546326 0 0 0 0 49132412.268409729 9942524.7030792236 0 9942524.7030792236 120800613.40447235 0 0 0 0 47301846.759485245 -7877323.5410881042 0 -7877323.5410881042 -21539823.225891113 0 0 0 0 -5405860.3240064383 95905080.481739044 0 95905080.481739044 28517936.825489044 0 0 0 0 172436027.27996123 23700412.558540344 0 23700412.558540344 32262043.634620667 0 0 0 0 78805190.513165891 47235399.523046494 0 47235399.523046494 51480047.558830261 0 0 0 0 79110357.465098798 49236748.90439415 0 49236748.90439415 58456826.033584595 0 0 0 0 106409909.59107661 30959314.990753174 0 30959314.990753174 52938273.892683029 0 0 0 0 76282056.197522759 46975370.736427307 0 46975370.736427307 62567963.736763 0 0 0 0 76835461.203529477 70770710.229190826 0 70770710.229190826 65324344.646159172 0 0 0 0 29190458.815048635 11001930.272863388 0 11001930.272863388 38388879.337356567 0 0 0 0 136527355.32563388 56249915.15145874 0 56249915.15145874 26872536.429371834 0 0 0 0 68148343.789161623 57903103.518199921 0 57903103.518199921 48108700.395233154 0 0 0 0 66095392.773008049 30370126.481603622 0 30370126.481603622 41340246.272285461 0 0 0 0 30833188.2109586 -3058047.5736579895 0 -3058047.5736579895 99429130.912185669 0 0 0 0 -17100365.92258656 -143572003.78427124 0 -143572003.78427124 92317822.375213623 0 0 0 0 -89410618.8200109 6435916.6216201782 0 6435916.6216201782 51150330.236524582 0 0 0 0 -53260030.562505126 162249707.5431366 0 162249707.5431366 23662882.490401268 0 0 0 0 5210477.1616130173 69492940.800931931 0 69492940.800931931 -45484790.605857849 0 0 0 0 462070.82123934384 903834.3629186675 0 903834.3629186675 1162788.4329248071 0 0 0 0 5443577.509344101 -48463426.959106445 0 -48463426.959106445 23514556.412117004 0 0 0 0 97320529.930690408 -13945984.220554352 0 -13945984.220554352 -82075250.718215942 0 0 0 0 326784.89096063992 566619.55887770653 0 566619.55887770653 672567.59945613146 0 0 0 0 -109714911.76028204 122344434.55423069 0 122344434.55423069 286142267.61044312 0 0 0 0 176998100.64595759 152296053.31790924 0 152296053.31790924 -4077661.99659729 0 0 0 0 53136378.272806525 -1465946.9699902534 0 -1465946.9699902534 -82137666.915428162 0 0 0 0 33100877.998507619 -112390873.00310516 0 -112390873.00310516 74520536.958442688 0 0 0 0 134708648.81193897 27454244.213039398 0 27454244.213039398 147240893.67453003 0 0 0 0 24474889.651097968 -15738301.658922195 0 -15738301.658922195 341299163.56616211 0 0 0 0 165542496.50635445 -59532164.125244141 0 -59532164.125244141 258900950.67134094 0 0 0 0 159819090.38068932 204929145.18033123 0 204929145.18033123 703180100.06985474 0 0 0 0 141105891.03259295 55877824.648910522 0 55877824.648910522 159564936.74160004 0 0 0 0 160638993.08453536 246996736.04007906 0 246996736.04007906 340057596.44854736 0 0 0 0 -98047911.337212712 43905579.613865852 0 43905579.613865852 524459622.59848022 0 0 0 0 3064011.4176752567 -9184865.6474456787 0 -9184865.6474456787 185656815.68684578 0 0 0 0 80598375.47161293 210538330.10648727 0 210538330.10648727 351909948.88128591 0 0 0 0 -31663181.59771508 -15549797.63338089 0 -15549797.63338089 352981940.84403992 0 0 0 0 3656178.598752737 40426067.005058289 0 40426067.005058289 248363339.36576843 0 0 0 0 1898518.2278068364 31139661.860182762 0 31139661.860182762 200503571.97735596 0 0 0 0 47052155.023134351 56941249.870510101 0 56941249.870510101 115400757.20144653 0 0 0 0 40259521.377024531 90261111.205734253 0 90261111.205734253 212536539.29502869 0 0 0 0 67073966.636262953 59190018.241451263 0 59190018.241451263 115021374.50416565 0 0 0 0 80497973.222310841 83835205.241859436 0 83835205.241859436 111840912.04724121 0 0 0 0 39113932.598563194 108865936.73996353 0 108865936.73996353 116227084.02749634 0 0 0 0 -21629738.576243639 55267969.845664978 0 55267969.845664978 44144118.740665436 0 0 0 0 54979683.118955731 18573380.063766479 0 18573380.063766479 77905446.50491333 0 0 0 0 42090546.18994689 51411413.221351624 0 51411413.221351624 93371756.811916351 0 0 0 0 49501107.775804281 22085815.20891571 0 22085815.20891571 198262544.61128235 0 0 0 0 -10581588.148907661 5399635.3087463379 0 5399635.3087463379 286773677.46258545 0 0 0 0 28408912.722285032 -57594976.114944458 0 -57594976.114944458 179868608.05456543 0 0 0 0 90430.693389547057 -199755.36800040305 0 -199755.36800040305 202341.67908419669 0 0 0 0 30246494.523124993 -52447204.749787807 0 -52447204.749787807 -39079173.842544556 0 0 0 0 11518.208645183127 -296596.22344415635 0 -296596.22344415635 615530.64566276968 0 0 0 0 -30922474.219113722 -140940490.51686239 0 -140940490.51686239 69522721.732009888 0 0 0 0 5086576.5105007961 65682680.207147598 0 65682680.207147598 122135497.23866272 0 0 0 0 -1033928.5142146945 80744004.238929749 0 80744004.238929749 199726284.75893402 0 0 0 0 -12318988.611018181 24142787.427719116 0 24142787.427719116 45833393.921386003 0 0 0 0 -41179728.050903812 26063727.290843964 0 26063727.290843964 125437199.12872314 0 0 0 0 16968.982242793078 -610582.25660064071 0 -610582.25660064071 1200253.5455204397 0 0 0 0 -58258054.387786984 -42561292.67880249 0 -42561292.67880249 44479617.606322408 0 0 0 0 -57000879.171236746 -14881109.502182007 0 -14881109.502182007 64815654.44569397 0 0 0 0 9162436.3019549847 5749509.7663230896 0 5749509.7663230896 60851162.434488297 0 0 0 0 -7328689.8690896481 41979666.808312416 0 41979666.808312416 130566944.28592682 0 0 0 0 -6863629.610812664 -25525963.529998779 0 -25525963.529998779 196841098.02288437 0 0 0 0 46717827.982387602 5907467.4497413635 0 5907467.4497413635 125942189.37112045 0 0 0 0 -7912582.8312319219 46466647.388929367 0 46466647.388929367 99409164.58795166 0 0 0 0 33207855.897282481 20522748.268733978 0 20522748.268733978 65097133.570701599 0 0 0 0 64677303.608745366 48266565.37311554 0 48266565.37311554 74689307.645401001 0 0 0 0 78916441.854183793 43772632.454093933 0 43772632.454093933 75005950.913914204 0 0 0 0 41410489.576407164 27536598.5291605 0 27536598.5291605 85291933.210861206 0 0 0 0 84370756.537674189 2589389.8671455383 0 2589389.8671455383 99750421.677436829 0 0 0 0 119262025.23699653 -44178674.253829956 0 -44178674.253829956 110439885.43057251 0 0 0 0 88327459.68004179 -16167408.827869415 0 -16167408.827869415 86817139.107341766 0 0 0 0 54883303.49871096 -49212036.894500732 0 -49212036.894500732 164734974.29498291 0 0 0 0 3180179.931227386 -39385382.678979874 0 -39385382.678979874 172839807.18893433 0 0 0 0 244268948.69501865 -96460782.736893654 0 -96460782.736893654 97154462.319458008 0 0 0 0 77779426.933600724 -130219985.18958855 0 -130219985.18958855 270698362.49598694 0 0 0 0 -9493193.7093131542 42490291.737037659 0 42490291.737037659 279446703.60422301 0 0 0 0 24241484.123767585 127626.68703842163 0 127626.68703842163 66838659.605979919 0 0 0 0 290784.69472338888 -396577.00458655506 0 -396577.00458655506 1143036.6531609967 0 0 0 0 605336.57895602169 -676862.33453790098 0 -676862.33453790098 984020.03981119394 0 0 0 0 7521288.9681283236 -5344784.2351760864 0 -5344784.2351760864 79424476.334392786 0 0 0 0 448146.55027928238 -79272.995039597154 0 -79272.995039597154 211851.16199963214 0 0 0 0 -17514143.084972814 9028174.2470207214 0 9028174.2470207214 165979345.83757782 0 0 0 0 -6422834.3497054279 -36846718.70860672 0 -36846718.70860672 173524722.84729767 0 0 0 0 4964436.7835358977 -40733586.61724472 0 -40733586.61724472 160713076.98856449 0 0 0 0 -5018224.0337429047 -4860898.0359840393 0 -4860898.0359840393 132294655.59873199 0 0 0 0 -4756494.5168335736 -36798103.873935699 0 -36798103.873935699 173525060.93965912 0 0 0 0 -2285937.529905688 -50480542.227809906 0 -50480542.227809906 236001116.31232452 0 0 0 0 37418635.577641405 -6863517.6266899109 0 -6863517.6266899109 150022365.9467392 0 0 0 0 32386847.798273489 -55460992.739719391 0 -55460992.739719391 174843134.02357864 0 0 0 0 -26154.229171041399 -23137276.689529419 0 -23137276.689529419 143545305.07080841 0 0 0 0 8071539.1648271456 -18020907.542909622 0 -18020907.542909622 138104804.78166199 0 0 0 0 -5968666.0398344547 7722229.2803020477 0 7722229.2803020477 107704534.20468903 0 0 0 0 8990859.2704825103 -27638620.12052536 0 -27638620.12052536 127059974.35525513 0 0 0 0 2549482.0498431241 3323162.303196907 0 3323162.303196907 116042180.34889221 0 0 0 0 1956162.8176284209 -13490354.559440613 0 -13490354.559440613 98479398.643066406 0 0 0 0 -8902935.9876908213 7803588.521736145 0 7803588.521736145 86414283.264434814 0 0 0 0 11923504.066593066 -7852981.7095489502 0 -7852981.7095489502 63031268.930953979 0 0 0 0 358398.3360914595 -166236.27446122468 0 -166236.27446122468 107050.41639488423 0 0 0 0 -5223504.1461454481 7483875.0973510742 0 7483875.0973510742 67659274.069389343 0 0 0 0 -5562444.961698655 -10260165.932556152 0 -10260165.932556152 76455891.926940918 0 0 0 0 10479567.351206094 1901705.9102249146 0 1901705.9102249146 48073334.512811661 0 0 0 0 132660.90596272342 -110028.42774622887 0 -110028.42774622887 63867.223630079068 0 0 0 0 -19850180.75849843 -18821702.762557983 0 -18821702.762557983 64269944.899763107 0 0 0 0 4418670.0440158648 6257009.7351098061 0 6257009.7351098061 84450116.45715332 0 0 0 0 -11338319.533973955 -10109870.222457886 0 -10109870.222457886 119687074.06641006 0 0 0 0 9355.9899525649125 -11399955.687614441 0 -11399955.687614441 89174544.227813721 0 0 0 0 5559382.9902331755 4432141.1601638794 0 4432141.1601638794 127534141.57505417 0 0 0 0 -21326.56597150641 -15707324.874118805 0 -15707324.874118805 151673587.55905151 0 0 0 0 3741692.2092926055 -8785738.4631462097 0 -8785738.4631462097 158422886.19763947 0 0 0 0 19182.88941583208 -14097788.433113098 0 -14097788.433113098 161870017.80921745 0 0 0 0 11159931.712336531 -18686439.525585175 0 -18686439.525585175 138086231.17369843 0 0 0 0 1375025.8589653596 -10990692.909623146 0 -10990692.909623146 183393442.79018402 0 0 0 0 22015247.278976817 -55553462.707726479 0 -55553462.707726479 129279406.38657379 0 0 0 0 21220012.899910312 -73208883.892189026 0 -73208883.892189026 -35921257.4790802 0 0 0 0 -8453768.298880497 49357024.386894226 0 49357024.386894226 278161769.54940033 0 0 0 0 -7707.6991719611688 -286785.70300639421 0 -286785.70300639421 651353.46236258745 0 0 0 0 18665185.579142582 -36578833.54442215 0 -36578833.54442215 178480478.63434315 0 0 0 0 78741894.826508805 -14882616.467357635 0 -14882616.467357635 65292038.487037659 0 0 0 0 -59750357.74483636 7845044.4777885079 0 7845044.4777885079 110834444.43305206 0 0 0 0 -4257073.7592667416 9426285.5150184631 0 9426285.5150184631 139303325.99575043 0 0 0 0 -17762929.53177011 35125888.733337402 0 35125888.733337402 90863916.969539642 0 0 0 0 -4912803.5967369527 20833730.426456451 0 20833730.426456451 245912419.79171753 0 0 0 0 -15191199.814004075 -24114394.373085022 0 -24114394.373085022 198855118.61986542 0 0 0 0 59897233.354891688 41282967.770652771 0 41282967.770652771 160221088.54775429 0 0 0 0 -12539.399647735123 5137885.8771362305 0 5137885.8771362305 156375068.54922485 0 0 0 0 -711598.64114115946 -30435611.413814545 0 -30435611.413814545 116000875.64105225 0 0 0 0 19930429.228850313 -1552024.7541351318 0 -1552024.7541351318 141139178.59136963 0 0 0 0 1468200.4172592163 18848239.300308228 0 18848239.300308228 -10639478.040455222 0 0 0 0 590706.92169094086 27277941.602588654 0 27277941.602588654 2886458.5381622314 0 0 0 0 22343867.784020424 28050562.837581635 0 28050562.837581635 2864278.9747727513 0 0 0 0 -16222067.830934525 32989467.437602997 0 32989467.437602997 16781117.114459991 0 0 0 0 -16726860.935122013 32032734.097315788 0 32032734.097315788 17403140.527580261 0 0 0 0 -23193321.644602776 25593196.412063599 0 25593196.412063599 15189452.381828308 0 0 0 0 -10830950.479346275 25507070.3975811 0 25507070.3975811 3366605.292098999 0 0 0 0 -9433711.8154163361 25752440.969573975 0 25752440.969573975 154860.47835540771 0 0 0 0 1253882.8166332394 37429663.395710886 0 37429663.395710886 6934294.3127365112 0 0 0 0 -16865365.732273102 22789833.847938538 0 22789833.847938538 3658317.7313957214 0 0 0 0 63716417.908242702 -85453315.806480408 0 -85453315.806480408 -153091764.20008278 0 0 0 0 -4224256.662637406 5870778.866236899 0 5870778.866236899 3416729.8296246743 0 0 0 0 -10333261.974756241 24055407.986358643 0 24055407.986358643 3903495.687210083 0 0 0 0 -41595058.914144516 22755431.659267426 0 22755431.659267426 -17619433.61284256 0 0 0 0 -22390497.139853954 -19283416.480625153 0 -19283416.480625153 67602435.086341858 0 0 0 0 82650194.646923065 -377514821.05486298 0 -377514821.05486298 36441289.836150169 0 0 0 0 45528975.733175278 15246947.124500275 0 15246947.124500275 -6472291.1925723553 0 0 0 0 26190048.857553005 -8964593.339717865 0 -8964593.339717865 354424137.18578339 0 0 0 0 30360816.445497513 651265.70897293091 0 651265.70897293091 376406213.17950439 0 0 0 0 54772613.250569344 311625339.6779027 0 311625339.6779027 -5822775.9946403503 0 0 0 0 -76608839.439994812 71570323.980354309 0 71570323.980354309 857457917.79708862 0 0 0 0 -21068223.557350159 -512803315.89067841 0 -512803315.89067841 256415684.23333931 0 0 0 0 -176428308.01665497 -472725409.1135788 0 -472725409.1135788 672186919.95978546 0 0 0 0 -18208986.428207397 4835595.490234375 0 4835595.490234375 -10992491.666631341 0 0 0 0 -7758226.404630661 23421370.654121399 0 23421370.654121399 1792229.6759567261 0 0 0 0 3820740.9176749662 10186753.13244769 0 10186753.13244769 11144351.914237143 0 0 0 0 26003965.332372665 7683084.5981006622 0 7683084.5981006622 -61461624.159549713 0 0 0 0 -14524710.007042276 343440.3438353315 0 343440.3438353315 27485294.30142026 0 0 0 0 -62863159.119401932 -27392641.990573883 0 -27392641.990573883 116495069.88730526 0 0 0 0 -3545300.6616632938 14808208.060102463 0 14808208.060102463 33317100.068889618 0 0 0 0 -2354639.9503285801 17430166.881177768 0 17430166.881177768 12479047.453937765 0 0 0 0 -9263710.938938614 -7217549.508631222 0 -7217549.508631222 36009408.186861672 0 0 0 0 21442067.773743838 -76349439.298758149 0 -76349439.298758149 -98369382.790843964 0 0 0 0 31050912.397660255 42356404.480424881 0 42356404.480424881 -15197184.927974701 0 0 0 0 30981823.09944725 24981671.9518013 0 24981671.9518013 -49361078.66532135 0 0 0 0 5102971.6401057243 24281107.410182953 0 24281107.410182953 24082936.275154114 0 0 0 0 59405540.149073601 41536755.052135468 0 41536755.052135468 27547490.748607635 0 0 0 0 209861574.0421195 -84202475.913255692 0 -84202475.913255692 31056690.289321899 0 0 0 0 -22909946.899703979 -1031893.4431381226 0 -1031893.4431381226 7227082.6535644531 0 0 0 0 -34967681.957840919 -39100934.927207947 0 -39100934.927207947 359635263.55518341 0 0 0 0 -12010101.557293892 -11608839.470115662 0 -11608839.470115662 257764250.5231123 0 0 0 0 124456798.85421836 145504898.93623781 0 145504898.93623781 185208416.84518433 0 0 0 0 -15353224.184928894 -34819674.390232086 0 -34819674.390232086 96730235.954090118 0 0 0 0 -21444671.37309742 21783042.718065262 0 21783042.718065262 155002009.13428688 0 0 0 0 997950.77297019958 51438704.958205223 0 51438704.958205223 32523080.632553101 0 0 0 0 -28287653.035407066 28907881.387664795 0 28907881.387664795 59063906.501594543 0 0 0 0 -19350941.492244959 9016876.3214120865 0 9016876.3214120865 43217994.589347839 0 0 0 0 -34393076.835923195 8224852.585981369 0 8224852.585981369 60682181.9167099 0 0 0 0 -40743622.418746948 -10628361.044288635 0 -10628361.044288635 8181518.4948215485 0 0 0 0 45694599.74407053 67514914.601249695 0 67514914.601249695 53372806.339836121 0 0 0 0 -3607230.9624614716 -11372154.424167633 0 -11372154.424167633 36080963.878852844 0 0 0 0 -55517872.631012917 9082964.1076965332 0 9082964.1076965332 20869371.486293793 0 0 0 0 -1696828.388105514 604207.82340834104 0 604207.82340834104 9369030.6221848056 0 0 0 0 -37362410.948665619 22961664.15586853 0 22961664.15586853 19966573.799147606 0 0 0 0 -31665555.547832489 17892140.145300865 0 17892140.145300865 23341308.182357788 0 0 0 0 -2708009.1510461373 7319422.8526696321 0 7319422.8526696321 37137730.451614544 0 0 0 0 -94347912.439444065 143846075.98912239 0 143846075.98912239 99522036.184652328 0 0 0 0 16842206.569052219 -6148784.0104980469 0 -6148784.0104980469 -22768633.894309998 0 0 0 0 18839763.351802111 -11092080.092880726 0 -11092080.092880726 -40792532.072898865 0 0 0 0 37522.645949796308 546977.93839733489 0 546977.93839733489 525114.71887829155 0 0 0 0 -46885254.180404365 11311472.610527039 0 11311472.610527039 40793077.962152481 0 0 0 0 -16159284.613536835 4018893.931907177 0 4018893.931907177 34337827.957553864 0 0 0 0 -25084313.426150441 -12430064.298087597 0 -12430064.298087597 43299151.710314751 0 0 0 0 -610998.46079707146 -3616842.0263133049 0 -3616842.0263133049 33763022.090371132 0 0 0 0 -2351582.9621925354 -13131929.938381195 0 -13131929.938381195 33524473.19793129 0 0 0 0 -1323416.1106414795 1145143.0628809929 0 1145143.0628809929 39908691.461714745 0 0 0 0 -5197848.5362920444 4689029.8848121259 0 4689029.8848121259 30468437.1971783 0 0 0 0 -32140390.576247692 41417314.450193405 0 41417314.450193405 6119335.5614891052 0 0 0 0 -711518.18113964796 -2697278.3826711774 0 -2697278.3826711774 40015810.527384758 0 0 0 0 -5036495.8689305782 -8311324.7549610138 0 -8311324.7549610138 49177804.116894722 0 0 0 0 -681945.1152154482 -770846.11146366969 0 -770846.11146366969 11054561.309498819 0 0 0 0 -2693578.8670456409 -317438.25998258591 0 -317438.25998258591 43903589.36886692 0 0 0 0 1064058.6303973198 -805714.88104581833 0 -805714.88104581833 24953468.268457413 0 0 0 0 -894467.59590911865 -286880.80655574799 0 -286880.80655574799 37015237.894979477 0 0 0 0 250833.03761219978 -12097184.490270615 0 -12097184.490270615 33525858.001980066 0 0 0 0 -3290937.000068903 8569396.4214315414 0 8569396.4214315414 81485492.489678383 0 0 0 0 -21161127.143779993 14229476.73772049 0 14229476.73772049 12041596.659286499 0 0 0 0 -4031725.3047370911 29591773.139656067 0 29591773.139656067 13742816.080091476 0 0 0 0 -26444388.437817812 18841534.997497559 0 18841534.997497559 6513120.6832504272 0 0 0 0 -5420702.6059484538 3403325.9509152435 0 3403325.9509152435 7401294.4591194764 0 0 0 0 -30044306.062288284 29158496.166900635 0 29158496.166900635 14282259.935600281 0 0 0 0 -27617207.759620667 35284453.769351959 0 35284453.769351959 27303469.52557373 0 0 0 0 -4777200.8395035751 10137998.161397882 0 10137998.161397882 1844496.7100479752 0 0 0 0 -15628992.07038784 16652722.85905838 0 16652722.85905838 13088485.975875854 0 0 0 0 -4090098.9830913544 15917455.038238525 0 15917455.038238525 -2397190.4180145264 0 0 0 0 -3866881.146831451 5941650.4817185737 0 5941650.4817185737 9597786.1155678853 0 0 0 0 -6576531.7283771038 8294579.0523591042 0 8294579.0523591042 6298823.8173713684 0 0 0 0 -3630671.3395820446 2781489.6876336811 0 2781489.6876336811 15613461.138327399 0 0 0 0 -3191621.5809890032 4871896.696685791 0 4871896.696685791 14408353.863293648 0 0 0 0 -6495828.7630200684 4833536.5038928986 0 4833536.5038928986 12211892.455560088 0 0 0 0 -7271221.5222618282 3952429.2766609192 0 3952429.2766609192 15858838.733865738 0 0 0 0 -6957014.1731027365 4636781.9309597015 0 4636781.9309597015 16679614.829837799 0 0 0 0 -5303946.4454322858 3490319.3864084985 0 3490319.3864084985 12802126.888550498 0 0 0 0 -8075286.0443228269 -1864450.172675617 0 -1864450.172675617 31661908.192254111 0 0 0 0 -7039862.9768275619 2936926.6331558228 0 2936926.6331558228 14761438.091988325 0 0 0 0 -111605229.3787095 25295167.109127045 0 25295167.109127045 -35307886.787654877 0 0 0 0 -4179612.7661410631 8012477.544967711 0 8012477.544967711 4207543.7683885768 0 0 0 0 -6103963.0688417424 4397866.2342734933 0 4397866.2342734933 11744474.220575506 0 0 0 0 -12386584.343925476 10744825.711734772 0 10744825.711734772 10484536.99786377 0 0 0 0 -4281917.5692246705 3190886.2902412415 0 3190886.2902412415 6369134.9822998047 0 0 0 0 -9085573.4185219854 9773088.2992602326 0 9773088.2992602326 11331814.692353681 0 0 0 0 -74941878.609953403 51245128.198047638 0 51245128.198047638 -35438545.112892151 0 0 0 0 -103781726.40017188 69131874.597381592 0 69131874.597381592 63303174.010864258 0 0 0 0 -5752498.5332929716 5714551.7151412964 0 5714551.7151412964 6900738.9848594666 0 0 0 0 -103256004.12443471 68313299.76512146 0 68313299.76512146 8487470.3178462982 0 0 0 0 1419982.5326462295 4838107.0945267882 0 4838107.0945267882 -258115.47110013664 0 0 0 0 9915937.9050481319 -8367329.4511585236 0 -8367329.4511585236 6199954.4346008301 0 0 0 0 -5942449.901963383 -4393395.2252526581 0 -4393395.2252526581 8957911.0368232727 0 0 0 0 -5394473.1200079275 4725259.7544257268 0 4725259.7544257268 10389097.358798243 0 0 0 0 -1418308.9963549874 -3269047.3979025474 0 -3269047.3979025474 13795074.262535326 0 0 0 0 -19005603.522381067 11261180.927743912 0 11261180.927743912 15392991.59355545 0 0 0 0 -549400.13856507267 -1478080.7960208282 0 -1478080.7960208282 1639223.1550115906 0 0 0 0 10755255.850811481 11696546.461831093 0 11696546.461831093 16062160.883415222 0 0 0 0 -4859228.6188280582 -12902906.726850986 0 -12902906.726850986 24177403.038637161 0 0 0 0 -12096889.543116093 7383180.3598690033 0 7383180.3598690033 22945235.350063324 0 0 0 0 30746559.289833069 -783871.10622882843 0 -783871.10622882843 8761456.5921478271 0 0 0 0 30916697.328490973 85691455.857797623 0 85691455.857797623 56246723.654003143 0 0 0 0 -58258869.033376455 18609249.018829346 0 18609249.018829346 162945141.88027191 0 0 0 0 -31657276.274541855 -26532279.566061974 0 -26532279.566061974 239102470.34354401 0 0 0 0 44146070.593889862 -53371184.578284502 0 -53371184.578284502 62997901.899246216 0 0 0 0 -11067863.622176766 -10461307.11025238 0 -10461307.11025238 70304228.192054749 0 0 0 0 -51292929.586597204 48758951.668037415 0 48758951.668037415 61826112.204658508 0 0 0 0 2601319.7465395927 -1219730.7616958618 0 -1219730.7616958618 -98637.40403676033 0 0 0 0 6060246.6658406258 -8378626.1069250107 0 -8378626.1069250107 8592380.1805515289 0 0 0 0 681012.76256990433 -10707599.612838745 0 -10707599.612838745 32900348.163830757 0 0 0 0 4186366.8948152065 -3454118.8687734604 0 -3454118.8687734604 13876209.743011475 0 0 0 0 1134253.3029546738 -1152533.5644044876 0 -1152533.5644044876 17671645.684894562 0 0 0 0 4204028.3308224678 -6286506.9529094696 0 -6286506.9529094696 20629444.90092659 0 0 0 0 3010197.9455971718 -2237268.5372905731 0 -2237268.5372905731 14942771.26293993 0 0 0 0 3601270.9821619987 -11287006.461653233 0 -11287006.461653233 22746293.790721893 0 0 0 0 1667945.8516325951 -618426.58898735046 0 -618426.58898735046 9616265.9057580233 0 0 0 0 5561228.816603899 -1722926.5552358627 0 -1722926.5552358627 9723063.7496843338 0 0 0 0 163510.95525946515 14750.885719602462 0 14750.885719602462 6819444.8259726837 0 0 0 0 1063685.5970058441 6132233.9942436218 0 6132233.9942436218 9100552.6424827576 0 0 0 0 2183228.9165930748 871815.79339694977 0 871815.79339694977 13081763.76843071 0 0 0 0 4329080.0034381151 -3410409.6048167944 0 -3410409.6048167944 2620633.1539554596 0 0 0 0 172740766.04563153 -101193167.40120506 0 -101193167.40120506 96674356.862942696 0 0 0 0 982172.10169970128 971005.20032975636 0 971005.20032975636 1988111.8855004515 0 0 0 0 72820070.300024927 -117778473.6141758 0 -117778473.6141758 115942677.77947998 0 0 0 0 11705265.44557181 87194492.93926096 0 87194492.93926096 295577061.70648384 0 0 0 0 -6301816.9151732922 13571931.154220104 0 13571931.154220104 2075962.6993045807 0 0 0 0 -30576569.897171505 21910400.523777008 0 21910400.523777008 259030551.60418701 0 0 0 0 1301648.9213058469 261536.70150703285 0 261536.70150703285 677426.23239571415 0 0 0 0 6276401.4010610785 1468612.0377848931 0 1468612.0377848931 964685.04533645511 0 0 0 0 62858233.727868259 55009080.689006805 0 55009080.689006805 -17534361.838981092 0 0 0 0 120074379.10070214 -61214273.925607681 0 -61214273.925607681 142045810.09057045 0 0 0 0 28030835.059761349 42721342.534359932 0 42721342.534359932 48876039.66609323 0 0 0 0 130692016.8783028 118227777.28062418 0 118227777.28062418 99147259.551809311 0 0 0 0 21128823.87452 -28719669.151449203 0 -28719669.151449203 270980669.4826889 0 0 0 0 -298295107.32813728 73702491.555171847 0 73702491.555171847 215657192.77408409 0 0 0 0 562286104.59154522 191254328.7972703 0 191254328.7972703 -174394982.10495377 0 0 0 0 306981755.36450922 758709181.58016586 0 758709181.58016586 -176146412.78306031 0 0 0 0 -251982849.6338647 488156188.11356544 0 488156188.11356544 99577337.855049133 0 0 0 0 42252446.516954899 175228750.2492075 0 175228750.2492075 -26963971.975589752 0 0 0 0 88040.453947544098 -10365532.997003555 0 -10365532.997003555 14478205.408021927 0 0 0 0 234698214.41588926 -72613435.093375206 0 -72613435.093375206 7622079.1936359406 0 0 0 0 2574476.7897291728 -264785.27662551589 0 -264785.27662551589 -135434.89773492701 0 0 0 0 -84493696.850149661 83241857.791453838 0 83241857.791453838 189831097.55810928 0 0 0 0 -114238683.10991144 -77027694.783514977 0 -77027694.783514977 339695853.77622032 0 0 0 0 450480776.25654769 -346814396.24180412 0 -346814396.24180412 -55124405.824394226 0 0 0 0 -5135991.0786413178 -10647310.544182098 0 -10647310.544182098 26648243.541041523 0 0 0 0 -37091128.454873085 -57848393.886468887 0 -57848393.886468887 -58853620.421592712 0 0 0 0 -27564583.471726418 -8128496.5077588558 0 -8128496.5077588558 15206112.797065735 0 0 0 0 11675469.023160458 11077306.60281086 0 11077306.60281086 -51918160.490135193 0 0 0 0 21540948.163511276 10892128.463277817 0 10892128.463277817 7190841.2245788574 0 0 0 0 15064648.083213925 21188603.305351257 0 21188603.305351257 37989304.270355225 0 0 0 0 5552548.9751057625 4220104.0380249023 0 4220104.0380249023 29495638.779701233 0 0 0 0 6989602.1916923523 8930412.332118988 0 8930412.332118988 20767965.970970154 0 0 0 0 -11074869.315178268 -5411995.973764481 0 -5411995.973764481 27117845.177987553 0 0 0 0 270614.87295722961 -2861013.4979248047 0 -2861013.4979248047 22838922.846561432 0 0 0 0 -21594999.267661095 -39434833.079164505 0 -39434833.079164505 -8202909.8086023331 0 0 0 0 163273025.88434982 -206018176.28548431 0 -206018176.28548431 209979439.37533569 0 0 0 0 -4861076.1142556053 -8138930.5219750553 0 -8138930.5219750553 6865088.465519391 0 0 0 0 43419661.376179889 -80916459.546541244 0 -80916459.546541244 148056684.37305069 0 0 0 0 226621237.93583584 56302205.837522507 0 56302205.837522507 -105078653.70867729 0 0 0 0 2226330.6961741238 2090045.511802474 0 2090045.511802474 -1133300.9229005426 0 0 0 0 -6956381.9975796519 -8204540.6587217711 0 -8204540.6587217711 3328988.7683305368 0 0 0 0 -109531703.20588589 142475328.50673485 0 142475328.50673485 -706952.58088684082 0 0 0 0 226914087.72043324 331235737.90497208 0 331235737.90497208 -327157097.76219559 0 0 0 0 -2661240.551710844 3766594.1507797241 0 3766594.1507797241 30429449.689048767 0 0 0 0 -13396913.524069604 -3328714.8146854229 0 -3328714.8146854229 25002187.939711437 0 0 0 0 -36985840.305057287 -47011976.890670776 0 -47011976.890670776 -14276898.704650879 0 0 0 0 34586386.960109949 -31707896.086057663 0 -31707896.086057663 -21829789.43995285 0 0 0 0 296219211.08087444 251756928.62566757 0 251756928.62566757 281186088.01032257 0 0 0 0 -2621453.6667682845 683207.84970367141 0 683207.84970367141 2552953.5170115307 0 0 0 0 268569397.89995527 144298178.04786777 0 144298178.04786777 14951938.845916748 0 0 0 0 -89843885.725934029 46513916.77696991 0 46513916.77696991 97228969.847892761 0 0 0 0 74547236.81526947 94659663.890253067 0 94659663.890253067 -26254001.815309525 0 0 0 0 83584985.142341614 57585670.972024918 0 57585670.972024918 28607587.981723785 0 0 0 0 -10631958.850649118 10631575.041851044 0 10631575.041851044 32483643.990261078 0 0 0 0 -1243778.0419931412 12032191.972629547 0 12032191.972629547 32015238.397097588 0 0 0 0 -496250.23638916016 10883122.065774918 0 10883122.065774918 30353623.976827621 0 0 0 0 2031542.2302748859 15988951.303451538 0 15988951.303451538 31439239.367416382 0 0 0 0 2722220.2444145679 11060000.337177277 0 11060000.337177277 29157129.020851135 0 0 0 0 6201489.0844680965 14991963.238173127 0 14991963.238173127 33010131.456565857 0 0 0 0 3869968.0906825066 10903743.147748947 0 10903743.147748947 37104055.552978516 0 0 0 0 189127.00227165222 13114625.211826324 0 13114625.211826324 51528587.669429779 0 0 0 0 -32948.102121710777 9357101.6309642792 0 9357101.6309642792 34144212.74773407 0 0 0 0 -2091395.0339584351 13477543.525468826 0 13477543.525468826 32534252.174362183 0 0 0 0 -1104517.0368118286 15157180.382640839 0 15157180.382640839 35184521.559630394 0 0 0 0 -1905670.3491704464 13369665.20025444 0 13369665.20025444 21547831.342260361 0 0 0 0 -24730590.209775925 8415674.6709423065 0 8415674.6709423065 32326199.509723663 0 0 0 0 -3188788.5485871434 6071423.5183200836 0 6071423.5183200836 24153577.76651001 0 0 0 0 -518050.70579054765 -95419.162924222648 0 -95419.162924222648 368028.74535512179 0 0 0 0 -22965796.005701542 -15983169.84605217 0 -15983169.84605217 524149.64583206177 0 0 0 0 10299348.300858498 16543504.094205856 0 16543504.094205856 56401230.236610413 0 0 0 0 -5381069.0371721685 395397.16051387787 0 395397.16051387787 13198118.515842438 0 0 0 0 -1797625.4774171114 7650868.1329841614 0 7650868.1329841614 14000351.205039024 0 0 0 0 -14470602.551214218 13194732.925113678 0 13194732.925113678 30018343.272697449 0 0 0 0 276467.87627887726 17629593.62065506 0 17629593.62065506 33808056.674127579 0 0 0 0 -4335495.3635778427 17802153.182640076 0 17802153.182640076 34098940.056842089 0 0 0 0 1099121.2326042652 14395482.123537064 0 14395482.123537064 28967367.502536774 0 0 0 0 -3609766.2911540866 16029854.232256889 0 16029854.232256889 29333574.975296021 0 0 0 0 -1674593.4619557858 12721474.029518127 0 12721474.029518127 29517328.899990082 0 0 0 0 59112013.003858566 73203762.014717102 0 73203762.014717102 63737758.227859497 0 0 0 0 17211264.583757449 48273434.776296616 0 48273434.776296616 81599318.927341461 0 0 0 0 -2867265.3909903765 50005138.057617188 0 50005138.057617188 100821403.52685738 0 0 0 0 85282610.735173225 119924904.16960335 0 119924904.16960335 131517668.86210942 0 0 0 0 49774745.764594197 46968646.288499832 0 46968646.288499832 75518088.449897766 0 0 0 0 -308676.55425411463 10274338.233596802 0 10274338.233596802 41899771.516605377 0 0 0 0 -5698170.4063017964 -19143089.482329369 0 -19143089.482329369 -5303562.1719284058 0 0 0 0 -6385917.126360476 25706131.562850952 0 25706131.562850952 35787929.383821487 0 0 0 0 -422264.21918721241 44073.357091039419 0 44073.357091039419 851357.37812915444 0 0 0 0 -981239.21096917766 40342.66354309395 0 40342.66354309395 431273.80860362202 0 0 0 0 -955208.77418372035 12288565.235946655 0 12288565.235946655 24633982.766981125 0 0 0 0 2989619.3730846643 8735491.826669693 0 8735491.826669693 26275124.783669472 0 0 0 0 83462.236773133278 13436842.777282715 0 13436842.777282715 25818718.598693848 0 0 0 0 4971355.2511183619 9581536.7430305481 0 9581536.7430305481 27495018.209125519 0 0 0 0 1122967.784155637 3076772.0417873859 0 3076772.0417873859 14433708.078334808 0 0 0 0 -1339433.4410192708 266290.66812464595 0 266290.66812464595 428332.36806235462 0 0 0 0 -372214.25261040323 -131463.43963173777 0 -131463.43963173777 1519162.1205802783 0 0 0 0 -9961028.3568361904 -18572791.40238595 0 -18572791.40238595 16588685.248249054 0 0 0 0 -1401129.4223859869 724785.65726080537 0 724785.65726080537 897120.57796864212 0 0 0 0 2778978.6121577322 6984066.3997039795 0 6984066.3997039795 23439498.412277222 0 0 0 0 5999691.5246729851 15331562.360435486 0 15331562.360435486 25367561.077706337 0 0 0 0 -5001241.1543205976 31907582.925964355 0 31907582.925964355 16211737.635665894 0 0 0 0 1843185.3628116846 -423639.90093994141 0 -423639.90093994141 22810566.111846924 0 0 0 0 40917391.186555505 28940430.257484436 0 28940430.257484436 27718607.853984833 0 0 0 0 -4195543.6208190024 19883214.925230026 0 19883214.925230026 117188827.45889282 0 0 0 0 2540426.7434475422 11769482.528690338 0 11769482.528690338 35070802.507579803 0 0 0 0 -1225385.2153550386 19995151.512500763 0 19995151.512500763 89565468.059921265 0 0 0 0 -829515.72130778432 11675570.817325592 0 11675570.817325592 37182402.249008179 0 0 0 0 2354354.5553540173 14751781.458327137 0 14751781.458327137 312440.63619325077 0 0 0 0 331759.57591509819 21141375.143047333 0 21141375.143047333 90408101.036804199 0 0 0 0 308317.80643965304 14115711.358828068 0 14115711.358828068 99866134.557693481 0 0 0 0 -2452082.4434417188 12857525.685330391 0 12857525.685330391 42169599.37468338 0 0 0 0 990024.23426837125 14629060.434564263 0 14629060.434564263 586546.99599953322 0 0 0 0 -2352762.3344210386 23413821.073612213 0 23413821.073612213 89750604.560585022 0 0 0 0 -1823481.0992679596 15876580.546813965 0 15876580.546813965 78698903.89282608 0 0 0 0 -5955796.4415426254 10028712.864294052 0 10028712.864294052 85941201.399734497 0 0 0 0 408801.32297511399 494983.75431632996 0 494983.75431632996 38419298.27910614 0 0 0 0 -4574638.4255980849 -7330993.5302581787 0 -7330993.5302581787 60895345.593603134 0 0 0 0 -2258327.8036673069 1109762.8548564911 0 1109762.8548564911 82842091.084926605 0 0 0 0 6276177.3423784971 -6682413.1001701355 0 -6682413.1001701355 63022163.842628479 0 0 0 0 1193383.3115010858 18164039.286579132 0 18164039.286579132 94899460.980476379 0 0 0 0 -1752386.6570055485 -2417352.3601341248 0 -2417352.3601341248 89469652.598724365 0 0 0 0 423584.26412463188 3167406.4702606201 0 3167406.4702606201 101977837.86782837 0 0 0 0 7864.2201932519674 1115629.3936004639 0 1115629.3936004639 111269665.53848267 0 0 0 0 7578699.4523148537 -16450970.640300751 0 -16450970.640300751 87376360.539840698 0 0 0 0 6202566.1802768409 -17861100.00992775 0 -17861100.00992775 109395123.59634399 0 0 0 0 1603484.1358143091 -13388115.994838715 0 -13388115.994838715 125455560.45679474 0 0 0 0 2210140.0243895715 2517618.0517639592 0 2517618.0517639592 4482740.4577139579 0 0 0 0 5287541.7386819124 -3979645.3887481689 0 -3979645.3887481689 113131343.93335056 0 0 0 0 7456856.0892344713 -1901530.888507843 0 -1901530.888507843 115088282.83853912 0 0 0 0 -12773386.185789585 -8467656.9254264832 0 -8467656.9254264832 60524230.853281021 0 0 0 0 10867898.420759201 17382762.979026794 0 17382762.979026794 65195176.130945206 0 0 0 0 -5178400.8143908978 11837797.578701019 0 11837797.578701019 96223694.217605591 0 0 0 0 -1490957.1855897903 13536340.986049652 0 13536340.986049652 33647197.619861603 0 0 0 0 -12309826.330481052 10550260.950622559 0 10550260.950622559 115965867.3062973 0 0 0 0 -1341076.1412391255 14022075.496440515 0 14022075.496440515 1888072.2546126121 0 0 0 0 -5217378.867582202 15127793.623872757 0 15127793.623872757 44381162.34318924 0 0 0 0 -6041989.0912635326 12318218.771827698 0 12318218.771827698 44119081.035125732 0 0 0 0 -269395.5178652911 14574401.713964738 0 14574401.713964738 748190.84162335307 0 0 0 0 -3539991.1488416195 7531321.7134895325 0 7531321.7134895325 105479020.75941312 0 0 0 0 -1677636.148657918 21898112.536880493 0 21898112.536880493 80425666.658061981 0 0 0 0 2354917.9345111847 722583.3869228363 0 722583.3869228363 75419432.131233215 0 0 0 0 -10681956.906839132 -1996486.116153717 0 -1996486.116153717 69616502.738729477 0 0 0 0 -4933682.6915490627 -15123237.775146484 0 -15123237.775146484 28741148.759231567 0 0 0 0 -6509757.4782540798 8358748.8922271729 0 8358748.8922271729 50675981.524173737 0 0 0 0 -10339250.05248427 -9465118.7444478199 0 -9465118.7444478199 29133953.949238837 0 0 0 0 -108234251.27069569 -58121851.878808975 0 -58121851.878808975 20848753.08001709 0 0 0 0 1143901.8198040724 14837610.229297638 0 14837610.229297638 56943272.402721405 0 0 0 0 -15559450.588976085 -14271836.460226059 0 -14271836.460226059 38141478.381149292 0 0 0 0 -70226019.579973221 -208360439.3597908 0 -208360439.3597908 -27900538.249393463 0 0 0 0 -8366565.4844660088 -9700884.7495073229 0 -9700884.7495073229 29583900.765892133 0 0 0 0 -121209141.6219821 -7866482.407579422 0 -7866482.407579422 204344388.04481506 0 0 0 0 -17344119.284312248 9839281.0964050293 0 9839281.0964050293 14257446.828244686 0 0 0 0 80142211.087744236 2923399.0859622955 0 2923399.0859622955 50399750.616188049 0 0 0 0 19203405.459142208 72430370.988334656 0 72430370.988334656 103790879.06196594 0 0 0 0 -92902357.048774719 -60111274.297393799 0 -60111274.297393799 139735614.89323425 0 0 0 0 45406474.37432003 120057409.82597923 0 120057409.82597923 49871182.704053879 0 0 0 0 -57650.984665765427 -1417993.657656312 0 -1417993.657656312 5634877.9273359776 0 0 0 0 472018.03907012939 48266389.231960297 0 48266389.231960297 126904217.84059525 0 0 0 0 -3607225.0228965282 75433047.04341507 0 75433047.04341507 -21275926.801101685 0 0 0 0 -78755943.200136185 18855616.269599915 0 18855616.269599915 61237562.818877101 0 0 0 0 -68926736.261725426 94247324.841911316 0 94247324.841911316 74675944.419326782 0 0 0 0 -19607832.509199142 44559112.161067963 0 44559112.161067963 111160383.1698761 0 0 0 0 -101878626.06228274 103941264.51465023 0 103941264.51465023 76135697.679664612 0 0 0 0 -107071218.12687683 12039320.115737915 0 12039320.115737915 90194825.290473938 0 0 0 0 -20109327.717864275 -23593039.610458374 0 -23593039.610458374 32604359.399169922 0 0 0 0 -2101604.3231210001 2638639.7659117877 0 2638639.7659117877 10372703.266694067 0 0 0 0 -11861655.405079361 -9277884.6812439114 0 -9277884.6812439114 26705575.928444855 0 0 0 0 -22182840.696243286 9884116.2848739624 0 9884116.2848739624 41470819.964942932 0 0 0 0 -11323034.803266406 -7187408.4098558426 0 -7187408.4098558426 43305886.156951904 0 0 0 0 6496094.965174675 14457622.320878029 0 14457622.320878029 71184340.398464203 0 0 0 0 -664432.72331347875 4013395.6853760108 0 4013395.6853760108 11443763.612441901 0 0 0 0 -6338843.381004571 -5280520.592437271 0 -5280520.592437271 18324478.564685456 0 0 0 0 -16191206.966035843 17068663.169239044 0 17068663.169239044 45150043.57598877 0 0 0 0 8552991.8044370413 14302635.669032335 0 14302635.669032335 34240707.986160278 0 0 0 0 -31347564.814932823 -6427274.7003326416 0 -6427274.7003326416 41467820.994926453 0 0 0 0 42678330.353111267 32624980.210968018 0 32624980.210968018 81948385.285811424 0 0 0 0 -25607635.194807053 11440321.712890625 0 11440321.712890625 124302526.76164246 0 0 0 0 -1003310.6653921027 -462275.26470953226 0 -462275.26470953226 1812658.8268605154 0 0 0 0 6857615.2154350281 -2534462.8655738831 0 -2534462.8655738831 32840223.78307724 0 0 0 0 737960.26860046387 9900484.2329940796 0 9900484.2329940796 24691298.478561401 0 0 0 0 18231672.67562151 13243206.380821228 0 13243206.380821228 22597419.660354614 0 0 0 0 13257232.723243237 -560123.83728504181 0 -560123.83728504181 -6271714.9268035889 0 0 0 0 6142602.7533912659 24614872.849971771 0 24614872.849971771 12457539.642913818 0 0 0 0 -17106122.868897438 -18540311.491024017 0 -18540311.491024017 75947467.004390717 0 0 0 0 -2649618.9540429004 980798.79390929267 0 980798.79390929267 11703286.444059923 0 0 0 0 -19512003.672483921 12179602.039700031 0 12179602.039700031 43789334.611213684 0 0 0 0 -24037316.635122299 -3224290.9660644531 0 -3224290.9660644531 26964300.085165024 0 0 0 0 -70271674.834600449 -125687763.37359238 0 -125687763.37359238 196982906.97161484 0 0 0 0 133199816.43569183 -1957026.5652923584 0 -1957026.5652923584 -621664.03591918945 0 0 0 0 -518398.56662161462 -507861.99535644427 0 -507861.99535644427 1722410.3891692162 0 0 0 0 -108764802.31991959 34667652.830871582 0 34667652.830871582 62095508.227752686 0 0 0 0 6341209.5882294774 51895107.438571751 0 51895107.438571751 67292603.885772705 0 0 0 0 40340427.095251083 73199387.212379456 0 73199387.212379456 67404877.930717468 0 0 0 0 -212110480.13292313 -246143901.1948204 0 -246143901.1948204 203862076.42694092 0 0 0 0 29943479.382076263 39757145.966682434 0 39757145.966682434 1882219.7126054764 0 0 0 0 1892238.5201330036 416176.14726804942 0 416176.14726804942 452297.9341121912 0 0 0 0 -102198664.87291908 5747535.7172317505 0 5747535.7172317505 146637181.51057434 0 0 0 0 105619431.09110641 257095847.29151917 0 257095847.29151917 447657805.22933578 0 0 0 0 315627652.96455383 -236009711.07445526 0 -236009711.07445526 210084905.95032024 0 0 0 0 -18909969.459228516 81855971.536830902 0 81855971.536830902 231207972.67686462 0 0 0 0 -946561.22669882048 -2917746.0294524655 0 -2917746.0294524655 8133109.8923881724 0 0 0 0 -103785383.54773712 14876096.307834625 0 14876096.307834625 165098896.10118103 0 0 0 0 -103454123.61978912 -33336152.20658493 0 -33336152.20658493 90324181.027439117 0 0 0 0 -30924124.86058557 -5281503.538143158 0 -5281503.538143158 14992019.223640442 0 0 0 0 -34517321.506005287 25206692.356969833 0 25206692.356969833 65179181.845046997 0 0 0 0 2116964.5841903687 23614314.940341949 0 23614314.940341949 -20569749.157867432 0 0 0 0 -19490410.493730545 24636684.957542419 0 24636684.957542419 2274287.4323043823 0 0 0 0 -8762305.0650854111 11898379.059741974 0 11898379.059741974 14418791.646575928 0 0 0 0 5169488.1972408295 -25794741.411777496 0 -25794741.411777496 -29885014.219818592 0 0 0 0 44965975.084515572 63882704.970226288 0 63882704.970226288 27846800.819545746 0 0 0 0 3279174.5978326797 23229074.700790405 0 23229074.700790405 25323428.287506104 0 0 0 0 -13517333.204602242 26730585.690076828 0 26730585.690076828 39544364.203514099 0 0 0 0 -13315924.901378632 34890199.322097778 0 34890199.322097778 60741186.211633682 0 0 0 0 -21623467.605800629 23722658.601860046 0 23722658.601860046 40017076.814353943 0 0 0 0 -13901793.652168274 3651511.0118026733 0 3651511.0118026733 14162439.801582336 0 0 0 0 -29661325.702898264 1498272.0939559937 0 1498272.0939559937 70529902.495071411 0 0 0 0 -11426834.196273804 3777277.5771942139 0 3777277.5771942139 66351213.348571777 0 0 0 0 -22081452.558617532 31572709.668741226 0 31572709.668741226 101227699.17256165 0 0 0 0 -9444434.4477815628 9527083.8016052246 0 9527083.8016052246 19533212.361816406 0 0 0 0 -23770781.177878857 15681419.153484344 0 15681419.153484344 20970946.719917297 0 0 0 0 10305401.915901899 2412136.613243103 0 2412136.613243103 -78029490.734455109 0 0 0 0 83163744.486568928 -50257959.297950745 0 -50257959.297950745 34885876.538478374 0 0 0 0 8270686.6783898473 152419487.9988718 0 152419487.9988718 -25530893.352645874 0 0 0 0 -56478811.819602966 -17257230.698669434 0 -17257230.698669434 35485718.365936279 0 0 0 0 -25323342.066416025 22076116.822998047 0 22076116.822998047 152304767.23098755 0 0 0 0 50815422.173712969 58463808.98091507 0 58463808.98091507 76458861.315692902 0 0 0 0 -3324221.1774616102 -4181055.5223650523 0 -4181055.5223650523 3937200.3166895509 0 0 0 0 -19288204.229257584 -7998902.5947799683 0 -7998902.5947799683 50379010.841068268 0 0 0 0 59939619.062413692 -96003324.097885132 0 -96003324.097885132 75432542.345817566 0 0 0 0 -105132063.96279952 33609223.710042 0 33609223.710042 81337266.090499878 0 0 0 0 -63339546.708258152 -76006319.013114929 0 -76006319.013114929 136338782.30644989 0 0 0 0 1437558.4497052771 -2389070.9096818864 0 -2389070.9096818864 1730074.9501942992 0 0 0 0 792404.17207932472 -4880721.6549072266 0 -4880721.6549072266 25746432.737068176 0 0 0 0 -1099029.385894841 4486003.5832887739 0 4486003.5832887739 10878363.978719532 0 0 0 0 146439188.00731593 135751068.1610117 0 135751068.1610117 -43203033.968353271 0 0 0 0 -8372106.667969483 -3437082.0498743206 0 -3437082.0498743206 10305490.084011681 0 0 0 0 -459522.09165716171 -1534565.0641174316 0 -1534565.0641174316 20602043.398147583 0 0 0 0 -7400298.2443995476 -5756001.8665084839 0 -5756001.8665084839 29396556.539463043 0 0 0 0 -5361858.6808521664 6828813.3839525506 0 6828813.3839525506 25491444.502311334 0 0 0 0 -8150346.7981543541 2126542.2028198242 0 2126542.2028198242 23110722.278686523 0 0 0 0 -9488350.4860248566 -2790430.0114059448 0 -2790430.0114059448 27859291.871208191 0 0 0 0 -4314074.9030037187 -2833162.4312582687 0 -2833162.4312582687 14784394.673590071 0 0 0 0 -12061318.236180544 8141659.7562458515 0 8141659.7562458515 35195890.367675781 0 0 0 0 -1596432.0740966797 3781443.3840179443 0 3781443.3840179443 19553097.297851562 0 0 0 0 -2738510.4096619841 2376631.1099165902 0 2376631.1099165902 11911296.293213628 0 0 0 0 -41529249.845928192 23416970.680427551 0 23416970.680427551 216106568.71512222 0 0 0 0 57577822.180103302 -176448722.45320892 0 -176448722.45320892 -55190761.619102478 0 0 0 0 -211438625.34981918 170782826.73316193 0 170782826.73316193 133109173.87155914 0 0 0 0 110523510.59283257 83850442.400032043 0 83850442.400032043 -129428866.89935684 0 0 0 0 133406756.32912636 17016965.410907745 0 17016965.410907745 11413841.785583496 0 0 0 0 -3035942.0483484268 4711760.8394622803 0 4711760.8394622803 15747797.613525391 0 0 0 0 -537361.03658871353 6509409.090842016 0 6509409.090842016 20019614.783170678 0 0 0 0 39473911.344352722 10446417.529922485 0 10446417.529922485 59565632.081573486 0 0 0 0 1047742.1282044053 3411128.9905805588 0 3411128.9905805588 25911233.234390259 0 0 0 0 -9673543.0866837278 -64197.643699250184 0 -64197.643699250184 19712483.05489397 0 0 0 0 -5477473.6191558838 2300209.5389556885 0 2300209.5389556885 8079413.6566162109 0 0 0 0 -4768853.1392031815 3035721.9353467077 0 3035721.9353467077 24205623.922188677 0 0 0 0 148146.561366315 3902914.4285490885 0 3902914.4285490885 18649386.643962339 0 0 0 0 -6763084.8100186717 -3643928.2921329625 0 -3643928.2921329625 13755416.913284689 0 0 0 0 -5178191.1373052597 1869666.1672210693 0 1869666.1672210693 19977163.485626221 0 0 0 0 -2652360.7763090134 3346488.9597091675 0 3346488.9597091675 20534249.534408569 0 0 0 0 -7007943.11140846 -3434884.2028197572 0 -3434884.2028197572 18500008.216232821 0 0 0 0 4854200.7796726227 854879.21602630615 0 854879.21602630615 7062046.7441768646 0 0 0 0 -3098449.542200983 2695687.7249149755 0 2695687.7249149755 10951624.132566728 0 0 0 0 -3221818.8583821044 -4384213.8406886384 0 -4384213.8406886384 5600913.5496910065 0 0 0 0 -4670002.3885883689 -3588935.4269332886 0 -3588935.4269332886 20189003.868553162 0 0 0 0 12237355.014827967 22186491.25863266 0 22186491.25863266 49434204.509223938 0 0 0 0 -3151705.4710211754 4889142.7712936401 0 4889142.7712936401 28540713.30724144 0 0 0 0 -1369524.4220949127 3056843.0466144234 0 3056843.0466144234 15137726.787820533 0 0 0 0 -3527421.6641087532 3926596.226521492 0 3926596.226521492 26441905.290931702 0 0 0 0 -453830.85915757995 1029868.8262022063 0 1029868.8262022063 3548315.0272793546 0 0 0 0 -6154805.3510665894 28067385.127670288 0 28067385.127670288 101764498.89551926 0 0 0 0 -18727485.554272413 21075452.60351181 0 21075452.60351181 138003084.89929962 0 0 0 0 -6066616.6829156876 -401758.95233917236 0 -401758.95233917236 32901408.887968063 0 0 0 0 23464143.182692528 5570050.3440551758 0 5570050.3440551758 -7652079.7959442139 0 0 0 0 3550049.0224064589 15501831.033960342 0 15501831.033960342 -30435890.564315796 0 0 0 0 -11335565.902739525 29059545.408798218 0 29059545.408798218 -13559737.691635132 0 0 0 0 -1450202.7621078577 6400267.3081735224 0 6400267.3081735224 6312210.1414792165 0 0 0 0 -8902639.3334236145 5416027.6522445679 0 5416027.6522445679 -7502264.2452163696 0 0 0 0 16085398.878573895 48335268.194869995 0 48335268.194869995 -46697592.575496674 0 0 0 0 1672807.6664175987 8126374.8872070312 0 8126374.8872070312 -67375070.358322144 0 0 0 0 -2219288.0752365822 1475061.9448788017 0 1475061.9448788017 4979004.5979965627 0 0 0 0 13923821.0868783 43332120.162498474 0 43332120.162498474 -32392933.788711548 0 0 0 0 68898534.160144329 27684622.721588135 0 27684622.721588135 -29601013.660324097 0 0 0 0 14187529.597342491 8452501.3688240051 0 8452501.3688240051 15191617.007843018 0 0 0 0 67647590.395201683 -27141895.22833252 0 -27141895.22833252 25529673.003007889 0 0 0 0 3136616.7279126644 96577016.613763809 0 96577016.613763809 -2546756.5661392212 0 0 0 0 -67139144.491919041 75770390.377841949 0 75770390.377841949 6487377.958240509 0 0 0 0 12290865.912860394 33381785.08316803 0 33381785.08316803 -13362368.174842834 0 0 0 0 1531234.9123600246 10974897.509833165 0 10974897.509833165 16087045.389747389 0 0 0 0 20215442.118338585 51035328.938144684 0 51035328.938144684 -23148825.885513306 0 0 0 0 -297996489.41511917 -133568075.26985931 0 -133568075.26985931 168357631.38050842 0 0 0 0 -41747672.419189453 14576171.644525528 0 14576171.644525528 52335375.949346066 0 0 0 0 -5329383.4129401539 3114561.5694131739 0 3114561.5694131739 14012741.786197666 0 0 0 0 -19295502.005833626 -15304734.201568604 0 -15304734.201568604 32862097.535865784 0 0 0 0 2190123.150583047 14030244.987828219 0 14030244.987828219 37648940.966026306 0 0 0 0 2760814.1950272215 11190590.848600209 0 11190590.848600209 36363783.334977306 0 0 0 0 -128680507.48689318 29661222.044299126 0 29661222.044299126 62882346.174316406 0 0 0 0 -165926139.33274412 152719886.34059906 0 152719886.34059906 -73848269.297492981 0 0 0 0 98153874.233974934 61624638.743724823 0 61624638.743724823 -130752631.76953506 0 0 0 0 116606990.96856546 -36787449.215576172 0 -36787449.215576172 -117959902.88896179 0 0 0 0 96005212.972500801 95610948.952079773 0 95610948.952079773 -6522366.130657196 0 0 0 0 -36795071.097507358 -14464971.836540222 0 -14464971.836540222 69384587.376014709 0 0 0 0 4081284.973017931 2648095.85704422 0 2648095.85704422 94734623.725242615 0 0 0 0 714090.44270555861 -756275.94433369115 0 -756275.94433369115 280978.6334580034 0 0 0 0 36964096.412508488 54042602.655170441 0 54042602.655170441 65043424.692176819 0 0 0 0 86139990.548962831 -25569074.462144852 0 -25569074.462144852 -122054312.62097168 0 0 0 0 -9800405.0970129967 11176770.672836304 0 11176770.672836304 22409699.483089447 0 0 0 0 22793732.527957439 23245586.337795258 0 23245586.337795258 26518123.909435272 0 0 0 0 7169760.0323801041 8289530.9748764038 0 8289530.9748764038 28850253.231611252 0 0 0 0 -19975678.98723644 14650056.468382359 0 14650056.468382359 56424396.126739502 0 0 0 0 21975705.736307144 -56175080.261638641 0 -56175080.261638641 62316306.010181427 0 0 0 0 34245458.085573196 -9417466.8009490967 0 -9417466.8009490967 4947755.7525863647 0 0 0 0 -463244.16285562888 -765335.22857059911 0 -765335.22857059911 1122161.6540979967 0 0 0 0 -3307469.4677745514 638740.69975971803 0 638740.69975971803 763125.5596358031 0 0 0 0 -3873450.1132717133 1166143.6509170532 0 1166143.6509170532 4190074.025592804 0 0 0 0 -4713099.8491458893 927793.23522949219 0 927793.23522949219 5150836.6609039307 0 0 0 0 -4555448.3885066509 2372224.4790091515 0 2372224.4790091515 7338249.571144104 0 0 0 0 -5464111.1535768509 2112268.035369873 0 2112268.035369873 5853296.3796081543 0 0 0 0 -4990520.2906621192 2451161.0278636292 0 2451161.0278636292 1047384.0470733698 0 0 0 0 -4474331.6824264526 2182017.7524871826 0 2182017.7524871826 4772943.5162010193 0 0 0 0 -4213287.1767482758 1647016.5837554932 0 1647016.5837554932 8236954.6100692749 0 0 0 0 -5438851.2201256873 1759423.3688253351 0 1759423.3688253351 1803526.9083058387 0 0 0 0 -3298469.0699806213 -935356.99722290039 0 -935356.99722290039 5567831.7894134521 0 0 0 0 -3559393.5553703308 -1393999.4433135986 0 -1393999.4433135986 10097503.469909668 0 0 0 0 -2732293.4892501831 4272270.6562194824 0 4272270.6562194824 11935149.661212921 0 0 0 0 -428442.98747566529 12290.182452749461 0 12290.182452749461 124915.09611196816 0 0 0 0 171905240.03899002 -108892536.48687744 0 -108892536.48687744 -193990891.06267548 0 0 0 0 -2502201.0901651382 -2776183.4866924286 0 -2776183.4866924286 9397245.4757461548 0 0 0 0 -1982441.5767259598 -255212.89253234863 0 -255212.89253234863 9397389.2490158081 0 0 0 0 -2996947.4069712628 1020869.6883589216 0 1020869.6883589216 1488013.9116249979 0 0 0 0 -2153698.2399201393 -3714295.6796007752 0 -3714295.6796007752 3533338.3714119792 0 0 0 0 51033741.512870789 46740441.226650238 0 46740441.226650238 -70015030.225074768 0 0 0 0 -141427884.94855499 75213542.37707901 0 75213542.37707901 146806534.67053223 0 0 0 0 80181626.804328918 -27818516.857572556 0 -27818516.857572556 10890824.964546204 0 0 0 0 209758182.37204742 -263295724.24764252 0 -263295724.24764252 218382543.14706039 0 0 0 0 -17699.680818840861 -557170.20777633041 0 -557170.20777633041 291371.99856547825 0 0 0 0 -115214354.13488007 -71046264.26272583 0 -71046264.26272583 41857280.307918549 0 0 0 0 64146685.301695824 126596706.30792999 0 126596706.30792999 10350507.857955933 0 0 0 0 -300037531.28895569 65037904.943695068 0 65037904.943695068 40230146.918579102 0 0 0 0 24909377.619598389 30494809.687282562 0 30494809.687282562 -111257588.82037544 0 0 0 0 -14093944.338180542 22467152.078186035 0 22467152.078186035 -49407358.594787598 0 0 0 0 -1542133.8012501467 -195204.18974851072 0 -195204.18974851072 2715968.4883551486 0 0 0 0 -2255680.4219266344 -801869.42393672466 0 -801869.42393672466 1072055.7867986076 0 0 0 0 -126238394.86508942 85222851.20136261 0 85222851.20136261 89008971.402999878 0 0 0 0 302330583.08160686 584456767.54987526 0 584456767.54987526 -281079774.76519775 0 0 0 0 -339459362.14290237 42148188.780723572 0 42148188.780723572 74502665.148071289 0 0 0 0 -47673700.316204071 -53005781.251617432 0 -53005781.251617432 33649934.053344727 0 0 0 0 -63748799.56410408 -3619846.6467647552 0 -3619846.6467647552 35454294.645721436 0 0 0 0 -117748844.29415894 -25341979.208248138 0 -25341979.208248138 66621499.636306763 0 0 0 0 -53079826.001785278 25013239.685066223 0 25013239.685066223 75014127.295117378 0 0 0 0 -68257322.914356232 -18562530.501209259 0 -18562530.501209259 73089800.667625427 0 0 0 0 -73459013.901008606 -3500064.4775924683 0 -3500064.4775924683 68741443.991017342 0 0 0 0 17579318.0521698 -48647588.133003235 0 -48647588.133003235 55429112.211631775 0 0 0 0 -12092907.63290596 -15507551.322475433 0 -15507551.322475433 54596782.064582825 0 0 0 0 -28877133.144451618 -17911631.648146629 0 -17911631.648146629 62390931.926856995 0 0 0 0 -39326438.617069244 -6965987.6750183105 0 -6965987.6750183105 61641918.387529373 0 0 0 0 -41124098.546150208 -25407741.571247101 0 -25407741.571247101 66037568.885978699 0 0 0 0 -21575499.522100449 39875175.387378693 0 39875175.387378693 76059120.834026814 0 0 0 0 -58891836.675279617 -5429794.3729696274 0 -5429794.3729696274 22068455.30355835 0 0 0 0 49939027.89997673 36585649.048973083 0 36585649.048973083 32688464.718465805 0 0 0 0 -10265476.023224831 2165784.0496959686 0 2165784.0496959686 63178109.56337738 0 0 0 0 -11629950.461825371 -27634917.931307673 0 -27634917.931307673 148789882.43281555 0 0 0 0 59986473.8580513 45224224.412559509 0 45224224.412559509 86352306.38848114 0 0 0 0 -16302098.02780962 -370898.89787101746 0 -370898.89787101746 248626362.69010162 0 0 0 0 41768721.161447763 -13378742.735076904 0 -13378742.735076904 147174074.34125519 0 0 0 0 -23866137.996347427 23986029.81463623 0 23986029.81463623 214522438.83302689 0 0 0 0 35877905.707424164 20067607.946796417 0 20067607.946796417 8399650.7774653435 0 0 0 0 35214179.082807541 18642081.648708344 0 18642081.648708344 36223152.463697433 0 0 0 0 28825915.784926653 59925530.877647161 0 59925530.877647161 4652996.5954589844 0 0 0 0 28799535.292007446 58448763.759838104 0 58448763.759838104 65589009.010334015 0 0 0 0 536136.59200286865 1247493.9574813843 0 1247493.9574813843 2228947.7945461273 0 0 0 0 1454922.0294799805 759391.0154800415 0 759391.0154800415 2035761.056728363 0 0 0 0 1194787.9884777069 1166506.7388725281 0 1166506.7388725281 2217639.563709259 0 0 0 0 29860234.709568024 251815825.83837891 0 251815825.83837891 91287926.122146606 0 0 0 0 35378.630118424073 -716507.12835388258 0 -716507.12835388258 1719342.3460152522 0 0 0 0 5002577.2639923096 2091969.0949554443 0 2091969.0949554443 5257613.3252868652 0 0 0 0 90881548.003854752 100617490.98817062 0 100617490.98817062 186167905.0496521 0 0 0 0 -34898317.261985779 77095695.737701416 0 77095695.737701416 235060909.70942688 0 0 0 0 -474857.7115292605 -435312.5312028788 0 -435312.5312028788 390491.62733642571 0 0 0 0 -150846715.07783461 417075564.40292549 0 417075564.40292549 -58699748.827835083 0 0 0 0 -817788.15417480469 -117827529.58083344 0 -117827529.58083344 256226284.54026031 0 0 0 0 209681836.13393784 -249364782.33283234 0 -249364782.33283234 313991399.93186951 0 0 0 0 -55669221.057653427 109871100.80830002 0 109871100.80830002 135018541.39212799 0 0 0 0 -66145274.804009438 124740570.64215851 0 124740570.64215851 432395619.71058655 0 0 0 0 -44861307.020204544 2498263.3247528076 0 2498263.3247528076 75473845.222099304 0 0 0 0 -35214651.834493637 -45901741.83890152 0 -45901741.83890152 27216373.933860779 0 0 0 0 -37647295.652647018 -16587112.929801941 0 -16587112.929801941 13790894.05632019 0 0 0 0 -48959610.706880569 -31476153.821388245 0 -31476153.821388245 64632600.953239441 0 0 0 0 -220281.04588890076 517232.09828948975 0 517232.09828948975 1799020.9361133575 0 0 0 0 910822.63187217712 713572.74946212769 0 713572.74946212769 1539433.3017997742 0 0 0 0 101985.56519889832 1558980.8367385864 0 1558980.8367385864 1792507.5557804108 0 0 0 0 -855827.2903881073 1259570.02003479 0 1259570.02003479 4540776.4167938232 0 0 0 0 36630909.162706375 -39228846.649230957 0 -39228846.649230957 42794583.328264236 0 0 0 0 -1132594.7602100372 1890842.510559082 0 1890842.510559082 3498125.9681243896 0 0 0 0 -552322.5031721089 -308112.439077463 0 -308112.439077463 537986.58620229363 0 0 0 0 860923.40045213699 351470.16098499298 0 351470.16098499298 3290973.8277893066 0 0 0 0 -600776.06036060117 -317982.39711561427 0 -317982.39711561427 1496018.7899373695 0 0 0 0 -1965597.4480891423 105266.91448673978 0 105266.91448673978 2558358.3414481953 0 0 0 0 -1488720.1199710965 -31898.085468053818 0 -31898.085468053818 4098866.3710289001 0 0 0 0 3598787.004863739 28737058.842395782 0 28737058.842395782 40362415.129852295 0 0 0 0 -1004081.2395567745 114004.43144891784 0 114004.43144891784 579862.32552338764 0 0 0 0 -2819327.0466861725 32735753.168716431 0 32735753.168716431 153220947.03855896 0 0 0 0 -16333181.16310215 42791055.035125732 0 42791055.035125732 192453633.08540344 0 0 0 0 -26602577.071889877 57771526.093460083 0 57771526.093460083 179764000.99793243 0 0 0 0 -14294575.777069092 38301891.234119415 0 38301891.234119415 202282825.38735962 0 0 0 0 -32492449.257705688 20478396.781303406 0 20478396.781303406 181867896.20837402 0 0 0 0 -28275511.821979523 60972950.377305984 0 60972950.377305984 176834810.51055908 0 0 0 0 3788242.259264946 112757158.96964645 0 112757158.96964645 252220727.50493622 0 0 0 0 83067303.599636078 117385812.04216003 0 117385812.04216003 165172833.07920837 0 0 0 0 -66279452.762000084 23586513.537599564 0 23586513.537599564 278377274.09729767 0 0 0 0 73207331.390802383 192163996.50299835 0 192163996.50299835 296834783.94821167 0 0 0 0 10835994.190486908 48335488.854133606 0 48335488.854133606 341297155.28769684 0 0 0 0 91788984.514566422 -20375571.816165924 0 -20375571.816165924 177110529.58790588 0 0 0 0 -58869234.035931587 36388656.414138794 0 36388656.414138794 156514334.63299561 0 0 0 0 18579388.582007408 111964349.99457359 0 111964349.99457359 44201447.327278137 0 0 0 0 18028139.578676224 64928153.910568237 0 64928153.910568237 128572165.3646431 0 0 0 0 -24120068.072826385 11680155.463684082 0 11680155.463684082 74339018.372718811 0 0 0 0 43334741.850001335 16685091.077974319 0 16685091.077974319 -22164853.197826385 0 0 0 0 14626846.710338593 94869171.464363098 0 94869171.464363098 147159579.88534164 0 0 0 0 17539293.267238617 58087460.478889465 0 58087460.478889465 62594032.939834595 0 0 0 0 21143147.348594666 24265970.486557007 0 24265970.486557007 55646350.610572815 0 0 0 0 3767672.2837772369 13371463.033432007 0 13371463.033432007 95403685.536149979 0 0 0 0 13392003.847434998 62990144.725059509 0 62990144.725059509 101528272.11000061 0 0 0 0 7656236.8399372101 33330796.013820648 0 33330796.013820648 148975270.03760529 0 0 0 0 -884147.4430022873 1575611.7400040287 0 1575611.7400040287 1419880.7765425369 0 0 0 0 40470433.160984039 -80074106.002891541 0 -80074106.002891541 31871638.317871094 0 0 0 0 -4687255.3513032198 875226.18470931053 0 875226.18470931053 2091399.7576828003 0 0 0 0 -3761534.9917298704 1429300.659140788 0 1429300.659140788 2224457.6589914523 0 0 0 0 -277207.87544277683 150777.17254608497 0 150777.17254608497 -207311.06062588468 0 0 0 0 51737027.595968246 802875.1303024292 0 802875.1303024292 -663188.51612854004 0 0 0 0 -9082676.968624115 -42050420.532741547 0 -42050420.532741547 77307711.163719177 0 0 0 0 151866729.02236605 140466893.1483717 0 140466893.1483717 63057139.898139954 0 0 0 0 58145020.498725891 85253796.308403015 0 85253796.308403015 31618150.212238669 0 0 0 0 29520767.631175995 20687300.829406738 0 20687300.829406738 140759705.38414001 0 0 0 0 -3951206.7348995209 122652710.28652 0 122652710.28652 234664467.1448822 0 0 0 0 36115346.488645554 -51410279.62208271 0 -51410279.62208271 34326138.039356232 0 0 0 0 -2852601.7458428163 886858.34876011685 0 886858.34876011685 1438769.5720169693 0 0 0 0 -1435201.6762466431 3278936.9093017578 0 3278936.9093017578 1457363.6302032471 0 0 0 0 -2930049.3548974991 4627931.1713314056 0 4627931.1713314056 7167519.4520072937 0 0 0 0 -1931809.8523788452 5811364.8952255249 0 5811364.8952255249 1152836.1686058044 0 0 0 0 -3275429.5052100313 2546572.9371966249 0 2546572.9371966249 2959292.2863457575 0 0 0 0 -5598614.9711875916 2588586.5319461823 0 2588586.5319461823 4650275.8982276917 0 0 0 0 -2809646.4782333374 2657622.1431865692 0 2657622.1431865692 4884776.8197822571 0 0 0 0 17661244.114688873 8472738.2523994446 0 8472738.2523994446 -6826954.3335762024 0 0 0 0 -10732882.660888672 2822155.920358181 0 2822155.920358181 8631677.939125061 0 0 0 0 -1937866.3193902648 1306139.0025229421 0 1306139.0025229421 813836.65971977264 0 0 0 0 -436394.73829009105 192159.18404455576 0 192159.18404455576 351549.70328678191 0 0 0 0 5385263.0684919357 -33411663.434234619 0 -33411663.434234619 65786960.154174805 0 0 0 0 5839309.1354579926 -15020747.909393311 0 -15020747.909393311 12726220.708263397 0 0 0 0 5799497.8686494827 -1736676.0385856628 0 -1736676.0385856628 3830849.791973114 0 0 0 0 -18261408.97201252 -9331655.8693122864 0 -9331655.8693122864 41948207.386932373 0 0 0 0 766308.06136274338 -21848304.981632233 0 -21848304.981632233 37562661.617797852 0 0 0 0 -3291953.4788637161 -5660080.3443832397 0 -5660080.3443832397 24879595.706707001 0 0 0 0 -305057.73564624786 -10569655.753421783 0 -10569655.753421783 29403436.337005615 0 0 0 0 -4041871.9968929486 1044065.2956066802 0 1044065.2956066802 780865.30312930793 0 0 0 0 -9763827.0671520233 6351649.1112365723 0 6351649.1112365723 13037681.468307495 0 0 0 0 1272964.3464612961 -963838.89998817444 0 -963838.89998817444 5348825.8819503784 0 0 0 0 -3905096.5179519653 6957604.8615684509 0 6957604.8615684509 7807277.3472681046 0 0 0 0 -2210907.1172466278 8700439.4312705994 0 8700439.4312705994 3348424.0486793518 0 0 0 0 -2021940.7737212405 354580.72134999931 0 354580.72134999931 32135.027320461348 0 0 0 0 -11030394.277640343 -4609881.5422725677 0 -4609881.5422725677 18229390.367767334 0 0 0 0 3468304.5523719788 13853431.567996979 0 13853431.567996979 21901820.614046097 0 0 0 0 16223094.7096138 -3195396.3065185547 0 -3195396.3065185547 -9590381.1276855469 0 0 0 0 -16045049.894763947 55917553.249816895 0 55917553.249816895 -51533476.692432404 0 0 0 0 -1154266.0392365195 -176531.57518327236 0 -176531.57518327236 553686.89697172493 0 0 0 0 58826679.432071686 31736788.213256836 0 31736788.213256836 -21444706.903785706 0 0 0 0 -48308088.923089981 -40989060.442214966 0 -40989060.442214966 142471839.80130768 0 0 0 0 -65831975.341249943 -8625296.7399864197 0 -8625296.7399864197 155621891.52727509 0 0 0 0 -208950559.35167599 114011621.92097092 0 114011621.92097092 116252244.70531082 0 0 0 0 -119247218.54525375 55677507.162765503 0 55677507.162765503 91503409.584350586 0 0 0 0 -11868178.463500977 10912786.895858765 0 10912786.895858765 1764526.7530021667 0 0 0 0 -13332880.76782465 786293.33791923523 0 786293.33791923523 39933197.48400116 0 0 0 0 -19414454.309169769 -7684263.1311264038 0 -7684263.1311264038 45632000.453914642 0 0 0 0 -21620430.832600117 -22876734.652332306 0 -22876734.652332306 54623446.694000244 0 0 0 0 -40918828.718164444 -8627773.8247051239 0 -8627773.8247051239 54592301.355419159 0 0 0 0 11161770.470943928 -61913452.791994095 0 -61913452.791994095 51822602.636264801 0 0 0 0 -47930201.078045368 -71679370.830305099 0 -71679370.830305099 88726352.898059845 0 0 0 0 -18863053.669707537 -61994428.190256596 0 -61994428.190256596 82908889.014110565 0 0 0 0 -598958.13589191437 -59082908.087049484 0 -59082908.087049484 57255246.905921936 0 0 0 0 -20444078.719752789 -63315979.969143867 0 -63315979.969143867 115869375.97364807 0 0 0 0 14853008.565979958 -87518448.927598953 0 -87518448.927598953 153567796.572052 0 0 0 0 188635236.34478331 213232242.19808578 0 213232242.19808578 222449985.54885674 0 0 0 0 51561844.060683727 -63364267.016132355 0 -63364267.016132355 -58919763.954231262 0 0 0 0 53052021.210174382 -75857302.244158506 0 -75857302.244158506 14178109.467643738 0 0 0 0 -8798.6459792507812 -355744.86949848384 0 -355744.86949848384 2127146.3406066298 0 0 0 0 -20860831.934664726 102200126.68088913 0 102200126.68088913 -46911241.611712694 0 0 0 0 -4944762.2329146862 25453931.782499313 0 25453931.782499313 107977576.56627655 0 0 0 0 -6502641.8646626472 14548222.97617054 0 14548222.97617054 41231555.084541321 0 0 0 0 2219195.084239006 1667302.9996585846 0 1667302.9996585846 58795216.342313766 0 0 0 0 2349152.7918901443 -13738299.826280594 0 -13738299.826280594 41420917.911298752 0 0 0 0 -21989339.005693913 -4589108.1409015656 0 -4589108.1409015656 126849444.2650795 0 0 0 0 -25537645.775774837 10426617.3132658 0 10426617.3132658 67368482.004573822 0 0 0 0 42447596.944259644 66845707.852828979 0 66845707.852828979 72815419.355545044 0 0 0 0 -58052323.356254101 2966927.1727104187 0 2966927.1727104187 79599461.737077713 0 0 0 0 -53926381.270745516 30930789.17534256 0 30930789.17534256 23008476.13530159 0 0 0 0 -9174481.3893504143 39657517.228630066 0 39657517.228630066 41577686.380702972 0 0 0 0 -128067147.22786689 62509484.158575058 0 62509484.158575058 55491588.507881165 0 0 0 0 -100098494.49707842 -8807626.5880203247 0 -8807626.5880203247 37638329.405838013 0 0 0 0 60312540.388732672 63722172.579463959 0 63722172.579463959 16362393.852050781 0 0 0 0 594319.65899825096 18666041.674609184 0 18666041.674609184 18605213.749259949 0 0 0 0 56638595.274171352 43165896.54252243 0 43165896.54252243 38721987.172525406 0 0 0 0 -181849.96638092957 -478398.4215876665 0 -478398.4215876665 5678775.9601103514 0 0 0 0 32922954.229252815 51962274.715031624 0 51962274.715031624 35581131.35987854 0 0 0 0 -94061330.174104214 -18570201.61380291 0 -18570201.61380291 42540502.585708618 0 0 0 0 -26380414.839989662 -8604462.8263244629 0 -8604462.8263244629 -7423478.5022544861 0 0 0 0 -81874.596500603948 104190.87401645444 0 104190.87401645444 2139045.9077394754 0 0 0 0 -35257740.03621912 -125607626.5530076 0 -125607626.5530076 260594399.38961029 0 0 0 0 64558917.66349268 -118287790.43880272 0 -118287790.43880272 48375399.099816322 0 0 0 0 188738229.28318071 155455311.88697052 0 155455311.88697052 121486797.54934692 0 0 0 0 -20643530.181885004 -22482881.549422264 0 -22482881.549422264 91032562.112724304 0 0 0 0 -57109986.529456258 60873001.599143505 0 60873001.599143505 284891474.89188385 0 0 0 0 481799595.77510738 -45433612.944976807 0 -45433612.944976807 -43044589.370098114 0 0 0 0 206406993.33436775 -129834763.05253601 0 -129834763.05253601 -59278797.103765488 0 0 0 0 -80825003.957511902 57468262.790344238 0 57468262.790344238 272965565.04009247 0 0 0 0 8449526.3108959198 30404081.959487915 0 30404081.959487915 75089846.69026947 0 0 0 0 -645892.53177924268 -307506.43067830801 0 -307506.43067830801 158103.60821716487 0 0 0 0 -98391228.855327606 -55283787.48507309 0 -55283787.48507309 31073760.188804626 0 0 0 0 33105506.480481148 38195739.832000732 0 38195739.832000732 57683345.090736389 0 0 0 0 26970467.842058182 56443942.27306366 0 56443942.27306366 6138435.6857471466 0 0 0 0 -23394273.487672806 66809133.523441315 0 66809133.523441315 57358120.491401672 0 0 0 0 95122347.805537701 7153061.5818834305 0 7153061.5818834305 55063260.650871277 0 0 0 0 51082160.670880318 -36868983.135660172 0 -36868983.135660172 81041365.796432495 0 0 0 0 71585136.297636986 38797437.904918671 0 38797437.904918671 37240445.032642365 0 0 0 0 996760.22277450562 -6479463.7495288849 0 -6479463.7495288849 107258064.88282013 0 0 0 0 -25166182.20700264 -32783277.811008453 0 -32783277.811008453 93494593.520280838 0 0 0 0 1233292.0185527802 -34096884.005531311 0 -34096884.005531311 96612228.986820221 0 0 0 0 -4645777.7842761278 -6488203.217859745 0 -6488203.217859745 79170658.178977966 0 0 0 0 -35077242.185085297 -15646610.825286865 0 -15646610.825286865 84444549.049833298 0 0 0 0 -46357270.630622625 3694978.2757701874 0 3694978.2757701874 70097992.739959717 0 0 0 0 -42098490.957454681 5110459.5552482605 0 5110459.5552482605 54949538.123981476 0 0 0 0 -31575122.668567657 -20750014.026054382 0 -20750014.026054382 79436834.405235291 0 0 0 0 -5414761.5272815228 -48980652.783210754 0 -48980652.783210754 85302973.539115906 0 0 0 0 -27249688.653132439 -24953327.986217499 0 -24953327.986217499 67651656.904018402 0 0 0 0 -49806215.222829819 -64885523.821054459 0 -64885523.821054459 79675863.282146454 0 0 0 0 -3603255.8045687675 -99405523.406742096 0 -99405523.406742096 97855949.218894958 0 0 0 0 -10652358.10067606 13012636.630327225 0 13012636.630327225 141480251.21194458 0 0 0 0 -55252470.246427536 -37765463.689121246 0 -37765463.689121246 99897520.712562561 0 0 0 0 -790352.21786390897 -786784.05684656277 0 -786784.05684656277 567639.69423816353 0 0 0 0 -38278882.434344292 -71567261.529201508 0 -71567261.529201508 -87308618.782629013 0 0 0 0 -109995695.59592414 -55911180.141862869 0 -55911180.141862869 15352320.851837158 0 0 0 0 -98377803.779857159 10530474.23279953 0 10530474.23279953 94691563.797142029 0 0 0 0 -59513920.832756042 -19446298.85043335 0 -19446298.85043335 205462887.45611572 0 0 0 0 28862412.680286407 85334947.460113525 0 85334947.460113525 82987948.267333984 0 0 0 0 -66837655.45058918 12642124.644680023 0 12642124.644680023 72652244.531417847 0 0 0 0 1754427.428565979 53553637.288520813 0 53553637.288520813 140091401.91870117 0 0 0 0 30997728.151515961 39297534.324214935 0 39297534.324214935 103447782.98171234 0 0 0 0 14389614.041225433 35614144.20161438 0 35614144.20161438 82928706.171585083 0 0 0 0 -1477630.9881179333 51694338.666853189 0 51694338.666853189 98743538.858535767 0 0 0 0 30931425.717458725 54827714.306751251 0 54827714.306751251 55824524.189435005 0 0 0 0 18692064.078930855 42073263.360027313 0 42073263.360027313 129352781.19076538 0 0 0 0 23036418.563709259 52292972.10572052 0 52292972.10572052 109511946.59420013 0 0 0 0 41326566.316273212 33464895.582735062 0 33464895.582735062 96067034.264915466 0 0 0 0 31977110.332817078 14592024.407615662 0 14592024.407615662 58744077.185703278 0 0 0 0 1309712.9504413605 43710722.635982513 0 43710722.635982513 167217708.13665009 0 0 0 0 227540.73219633102 25614910.114402771 0 25614910.114402771 143807353.121521 0 0 0 0 -1744162.5111864004 -1060471.5481308512 0 -1060471.5481308512 1449934.742094107 0 0 0 0 -2276174.8920440674 -2813472.1258621216 0 -2813472.1258621216 172160508.40061426 0 0 0 0 5927302.0016441345 48242521.281543732 0 48242521.281543732 173773086.25051117 0 0 0 0 -14210882.884552002 -19317979.431404114 0 -19317979.431404114 -3812866.2811088562 0 0 0 0 39151350.442806244 26757252.888435364 0 26757252.888435364 161903531.3419342 0 0 0 0 17956857.609512329 67895941.343032837 0 67895941.343032837 176337279.34817505 0 0 0 0 -628817.85665949248 118952.47449555621 0 118952.47449555621 650349.54346886277 0 0 0 0 41194495.214191437 113167612.68468475 0 113167612.68468475 252486790.4875946 0 0 0 0 16499931.637638092 47978805.240028381 0 47978805.240028381 168573492.94802856 0 0 0 0 12873464.027309418 23738787.224075317 0 23738787.224075317 239584451.04537201 0 0 0 0 16948392.369680405 58230218.609382629 0 58230218.609382629 137793531.41722488 0 0 0 0 31878513.883426666 23083291.123153687 0 23083291.123153687 168108158.44915771 0 0 0 0 -3051547.5438300371 -10429344.619109631 0 -10429344.619109631 2715428.6588287354 0 0 0 0 -16474322.835614204 -8524807.0438919067 0 -8524807.0438919067 17985874.160766602 0 0 0 0 -40187881.863990784 -20714673.786441803 0 -20714673.786441803 27299620.278640747 0 0 0 0 -32986779.411028862 -26306884.62039566 0 -26306884.62039566 20676626.181182861 0 0 0 0 -27629521.146102905 -19683769.64838028 0 -19683769.64838028 6823154.1924591064 0 0 0 0 -22952980.869315147 -24798729.645715714 0 -24798729.645715714 1312331.0725326538 0 0 0 0 -43500896.069012165 -37096159.369293213 0 -37096159.369293213 9619543.317527771 0 0 0 0 -34842245.531130314 -25960813.996900558 0 -25960813.996900558 -11668868.477310181 0 0 0 0 -46640063.429046631 -31248041.327342987 0 -31248041.327342987 22813408.350669861 0 0 0 0 -36554383.497770786 -27949211.453811646 0 -27949211.453811646 -2126169.3772201538 0 0 0 0 -49544379.729185104 -29434477.399982452 0 -29434477.399982452 33419633.582620621 0 0 0 0 -21109968.02189827 -13271177.281692505 0 -13271177.281692505 22399571.739089966 0 0 0 0 -23138787.536294937 -12699942.08997345 0 -12699942.08997345 -61430233.168956757 0 0 0 0 -24327019.206917286 -9566282.3699684143 0 -9566282.3699684143 45029105.613327026 0 0 0 0 -19959065.319112778 93823295.192298889 0 93823295.192298889 -38088224.81511116 0 0 0 0 -34603316.031930923 92613514.777046204 0 92613514.777046204 33556315.182067871 0 0 0 0 -47206835.42986393 59435478.027961731 0 59435478.027961731 74194963.905609131 0 0 0 0 -30201692.593643665 62260995.735031128 0 62260995.735031128 15901210.832092285 0 0 0 0 -29969827.334797621 59922599.220029831 0 59922599.220029831 31829865.771057129 0 0 0 0 4507152.7639160156 -15387020.501270294 0 -15387020.501270294 10440074.850060463 0 0 0 0 -47816230.482219934 -37839501.835857391 0 -37839501.835857391 33005388.362312317 0 0 0 0 -22356832.002533913 39967455.357444763 0 39967455.357444763 -8590057.1623382568 0 0 0 0 623543.68414742453 -2538732.7071793228 0 -2538732.7071793228 -2067500.7107700109 0 0 0 0 -25610747.66663073 -84630448.710612535 0 -84630448.710612535 -26087232.869792938 0 0 0 0 -30268530.634511948 -12262907.549907684 0 -12262907.549907684 26131539.410440445 0 0 0 0 847554.4903296507 -13686660.540899411 0 -13686660.540899411 21891193.86506426 0 0 0 0 26674575.242702484 -25259109.97180748 0 -25259109.97180748 -28003797.129096985 0 0 0 0 38024290.441702127 -64992044.367034912 0 -64992044.367034912 -64660964.098022461 0 0 0 0 -19366701.076633364 -94061443.65506506 0 -94061443.65506506 -68223817.261749268 0 0 0 0 2831152.9135845033 -13314923.214657459 0 -13314923.214657459 18650547.646867566 0 0 0 0 -12270923.095709085 -66554598.755491257 0 -66554598.755491257 -90303246.864959717 0 0 0 0 -32441732.556977652 -24036831.754019618 0 -24036831.754019618 35829946.116668701 0 0 0 0 -666552.24736309052 7803478.3684844971 0 7803478.3684844971 -164980476.34860992 0 0 0 0 12533399.069595575 -90307377.295585632 0 -90307377.295585632 77373666.85310936 0 0 0 0 -12547597.439205244 11196353.205266476 0 11196353.205266476 137967018.00891876 0 0 0 0 -71270111.020336628 -76154100.747429371 0 -76154100.747429371 32007460.046382904 0 0 0 0 -38853478.088456154 -27727011.935386658 0 -27727011.935386658 13187339.472202301 0 0 0 0 1921544.7674973011 -53721588.385042191 0 -53721588.385042191 27572929.118724823 0 0 0 0 -19426123.817910552 -2138419.5647382736 0 -2138419.5647382736 80751769.562782288 0 0 0 0 -8478167.2059895992 -39567046.890323877 0 -39567046.890323877 -16860447.332206726 0 0 0 0 94909824.842136025 65925995.108068466 0 65925995.108068466 93176416.591791153 0 0 0 0 15385336.798322305 -11331094.674255371 0 -11331094.674255371 74440322.695701599 0 0 0 0 -35120410.611304283 -14190099.475631714 0 -14190099.475631714 -42931166.489089966 0 0 0 0 -62255859.559299469 -31944563.277618408 0 -31944563.277618408 1106958.628572464 0 0 0 0 -126851074.65365982 115909990.29809189 0 115909990.29809189 -88926835.455734253 0 0 0 0 2266256.1723553962 -13440110.081737872 0 -13440110.081737872 27462390.460134707 0 0 0 0 -42809167.401273727 -48423632.731124878 0 -48423632.731124878 -19750440.782273293 0 0 0 0 -7325814.8699968476 2250550.1434573978 0 2250550.1434573978 4903716.2647810057 0 0 0 0 -47903853.056753159 13843072.759519577 0 13843072.759519577 46188139.534225464 0 0 0 0 -14131784.226354599 76520562.482849121 0 76520562.482849121 -184603845.16127014 0 0 0 0 252330069.39469528 -163842413.75912857 0 -163842413.75912857 -111321839.89071465 0 0 0 0 877468.15831279755 -62107475.722164154 0 -62107475.722164154 -28667898.20198822 0 0 0 0 104554538.27798605 -211858156.07533836 0 -211858156.07533836 8968923.8946914673 0 0 0 0 -265173484.97377229 -115678921.18536663 0 -115678921.18536663 -594238191.39249039 0 0 0 0 125566885.24590111 266951333.93910217 0 266951333.93910217 299241956.38723755 0 0 0 0 -115487364.67420769 169065830.04293823 0 169065830.04293823 588779601.66536903 0 0 0 0 27927045.936088562 -279030772.18592072 0 -279030772.18592072 538772671.12030029 0 0 0 0 2320170.842275464 -9242884.8018284328 0 -9242884.8018284328 23885064.458604477 0 0 0 0 -572888679.67627716 -390913648.90565109 0 -390913648.90565109 1053258854.7561417 0 0 0 0 -95305370.942302942 -60068540.087501526 0 -60068540.087501526 40114397.793800354 0 0 0 0 2440911.2757940292 -24750601.045227051 0 -24750601.045227051 -14657350.305515289 0 0 0 0 41345953.09105444 52716937.562641144 0 52716937.562641144 34670320.431648254 0 0 0 0 16245805.55171299 73591239.609096527 0 73591239.609096527 148637091.59790421 0 0 0 0 -13411899.645589352 10315800.857601166 0 10315800.857601166 74258526.456359863 0 0 0 0 -56379404.197342873 47096942.722671509 0 47096942.722671509 68195887.332695007 0 0 0 0 -12790992.232212067 63003070.772926331 0 63003070.772926331 35063911.787242889 0 0 0 0 -304072493.66722298 -265126987.91277313 0 -265126987.91277313 -232003925.32249451 0 0 0 0 870123.34459288791 -2063373.5071741343 0 -2063373.5071741343 3611295.8850248009 0 0 0 0 1910239.3633028818 -6172284.9255915545 0 -6172284.9255915545 15004191.237417936 0 0 0 0 -67738789.214863956 -59555096.30691576 0 -59555096.30691576 47003005.831604004 0 0 0 0 80650912.011509717 128165094.44702506 0 128165094.44702506 217074201.29490662 0 0 0 0 101393505.06374119 70167984.477436066 0 70167984.477436066 97425412.809570312 0 0 0 0 39329897.141974449 67918496.362966537 0 67918496.362966537 120100964.37668037 0 0 0 0 -268924.61011648178 -12046299.418878555 0 -12046299.418878555 46425314.445842743 0 0 0 0 -4441467.2320993394 41476044.705179095 0 41476044.705179095 100058436.1317482 0 0 0 0 134482996.61404359 138730212.47237778 0 138730212.47237778 143608452.50338745 0 0 0 0 63516883.468027733 105701434.73314095 0 105701434.73314095 172275993.31419754 0 0 0 0 78711996.058252335 57983748.456504822 0 57983748.456504822 75279872.266662598 0 0 0 0 107762170.80523586 148680064.3223114 0 148680064.3223114 253882543.72069168 0 0 0 0 210069900.13782954 175190921.09988594 0 175190921.09988594 236789408.43941879 0 0 0 0 225445908.6537587 106386472.77932215 0 106386472.77932215 348766493.85197067 0 0 0 0 143262605.91533387 167082331.95195389 0 167082331.95195389 304077460.87520599 0 0 0 0 163949467.86450672 124243275.56952667 0 124243275.56952667 251386542.48794699 0 0 0 0 80564295.178832114 84019964.828732491 0 84019964.828732491 394972878.10070419 0 0 0 0 79108272.666630745 108789115.77853584 0 108789115.77853584 259486017.35826874 0 0 0 0 101826919.18733454 124008194.91828728 0 124008194.91828728 123895542.44355774 0 0 0 0 50140704.014562845 70249239.759368896 0 70249239.759368896 176632376.7364769 0 0 0 0 72051700.675233841 91023722.779220581 0 91023722.779220581 92188139.785598755 0 0 0 0 59820961.664449692 160560930.47149658 0 160560930.47149658 252430677.52071381 0 0 0 0 41045802.897524834 25325507.249437332 0 25325507.249437332 47546120.478652954 0 0 0 0 96407412.640066147 -20069810.295692444 0 -20069810.295692444 -72704327.958770752 0 0 0 0 130630615.14701462 106240056.21562958 0 106240056.21562958 -41776610.584508896 0 0 0 0 103406108.76440811 168222600.57217407 0 168222600.57217407 134506723.70863342 0 0 0 0 59181921.206939697 111663981.85897827 0 111663981.85897827 242858004.95838928 0 0 0 0 144849591.99356556 205212237.41273499 0 205212237.41273499 182563905.61243439 0 0 0 0 144438593.53110933 214447136.67852473 0 214447136.67852473 381825196.04579926 0 0 0 0 59620753.69392395 112440018.25921249 0 112440018.25921249 399291003.02471924 0 0 0 0 35722366.914155483 162365460.83899021 0 162365460.83899021 339237331.04479218 0 0 0 0 51957922.799006939 97333861.015529633 0 97333861.015529633 391254094.30696869 0 0 0 0 46717003.78827858 125407481.01305389 0 125407481.01305389 420109062.56179047 0 0 0 0 40741647.897602081 110242264.99422073 0 110242264.99422073 448727896.86690521 0 0 0 0 89291376.182537079 46499195.181423187 0 46499195.181423187 457412678.81629753 0 0 0 0 59547611.358309299 109826383.04513216 0 109826383.04513216 615659807.89705658 0 0 0 0 53014976.317617536 118214961.89164734 0 118214961.89164734 433580691.14229202 0 0 0 0 82498666.973452568 102180603.24136353 0 102180603.24136353 297440500.98122787 0 0 0 0 29722162.123584509 123465353.68346786 0 123465353.68346786 403986402.35756683 0 0 0 0 74842439.536692619 92173193.632621765 0 92173193.632621765 416020514.31373405 0 0 0 0 63687475.369695187 131098839.96483994 0 131098839.96483994 485378219.68288422 0 0 0 0 80799118.110757709 117764248.82633972 0 117764248.82633972 432698377.66571045 0 0 0 0 106514921.86056805 128103259.85486603 0 128103259.85486603 415348953.80211115 0 0 0 0 120312879.16755712 220010214.50482917 0 220010214.50482917 230665934.26123047 0 0 0 0 105404056.72140932 57934434.324867249 0 57934434.324867249 338682457.26875305 0 0 0 0 58681839.877072334 81857228.958530426 0 81857228.958530426 418619205.14089203 0 0 0 0 20790047.657649755 111126966.64285278 0 111126966.64285278 595872247.57447052 0 0 0 0 -19569954.14377594 205088831.61074638 0 205088831.61074638 447332593.53212929 0 0 0 0 123973067.52968419 12720001.108541489 0 12720001.108541489 750957343.02735806 0 0 0 0 149012481.56928188 320636671.54546356 0 320636671.54546356 609447275.97232056 0 0 0 0 441307685.32165682 77049777.750768661 0 77049777.750768661 329722899.76917267 0 0 0 0 117109272.97130203 88416039.274400711 0 88416039.274400711 451119027.39700699 0 0 0 0 -80721384.979136944 88321210.656164169 0 88321210.656164169 -121152105.91409302 0 0 0 0 29330024.815422058 24934125.39391613 0 24934125.39391613 15628899.417556763 0 0 0 0 -33498127.578285217 -20557467.786720276 0 -20557467.786720276 2700218.1097431183 0 0 0 0 35550906.445146561 59934857.223743439 0 59934857.223743439 -30913004.390670776 0 0 0 0 35671218.672805786 46678520.042037964 0 46678520.042037964 24293858.696023941 0 0 0 0 69732319.017154694 31895117.568328857 0 31895117.568328857 13888464.926147461 0 0 0 0 68770330.704422355 9155981.752145648 0 9155981.752145648 107382664.08326721 0 0 0 0 39671680.777009964 -25670692.138332367 0 -25670692.138332367 106200417.8530426 0 0 0 0 52192210.295017242 -29604732.632587433 0 -29604732.632587433 99716936.748962402 0 0 0 0 18769145.520496368 -94239489.907680511 0 -94239489.907680511 283088107.14390564 0 0 0 0 40155669.243798256 -35497120.724592209 0 -35497120.724592209 263114832.73802185 0 0 0 0 -35918944.139560699 -97040084.741821289 0 -97040084.741821289 532083768.17147827 0 0 0 0 -34484483.189239502 -82435038.901298523 0 -82435038.901298523 382018015.7335434 0 0 0 0 511285.80788040161 -7076849.1861038208 0 -7076849.1861038208 295742473.41677856 0 0 0 0 8857542.1079063416 -129303418.02140045 0 -129303418.02140045 275009796.77795601 0 0 0 0 -34603298.533446223 -135031778.02845424 0 -135031778.02845424 -146300731.40251923 0 0 0 0 -6016699.6407966614 -195540871.94004059 0 -195540871.94004059 234941135.64696503 0 0 0 0 -322887327.61629486 -376385597.43584442 0 -376385597.43584442 310050282.10711288 0 0 0 0 -34939893.068824768 -137459430.39889145 0 -137459430.39889145 268004224.03000832 0 0 0 0 33107965.719037056 -105533992.60947609 0 -105533992.60947609 49870421.519638062 0 0 0 0 387966119.86998272 508011752.81932831 0 508011752.81932831 359569044.74694443 0 0 0 0 -446240.14809115883 -759173.18052029982 0 -759173.18052029982 6091485.0954418778 0 0 0 0 207343960.50371265 253192472.17401123 0 253192472.17401123 71213204.332069397 0 0 0 0 21180502.737413406 287545537.8148613 0 287545537.8148613 451459322.28784943 0 0 0 0 120161123.23085976 357305471.78033066 0 357305471.78033066 407416541.68690872 0 0 0 0 -481243684.08166122 -21677467.255420685 0 -21677467.255420685 333023623.41936588 0 0 0 0 -216433611.98608351 561932862.26356697 0 561932862.26356697 613762951.57778931 0 0 0 0 329423831.03510666 75879234.592956543 0 75879234.592956543 316664168.83354568 0 0 0 0 -380053.01808412559 -3424458.752234567 0 -3424458.752234567 13805842.193019852 0 0 0 0 -299876555.74987948 -101560851.59236503 0 -101560851.59236503 5067064.8378753662 0 0 0 0 -282775084.23651886 50457094.511116028 0 50457094.511116028 24574443.119522095 0 0 0 0 -73954253.62389946 34899758.670814514 0 34899758.670814514 -31614329.365119934 0 0 0 0 -114567879.68415546 -50033647.83605957 0 -50033647.83605957 -65849698.279525757 0 0 0 0 -149773452.07061386 -11092158.80521965 0 -11092158.80521965 51922214.76411438 0 0 0 0 498859666.31287193 -753821488.63942719 0 -753821488.63942719 -858795464.31316376 0 0 0 0 1244427152.8706884 1311945366.7655125 0 1311945366.7655125 610921797.76385498 0 0 0 0 185298077.17069626 -91203774.49287796 0 -91203774.49287796 520046256.46153259 0 0 0 0 -773884491.79695702 -433774194.23378372 0 -433774194.23378372 102305885.19020844 0 0 0 0 499685.42933939118 -1847338.3191306237 0 -1847338.3191306237 5140058.609512791 0 0 0 0 -135028188.85047984 -48936636.535873413 0 -48936636.535873413 54387080.210098267 0 0 0 0 973182.2656954024 -4691048.0801840015 0 -4691048.0801840015 11352463.540371507 0 0 0 0 -111705421.93964005 10244630.088665009 0 10244630.088665009 24343933.454856873 0 0 0 0 -85430996.164428711 18752776.860565186 0 18752776.860565186 90428566.863189697 0 0 0 0 -85024592.284204483 32905447.118347168 0 32905447.118347168 35817512.028768539 0 0 0 0 -120963282.73640633 197288.15817260742 0 197288.15817260742 84547987.688827515 0 0 0 0 -64986177.812639236 30759076.26398468 0 30759076.26398468 78700395.008978844 0 0 0 0 -87556764.442142487 45855641.597179413 0 45855641.597179413 134961960.4666748 0 0 0 0 -55887950.745555878 53015833.928855896 0 53015833.928855896 98996664.803348541 0 0 0 0 -32778767.917957306 46311960.508934021 0 46311960.508934021 103314235.32320404 0 0 0 0 -59148537.062950134 58756848.886634827 0 58756848.886634827 147144916.77224731 0 0 0 0 20501805.804904938 35403646.997573853 0 35403646.997573853 82438790.784000397 0 0 0 0 -32783319.787748337 55361202.790229797 0 55361202.790229797 167519746.80609131 0 0 0 0 6242775.2461986542 19950921.989658356 0 19950921.989658356 87228644.365203857 0 0 0 0 -75944301.339246273 52988680.711975098 0 52988680.711975098 105837582.56062317 0 0 0 0 -77139096.328301907 27507838.374700546 0 27507838.374700546 42849438.906967163 0 0 0 0 -6479650.0885667801 49610686.898523331 0 49610686.898523331 25161848.521713257 0 0 0 0 84216890.923466682 25849071.254970551 0 25849071.254970551 5444745.1008682251 0 0 0 0 71769795.354700089 36411947.77180481 0 36411947.77180481 2810544.7691040039 0 0 0 0 7030488.7593631744 29741656.217182159 0 29741656.217182159 100933613.70850372 0 0 0 0 19035839.817560196 44580659.283660889 0 44580659.283660889 96593877.808006287 0 0 0 0 19983894.575973511 8010197.1583328247 0 8010197.1583328247 169604634.23226166 0 0 0 0 16629948.371245861 8563805.5643434525 0 8563805.5643434525 357257622.47276306 0 0 0 0 49592772.774333954 154319232.64159775 0 154319232.64159775 176133909.58760071 0 0 0 0 96411333.307718277 232209646.1253891 0 232209646.1253891 304751910.89668274 0 0 0 0 37545920.027082443 129322954.99167633 0 129322954.99167633 166037391.86403084 0 0 0 0 -2054485.0498962402 123005072.75673676 0 123005072.75673676 270980379.73151398 0 0 0 0 -15031270.77617836 89717527.642913818 0 89717527.642913818 156246238.43253517 0 0 0 0 -18583878.156753063 82104893.379034042 0 82104893.379034042 185599309.36947632 0 0 0 0 -55373422.2403965 69884501.291671753 0 69884501.291671753 173232448.52790833 0 0 0 0 -21407782.804052353 66821400.098213196 0 66821400.098213196 144348259.87446976 0 0 0 0 -12193480.140016556 77910120.389059067 0 77910120.389059067 169451270.50048065 0 0 0 0 -14719996.29932785 80402598.970600128 0 80402598.970600128 168926801.76070404 0 0 0 0 45743714.782360077 118433787.34947205 0 118433787.34947205 174588463.40788078 0 0 0 0 63467327.878358841 82807835.793899536 0 82807835.793899536 158464010.81654739 0 0 0 0 1534475.7289772034 59198490.037567139 0 59198490.037567139 154820763.40498734 0 0 0 0 178341.08941710554 -52232.887302346528 0 -52232.887302346528 118104.05001611635 0 0 0 0 71628155.654436111 133673525.2057457 0 133673525.2057457 157167873.96506119 0 0 0 0 -1869748.4132156372 2520711.9180984497 0 2520711.9180984497 5224290.24061203 0 0 0 0 -24365751.367228508 8323013.1055812836 0 8323013.1055812836 -2119279.5656661987 0 0 0 0 113374.3884225972 -370387.72835994512 0 -370387.72835994512 227282.40591594949 0 0 0 0 -468088.85512435995 515400.83218934387 0 515400.83218934387 342266.47208346426 0 0 0 0 110273105.03210258 126780752.38386154 0 126780752.38386154 121814761.66734314 0 0 0 0 -32218196.796697617 131129715.99883461 0 131129715.99883461 292028729.74276733 0 0 0 0 44368262.713874817 47146615.735641479 0 47146615.735641479 25711842.133775711 0 0 0 0 -24378900.053361893 -32508990.975219727 0 -32508990.975219727 -152606.22603607178 0 0 0 0 -48574436.371509552 80161683.801620483 0 80161683.801620483 189213055.49199677 0 0 0 0 -46526468.533430099 78020569.367111206 0 78020569.367111206 188071625.18930054 0 0 0 0 -40939747.607645035 46594413.438201904 0 46594413.438201904 183281567.55980682 0 0 0 0 -71629216.060228348 61447190.100877762 0 61447190.100877762 178984211.23406982 0 0 0 0 -84423656.868821144 30826546.524057388 0 30826546.524057388 120143187.40068054 0 0 0 0 -49784157.013677597 53738320.807998657 0 53738320.807998657 109359135.36336517 0 0 0 0 -43549718.359664917 60881272.465927124 0 60881272.465927124 130598569.11914062 0 0 0 0 -51090893.157022476 57544643.813251495 0 57544643.813251495 178815220.59545135 0 0 0 0 -6309238.3747711182 56137361.108478546 0 56137361.108478546 178687420.26748753 0 0 0 0 -32811304.879163742 15146052.065971375 0 15146052.065971375 197217219.17730713 0 0 0 0 -84025993.247698784 26231492.376106262 0 26231492.376106262 196524591.47171021 0 0 0 0 -83794293.263437271 -60316281.006767273 0 -60316281.006767273 136152806.61795807 0 0 0 0 -100686483.01304245 38720350.645019531 0 38720350.645019531 259808755.59833527 0 0 0 0 -85740958.34973526 61988249.000228882 0 61988249.000228882 282111336.82090759 0 0 0 0 -178615902.29146004 26239545.460399628 0 26239545.460399628 408079115.22136688 0 0 0 0 -173368819.71235657 -45594490.899429321 0 -45594490.899429321 279297017.68040514 0 0 0 0 -57827542.010311127 94592214.943840027 0 94592214.943840027 299171409.91301727 0 0 0 0 -95085020.599575043 64673509.731334686 0 64673509.731334686 306258534.52037048 0 0 0 0 -256725.46742243879 -185518.04252749681 0 -185518.04252749681 132897.89920596592 0 0 0 0 -1474221.4760892019 891523.87968866527 0 891523.87968866527 -344722.60485078767 0 0 0 0 268807039.4762001 -234365506.37223053 0 -234365506.37223053 -84850418.417480469 0 0 0 0 -777779557.15025711 168794107.85929871 0 168794107.85929871 -43198626.875062943 0 0 0 0 -166512018.23368454 -154246157.98739624 0 -154246157.98739624 -90202667.621810913 0 0 0 0 -362850200.82209492 -21865431.316589355 0 -21865431.316589355 27129691.628295898 0 0 0 0 165538860.5592165 14559705.667009354 0 14559705.667009354 -89786325.816947937 0 0 0 0 -86681341.412148476 240742926.03749847 0 240742926.03749847 -170406354.44852448 0 0 0 0 -142425583.14752007 83053693.963954926 0 83053693.963954926 48715020.527046204 0 0 0 0 42812997.270697594 114973587.02383614 0 114973587.02383614 22630895.774085999 0 0 0 0 -1794286.4394621179 765249.2131562531 0 765249.2131562531 1437165.8718132824 0 0 0 0 -96743158.165733337 -107675765.85230637 0 -107675765.85230637 -104415060.9897728 0 0 0 0 -55073976.894737244 47743220.679393768 0 47743220.679393768 -1366374.7413673401 0 0 0 0 -25852871.501054764 -45866809.297927856 0 -45866809.297927856 -16560681.866756439 0 0 0 0 964401.44055175781 3518689.6307830811 0 3518689.6307830811 5248003.6638717651 0 0 0 0 2167552.7464723587 6769778.3711719513 0 6769778.3711719513 -4517835.1524505615 0 0 0 0 1074016.2368478775 3399734.6743736267 0 3399734.6743736267 536709.23059844971 0 0 0 0 -1570425.0356374001 955252.70458049327 0 955252.70458049327 897723.28751613945 0 0 0 0 141913240.41611862 -27541234.615961075 0 -27541234.615961075 6010571.4595661163 0 0 0 0 268572.11748123169 1438864.2229070663 0 1438864.2229070663 1665744.6528320312 0 0 0 0 1672809.580537796 1345740.8286972046 0 1345740.8286972046 910891.51028442383 0 0 0 0 2268581.6045198441 801501.80086898804 0 801501.80086898804 1194976.5729980469 0 0 0 0 2166511.9183934927 -93104.348975896835 0 -93104.348975896835 -6116815.0794372559 0 0 0 0 352402.77653825469 -724710.71091287211 0 -724710.71091287211 1164180.4607582688 0 0 0 0 536391.88403320312 10554124.846786499 0 10554124.846786499 7072609.5900268555 0 0 0 0 -1572027.9386367798 870987.27861785889 0 870987.27861785889 12543462.175153732 0 0 0 0 66609997.575484276 53014525.062982559 0 53014525.062982559 17200349.832500458 0 0 0 0 5545404.6250319481 -22611611.933944941 0 -22611611.933944941 3400375.0466918945 0 0 0 0 -142616.28545120731 -252451.45739337802 0 -252451.45739337802 678967.56551586837 0 0 0 0 -11826023.09056282 11516691.483840942 0 11516691.483840942 24802469.83928299 0 0 0 0 -21960371.080430984 53761539.773406982 0 53761539.773406982 26236322.652927399 0 0 0 0 -177080278.92446327 7080759.124671936 0 7080759.124671936 43898078.485191345 0 0 0 0 2126447.0534831444 9732151.1958403699 0 9732151.1958403699 32878642.357370153 0 0 0 0 9164525.6983776093 5633745.6115379333 0 5633745.6115379333 18601599.819824219 0 0 0 0 15995715.596776962 18289447.863796234 0 18289447.863796234 -38969911.594203949 0 0 0 0 -206757649.19695091 53067102.589960098 0 53067102.589960098 77758717.220094681 0 0 0 0 815848.74861855805 6789355.0696982071 0 6789355.0696982071 27025076.250082821 0 0 0 0 -590016693.16384435 227318382.1608963 0 227318382.1608963 288832326.98454285 0 0 0 0 -75564341.617056847 -283863895.45476341 0 -283863895.45476341 63636353.829223633 0 0 0 0 23844.975675986148 3130270.3741358966 0 3130270.3741358966 16946559.674161062 0 0 0 0 -150657568.30058718 -249834752.21871185 0 -249834752.21871185 333044090.5897522 0 0 0 0 -125108399.55887985 130003395.78427505 0 130003395.78427505 -9555265.1450805664 0 0 0 0 -268187861.71352959 114683905.528759 0 114683905.528759 93938793.192070007 0 0 0 0 -38862360.288000107 -4279443.3270263672 0 -4279443.3270263672 63494139.746704102 0 0 0 0 10874205.629594803 37294777.007591248 0 37294777.007591248 50592693.120758057 0 0 0 0 15907493.870575905 15924435.913043976 0 15924435.913043976 113296425.72685242 0 0 0 0 60785455.325414658 -57955990.855636597 0 -57955990.855636597 77953332.413431168 0 0 0 0 55171022.134874344 -34998641.612358093 0 -34998641.612358093 171160082.42289925 0 0 0 0 56721287.818857193 -463663.30571365356 0 -463663.30571365356 193675491.91149902 0 0 0 0 346048191.72519302 -14533117.629699707 0 -14533117.629699707 78662586.026699066 0 0 0 0 128831183.72065544 -121054524.87781143 0 -121054524.87781143 374647707.69709778 0 0 0 0 138798532.03505707 70739237.06804657 0 70739237.06804657 46368189.807319641 0 0 0 0 120623470.05651474 -95395663.992370605 0 -95395663.992370605 109069223.52949905 0 0 0 0 -45716.04832133837 -521023.09482008219 0 -521023.09482008219 202851.71160040796 0 0 0 0 69539277.082084656 -63844291.759515762 0 -63844291.759515762 7647677.5019989014 0 0 0 0 16924721.359600067 9755204.2625694275 0 9755204.2625694275 12626557.42375946 0 0 0 0 100631849.67260361 -39277015.478687286 0 -39277015.478687286 23654497.721664429 0 0 0 0 -22224398.19270134 21709268.49161911 0 21709268.49161911 73006032.9793396 0 0 0 0 79067973.766023636 -30823477.279846191 0 -30823477.279846191 3875871.3738131523 0 0 0 0 16264057.927061401 -45199165.847818717 0 -45199165.847818717 51460474.051681519 0 0 0 0 55589752.633628845 -35665729.715103149 0 -35665729.715103149 10925895.060613632 0 0 0 0 -115979172.61333489 -239847525.13267517 0 -239847525.13267517 133011277.56977081 0 0 0 0 724194.89368967013 -1238111.8507168368 0 -1238111.8507168368 1551903.1987769157 0 0 0 0 -22333940.275522709 25773831.125989914 0 25773831.125989914 13993357.088569641 0 0 0 0 101011024.42136729 4281327.8803672791 0 4281327.8803672791 -84984860.197128296 0 0 0 0 -15842811.205803633 23466950.825237274 0 23466950.825237274 46882312.211521149 0 0 0 0 458833482.66089487 -270793728.64291382 0 -270793728.64291382 125801082.39337158 0 0 0 0 476928476.43183756 279309485.94897461 0 279309485.94897461 -75673055.343086243 0 0 0 0 -20638833.136635303 36493916.84602356 0 36493916.84602356 -33080401.704917908 0 0 0 0 -287070742.73072124 449895968.98131752 0 449895968.98131752 -25170988.520996094 0 0 0 0 -170911535.85793686 -135220108.00136566 0 -135220108.00136566 81202726.529804707 0 0 0 0 -72607300.899466515 152941218.9323101 0 152941218.9323101 910046528.49474335 0 0 0 0 63835398.721338272 -225047065.0116272 0 -225047065.0116272 140296227.17590332 0 0 0 0 24587365.900861263 -162852410.13675308 0 -162852410.13675308 205394963.03450775 0 0 0 0 -3006373.5467185895 -1961614.1987272492 0 -1961614.1987272492 9671096.5866553634 0 0 0 0 201071420.8916471 -174523022.40133667 0 -174523022.40133667 150727931.42490768 0 0 0 0 18817457.965531826 53974099.598056793 0 53974099.598056793 131258929.03238678 0 0 0 0 209091626.09044892 392631863.66378009 0 392631863.66378009 475385298.87446594 0 0 0 0 -509323.33175500645 -1175895.5991153473 0 -1175895.5991153473 3454679.8187117428 0 0 0 0 649313539.10276961 -477697553.29019165 0 -477697553.29019165 245650231.00582123 0 0 0 0 -6834846.3521740437 -56979434.479743958 0 -56979434.479743958 761059226.80648041 0 0 0 0 -14836695.340502083 102806316.22935057 0 102806316.22935057 465070511.95005035 0 0 0 0 6265697.4971246719 46329101.290676117 0 46329101.290676117 142014633.37064743 0 0 0 0 -3399429.9634261755 2123789.364448294 0 2123789.364448294 2262270.937766511 0 0 0 0 -107062985.4095993 261844594.87547302 0 261844594.87547302 -298449106.61201859 0 0 0 0 -74675096.231420755 25319240.022399902 0 25319240.022399902 365447410.00990295 0 0 0 0 -104826792.37514496 215611612.40972519 0 215611612.40972519 399547148.07003021 0 0 0 0 -89480577.314510226 132391601.62762833 0 132391601.62762833 310128205.83679199 0 0 0 0 -51859918.613539219 136140048.11226368 0 136140048.11226368 1942079.6931762695 0 0 0 0 53506185.909677029 137079257.00016022 0 137079257.00016022 -241265901.49874878 0 0 0 0 -105740169.31396532 111865281.11429596 0 111865281.11429596 -4597269.3039169312 0 0 0 0 -97269869.715764046 118643429.06715202 0 118643429.06715202 -86332982.429252625 0 0 0 0 -7001173.2576723369 1080322.5782759115 0 1080322.5782759115 7346155.7253917232 0 0 0 0 -174837796.75360584 77121399.074928284 0 77121399.074928284 49539637.091545105 0 0 0 0 -3462688.9157390194 -2745616.3284290615 0 -2745616.3284290615 19563350.523327842 0 0 0 0 -100549406.93624592 -76519539.748329878 0 -76519539.748329878 -34355473.215148926 0 0 0 0 67458126.99713707 -142828491.65236664 0 -142828491.65236664 209865879.79345322 0 0 0 0 -6522375.1525737774 -941772.41181835532 0 -941772.41181835532 6945240.4841392636 0 0 0 0 77070619.180345535 -141649776.73561478 0 -141649776.73561478 164718373.29536438 0 0 0 0 -25866494.151826859 -124732173.4801445 0 -124732173.4801445 -26990994.559623718 0 0 0 0 -130201311.96492577 -144005741.09553146 0 -144005741.09553146 -9092542.8367786407 0 0 0 0 -382149177.15762496 -98487665.342066884 0 -98487665.342066884 94009619.647323608 0 0 0 0 -34720750.360129356 -165852617.10855103 0 -165852617.10855103 -6112605.098400116 0 0 0 0 -1009099.4042074746 -2811484.3564389963 0 -2811484.3564389963 17905877.595198765 0 0 0 0 -283127965.77264684 1617707.6206804514 0 1617707.6206804514 182792538.53209686 0 0 0 0 -105867489.06912518 -6855723.8552589417 0 -6855723.8552589417 218840136.08548737 0 0 0 0 -120505407.23606777 55668387.380310059 0 55668387.380310059 4637267.9009284973 0 0 0 0 18421693.319051266 -142346945.14125633 0 -142346945.14125633 25579313.925823212 0 0 0 0 57745156.910852194 -340243254.82728767 0 -340243254.82728767 353922048.63681793 0 0 0 0 -107076663.8914659 30249612.396562576 0 30249612.396562576 323307199.59594727 0 0 0 0 89514152.066877365 143519834.31752396 0 143519834.31752396 -81208772.380897522 0 0 0 0 63818746.073486328 159936569.70685577 0 159936569.70685577 -72770336.291307449 0 0 0 0 80125730.302709103 34867609.528335571 0 34867609.528335571 -14425826.032516479 0 0 0 0 54200860.738986969 61856579.026172638 0 61856579.026172638 -1243533.7848701477 0 0 0 0 101181165.13003254 251625739.36912918 0 251625739.36912918 297911951.68958998 0 0 0 0 57495634.845043659 -29920159.960560799 0 -29920159.960560799 54150750.95634079 0 0 0 0 -33690.754229636863 -464713.96271909028 0 -464713.96271909028 2235800.2839923576 0 0 0 0 114676029.05585814 223715419.84496117 0 223715419.84496117 35382535.541793823 0 0 0 0 20823647.764846802 171130939.40834808 0 171130939.40834808 247340815.48008347 0 0 0 0 -6294302.925786972 96737168.776117325 0 96737168.776117325 44693997.040130615 0 0 0 0 111461170.83078575 210392428.59343147 0 210392428.59343147 -19353257.688858032 0 0 0 0 -33185152.659923553 121053954.30374908 0 121053954.30374908 79043424.589101791 0 0 0 0 -128225550.56890488 1580801.2708435059 0 1580801.2708435059 -29631288.986213684 0 0 0 0 68330897.868323803 136194325.22977114 0 136194325.22977114 -37424031.98135376 0 0 0 0 2652577.5093402863 -155065266.8880043 0 -155065266.8880043 -517771011.59320831 0 0 0 0 -209102033.5720644 -131905587.49048615 0 -131905587.49048615 402647700.3699646 0 0 0 0 -2614631.9946067147 343886.52587548643 0 343886.52587548643 1659557.1903618649 0 0 0 0 -343441398.60866737 -322028593.22594452 0 -322028593.22594452 332966739.10002136 0 0 0 0 -138799067.60160923 -98519628.146339417 0 -98519628.146339417 203738441.69106674 0 0 0 0 -73591388.101779938 -458627226.33378601 0 -458627226.33378601 15291531.624343872 0 0 0 0 93917480.832437515 128750185.49759293 0 128750185.49759293 -68924553.403999329 0 0 0 0 524181027.78531218 -367525037.06738186 0 -367525037.06738186 133015368.191185 0 0 0 0 78765322.004627228 280020130.31328201 0 280020130.31328201 -328852895.31587219 0 0 0 0 154448.13887933176 726068.77579716966 0 726068.77579716966 5315287.9071365148 0 0 0 0 71316712.561849117 147534032.90290165 0 147534032.90290165 710301492.07727051 0 0 0 0 382134280.60009384 739320668.90487671 0 739320668.90487671 -231758493.94742346 0 0 0 0 18386065.469902515 -68521341.379995346 0 -68521341.379995346 66287234.652648926 0 0 0 0 336486546.60381961 -225911750.3617785 0 -225911750.3617785 222398356.282341 0 0 0 0 -20398072.126489639 19845165.664480209 0 19845165.664480209 107172989.02144814 0 0 0 0 377054848.50839043 10725673.930519104 0 10725673.930519104 -255935025.61260319 0 0 0 0 113599447.49084091 234021714.84665841 0 234021714.84665841 543980050.96674347 0 0 0 0 1083604.8314953372 -1326821.6737565994 0 -1326821.6737565994 2270504.2571543455 0 0 0 0 113328914.01763248 188962304.93491745 0 188962304.93491745 236056380.38592529 0 0 0 0 56566051.339229584 212482910.52260971 0 212482910.52260971 383544958.14240646 0 0 0 0 -29646972.774690151 116422404.34776497 0 116422404.34776497 563735049.47041321 0 0 0 0 135047471.05600739 132988625.55448532 0 132988625.55448532 25967155.273086548 0 0 0 0 63536695.764312744 94471474.224052429 0 94471474.224052429 237871441.09658051 0 0 0 0 694306.52808126993 -1822212.8061913215 0 -1822212.8061913215 4591401.0390898585 0 0 0 0 120864052.5339241 549003.71503829956 0 549003.71503829956 -6844583.8944816589 0 0 0 0 722828.34790229797 -18820817.78739357 0 -18820817.78739357 42894465.185829163 0 0 0 0 -125984864.0344677 -332181595.01955414 0 -332181595.01955414 943354215.87846375 0 0 0 0 85020836.280597687 44748072.712966919 0 44748072.712966919 33800706.441308022 0 0 0 0 66178939.330284119 38809110.595743179 0 38809110.595743179 34603047.649475098 0 0 0 0 33653099.576807022 25777897.038143158 0 25777897.038143158 119364065.95469666 0 0 0 0 73336534.968318939 32778431.729110718 0 32778431.729110718 115154789.08421326 0 0 0 0 58007615.95331192 9289486.6324920654 0 9289486.6324920654 107562036.59328079 0 0 0 0 34921199.282598495 24613028.193447113 0 24613028.193447113 250201007.14787292 0 0 0 0 15694936.091251373 46081057.780097961 0 46081057.780097961 258898236.61268234 0 0 0 0 64473613.543038249 107655381.40345788 0 107655381.40345788 232078837.77297974 0 0 0 0 -27233268.980201721 80982858.015830994 0 80982858.015830994 366101178.68180466 0 0 0 0 7055351.6221084595 51715858.27973175 0 51715858.27973175 351862342.63369751 0 0 0 0 -8633063.1090316772 -14443420.214385986 0 -14443420.214385986 372844063.58023071 0 0 0 0 -48490053.322601318 8801294.7892150879 0 8801294.7892150879 384809828.58110428 0 0 0 0 -93448814.280769348 3463116.3387413025 0 3463116.3387413025 552713566.52484131 0 0 0 0 -98777430.121484756 15036907.565670013 0 15036907.565670013 613438046.34674072 0 0 0 0 -86890994.172401428 34859634.116905212 0 34859634.116905212 513655256.39133739 0 0 0 0 -53034552.401719093 41026250.593833923 0 41026250.593833923 514019672.04888916 0 0 0 0 -105890694.08388805 83164525.220466614 0 83164525.220466614 568014411.40472412 0 0 0 0 -54136803.653821945 75662371.597904205 0 75662371.597904205 563480872.37807465 0 0 0 0 -128904241.67670059 76447102.385368347 0 76447102.385368347 613189905.9183687 0 0 0 0 -71775953.477676392 178581721.73444748 0 178581721.73444748 444095941.28291321 0 0 0 0 -38396580.946561813 102533897.15671921 0 102533897.15671921 573531199.43276024 0 0 0 0 -37751910.465310097 102891692.13598633 0 102891692.13598633 522918899.40100861 0 0 0 0 180230264.34151959 78496980.526488304 0 78496980.526488304 366475818.43326569 0 0 0 0 54821769.40848732 76285183.943227768 0 76285183.943227768 529943930.93200684 0 0 0 0 -33091277.917927265 40445926.855597496 0 40445926.855597496 550661911.111763 0 0 0 0 90481830.987884521 -26018410.320556641 0 -26018410.320556641 672195229.16996765 0 0 0 0 122327702.82359695 360187231.32635307 0 360187231.32635307 474198736.81238365 0 0 0 0 423687111.00956535 130152921.67583275 0 130152921.67583275 391040135.1180954 0 0 0 0 142594793.96641159 197388643.74346161 0 197388643.74346161 382172287.56370926 0 0 0 0 155455702.4700737 148072019.31904602 0 148072019.31904602 276071543.61339951 0 0 0 0 86804013.402322769 147263067.39066696 0 147263067.39066696 358442141.34259605 0 0 0 0 61720135.693655014 129160380.74189377 0 129160380.74189377 373238814.47005081 0 0 0 0 84360254.084474564 75874637.593971252 0 75874637.593971252 436964312.16797638 0 0 0 0 78839723.69587326 38428144.646125793 0 38428144.646125793 272425026.21127915 0 0 0 0 88882872.828203201 84549920.362575531 0 84549920.362575531 169716343.81051254 0 0 0 0 38114737.844894409 1691639.3155479431 0 1691639.3155479431 108273985.68992615 0 0 0 0 -45098052.050989151 131736986.47639084 0 131736986.47639084 222832716.71567154 0 0 0 0 -50615665.212625504 262818453.06324005 0 262818453.06324005 410816744.85720062 0 0 0 0 63251465.261534691 101194249.73835087 0 101194249.73835087 230232117.37242126 0 0 0 0 20935839.506853104 126563414.9548893 0 126563414.9548893 355977777.76942062 0 0 0 0 190208322.10441017 -414570698.1984787 0 -414570698.1984787 278709810.00331497 0 0 0 0 120223450.21248364 -288758833.17774487 0 -288758833.17774487 184768096.96463776 0 0 0 0 -6524023.9971694946 -261750967.81244659 0 -261750967.81244659 258073237.21054459 0 0 0 0 145113277.42071915 -225128150.69582367 0 -225128150.69582367 140930163.11698723 0 0 0 0 15184.639717705373 -1423436.8107448667 0 -1423436.8107448667 5457461.0646085441 0 0 0 0 -69791070.764852524 -170016884.79791451 0 -170016884.79791451 180049803.11076355 0 0 0 0 -521868.03814029612 -2458342.955213028 0 -2458342.955213028 13837096.607891023 0 0 0 0 -505715722.80395508 131386038.40777588 0 131386038.40777588 277675285.16612625 0 0 0 0 -41779842.830370903 493229532.10744476 0 493229532.10744476 434733951.69724846 0 0 0 0 19011564.969213009 38420701.765237808 0 38420701.765237808 46577500.75667572 0 0 0 0 112385905.47552443 -57491097.907588005 0 -57491097.907588005 1032375978.7626991 0 0 0 0 608526076.40942764 -263547821.14976883 0 -263547821.14976883 310413535.09884262 0 0 0 0 590076387.75739479 286889668.99025345 0 286889668.99025345 543636272.23407555 0 0 0 0 582762471.1692605 -654002457.83361363 0 -654002457.83361363 518473311.82674408 0 0 0 0 -48330316.1130023 -216990536.74450302 0 -216990536.74450302 1024466677.261013 0 0 0 0 84730476.303585529 -43800962.869588852 0 -43800962.869588852 352053208.84397125 0 0 0 0 13023128.321302414 131381021.46658707 0 131381021.46658707 221898492.01664352 0 0 0 0 -133066128.48004436 -76411695.674835205 0 -76411695.674835205 526333620.75157166 0 0 0 0 -51842657.806098089 -141846904.53536582 0 -141846904.53536582 413068441.0022049 0 0 0 0 12075286.479948044 -264351680.51996994 0 -264351680.51996994 533107738.14015579 0 0 0 0 26801292.461908817 -6968536.3198695183 0 -6968536.3198695183 -22788791.828872681 0 0 0 0 1188350.2399331531 10123.094113201834 0 10123.094113201834 -899394.75741517544 0 0 0 0 651796.4322951436 64997393.404363632 0 64997393.404363632 14566798.196586609 0 0 0 0 -261451909.12586844 -1965587.1875367165 0 -1965587.1875367165 1378534.3655929565 0 0 0 0 -249517039.87118721 53193104.604545593 0 53193104.604545593 225500259.70854568 0 0 0 0 115850677.64404893 -58338157.08788681 0 -58338157.08788681 161276933.99261475 0 0 0 0 36145228.870639324 46228779.276237488 0 46228779.276237488 -84655120.95552063 0 0 0 0 79648212.410950661 153486989.31419754 0 153486989.31419754 152007920.37621641 0 0 0 0 -176827648.31137466 193615950.28634453 0 193615950.28634453 45775967.188591003 0 0 0 0 149589758.56191742 -40016280.775926113 0 -40016280.775926113 29475603.570999146 0 0 0 0 195950081.68128109 97326815.718662262 0 97326815.718662262 968619.07917499542 0 0 0 0 407761943.807724 151836360.57625198 0 151836360.57625198 167500212.53286362 0 0 0 0 300636839.88222504 -89917644.374855042 0 -89917644.374855042 253101340.41898251 0 0 0 0 407725368.75174385 -156405188.51001897 0 -156405188.51001897 64154587.716079712 0 0 0 0 325418388.10239029 -41493708.202903748 0 -41493708.202903748 19357094.345359802 0 0 0 0 257380773.37177241 -108628643.38788414 0 -108628643.38788414 -42581660.201351166 0 0 0 0 301792397.9472537 -39883018.9416008 0 -39883018.9416008 -80573108.401451111 0 0 0 0 1115730.4730710983 644938.85942748189 0 644938.85942748189 75783.596718914807 0 0 0 0 100156744.48200893 -102589903.20830727 0 -102589903.20830727 -26115668.329986572 0 0 0 0 15373628.521537781 -30270406.485391617 0 -30270406.485391617 -43721956.942672729 0 0 0 0 -308634.48842041101 1622929.3132529333 0 1622929.3132529333 2651563.9819422215 0 0 0 0 -2345637.5113477707 1731316.2514305115 0 1731316.2514305115 1370014.3246917725 0 0 0 0 1687185.8080160543 3945554.4090925567 0 3945554.4090925567 4622954.4090131074 0 0 0 0 -2245203.8065665364 11121815.396404266 0 11121815.396404266 12006170.261329651 0 0 0 0 8696623.8264102936 100720996.28306961 0 100720996.28306961 -68364219.699938774 0 0 0 0 6719666.510183692 10070850.214565277 0 10070850.214565277 8296736.2707176208 0 0 0 0 2169894.6474303007 7204386.7971067429 0 7204386.7971067429 6494653.4400177002 0 0 0 0 2291481.9213631153 11166232.254642487 0 11166232.254642487 4301313.7740097046 0 0 0 0 3040712.5413002241 5631896.427811712 0 5631896.427811712 5937864.5636457205 0 0 0 0 -120036858.6894474 -64939917.862352371 0 -64939917.862352371 49523019.657590866 0 0 0 0 -80756242.476383209 57146041.737102509 0 57146041.737102509 95340073.843421936 0 0 0 0 44420384.012353182 -22973039.588295937 0 -22973039.588295937 302365.70882797241 0 0 0 0 46358062.968142033 -55480779.786140442 0 -55480779.786140442 171328545.4620285 0 0 0 0 300383386.09073907 -200966748.91448823 0 -200966748.91448823 273077617.12023544 0 0 0 0 179124923.56734085 -52928904.972644806 0 -52928904.972644806 148166270.27280807 0 0 0 0 308091221.00111008 -149044310.57888794 0 -149044310.57888794 64089318.675767899 0 0 0 0 185210955.06145477 -100246104.70158005 0 -100246104.70158005 43022347.531740665 0 0 0 0 178636183.78489017 -35410523.565389633 0 -35410523.565389633 46363456.499458313 0 0 0 0 229292501.56489182 -61941449.670991898 0 -61941449.670991898 -23296346.68441391 0 0 0 0 265786483.23556709 -82696933.466991425 0 -82696933.466991425 -30414887.56993103 0 0 0 0 307414317.8194685 -59514364.347917557 0 -59514364.347917557 -46079303.493667603 0 0 0 0 273665953.20234108 -87734369.987010956 0 -87734369.987010956 -5095204.4947471619 0 0 0 0 206894864.18434513 -54656761.182157755 0 -54656761.182157755 -56942320.581756592 0 0 0 0 272467890.89788818 -71735553.872440338 0 -71735553.872440338 -80614784.74993515 0 0 0 0 206568067.37045193 -55433103.237958908 0 -55433103.237958908 -25881992.161102295 0 0 0 0 115095099.5559597 -42018837.664310455 0 -42018837.664310455 -40554483.002939224 0 0 0 0 82149197.188327789 5321839.7633419037 0 5321839.7633419037 -51761766.040382385 0 0 0 0 80179816.647538185 -37452634.824010849 0 -37452634.824010849 14568249.769229889 0 0 0 0 78155042.263414502 -60228441.031369925 0 -60228441.031369925 -40275590.459335327 0 0 0 0 -521639.42153422907 -2662001.9918449316 0 -2662001.9918449316 8505260.5639380813 0 0 0 0 -51579658.621144295 -60595820.842615128 0 -60595820.842615128 3343229.4269599915 0 0 0 0 43141768.330486298 -43601903.250179291 0 -43601903.250179291 -66675030.062927246 0 0 0 0 -20357199.683607101 -1730880.9560432434 0 -1730880.9560432434 16589710.626834869 0 0 0 0 -13996616.217980862 -3244441.1309127808 0 -3244441.1309127808 15491084.246780396 0 0 0 0 -15751337.921870232 4989445.4211807251 0 4989445.4211807251 24359771.178771973 0 0 0 0 -13798628.248545647 1844685.5796737671 0 1844685.5796737671 16860604.403408051 0 0 0 0 -9470294.340669632 1217501.7909870148 0 1217501.7909870148 6108200.0971679688 0 0 0 0 -19698807.085155487 -896437.6263885498 0 -896437.6263885498 20033906.704330444 0 0 0 0 -16022463.986403465 -4886875.6768112183 0 -4886875.6768112183 5074532.4992294312 0 0 0 0 -20678386.227294922 8919829.718708992 0 8919829.718708992 8834308.513092041 0 0 0 0 -41358598.311355591 -9435639.5856189728 0 -9435639.5856189728 14104410.382623672 0 0 0 0 1099491.7104181764 -3963657.4971878119 0 -3963657.4971878119 10372848.80789791 0 0 0 0 59543082.675761223 -75477703.74684906 0 -75477703.74684906 22799140.737304688 0 0 0 0 1306841.8160297163 70151.698811462149 0 70151.698811462149 34055.480923324823 0 0 0 0 -12702729.307617903 -2652403.0648841858 0 -2652403.0648841858 6361345.4274520874 0 0 0 0 27498048.906222343 6279788.9399490356 0 6279788.9399490356 -7562505.9812297821 0 0 0 0 1604077.9403195642 -5377110.7603483144 0 -5377110.7603483144 11241899.188209414 0 0 0 0 -19766173.027469158 -47096951.148004532 0 -47096951.148004532 29913376.441401482 0 0 0 0 3801326.5837934911 -8085477.9850999191 0 -8085477.9850999191 -6770872.1443356425 0 0 0 0 -4370404.5520486832 -22029793.393249512 0 -22029793.393249512 -58134059.799242735 0 0 0 0 -9494097.5002317429 -29408417.426511765 0 -29408417.426511765 39763606.597640991 0 0 0 0 6360428.6391000748 -67939408.908409119 0 -67939408.908409119 55162833.227531433 0 0 0 0 17751143.153072834 -332771.11491394043 0 -332771.11491394043 -6476886.0046691895 0 0 0 0 50518809.501625061 -34272737.225399017 0 -34272737.225399017 4713941.4991073608 0 0 0 0 39107012.167405128 -37582762.142972946 0 -37582762.142972946 12200374.960395813 0 0 0 0 44557583.381507874 -27526455.748458862 0 -27526455.748458862 2156095.9463005066 0 0 0 0 -912273.4737496255 -1241488.6419367902 0 -1241488.6419367902 -441665.76187030226 0 0 0 0 -4443561.6478486061 -24610997.183427811 0 -24610997.183427811 10646650.623374939 0 0 0 0 13695983.013533741 -18473429.827384733 0 -18473429.827384733 12929443.060845472 0 0 0 0 -41289785.214261055 51906428.700052261 0 51906428.700052261 12011533.687576294 0 0 0 0 49650054.481370926 -135657518.97279739 0 -135657518.97279739 -49265498.349637985 0 0 0 0 106427185.87682152 -152776066.81074524 0 -152776066.81074524 22247863.232047796 0 0 0 0 -61349669.951335907 -101967611.00374222 0 -101967611.00374222 38123906.669752121 0 0 0 0 11235573.23971004 -22545476.34821181 0 -22545476.34821181 26208431.431611046 0 0 0 0 80767899.314844131 -6066436.4915180206 0 -6066436.4915180206 -82056514.150333405 0 0 0 0 -59256356.176924706 -37398825.109870911 0 -37398825.109870911 48687663.737041473 0 0 0 0 -3353253.7903280258 -7830624.665719986 0 -7830624.665719986 18080996.069919586 0 0 0 0 -35769356.938167572 -14478445.195941925 0 -14478445.195941925 66736953.643371582 0 0 0 0 1911557.0008135876 -5816339.8408575505 0 -5816339.8408575505 6211101.6543103382 0 0 0 0 -10200868.491130475 -3474095.5749765113 0 -3474095.5749765113 18959428.225701302 0 0 0 0 -8490750.2445569038 -5222458.0215559006 0 -5222458.0215559006 24284448.13161087 0 0 0 0 -13781964.762487411 2274162.6095485687 0 2274162.6095485687 27771432.796339035 0 0 0 0 -10825667.26984835 -5110402.5148479873 0 -5110402.5148479873 31091049.828946095 0 0 0 0 -24708506.068662643 -64441378.62828064 0 -64441378.62828064 121034503.72816944 0 0 0 0 71138395.068937689 -73360883.261701524 0 -73360883.261701524 43677753.184776306 0 0 0 0 73110900.404007494 -117598619.15610534 0 -117598619.15610534 88436337.983795166 0 0 0 0 -74451050.591814041 -19691794.588022232 0 -19691794.588022232 45504438.332637787 0 0 0 0 -82085050.994598389 22119367.203164101 0 22119367.203164101 50066773.253473282 0 0 0 0 -75203976.333917618 7201967.6770944595 0 7201967.6770944595 81707869.32766819 0 0 0 0 -139999682.59024429 97931681.000495911 0 97931681.000495911 169047025.04871321 0 0 0 0 -52054198.573172569 -73054200.173994064 0 -73054200.173994064 172265458.62507248 0 0 0 0 -154454036.07645035 44376570.640563965 0 44376570.640563965 197367216.62365341 0 0 0 0 26806069.178382874 -184823760.82794476 0 -184823760.82794476 281727673.93231964 0 0 0 0 42783548.306911469 -170512360.59938431 0 -170512360.59938431 263055461.36889267 0 0 0 0 -183709877.93503189 23318897.655960083 0 23318897.655960083 424219740.65033722 0 0 0 0 -89577467.766292572 20598214.213609695 0 20598214.213609695 165804199.71120071 0 0 0 0 271099209.33868599 -246839665.94326973 0 -246839665.94326973 209710712.02510834 0 0 0 0 38041266.48933506 69172413.230483055 0 69172413.230483055 246081357.58223534 0 0 0 0 284351062.98172468 -66940753.129216552 0 -66940753.129216552 12437259.960418701 0 0 0 0 1986157.791977244 -2563440.4074758692 0 -2563440.4074758692 1062523.3062931634 0 0 0 0 118096777.08981514 545475757.25830078 0 545475757.25830078 353450981.81689262 0 0 0 0 -105248227.41956806 -135621663.38473797 0 -135621663.38473797 693655748.77108765 0 0 0 0 87478218.315963745 -303499192.37818909 0 -303499192.37818909 505897673.48434067 0 0 0 0 186090740.4530735 -116596119.44323158 0 -116596119.44323158 59938099.10459137 0 0 0 0 39169296.345825195 50104886.031163216 0 50104886.031163216 63660093.148755074 0 0 0 0 -124489.17840862274 -151223093.22992134 0 -151223093.22992134 399492787.66410828 0 0 0 0 2700390.1150274277 -78024346.219625473 0 -78024346.219625473 88001915.240200043 0 0 0 0 19176888.084570527 -11445106.688375473 0 -11445106.688375473 52065156.579637051 0 0 0 0 6875471.7991142273 -18731452.127069473 0 -18731452.127069473 58783597.929664612 0 0 0 0 11328610.348678589 -43709833.944288254 0 -43709833.944288254 165024972.71348953 0 0 0 0 11237275.188828707 16588108.884204865 0 16588108.884204865 17453234.41986084 0 0 0 0 27017422.677284643 26250205.103629529 0 26250205.103629529 22102242.866487503 0 0 0 0 11939681.820874453 -446641.57011890411 0 -446641.57011890411 11792697.959323883 0 0 0 0 31022883.216910124 2976048.9276380539 0 2976048.9276380539 7178155.3114070892 0 0 0 0 3962989.2915371871 -5620556.0804359447 0 -5620556.0804359447 4713743.1601264924 0 0 0 0 -12089163.474396229 -3536813.9846439362 0 -3536813.9846439362 35113916.872898102 0 0 0 0 1677668.5070041479 964350.41584902629 0 964350.41584902629 188612.47468655556 0 0 0 0 99439063.036536694 -43118037.297079086 0 -43118037.297079086 -24158525.955284119 0 0 0 0 129102062.74291193 2504337.1902637482 0 2504337.1902637482 -30471954.516609192 0 0 0 0 184777090.81311417 -50585004.306308746 0 -50585004.306308746 -28043856.418357849 0 0 0 0 175710989.6279462 8067103.1005334854 0 8067103.1005334854 -31518270.63319397 0 0 0 0 30787019.035536766 23840051.862198591 0 23840051.862198591 11046207.42944932 0 0 0 0 20824268.266518325 10386480.771966368 0 10386480.771966368 15573236.563807487 0 0 0 0 29735876.822238564 9536497.8143619001 0 9536497.8143619001 4948235.3453998566 0 0 0 0 17092321.371995535 12456848.421721775 0 12456848.421721775 15417836.442477187 0 0 0 0 18385085.521669548 -10128721.274356604 0 -10128721.274356604 49882832.616764069 0 0 0 0 11408108.692888521 17333232.462327804 0 17333232.462327804 33242369.155639108 0 0 0 0 37415060.815066338 24317531.810107708 0 24317531.810107708 55347670.530990601 0 0 0 0 35327029.794868469 13964049.06056881 0 13964049.06056881 13326724.40478158 0 0 0 0 42913723.065543175 32736101.763324261 0 32736101.763324261 55503155.167007446 0 0 0 0 34235195.487865448 43448079.631909847 0 43448079.631909847 76018241.517511368 0 0 0 0 27998197.82503891 38070981.619355679 0 38070981.619355679 101981149.74715805 0 0 0 0 8759946.7752313614 41112316.469338268 0 41112316.469338268 79491355.581800461 0 0 0 0 6718014.2790184021 21774599.438066006 0 21774599.438066006 63040070.72120285 0 0 0 0 22552598.252479553 41889559.553857327 0 41889559.553857327 79274783.964027405 0 0 0 0 52046430.447822571 5039182.390296936 0 5039182.390296936 -110832486.01076126 0 0 0 0 -305074.00209247309 -2213489.6452197656 0 -2213489.6452197656 -3368791.9007610828 0 0 0 0 -20577761.572628908 -22259166.335185386 0 -22259166.335185386 44296903.84174411 0 0 0 0 34070138.705497742 26184921.964317322 0 26184921.964317322 92307643.372042656 0 0 0 0 31435341.174600601 58544437.019737244 0 58544437.019737244 156124504.68290424 0 0 0 0 28518561.286190033 19943178.168321609 0 19943178.168321609 116879370.28121567 0 0 0 0 -2352301.7658971688 -9996653.5868843943 0 -9996653.5868843943 20758195.781641737 0 0 0 0 -7833194.6949761212 -17054037.13898468 0 -17054037.13898468 9931765.2382736206 0 0 0 0 -13849981.906803608 -35342017.699270248 0 -35342017.699270248 -25655363.686289519 0 0 0 0 -7208015.5557084829 -17189337.813903809 0 -17189337.813903809 5287221.0555725098 0 0 0 0 -41368098.970416188 -21636074.612000465 0 -21636074.612000465 -25521075.291248322 0 0 0 0 -965929.72545915283 -13044696.05765634 0 -13044696.05765634 13045807.893867463 0 0 0 0 10265054.120569468 -2828085.5456895828 0 -2828085.5456895828 8425749.253074646 0 0 0 0 8373791.4669226874 4559162.5903741997 0 4559162.5903741997 13699130.071937487 0 0 0 0 -18103896.970546722 -22369775.056774139 0 -22369775.056774139 -9774714.0206298828 0 0 0 0 -19436940.317034483 -28432848.078670502 0 -28432848.078670502 -30103849.248306274 0 0 0 0 8157.9273633057019 -15429807.226406742 0 -15429807.226406742 -3628682.7497213185 0 0 0 0 -10536318.443655193 -13119085.005926132 0 -13119085.005926132 7985709.4381942749 0 0 0 0 -14430438.681206027 -33150408.938666549 0 -33150408.938666549 16609081.574528039 0 0 0 0 -7681307.4964239951 -20616088.315363072 0 -20616088.315363072 16610413.73761268 0 0 0 0 -741825.20028768876 -3091334.0071850028 0 -3091334.0071850028 -2439889.0874600932 0 0 0 0 3688663.1363570094 -21462859.84790802 0 -21462859.84790802 -32830250.406387329 0 0 0 0 -15236258.738045514 -21633229.796524048 0 -21633229.796524048 -32576500.546829224 0 0 0 0 -2259809.0584442378 -1587902.059696354 0 -1587902.059696354 4050910.1564328969 0 0 0 0 -29078651.319680929 -80996159.782894135 0 -80996159.782894135 -67852654.258789062 0 0 0 0 -39556736.191095948 -28493674.770671844 0 -28493674.770671844 9180747.7704925537 0 0 0 0 517129.25913572311 -12825148.064399719 0 -12825148.064399719 -8739078.2678070068 0 0 0 0 3104300.7846057788 -13892171.469116395 0 -13892171.469116395 -22811421.79648596 0 0 0 0 5500956.1898067556 -7843687.7044883445 0 -7843687.7044883445 -5567294.509373147 0 0 0 0 3287892.515048868 -9909358.6826251037 0 -9909358.6826251037 9633437.881380856 0 0 0 0 6330490.0078592598 -16127141.379516602 0 -16127141.379516602 -14597480.99329567 0 0 0 0 4893604.4532518983 -11567983.893985748 0 -11567983.893985748 -3020955.5835037231 0 0 0 0 -1798648.9267231822 -65530615.553692341 0 -65530615.553692341 -61525821.697425842 0 0 0 0 -6751670.6234665662 -40799537.275241852 0 -40799537.275241852 -3564879.9703979492 0 0 0 0 -33164854.260147691 -34647456.423355103 0 -34647456.423355103 6704393.2264137268 0 0 0 0 -78932167.262572289 -22649019.919498444 0 -22649019.919498444 6681246.0488128662 0 0 0 0 10729604.323233604 -40947354.924694061 0 -40947354.924694061 -82341216.832962036 0 0 0 0 -11124479.972308457 8022746.7323608398 0 8022746.7323608398 -55496448.790462494 0 0 0 0 -31499896.279881418 -40233991.424942017 0 -40233991.424942017 23826783.006614685 0 0 0 0 -14862167.88777256 9832417.0173339844 0 9832417.0173339844 1926554.549279213 0 0 0 0 -40196100.394815207 -37727119.664807796 0 -37727119.664807796 11183621.875144958 0 0 0 0 2036838.3775023969 -5502062.406875737 0 -5502062.406875737 10678924.033701256 0 0 0 0 10080521.978959084 -32039759.509529114 0 -32039759.509529114 -83003837.099555969 0 0 0 0 -103553810.31139565 -149062155.99180222 0 -149062155.99180222 1406643.1368637085 0 0 0 0 -28824715.151827335 -56188474.035364151 0 -56188474.035364151 155884382.61454773 0 0 0 0 25322305.3052001 -6452324.4585266113 0 -6452324.4585266113 76678286.574234009 0 0 0 0 -12581434.98102951 -85055795.900251389 0 -85055795.900251389 57348400.301399231 0 0 0 0 53264025.81007719 -34964128.147768021 0 -34964128.147768021 -142445160.3290596 0 0 0 0 -20519679.417823359 -28505726.922665369 0 -28505726.922665369 48890064.735605925 0 0 0 0 -94079059.858237028 -215096206.11767912 0 -215096206.11767912 -97159360.87487793 0 0 0 0 5278813.1335252523 -30627379.25236702 0 -30627379.25236702 -6821603.1969528198 0 0 0 0 48782093.864910603 953357.41595077515 0 953357.41595077515 6357719.4234237671 0 0 0 0 -710618.78075197875 259177.90668872744 0 259177.90668872744 323914.91865077615 0 0 0 0 -57295191.694616318 -58377666.326271057 0 -58377666.326271057 58645536.67224884 0 0 0 0 123638503.77945411 15803737.443027496 0 15803737.443027496 -53724377.958431244 0 0 0 0 105183323.0338738 -30980078.219333649 0 -30980078.219333649 -76689027.886133194 0 0 0 0 41271118.055433735 -62597886.799069405 0 -62597886.799069405 -52108155.617546082 0 0 0 0 51265154.942350924 -50473545.073282719 0 -50473545.073282719 -59533701.002227783 0 0 0 0 69390265.742758721 10708898.819419384 0 10708898.819419384 -7595135.6602325439 0 0 0 0 155465083.94438648 13089130.922571182 0 13089130.922571182 -22263252.382041931 0 0 0 0 87252064.55629158 39089538.14906311 0 39089538.14906311 35531669.596775055 0 0 0 0 902644.86259523593 -3178960.741811052 0 -3178960.741811052 7971380.4346271157 0 0 0 0 60529636.827262402 7377638.4964790344 0 7377638.4964790344 -778627.55149841309 0 0 0 0 58333419.872523546 18794325.803016663 0 18794325.803016663 -40412319.130706787 0 0 0 0 146195206.90709221 291688555.22165418 0 291688555.22165418 320957541.14057159 0 0 0 0 -293477.4504403763 -650105.03709074855 0 -650105.03709074855 3783964.4651119113 0 0 0 0 274642669.0397079 523260.94139671326 0 523260.94139671326 43466786.719207764 0 0 0 0 -38142010.888841629 41979688.161727905 0 41979688.161727905 352049880.90662771 0 0 0 0 -17751524.127851486 100616295.05700302 0 100616295.05700302 165541235.32089233 0 0 0 0 -97960032.258889198 -7308785.2370014191 0 -7308785.2370014191 182179501.89926147 0 0 0 0 -71834084.371488571 85871784.584144592 0 85871784.584144592 97894589.974681854 0 0 0 0 -39128030.562378764 20762843.892197609 0 20762843.892197609 204385203.86603546 0 0 0 0 23888386.98797369 171792462.27789307 0 171792462.27789307 289500599.59213066 0 0 0 0 12600206.295119286 55722068.651031494 0 55722068.651031494 113712907.02288055 0 0 0 0 4668927.6163463593 205011974.26165771 0 205011974.26165771 426204396.01361465 0 0 0 0 4233724.417483896 273343773.20277739 0 273343773.20277739 509907123.29138947 0 0 0 0 -49574687.744943619 170002467.41240692 0 170002467.41240692 441445091.30555725 0 0 0 0 -7724778.9557752609 176225724.74395752 0 176225724.74395752 350547092.76964962 0 0 0 0 -50291746.01120472 147487430.1071682 0 147487430.1071682 507351110.89349365 0 0 0 0 45945981.950222015 352332060.17836571 0 352332060.17836571 615620494.22783661 0 0 0 0 -31585020.44997406 106223501.49729156 0 106223501.49729156 805609157.60178375 0 0 0 0 -23301500.122637749 161612249.56594467 0 161612249.56594467 486653248.00893402 0 0 0 0 -13006315.371177673 5803391.3334655762 0 5803391.3334655762 492760202.89357352 0 0 0 0 8646957.747297287 -3972964.2772598267 0 -3972964.2772598267 627892711.62657166 0 0 0 0 34549389.424818039 89157087.145233154 0 89157087.145233154 579089791.04013824 0 0 0 0 27172321.492912292 37553819.674594879 0 37553819.674594879 406478765.275177 0 0 0 0 111789077.99221611 -102531447.63591766 0 -102531447.63591766 283487813.4259758 0 0 0 0 -6947767.8826417923 76426323.015701294 0 76426323.015701294 288061613.64635468 0 0 0 0 69039990.261077881 -111108319.97628784 0 -111108319.97628784 396800576.19398117 0 0 0 0 204547634.1925106 -159536582.13712311 0 -159536582.13712311 149975606.06713867 0 0 0 0 86132404.998346329 -121585493.1144104 0 -121585493.1144104 452696591.328125 0 0 0 0 131294971.06090164 -47209945.853664398 0 -47209945.853664398 358740443.55332184 0 0 0 0 127228972.07419205 -11962139.191726685 0 -11962139.191726685 707386362.28528976 0 0 0 0 113035572.98488235 -189614160.59677887 0 -189614160.59677887 649362210.94285583 0 0 0 0 213174738.68524933 -286371161.21708679 0 -286371161.21708679 737245294.88960266 0 0 0 0 208362262.62914085 -70252014.984523773 0 -70252014.984523773 408696259.14172363 0 0 0 0 47363060.756864548 18529607.183551788 0 18529607.183551788 1122362734.3347931 0 0 0 0 308214599.82141495 -239316955.64335632 0 -239316955.64335632 1315863818.3939896 0 0 0 0 1734848.0897941589 254508058.2057457 0 254508058.2057457 1550004753.7349472 0 0 0 0 440958778.26539469 762864722.55599833 0 762864722.55599833 975672425.28742981 0 0 0 0 106535819.31339645 315910128.42082214 0 315910128.42082214 804154831.14490128 0 0 0 0 -5755231.2879619598 7707335.0307426453 0 7707335.0307426453 993353015.14254761 0 0 0 0 23361830.458456516 365171512.27302551 0 365171512.27302551 952762907.08670044 0 0 0 0 -258821122.42797279 -170779381.67003632 0 -170779381.67003632 942654251.70124817 0 0 0 0 2788181.7184085846 244203428.03692627 0 244203428.03692627 1411184485.1731567 0 0 0 0 -178785376.14129066 -73297891.559234619 0 -73297891.559234619 1061683224.7996521 0 0 0 0 4678280.9910545349 336712420.37167358 0 336712420.37167358 1336182076.5241852 0 0 0 0 742402031.08829498 630562635.4172821 0 630562635.4172821 1280442846.8851089 0 0 0 0 1142407932.5900421 265857448.41746521 0 265857448.41746521 935587482.05801392 0 0 0 0 -120929585.67658615 -11057156.927055359 0 -11057156.927055359 733378502.80360413 0 0 0 0 -64038508.60826683 -40480926.647422791 0 -40480926.647422791 550063771.50915527 0 0 0 0 -28255599.022788048 -210277514.5541935 0 -210277514.5541935 558446944.86917114 0 0 0 0 -84624229.163101196 -145138478.00875092 0 -145138478.00875092 564687568.17462921 0 0 0 0 -70123137.455867767 -87876039.557479858 0 -87876039.557479858 710312427.36992645 0 0 0 0 -115831509.11629105 157842129.49815369 0 157842129.49815369 884338759.79056931 0 0 0 0 -124420762.36953735 37578814.756538391 0 37578814.756538391 1066202634.2897491 0 0 0 0 -116191545.74743843 -152960703.21901512 0 -152960703.21901512 762444220.47428894 0 0 0 0 -42741009.14743042 123962783.72937012 0 123962783.72937012 901081891.66194916 0 0 0 0 -136805812.50305462 -33427679.501585007 0 -33427679.501585007 779944997.39703369 0 0 0 0 -136913307.42417526 80495897.510665894 0 80495897.510665894 741280875.13394165 0 0 0 0 -122334236.79026794 -22718285.253349304 0 -22718285.253349304 649654662.20857239 0 0 0 0 178622203.43933201 280594887.60206413 0 280594887.60206413 302987189.5019989 0 0 0 0 -130171370.7478714 104738653.78757095 0 104738653.78757095 706315797.50349426 0 0 0 0 -99344769.679067612 221064181.55928802 0 221064181.55928802 757185842.35470581 0 0 0 0 -109568840.78623199 132024687.82532501 0 132024687.82532501 968460503.80740356 0 0 0 0 317014707.57771873 513670238.87598038 0 513670238.87598038 672655501.85017586 0 0 0 0 -195316.34886408318 760643.65704454482 0 760643.65704454482 1173192.7747330815 0 0 0 0 350112550.02256775 656538240.05680084 0 656538240.05680084 966113610.04538727 0 0 0 0 -309401428.2174263 -213567520.71757698 0 -213567520.71757698 507243604.86686707 0 0 0 0 32693254.099163055 183247473.02758026 0 183247473.02758026 929734442.91650391 0 0 0 0 171200493.73989487 251966779.79251099 0 251966779.79251099 1132893050.1582489 0 0 0 0 100303023.93565369 -147554990.79423904 0 -147554990.79423904 -40050069.156570435 0 0 0 0 1397963.0559269255 -16440.391427453607 0 -16440.391427453607 383964.22293321788 0 0 0 0 31811389.411597252 127137487.28669357 0 127137487.28669357 -62713036.091255188 0 0 0 0 -160464691.55848694 27657122.465770721 0 27657122.465770721 -5302954.649810791 0 0 0 0 20845413.688100815 59832331.043434143 0 59832331.043434143 224896264.31039047 0 0 0 0 35889706.420945168 87249604.398712158 0 87249604.398712158 207362995.32047272 0 0 0 0 283607.98282443359 -1072717.9794346392 0 -1072717.9794346392 1648355.9691053703 0 0 0 0 -35657027.851809502 113342133.60521984 0 113342133.60521984 -31913927.20640564 0 0 0 0 -154479357.27787638 -30900239.141821861 0 -30900239.141821861 65196394.474090576 0 0 0 0 7779922.7760276794 59980257.515920639 0 59980257.515920639 -40994240.829803467 0 0 0 0 4906982.1569410376 -4832343.5486333184 0 -4832343.5486333184 -6962576.3680099472 0 0 0 0 57708749.725001335 -32310048.683311462 0 -32310048.683311462 -35965931.35766983 0 0 0 0 8372959.9959030151 64289714.644124985 0 64289714.644124985 -21757542.174118042 0 0 0 0 51756065.290616989 -14360351.712413788 0 -14360351.712413788 -58875600.364011765 0 0 0 0 8615766.0121693611 -47976200.468315125 0 -47976200.468315125 -26919487.947601318 0 0 0 0 73935307.296188354 -35159453.930988312 0 -35159453.930988312 -34118269.096138 0 0 0 0 50473585.444196701 -4829.1578178405762 0 -4829.1578178405762 22414114.540283203 0 0 0 0 30960352.054528236 -76273092.126716614 0 -76273092.126716614 219548053.98536491 0 0 0 0 51111416.474844933 749379.86706113815 0 749379.86706113815 214261415.40646362 0 0 0 0 137694010.88397789 -81856754.95451355 0 -81856754.95451355 62955087.25819397 0 0 0 0 97813246.526926041 15327910.37027359 0 15327910.37027359 120115926.49777508 0 0 0 0 111962346.98393488 -29366798.870788574 0 -29366798.870788574 -12349075.992019653 0 0 0 0 329714677.81817782 -427529575.53280306 0 -427529575.53280306 1045091820.9381485 0 0 0 0 279935629.58655763 -508212246.5564537 0 -508212246.5564537 937995473.17989349 0 0 0 0 1377582.725698017 -603304960.39132309 0 -603304960.39132309 1072882617.4670067 0 0 0 0 410758032.4574728 -785792508.46144867 0 -785792508.46144867 1153948265.5956879 0 0 0 0 720498365.03737402 -718057306.63513565 0 -718057306.63513565 1158938911.7829285 0 0 0 0 412095917.27647305 -697079673.78154373 0 -697079673.78154373 1487605345.9530792 0 0 0 0 -679660.13981746102 -1616280748.7511597 0 -1616280748.7511597 1588130537.5597229 0 0 0 0 564002864.77440882 -720865172.78829193 0 -720865172.78829193 1085063466.4555578 0 0 0 0 345270947.80775654 -542371555.43942642 0 -542371555.43942642 1037743538.4345551 0 0 0 0 213237100.76408648 -379447221.04073715 0 -379447221.04073715 910316767.71150208 0 0 0 0 407613657.84542513 -475693226.75164795 0 -475693226.75164795 750685706.97950745 0 0 0 0 196001631.16355526 -218700054.3267777 0 -218700054.3267777 654575975.96379852 0 0 0 0 29617737.110093594 -196958398.55673218 0 -196958398.55673218 802417012.07920456 0 0 0 0 246954253.60386395 -279735765.93296814 0 -279735765.93296814 756296137.66090393 0 0 0 0 -20062576.575136423 22230750.723220825 0 22230750.723220825 801365039.35069275 0 0 0 0 167349539.97200871 -286675887.1372757 0 -286675887.1372757 738177161.70607758 0 0 0 0 -12184579.67656374 52671717.125099182 0 52671717.125099182 488001337.72359657 0 0 0 0 123894260.38764572 -194035036.56823921 0 -194035036.56823921 516841444.75652313 0 0 0 0 35389651.360806346 -46596298.142232895 0 -46596298.142232895 273764023.13336182 0 0 0 0 -20966601.622001886 52945836.260162354 0 52945836.260162354 336283878.18464661 0 0 0 0 -8490051.4931774139 -7389668.8107566833 0 -7389668.8107566833 353480098.18759918 0 0 0 0 -35172771.046712399 32434022.842384338 0 32434022.842384338 384237535.5086689 0 0 0 0 106280440.51683819 -37627474.434034348 0 -37627474.434034348 380167200.21244812 0 0 0 0 53359598.013501763 106575073.56489563 0 106575073.56489563 342564717.52997589 0 0 0 0 144936660.4432385 -7261092.7218208313 0 -7261092.7218208313 175170726.77781677 0 0 0 0 68768357.523108721 -308781952.70347595 0 -308781952.70347595 876998929.97536659 0 0 0 0 171306856.63908193 -494176966.985672 0 -494176966.985672 1091074021.9422379 0 0 0 0 -9564.6492064768554 -6599445.8490114948 0 -6599445.8490114948 -2140494.4479217529 0 0 0 0 -55758412.233195186 89042614.593177795 0 89042614.593177795 1309939726.3875923 0 0 0 0 9426.7024975746172 -835703.1599843502 0 -835703.1599843502 2666836.0759597123 0 0 0 0 -3433709.5532135628 -5954870.39427948 0 -5954870.39427948 645197.53814315796 0 0 0 0 -37837277.402601719 -22033925.697734833 0 -22033925.697734833 182744050.26724243 0 0 0 0 1298939.3771665487 -2563111.4741703942 0 -2563111.4741703942 3888068.0248534977 0 0 0 0 -3397383.4363571405 -7725480.3294077516 0 -7725480.3294077516 886681.31539916992 0 0 0 0 -1993548.0654350519 -4918938.5315628052 0 -4918938.5315628052 2900356.7494430542 0 0 0 0 4356.9580659076291 -8958009.2899513245 0 -8958009.2899513245 3079996.0018615723 0 0 0 0 -5884894.2906231321 -8981633.1401863098 0 -8981633.1401863098 9628410.3245620728 0 0 0 0 -6824842.5740107 -4442384.380317688 0 -4442384.380317688 4195971.4298553467 0 0 0 0 -2180987.7803189009 -1925911.8299407959 0 -1925911.8299407959 5419135.157043457 0 0 0 0 -11347491.852469333 3069099.7709951401 0 3069099.7709951401 2999687.5412597656 0 0 0 0 5620.0026194118545 -197235.95947739482 0 -197235.95947739482 46647.364452525973 0 0 0 0 1811964.6394661665 -8917419.3213424683 0 -8917419.3213424683 43533121.257228851 0 0 0 0 -65985353.422726184 -60487005.643707275 0 -60487005.643707275 36812527.307495117 0 0 0 0 -12818059.447555654 -4337665.8330116272 0 -4337665.8330116272 10129542.68375206 0 0 0 0 -2011.7221116080254 -8348843.5190010071 0 -8348843.5190010071 48976407.376075745 0 0 0 0 33303523.34489122 -15577538.556434631 0 -15577538.556434631 -12069113.692443848 0 0 0 0 6039784.0918052197 -9963765.0474319458 0 -9963765.0474319458 18598221.025753975 0 0 0 0 7787593.9796482325 -10660435.47271347 0 -10660435.47271347 18402263.70425415 0 0 0 0 8004482.6625931263 -9136971.6620063782 0 -9136971.6620063782 17585601.440429688 0 0 0 0 4433616.2745309174 -5946030.4646911621 0 -5946030.4646911621 46597892.82724762 0 0 0 0 3454208.6813322902 -3725789.5860900879 0 -3725789.5860900879 14386351.2146492 0 0 0 0 -1203605.779069474 -3815422.2422151566 0 -3815422.2422151566 2460392.0887985229 0 0 0 0 351157.07017676049 -961019.78499659151 0 -961019.78499659151 475601.47041434795 0 0 0 0 2548228.8511200398 -7650965.916680336 0 -7650965.916680336 24022942.08366394 0 0 0 0 13135122.563489676 -732835.79378128052 0 -732835.79378128052 -3072118.9782791138 0 0 0 0 811230.61411697406 -97976.289413169026 0 -97976.289413169026 -915757.80068711936 0 0 0 0 15765951.681388304 27680835.491042376 0 27680835.491042376 -28342693.940093994 0 0 0 0 2804655.7398441117 -2518373.8299346939 0 -2518373.8299346939 -2183408.2988426238 0 0 0 0 -11385231.017054558 -27784700.166923523 0 -27784700.166923523 51498902.995124817 0 0 0 0 -1628993.6449891403 -3984125.6678619385 0 -3984125.6678619385 2487163.2413244247 0 0 0 0 11332456.062154159 -46039644.883974195 0 -46039644.883974195 -11933344.590812683 0 0 0 0 2324354.2233787873 -3641214.7308206558 0 -3641214.7308206558 3087597.6915692538 0 0 0 0 79129194.409577847 56169002.322601318 0 56169002.322601318 -123151.14807701111 0 0 0 0 25252149.592817783 39408348.409605026 0 39408348.409605026 86452455.203567505 0 0 0 0 -2043464.7578039169 17978228.89641571 0 17978228.89641571 191246594.67399597 0 0 0 0 43729647.058461428 29162466.832515717 0 29162466.832515717 189579920.3992157 0 0 0 0 -12196927.30321312 9404747.6327819824 0 9404747.6327819824 213621400.40745926 0 0 0 0 -30317043.167553902 -2664574.0758972168 0 -2664574.0758972168 211555116.01145744 0 0 0 0 -21451554.355292797 -13628430.368347168 0 -13628430.368347168 234822165.48468018 0 0 0 0 -14846668.023820877 -76361087.926494598 0 -76361087.926494598 59209998.971939087 0 0 0 0 1001949.3533181176 -313555.14994360879 0 -313555.14994360879 -855577.19919805229 0 0 0 0 -20195075.7078228 36404763.719833374 0 36404763.719833374 181204057.80392456 0 0 0 0 -62720031.136000633 58641007.389915466 0 58641007.389915466 5451988.1323471069 0 0 0 0 -20459518.162993908 32550535.023918152 0 32550535.023918152 222717888.69436264 0 0 0 0 -9597514.7154183388 8119870.0840301514 0 8119870.0840301514 269902217.17153549 0 0 0 0 394502.48345900513 -492818.14630195498 0 -492818.14630195498 671548.05030151457 0 0 0 0 4818996.8566951752 -25380840.493774414 0 -25380840.493774414 263903111.91670227 0 0 0 0 -69859915.185855865 -3565713.7629547119 0 -3565713.7629547119 213644106.93400574 0 0 0 0 -91357725.1219666 -52195899.284423828 0 -52195899.284423828 51531135.735916138 0 0 0 0 447313.92863161862 -10865522.784397125 0 -10865522.784397125 1420572.0562896729 0 0 0 0 1711243.4596516597 -3557453.2663996369 0 -3557453.2663996369 4285357.3922116309 0 0 0 0 -12078733.867215633 45296528.132514954 0 45296528.132514954 30662999.875915527 0 0 0 0 2527570.1206504782 -2353218.7245422676 0 -2353218.7245422676 -2022886.3775252551 0 0 0 0 1290598.7036227584 -6752930.7152938843 0 -6752930.7152938843 -271585.05085754395 0 0 0 0 5740264.614739418 -7537384.5763778687 0 -7537384.5763778687 -134703.98931121826 0 0 0 0 -90728.845163583755 -7762647.4620552063 0 -7762647.4620552063 18338242.249168396 0 0 0 0 9669609.5220712423 -12595462.471558571 0 -12595462.471558571 6372044.9557037354 0 0 0 0 -5714260.6124712229 -7236355.6104679108 0 -7236355.6104679108 6390415.4921646118 0 0 0 0 -1257139.9052145481 -3388006.8345031738 0 -3388006.8345031738 5799163.596031189 0 0 0 0 3181891.3418258429 -11588667.397102356 0 -11588667.397102356 1566098.1991424561 0 0 0 0 681969.02259904146 152220.04190635681 0 152220.04190635681 6031857.3636550903 0 0 0 0 4371828.4719062895 3591012.4649643898 0 3591012.4649643898 12699200.058708191 0 0 0 0 315795.69992601871 -264862.87521743774 0 -264862.87521743774 9055589.2380595207 0 0 0 0 -81673420.431007028 -69445242.891174316 0 -69445242.891174316 -32139607.695869446 0 0 0 0 21624659.568319798 -47332869.289485931 0 -47332869.289485931 -45141732.589550018 0 0 0 0 1456523.1036106043 -2202546.6561013572 0 -2202546.6561013572 3248331.6257189065 0 0 0 0 -2676977.5180230141 -1759636.3904685974 0 -1759636.3904685974 6787905.7389605045 0 0 0 0 1358170.1105947765 -2771568.013001997 0 -2771568.013001997 4404194.3927775174 0 0 0 0 -106794695.7525897 -98290634.1447258 0 -98290634.1447258 -16141947.592605591 0 0 0 0 -80491692.161796927 -17593214.75551796 0 -17593214.75551796 41901123.225410461 0 0 0 0 -3146780.0422059298 -38521181.863918304 0 -38521181.863918304 155604078.02789307 0 0 0 0 -16563302.654169083 19074420.356361389 0 19074420.356361389 12467867.378261566 0 0 0 0 -43819652.108059883 2218329.8628616333 0 2218329.8628616333 -18525374.902996063 0 0 0 0 -37239475.793208599 -45044674.411509514 0 -45044674.411509514 99639254.906234741 0 0 0 0 -17222179.069006205 -3558814.138710022 0 -3558814.138710022 230133055.04727936 0 0 0 0 -20577144.458233356 35676065.853942871 0 35676065.853942871 110608055.92493248 0 0 0 0 4753110.1757143736 52661502.422324181 0 52661502.422324181 157277516.8137207 0 0 0 0 -17418111.422725916 12180331.739093781 0 12180331.739093781 296570481.14007258 0 0 0 0 -18046267.254473567 791530.50498008728 0 791530.50498008728 295975693.12014008 0 0 0 0 -11654321.46370244 -60622432.774478912 0 -60622432.774478912 186676508.1685524 0 0 0 0 -46164499.762131214 75617588.401821136 0 75617588.401821136 552627853.41937256 0 0 0 0 -34838.013125804253 -20147.566783763468 0 -20147.566783763468 451587.98864316568 0 0 0 0 17530812.565185666 37298070.42408371 0 37298070.42408371 330156282.96612549 0 0 0 0 -59323533.835303783 40668926.736869812 0 40668926.736869812 331380968.79072571 0 0 0 0 -62170688.710019588 3925335.2493343353 0 3925335.2493343353 310320035.26596069 0 0 0 0 -18228557.669603825 36825993.271430969 0 36825993.271430969 327032655.51357269 0 0 0 0 -34483321.299425602 36239434.515312195 0 36239434.515312195 382961728.96094513 0 0 0 0 -19544203.968911767 46786495.062578201 0 46786495.062578201 291986785.05552673 0 0 0 0 -29830226.14159441 -3485016.9030609131 0 -3485016.9030609131 329745239.42665863 0 0 0 0 -32704820.164851189 4075139.2572669983 0 4075139.2572669983 401798860.77497482 0 0 0 0 -27807571.045463443 -19325707.28814888 0 -19325707.28814888 396873199.76707458 0 0 0 0 15716.005379278678 -373520.03595590591 0 -373520.03595590591 933921.67520816252 0 0 0 0 -45952072.626592398 37472128.126102448 0 37472128.126102448 474296389.67432022 0 0 0 0 11662402.35369277 -52309515.968410492 0 -52309515.968410492 420728075.13352489 0 0 0 0 88225220.3614254 -199765978.8428154 0 -199765978.8428154 827818204.07187653 0 0 0 0 70553.167486997787 -284460.35783367604 0 -284460.35783367604 640331.96818229556 0 0 0 0 41168029.651835561 -35547816.093358517 0 -35547816.093358517 427123733.89131927 0 0 0 0 28890112.748826504 -104741578.34217072 0 -104741578.34217072 345696671.76690865 0 0 0 0 -43448831.394987226 -12230752.027813435 0 -12230752.027813435 316956043.58492279 0 0 0 0 -52601077.92929244 -41861544.752254486 0 -41861544.752254486 374092219.4984684 0 0 0 0 -77647826.677815437 -45856309.691520691 0 -45856309.691520691 298970407.10554504 0 0 0 0 -620564.7733823359 4528510.4610748291 0 4528510.4610748291 280070419.37730408 0 0 0 0 -56365555.390159845 275231.08899688721 0 275231.08899688721 321765904.30255127 0 0 0 0 -62848876.0781672 -15847021.950935364 0 -15847021.950935364 357201710.35788727 0 0 0 0 -42589816.752616167 -14214837.870849609 0 -14214837.870849609 319124870.51944733 0 0 0 0 -40880234.814406633 -759448.25784301758 0 -759448.25784301758 317501953.48093414 0 0 0 0 -54150350.890243649 89426892.842784882 0 89426892.842784882 356948015.36912346 0 0 0 0 -61730214.449543595 -42690996.911531448 0 -42690996.911531448 447596296.55726624 0 0 0 0 -15748345.148353219 -76849957.194372177 0 -76849957.194372177 404339420.36588287 0 0 0 0 -71543035.841779053 -23365497.162359238 0 -23365497.162359238 409889513.6873703 0 0 0 0 -8595733.243653059 -66320495.558071136 0 -66320495.558071136 362576624.14200974 0 0 0 0 -25813677.352301776 -54820994.327745438 0 -54820994.327745438 356170671.25476837 0 0 0 0 54335629.409156188 -124432922.81662202 0 -124432922.81662202 273187300.99975586 0 0 0 0 55828499.296692759 -112861546.94335294 0 -112861546.94335294 304782110.45802307 0 0 0 0 27075866.035351992 -65881768.338336945 0 -65881768.338336945 263010274.69921112 0 0 0 0 31400799.719359875 -50976489.268112183 0 -50976489.268112183 291454221.86051178 0 0 0 0 -30743307.835388958 -27784227.632303238 0 -27784227.632303238 307173312.01906586 0 0 0 0 -28057261.674010992 -9583815.4397964478 0 -9583815.4397964478 358328569.0847702 0 0 0 0 17781619.684068918 15779988.724458694 0 15779988.724458694 175402103.83486938 0 0 0 0 31092086.277191401 -17237151.062215805 0 -17237151.062215805 252846641.38650513 0 0 0 0 50528618.829748958 -39962165.596606255 0 -39962165.596606255 195752310.0519104 0 0 0 0 82094177.298502564 -41439156.909938812 0 -41439156.909938812 183368287.3651123 0 0 0 0 48713351.95156467 -51399070.769950867 0 -51399070.769950867 178862773.61677885 0 0 0 0 18116768.993795633 -65311647.709358215 0 -65311647.709358215 71914266.716308594 0 0 0 0 35457799.941459775 2023571.3931350708 0 2023571.3931350708 50956730.332984924 0 0 0 0 111970490.06287432 -75069992.45173645 0 -75069992.45173645 92354620.147237778 0 0 0 0 101986555.76910806 -150274615.05786896 0 -150274615.05786896 129029808.80882263 0 0 0 0 130635319.45418692 -125972350.96015167 0 -125972350.96015167 53650822.56703186 0 0 0 0 82177294.274912968 -160127256.20333576 0 -160127256.20333576 35003885.004104614 0 0 0 0 117825382.97786224 -85534106.897386551 0 -85534106.897386551 -39524214.678825378 0 0 0 0 189211775.35303366 -158875838.24501991 0 -158875838.24501991 -26677295.539779663 0 0 0 0 -748396.71350188577 505047.00295905769 0 505047.00295905769 1675767.9430023506 0 0 0 0 -3719632.4180868864 4829724.414100647 0 4829724.414100647 -1688279.744260788 0 0 0 0 -6195869.9443869591 1296256.9967575073 0 1296256.9967575073 -250069.09911346436 0 0 0 0 -87223.77552972734 -42538.06833922863 0 -42538.06833922863 354449.57880720496 0 0 0 0 91208224.77625367 -78938104.254613876 0 -78938104.254613876 -27732651.344268799 0 0 0 0 187992366.12367415 -160497010.21027374 0 -160497010.21027374 13033642.148586273 0 0 0 0 127776696.7540102 -54983805.353881836 0 -54983805.353881836 54596534.03427124 0 0 0 0 295387387.1014604 -151463261.23736739 0 -151463261.23736739 49973958.597717285 0 0 0 0 -42144.136221303837 -115217.23933721264 0 -115217.23933721264 561210.2750326395 0 0 0 0 126200102.14800155 -131118028.42880249 0 -131118028.42880249 301427579.74460602 0 0 0 0 5918889.25537806 26987617.690751433 0 26987617.690751433 117150605.37679291 0 0 0 0 14189867.556816459 -125586157.40869141 0 -125586157.40869141 185532468.31257629 0 0 0 0 116503996.39803605 -99961130.502319336 0 -99961130.502319336 183463382.02970886 0 0 0 0 138798526.08619934 -67293549.165758133 0 -67293549.165758133 176037566.13348389 0 0 0 0 84087704.527997255 -61210235.369773865 0 -61210235.369773865 201311685.31246567 0 0 0 0 87058642.270372778 -91845015.402301311 0 -91845015.402301311 230931804.28350067 0 0 0 0 86786205.206797197 -94587865.380052328 0 -94587865.380052328 210576995.6650238 0 0 0 0 78113637.395782679 -34716573.621921539 0 -34716573.621921539 199828060.68581772 0 0 0 0 86905252.33273676 -23290776.04516983 0 -23290776.04516983 186526968.17838287 0 0 0 0 105195736.4222962 24015646.609390259 0 24015646.609390259 231099188.91911316 0 0 0 0 62347932.436761469 -52702644.375640869 0 -52702644.375640869 184207473.46282196 0 0 0 0 41385759.476892292 -18262228.658267975 0 -18262228.658267975 217353972.26558685 0 0 0 0 69855323.347613424 -108086049.6003685 0 -108086049.6003685 201062933.34425735 0 0 0 0 34381952.396604955 -15311628.278675079 0 -15311628.278675079 164992265.56913757 0 0 0 0 -622717.93061694235 816093.38536628336 0 816093.38536628336 1354424.6396181434 0 0 0 0 -29415.118367243558 6700631.8232307434 0 6700631.8232307434 -5903021.0137443542 0 0 0 0 -474066.63210690022 5433124.3539791107 0 5433124.3539791107 -9441681.9589614868 0 0 0 0 -2473992.9845868945 2087254.1693735123 0 2087254.1693735123 2114003.923866272 0 0 0 0 -5317086.2312972769 3624352.0432777405 0 3624352.0432777405 2569096.5467681885 0 0 0 0 -2515059.9205242395 17786753.931064606 0 17786753.931064606 4785982.1505241394 0 0 0 0 -3229499.6381840706 15462301.647171021 0 15462301.647171021 1904277.0043373108 0 0 0 0 -5535431.8555116057 33995353.716897964 0 33995353.716897964 -25785671.540283203 0 0 0 0 11610456.512737036 3050249.3673744202 0 3050249.3673744202 -36969789.446305275 0 0 0 0 -111001518.16801843 206734945.81051493 0 206734945.81051493 636450284.05644226 0 0 0 0 311188.43115020567 -581376.99734959006 0 -581376.99734959006 1085434.941128701 0 0 0 0 -107468707.22839832 -150686253.93247986 0 -150686253.93247986 438363521.15388489 0 0 0 0 -421118.19948639616 451550.15095332265 0 451550.15095332265 861562.70805270225 0 0 0 0 8579648.9505946636 -785862.13931655884 0 -785862.13931655884 -5218312.2767791748 0 0 0 0 -38907998.758925438 74346317.223579407 0 74346317.223579407 716844886.80405426 0 0 0 0 -23804809.748003125 222363060.0420208 0 222363060.0420208 -71760823.157554626 0 0 0 0 -198714351.79390931 -57202263.663246155 0 -57202263.663246155 952055408.01811218 0 0 0 0 183454912.41877484 286562405.23872375 0 286562405.23872375 -634653259.82093811 0 0 0 0 117963445.11852837 23837078.648803711 0 23837078.648803711 947154811.795928 0 0 0 0 -118470821.98978043 -136435681.79524231 0 -136435681.79524231 842781615.41314697 0 0 0 0 -946190.28895687475 1254182.2128080428 0 1254182.2128080428 861661.05670242012 0 0 0 0 -127323282.23534596 110724857.129282 0 110724857.129282 95640174.27772522 0 0 0 0 124749917.8470614 199110985.85849762 0 199110985.85849762 -153995253.49525452 0 0 0 0 -62747317.737556681 -14697394.016773224 0 -14697394.016773224 -259791777.63537598 0 0 0 0 175627048.30419207 31922006.744327545 0 31922006.744327545 102023514.58295727 0 0 0 0 216556174.71438676 -130697081.60915804 0 -130697081.60915804 39611642.556289673 0 0 0 0 155848673.56078875 -66098990.540607452 0 -66098990.540607452 179266198.20355606 0 0 0 0 250016902.1789532 -141620654.58099747 0 -141620654.58099747 171049485.21356201 0 0 0 0 161200610.06417751 -47797305.60943222 0 -47797305.60943222 130178196.08978271 0 0 0 0 134424740.78826049 -141409240.66381836 0 -141409240.66381836 245892202.74273682 0 0 0 0 -46030181.349914193 -114148787.70098114 0 -114148787.70098114 466297713.00291824 0 0 0 0 163102000.47952929 -246910373.24470901 0 -246910373.24470901 377906088.01041412 0 0 0 0 600902288.15219295 -312570299.80722809 0 -312570299.80722809 281653854.98994255 0 0 0 0 50692905.422266692 -301001712.04694176 0 -301001712.04694176 823981165.50215149 0 0 0 0 -528327.13789337873 255077112.2233963 0 255077112.2233963 743565806.09930038 0 0 0 0 2352382.4535037931 -3018663.3296929933 0 -3018663.3296929933 3899763.8382599056 0 0 0 0 205884170.77919221 -568483595.20198441 0 -568483595.20198441 746320951.75913668 0 0 0 0 103393849.75383466 -328605578.12399292 0 -328605578.12399292 212400054.69444275 0 0 0 0 382916.10085582733 -48100007.359886169 0 -48100007.359886169 330791959.99846649 0 0 0 0 8518365.1564674228 32860479.573062897 0 32860479.573062897 854601728.37319183 0 0 0 0 313393047.14974236 237100682.95098114 0 237100682.95098114 393477799.01846695 0 0 0 0 183351541.25999844 -157559749.216362 0 -157559749.216362 23730147.276546478 0 0 0 0 150400563.09156066 -273449492.45698166 0 -273449492.45698166 268186609.07363892 0 0 0 0 129555751.40523091 -323715573.86459351 0 -323715573.86459351 207929113.12055206 0 0 0 0 501359420.35181302 -357358849.79357433 0 -357358849.79357433 1505166.5531768799 0 0 0 0 18762426.566766411 19334623.051973343 0 19334623.051973343 148277279.79530334 0 0 0 0 -94625961.306485325 2830266.2726917267 0 2830266.2726917267 164306585.46573639 0 0 0 0 4201584.2684894186 -7300259.2417382672 0 -7300259.2417382672 11594549.73567304 0 0 0 0 -170194048.66065049 -217332588.99509811 0 -217332588.99509811 -49812659.282478333 0 0 0 0 -53498351.392109871 -5742649.0810127258 0 -5742649.0810127258 -8108202.1722276211 0 0 0 0 -37859953.74380517 -3953265.1262030602 0 -3953265.1262030602 -140300410.91020966 0 0 0 0 -43048703.453482628 -1563552.1905989647 0 -1563552.1905989647 118179933.71562195 0 0 0 0 -124236629.79962158 146334416.85594177 0 146334416.85594177 40261100.282318115 0 0 0 0 -213024297.21117115 101610042.28382683 0 101610042.28382683 221094177.2996521 0 0 0 0 -181990935.76922226 35649984.319005966 0 35649984.319005966 299827370.78359985 0 0 0 0 -155609583.7948842 -15519330.23865509 0 -15519330.23865509 356442126.84029388 0 0 0 0 -87589196.573661923 72289655.482130051 0 72289655.482130051 164305717.89745331 0 0 0 0 -105208372.07296324 31413983.444591522 0 31413983.444591522 167823986.71504211 0 0 0 0 -115143060.7952795 64725285.658065796 0 64725285.658065796 187471711.72653198 0 0 0 0 -96972914.223175526 35669022.057003021 0 35669022.057003021 229434363.53288269 0 0 0 0 -15677145.57111454 46691098.284175873 0 46691098.284175873 237367928.23657227 0 0 0 0 -15322426.292505503 45359572.326065063 0 45359572.326065063 170467045.71084595 0 0 0 0 55896871.405837536 76559545.706573486 0 76559545.706573486 191281543.08263397 0 0 0 0 54733744.839277267 -11077565.219182968 0 -11077565.219182968 154031359.06509399 0 0 0 0 14624894.634429812 38048862.478816986 0 38048862.478816986 93872774.320671082 0 0 0 0 34988108.774714708 -29978093.925552368 0 -29978093.925552368 349368828.00582123 0 0 0 0 28145668.479160227 -185873433.98982286 0 -185873433.98982286 206244658.95122528 0 0 0 0 -123900229.14793101 75581830.739038825 0 75581830.739038825 279311695.47814941 0 0 0 0 63622875.988670051 143399357.68943024 0 143399357.68943024 281457829.31565475 0 0 0 0 118006419.65250659 57714224.771446228 0 57714224.771446228 190425840.77258301 0 0 0 0 32752334.424020767 96540442.501701355 0 96540442.501701355 312425452.71866226 0 0 0 0 2011000.3384058811 655988.46073090285 0 655988.46073090285 -1206019.3137187287 0 0 0 0 201715746.94990319 117915425.95401382 0 117915425.95401382 26645602.36907959 0 0 0 0 238643.04994483909 149406.39362234995 0 149406.39362234995 365373.90990489721 0 0 0 0 36306221.429868937 143862651.82820129 0 143862651.82820129 309440522.29495049 0 0 0 0 60063581.72877121 6584678.0469875336 0 6584678.0469875336 245399914.85933685 0 0 0 0 -7228612.2368676662 53346703.363742828 0 53346703.363742828 125200830.25759888 0 0 0 0 55988480.120964408 84900646.593167067 0 84900646.593167067 107367831.2973175 0 0 0 0 33075502.348917723 37171110.634279251 0 37171110.634279251 21505346.729759216 0 0 0 0 7444211.506700635 7421767.4201087952 0 7421767.4201087952 976756.02902984619 0 0 0 0 3771156.0014209589 684837.05134363472 0 684837.05134363472 -3876993.9440441355 0 0 0 0 61975201.0643484 9641155.2932090759 0 9641155.2932090759 23712067.153062701 0 0 0 0 3456360.0031783907 4213749.5805991404 0 4213749.5805991404 3573125.6827527285 0 0 0 0 7530238.4291908741 7000470.405418396 0 7000470.405418396 1050457.7907395363 0 0 0 0 9756088.0397014618 9214523.8344802856 0 9214523.8344802856 3051581.9785995483 0 0 0 0 37112983.977112532 42034525.772741318 0 42034525.772741318 22096167.640968323 0 0 0 0 2494431.7085424908 2508875.6288545951 0 2508875.6288545951 -6265088.7112133205 0 0 0 0 10748390.811196327 10457612.074634552 0 10457612.074634552 3207321.3282914162 0 0 0 0 6856912.2268500105 11912538.811982751 0 11912538.811982751 11031555.852371216 0 0 0 0 5565814.3054333925 9030923.3893318176 0 9030923.3893318176 13737652.522659302 0 0 0 0 237482.93052433152 7050798.2939366288 0 7050798.2939366288 19467754.804135114 0 0 0 0 -181530168.25748253 -11743561.279909134 0 -11743561.279909134 119361791.86969757 0 0 0 0 -210165046.8784647 36635973.197809219 0 36635973.197809219 52549195.582008362 0 0 0 0 -9994871.5242934227 46455257.012231827 0 46455257.012231827 16621801.267172813 0 0 0 0 1213952.2547770599 7669130.4494984262 0 7669130.4494984262 -3314548.2163394839 0 0 0 0 6677733.1004989296 8666870.6305174828 0 8666870.6305174828 10015600.511413574 0 0 0 0 21694089.36396265 13708191.986316681 0 13708191.986316681 -1704887.7275028229 0 0 0 0 489769.58254901995 3451840.1386966743 0 3451840.1386966743 12823972.305215135 0 0 0 0 -141851348.21711683 125289432.11066246 0 125289432.11066246 55840805.452285767 0 0 0 0 103261.892993927 19041563.781745911 0 19041563.781745911 4444759.2093544006 0 0 0 0 -74333969.042349577 40920904.411705971 0 40920904.411705971 37825824.981788635 0 0 0 0 -5735312.7002696991 34110594.313694 0 34110594.313694 130932777.25258636 0 0 0 0 -67994872.645437241 5476905.3609733582 0 5476905.3609733582 128235056.1177516 0 0 0 0 -62054459.40625596 -19986158.13669014 0 -19986158.13669014 233437127.66696167 0 0 0 0 -30801289.658756018 66432535.52762413 0 66432535.52762413 224059961.38182068 0 0 0 0 354995.86564850202 1144591.3044738621 0 1144591.3044738621 4431344.5031986535 0 0 0 0 9577140.7249112129 -135129498.51778793 0 -135129498.51778793 223871198.62103271 0 0 0 0 -16478599.768284798 -73230558.218254089 0 -73230558.218254089 78746311.42950058 0 0 0 0 -110477975.37280083 -25889674.904327393 0 -25889674.904327393 244981744.61743927 0 0 0 0 -111689823.86197451 -80987667.026013494 0 -80987667.026013494 357790014.16690826 0 0 0 0 -94581539.540005684 928727247.05375671 0 928727247.05375671 218655902.50030518 0 0 0 0 513646655.30375004 169684205.67835617 0 169684205.67835617 -95666275.290000916 0 0 0 0 -374153077.98482323 61256756.12128067 0 61256756.12128067 184388280.33339691 0 0 0 0 2984167.5320993932 -7755875.4019394554 0 -7755875.4019394554 16536978.341200873 0 0 0 0 -158319076.30640292 -112452387.93215847 0 -112452387.93215847 -9539922.1203842163 0 0 0 0 -12755321.091193199 83775708.051887512 0 83775708.051887512 3655944.8540039062 0 0 0 0 -12805253.023906708 89393292.441181183 0 89393292.441181183 9919936.0000343323 0 0 0 0 -45631372.077137947 93677694.2694664 0 93677694.2694664 115685626.15509796 0 0 0 0 -45627178.747340202 93657051.726867676 0 93657051.726867676 -16630939.629116058 0 0 0 0 102111554.58910656 97977377.142082214 0 97977377.142082214 -5257102.8703689575 0 0 0 0 118005881.43615758 129493735.61186981 0 129493735.61186981 51769283.608337402 0 0 0 0 126965864.83577651 76286944.143331051 0 76286944.143331051 106371668.45062256 0 0 0 0 184913123.90192509 47470423.674915314 0 47470423.674915314 80603518.662963867 0 0 0 0 156951714.73529243 7012576.2363052368 0 7012576.2363052368 176152779.58913422 0 0 0 0 -58751372.014994621 16600331.150238037 0 16600331.150238037 18660472.114547729 0 0 0 0 -54306860.335783958 -15357598.864810944 0 -15357598.864810944 244997883.75195694 0 0 0 0 104522033.76133251 156498024.06421089 0 156498024.06421089 113487819.36793518 0 0 0 0 192541.29619964072 331296.16013067216 0 331296.16013067216 -103336.90973769128 0 0 0 0 74133220.082363486 -122304161.36880493 0 -122304161.36880493 -293672091.18102264 0 0 0 0 134159032.91145682 -43149702.972846985 0 -43149702.972846985 -256634663.93039703 0 0 0 0 -56132069.816040039 -44161228.944080353 0 -44161228.944080353 -92531102.004318237 0 0 0 0 104802813.75668621 -35046242.75976181 0 -35046242.75976181 -131792114.56872177 0 0 0 0 230392652.84804559 29092626.132633209 0 29092626.132633209 182791148.91130447 0 0 0 0 -60251155.035387516 -53423629.361251831 0 -53423629.361251831 -60463082.004837036 0 0 0 0 -115724450.64081347 -142147199.33855438 0 -142147199.33855438 4530054.049987793 0 0 0 0 -66881772.300848722 5560202.1615257263 0 5560202.1615257263 45627906.904914856 0 0 0 0 1636433.2845405724 -4409209.5903812163 0 -4409209.5903812163 10452961.32879819 0 0 0 0 -10189959.16358757 -49653257.895545959 0 -49653257.895545959 145867412.89107513 0 0 0 0 -51690109.148871899 -109277892.91545868 0 -109277892.91545868 82290822.628250122 0 0 0 0 37563188.085970432 -28957820.403728306 0 -28957820.403728306 85862327.234313965 0 0 0 0 36994203.246582903 -49988087.21418798 0 -49988087.21418798 6884420.8768539429 0 0 0 0 -16759294.297729015 -44277155.813144684 0 -44277155.813144684 36081263.530899048 0 0 0 0 -16274613.792429209 -53071679.869773865 0 -53071679.869773865 -70364750.191146851 0 0 0 0 10725562.536318302 -44854399.72095871 0 -44854399.72095871 -20071215.178527832 0 0 0 0 -108394680.08241099 -15748549.603178978 0 -15748549.603178978 4549303.8511505127 0 0 0 0 75792599.398576021 -17834229.773540497 0 -17834229.773540497 -14790833.503669739 0 0 0 0 81036404.712733895 26797665.697390079 0 26797665.697390079 67343371.3722229 0 0 0 0 23548873.27744031 1572409.5850067139 0 1572409.5850067139 28093936.65057373 0 0 0 0 126120263.28904478 -13631666.703156486 0 -13631666.703156486 580262.05473327637 0 0 0 0 29458186.616302252 -15778024.617591858 0 -15778024.617591858 67931011.649839401 0 0 0 0 40366661.692458391 8363389.5497589111 0 8363389.5497589111 58538598.084955215 0 0 0 0 89808082.655787706 -57780764.766868591 0 -57780764.766868591 146358256.75888062 0 0 0 0 21109156.704314232 -28760670.018512726 0 -28760670.018512726 96526940.733200073 0 0 0 0 29909784.276578069 -7161104.8685321808 0 -7161104.8685321808 9112098.4038085938 0 0 0 0 -62614022.425712824 -27177278.611968994 0 -27177278.611968994 27061943.951713562 0 0 0 0 -104239756.28840864 -12711612.112018585 0 -12711612.112018585 8652687.9002799988 0 0 0 0 -46149531.925901651 -65338552.512757301 0 -65338552.512757301 -49759702.684967041 0 0 0 0 4563420.3500423627 -9371555.5338273365 0 -9371555.5338273365 16603898.874837354 0 0 0 0 244501169.79668283 -747761921.25951385 0 -747761921.25951385 -112720283.79556274 0 0 0 0 -143300953.72886899 -103257977.37585068 0 -103257977.37585068 34434910.284950256 0 0 0 0 -29537247.422753096 -47182447.039974213 0 -47182447.039974213 10865632.443260193 0 0 0 0 -28602037.458493352 10270690.665660858 0 10270690.665660858 65947927.885215759 0 0 0 0 -45748071.726265192 28279259.318367004 0 28279259.318367004 112641371.50145721 0 0 0 0 -37463519.177038312 -5896217.8726501465 0 -5896217.8726501465 170692140.40303802 0 0 0 0 -25805037.825333118 -37520736.443050385 0 -37520736.443050385 -23904331.892978668 0 0 0 0 -20122190.831545234 33502185.762908936 0 33502185.762908936 175460787.06287384 0 0 0 0 -27090532.323674411 50500621.604076862 0 50500621.604076862 259281199.19778442 0 0 0 0 20955799.36010313 -4523565.5111122131 0 -4523565.5111122131 146427279.21260071 0 0 0 0 2794499.7895460129 -14244981.098045349 0 -14244981.098045349 205643666.82191467 0 0 0 0 -18003592.479067862 29573322.681918144 0 29573322.681918144 143553821.38859558 0 0 0 0 152195004.85630202 -213004735.98039246 0 -213004735.98039246 313047074.48792267 0 0 0 0 84380772.792702675 -103532829.78392029 0 -103532829.78392029 136989620.76174736 0 0 0 0 58727524.871905923 -69934001.737623215 0 -69934001.737623215 257190106.10945892 0 0 0 0 -1826352.6504209042 -46701800.218826294 0 -46701800.218826294 251153878.99526596 0 0 0 0 38187185.24136138 -115600558.65379715 0 -115600558.65379715 286738386.75488281 0 0 0 0 209587648.56959915 -274246297.5672226 0 -274246297.5672226 336789095.00501251 0 0 0 0 72882150.982541561 -216655483.40963364 0 -216655483.40963364 521648876.96505356 0 0 0 0 196970876.39899445 -316721783.212883 0 -316721783.212883 560599806.50115967 0 0 0 0 342801010.62572664 -479500510.83466959 0 -479500510.83466959 356275747.57753754 0 0 0 0 339323752.54656792 -446820823.95075989 0 -446820823.95075989 55555265.064781189 0 0 0 0 448921489.92002392 -447648581.49729156 0 -447648581.49729156 309755082.19274521 0 0 0 0 213343843.18208265 -352177010.1630249 0 -352177010.1630249 369114790.42347527 0 0 0 0 182198148.71683335 -254434781.73073578 0 -254434781.73073578 87990521.014480591 0 0 0 0 370417784.73041284 -292255843.59230614 0 -292255843.59230614 -186530072.73376465 0 0 0 0 354449850.41560459 -277158066.66972733 0 -277158066.66972733 90940154.215978622 0 0 0 0 684978433.53476524 -502214096.70572662 0 -502214096.70572662 -273333543.54058838 0 0 0 0 640124843.17487955 -307399722.59119987 0 -307399722.59119987 -813544225.6778183 0 0 0 0 566887124.50702953 -273663606.65992737 0 -273663606.65992737 -194612939.88708496 0 0 0 0 455387146.77262712 -149818272.5684166 0 -149818272.5684166 -329177720.55672455 0 0 0 0 374239005.68940139 -115037125.27098656 0 -115037125.27098656 -70543592.602455139 0 0 0 0 272638608.624892 -28276312.27130127 0 -28276312.27130127 -106146524.50878906 0 0 0 0 264582980.89329147 -155484441.45588684 0 -155484441.45588684 -63038100.388946533 0 0 0 0 213558230.61833143 -142460637.79741669 0 -142460637.79741669 141936227.54452085 0 0 0 0 119256925.74413002 -36896046.719120026 0 -36896046.719120026 25366550.820495605 0 0 0 0 241831121.72918224 -57733975.622905731 0 -57733975.622905731 18893023.077109337 0 0 0 0 126238931.31284715 7261935.089813605 0 7261935.089813605 -6883030.7948379517 0 0 0 0 233704603.427634 70572676.460074425 0 70572676.460074425 -40296488.004669189 0 0 0 0 219633129.35147667 22064348.163955688 0 22064348.163955688 -9561588.5542411804 0 0 0 0 354886824.84422934 119273069.29792976 0 119273069.29792976 -108169568.01005554 0 0 0 0 396103165.35990262 82021700.57075119 0 82021700.57075119 -99986853.711105347 0 0 0 0 349096724.59764051 28600814.06464386 0 28600814.06464386 -95131509.64344883 0 0 0 0 349129709.27706671 151809658.94329453 0 151809658.94329453 11449529.410102844 0 0 0 0 83088034.352295876 -14336807.024490356 0 -14336807.024490356 31260806.735454559 0 0 0 0 113869621.77641726 112605033.13647461 0 112605033.13647461 211449049.94378662 0 0 0 0 15030033.37492609 -46977932.369373322 0 -46977932.369373322 74500860.553657532 0 0 0 0 41591833.770416737 8293179.7715988159 0 8293179.7715988159 30985751.95905304 0 0 0 0 -2753118.6404066086 -29431537.048355103 0 -29431537.048355103 113750798.80859375 0 0 0 0 -2408778.6308120489 -40346703.898769379 0 -40346703.898769379 20740248.229682922 0 0 0 0 805514.41394674405 -228783.89726978913 0 -228783.89726978913 562703.7810357064 0 0 0 0 2621801.5288434029 16570677.244939804 0 16570677.244939804 11458674.718132019 0 0 0 0 -279023.06410300825 391868.69963125139 0 391868.69963125139 614902.87164311856 0 0 0 0 21362618.505571365 -8438544.4840831757 0 -8438544.4840831757 17884866.805458069 0 0 0 0 -40720433.361444473 -88229983.847396851 0 -88229983.847396851 -81913339.296802521 0 0 0 0 -52753656.814718068 -131254927.91800404 0 -131254927.91800404 36395741.194015503 0 0 0 0 977194.29846808594 2808510.4943209589 0 2808510.4943209589 2555853.123208791 0 0 0 0 -356868166.5939188 196176683.53435135 0 196176683.53435135 -91068506.916007996 0 0 0 0 -6653239.6466009617 73462556.900090218 0 73462556.900090218 1089992260.3128128 0 0 0 0 843946.61948292702 2098740.7465504855 0 2098740.7465504855 1613359.6388996169 0 0 0 0 -1366401.23166091 638505.71138273925 0 638505.71138273925 5068642.3132267985 0 0 0 0 7574578.7145819664 55846582.584327698 0 55846582.584327698 336979324.63328552 0 0 0 0 -252855.35994366743 529554.92598301917 0 529554.92598301917 4507257.1878982633 0 0 0 0 -16457332.559718132 6836283.9646224976 0 6836283.9646224976 17453068.851171494 0 0 0 0 293912900.79210138 478498484.91752625 0 478498484.91752625 242046082.82796478 0 0 0 0 198271485.62319088 446769802.0128212 0 446769802.0128212 456710654.10532951 0 0 0 0 30819353.942660332 739906089.91798401 0 739906089.91798401 889213573.60103607 0 0 0 0 168116694.3655858 554822936.62249374 0 554822936.62249374 140876411.77714539 0 0 0 0 333104952.34833282 595758572.061759 0 595758572.061759 -194458544.92262268 0 0 0 0 330208875.31816959 611624840.83755493 0 611624840.83755493 100137814.87952232 0 0 0 0 401523403.34633374 409636617.43766403 0 409636617.43766403 -404617124.42115784 0 0 0 0 362791297.86029148 296225213.8184166 0 296225213.8184166 251518969.23353028 0 0 0 0 552765091.81096482 110109725.95584297 0 110109725.95584297 -370743507.9786377 0 0 0 0 497460284.79376698 84639463.229663849 0 84639463.229663849 -338205862.11080146 0 0 0 0 582808087.94465399 160759389.6607399 0 160759389.6607399 -603488240.49662018 0 0 0 0 94735799.961626053 1107430013.7596397 0 1107430013.7596397 -914446277.81400681 0 0 0 0 690152802.45104027 152114254.02154922 0 152114254.02154922 -1400576901.2924614 0 0 0 0 -395458128.62805367 1100010810.0140676 0 1100010810.0140676 -1550843722.208271 0 0 0 0 -1282812684.0755424 37492910.672569275 0 37492910.672569275 -1766629085.343235 0 0 0 0 -5481206.379992485 564905159.88208008 0 564905159.88208008 192604193.65244579 0 0 0 0 -497597695.83733606 863082455.16243553 0 863082455.16243553 127425823.10611725 0 0 0 0 69128686.662952423 955008623.78158951 0 955008623.78158951 271919148.99151993 0 0 0 0 -523144378.03601933 660129224.93644714 0 660129224.93644714 1155564681.1936817 0 0 0 0 -727425590.95557749 412216024.39802742 0 412216024.39802742 1022414061.7758942 0 0 0 0 -864345111.78009129 720309300.87342453 0 720309300.87342453 1164817932.3905716 0 0 0 0 -318638819.20783901 83164485.5184021 0 83164485.5184021 1127192333.5981445 0 0 0 0 -771850453.6940465 515577124.52700806 0 515577124.52700806 1368888476.1767883 0 0 0 0 -353917032.97197437 252218600.36253357 0 252218600.36253357 927676668.02578735 0 0 0 0 -356382089.20974874 295210228.68950272 0 295210228.68950272 464663003.37808228 0 0 0 0 -222894546.01824856 753160473.91457367 0 753160473.91457367 812702351.89408112 0 0 0 0 -152395621.07968664 481968105.89870453 0 481968105.89870453 246242437.6806488 0 0 0 0 -376701967.29092598 294219766.22711182 0 294219766.22711182 506027470.32652283 0 0 0 0 -326709103.87360179 -427376859.04551888 0 -427376859.04551888 2242814117.8972397 0 0 0 0 4645937.41347053 -626001295.92037201 0 -626001295.92037201 1363309179.7023773 0 0 0 0 -376631187.86246538 27449513.198875427 0 27449513.198875427 1202694868.8939667 0 0 0 0 -539130864.27688742 641397661.32490337 0 641397661.32490337 2507969522.8724976 0 0 0 0 -540477556.73872232 596815461.12967682 0 596815461.12967682 1169705028.6821899 0 0 0 0 -25435540.992303528 -5183181922.0579147 0 -5183181922.0579147 -3794731687.4982758 0 0 0 0 -8649084.8360328451 1761395.7393518165 0 1761395.7393518165 10567687.026726827 0 0 0 0 858233261.56156242 1428532517.332592 0 1428532517.332592 1296867802.4447289 0 0 0 0 37720727.339773104 -5071488348.8761482 0 -5071488348.8761482 -3889033336.1191292 0 0 0 0 -1217081613.8461146 1336683174.6662655 0 1336683174.6662655 218940279.61621475 0 0 0 0 -1311298760.785454 167112177.5962429 0 167112177.5962429 591939886.58903122 0 0 0 0 -24520801.263230581 19020144.419832889 0 19020144.419832889 8292138.9745882601 0 0 0 0 -6282188179.9949322 3565844876.57341 0 3565844876.57341 23157834836.807579 0 0 0 0 -6515517251.5681953 1257980721.2108498 0 1257980721.2108498 2050675815.6754074 0 0 0 0 -10486092.663269699 31444117.048076928 0 31444117.048076928 -58120151.440448262 0 0 0 0 4191042695.055634 15513150199.622269 0 15513150199.622269 -2643008765.4849148 0 0 0 0 2776443211.005188 6523280228.7659473 0 6523280228.7659473 1302319628.6676707 0 0 0 0 -1889921828.2518079 -5756991363.4773121 0 -5756991363.4773121 -12157042658.96557 0 0 0 0 394922.58511725487 -24646308.184222639 0 -24646308.184222639 99594581.204341635 0 0 0 0 9098775.2851574291 -32224311.396921158 0 -32224311.396921158 47349447.10559082 0 0 0 0 4550147177.8514042 8401672037.3235779 0 8401672037.3235779 -18987889922.734886 0 0 0 0 573943396.80304337 -473397706.75968957 0 -473397706.75968957 -3099624749.3965335 0 0 0 0 129703993.35699511 -176592057.06589508 0 -176592057.06589508 241308328.43625641 0 0 0 0 4699087.1676279381 -8578614.0981200375 0 -8578614.0981200375 7112714.9235832691 0 0 0 0 1860520.3589377496 -14385628.882915497 0 -14385628.882915497 21229154.077055931 0 0 0 0 7880135.2199586667 -35597107.850194365 0 -35597107.850194365 93572445.687918097 0 0 0 0 13700551.573332278 -55928289.095079966 0 -55928289.095079966 18351304.968434967 0 0 0 0 232535884.27616072 -7038747.0546302795 0 -7038747.0546302795 -117891767.5893631 0 0 0 0 327634025.31371593 -860728906.04728699 0 -860728906.04728699 786911361.81648254 0 0 0 0 467022837.52540302 -503987820.31965637 0 -503987820.31965637 310073789.10971832 0 0 0 0 -87574264.657621384 -387597155.39417267 0 -387597155.39417267 564044320.6546936 0 0 0 0 42663885.2053665 -39441458.645854928 0 -39441458.645854928 -14918142.241123652 0 0 0 0 387275455.51258755 -191106884.0652771 0 -191106884.0652771 104910418.77690125 0 0 0 0 193207225.25264549 300747116.0846405 0 300747116.0846405 -4178631406.0440445 0 0 0 0 2716204502.4842682 3280482545.1358171 0 3280482545.1358171 -7852280526.330061 0 0 0 0 -13180817.886055935 33340384.787669532 0 33340384.787669532 -41607299.650280505 0 0 0 0 513699021.42926884 410811259.61392212 0 410811259.61392212 -3782364167.589447 0 0 0 0 -1763757775.2622585 902598543.0152359 0 902598543.0152359 -2540698363.7736206 0 0 0 0 -403161307.72873211 1738755521.3768768 0 1738755521.3768768 -5565756405.9538193 0 0 0 0 1038560.6514260136 1272729.1609417349 0 1272729.1609417349 -10817167.598272827 0 0 0 0 535203397.18599463 52830583.587284088 0 52830583.587284088 -1070128601.4317703 0 0 0 0 898084226.36511135 -362949107.89501953 0 -362949107.89501953 -1634424091.6165771 0 0 0 0 1083313780.2949457 -1121439220.704483 0 -1121439220.704483 -527712512.10995483 0 0 0 0 540119756.11755085 -610586385.83512115 0 -610586385.83512115 629429000.05432892 0 0 0 0 533419663.95247936 -691309024.4864006 0 -691309024.4864006 -252955863.71977377 0 0 0 0 -388560650.74159813 -37990819.229263306 0 -37990819.229263306 1440535899.3328743 0 0 0 0 9734435.7222256903 -8738889.8264008611 0 -8738889.8264008611 -10320760.542066708 0 0 0 0 947471064.05703926 -1325389186.0472412 0 -1325389186.0472412 1799795283.191803 0 0 0 0 1143706620.1822293 -1578059473.13342 0 -1578059473.13342 1343174481.0664673 0 0 0 0 1102087933.1788769 -663902259.35592651 0 -663902259.35592651 542393436.85272217 0 0 0 0 899029824.71983147 -1278801383.8143005 0 -1278801383.8143005 1083062218.4029083 0 0 0 0 1363042938.3568745 -901597280.09757996 0 -901597280.09757996 541799236.02859497 0 0 0 0 591068002.67555523 -570336197.96622467 0 -570336197.96622467 465714180.16473913 0 0 0 0 841712654.81821918 -881844773.77926636 0 -881844773.77926636 543537242.52766943 0 0 0 0 931546284.04022408 -943220212.75286484 0 -943220212.75286484 496164454.91955566 0 0 0 0 963171069.57620239 -645047929.9175415 0 -645047929.9175415 550844725.27818298 0 0 0 0 784462671.61420107 -804277015.41666031 0 -804277015.41666031 659123034.24555969 0 0 0 0 874136029.62204456 -743539407.89849472 0 -743539407.89849472 446396092.42311859 0 0 0 0 485391844.86904013 -583907932.77497959 0 -583907932.77497959 605205229.24452209 0 0 0 0 314092516.10284042 -419485682.87390137 0 -419485682.87390137 646395430.49189496 0 0 0 0 362096220.97845602 -413644031.58597565 0 -413644031.58597565 574008385.8772583 0 0 0 0 487337276.1586957 -649604480.0287056 0 -649604480.0287056 654270290.7202301 0 0 0 0 444560963.49658954 -592425868.43769836 0 -592425868.43769836 829156853.0617218 0 0 0 0 611449350.88261414 -852467324.80472565 0 -852467324.80472565 981459188.86104774 0 0 0 0 623357705.38049078 -868452083.25154114 0 -868452083.25154114 903569299.05725098 0 0 0 0 746762951.49194908 -1063570221.5521088 0 -1063570221.5521088 897765425.75147676 0 0 0 0 2202534266.6599507 -1091357830.4221115 0 -1091357830.4221115 404638953.61594391 0 0 0 0 1120603.8646255997 -2008069.2773872986 0 -2008069.2773872986 3302695.8345138729 0 0 0 0 1027158824.2199721 -1338715537.2190857 0 -1338715537.2190857 1429395942.9271817 0 0 0 0 -846524581.82433975 -531414800.17012787 0 -531414800.17012787 604127642.80030823 0 0 0 0 1187791045.52002 -456337175.87058258 0 -456337175.87058258 51963826.95980835 0 0 0 0 -1012148.4769330304 33113514.425344244 0 33113514.425344244 -354212595.41748047 0 0 0 0 377890125.2863183 -74856894.730606079 0 -74856894.730606079 126204956.86042786 0 0 0 0 640799593.97332382 -695261794.02518463 0 -695261794.02518463 445114522.66165924 0 0 0 0 768242422.82797432 -970795132.4980011 0 -970795132.4980011 519944386.36985016 0 0 0 0 700826990.94552088 -897250055.97027206 0 -897250055.97027206 598761138.83172607 0 0 0 0 1142270789.9400873 -1099721296.208168 0 -1099721296.208168 521625517.20082092 0 0 0 0 782036998.4524281 -754847396.80539632 0 -754847396.80539632 279777877.06144714 0 0 0 0 13654411.372231448 -7867555.3697013855 0 -7867555.3697013855 3613534.4808197021 0 0 0 0 2689111.812002223 -32956629.717250824 0 -32956629.717250824 74536447.81711328 0 0 0 0 -54211.554109756216 -12141713.011348724 0 -12141713.011348724 96968559.197906494 0 0 0 0 -1267328.3332198821 -23954858.515907288 0 -23954858.515907288 74377228.230340779 0 0 0 0 -2052254.1459937692 -20794183.884578705 0 -20794183.884578705 148288886.1037178 0 0 0 0 -10754027.51178652 27931797.578266144 0 27931797.578266144 110214515.77967834 0 0 0 0 40934082.912641503 -62719443.502193451 0 -62719443.502193451 81003424.253700256 0 0 0 0 24752142.382208578 29088391.347328186 0 29088391.347328186 9987483.8822631836 0 0 0 0 49818.972830906117 157442.94624044746 0 157442.94624044746 521451.78109547496 0 0 0 0 -14687540.62069416 3451659.4342727661 0 3451659.4342727661 5678488.9001464844 0 0 0 0 -7324518.493972376 -4622189.3535842896 0 -4622189.3535842896 13654220.795084953 0 0 0 0 -66333.125171926717 412740.23478839919 0 412740.23478839919 1378589.7492758334 0 0 0 0 1325589.4186739326 -4275417.6013221741 0 -4275417.6013221741 748647.44189453125 0 0 0 0 -5727918.5684138238 16702409.736041069 0 16702409.736041069 10368683.114532471 0 0 0 0 -2924650.5363996187 638384.39593165368 0 638384.39593165368 4804612.583081536 0 0 0 0 996450.3140425384 -1057039.0236968994 0 -1057039.0236968994 -2417757.1353225708 0 0 0 0 -10843867.368957698 -2529103.0445556641 0 -2529103.0445556641 20197932.530509949 0 0 0 0 -711671.40371637046 2742788.7623405457 0 2742788.7623405457 -360594.12953567505 0 0 0 0 -4911759.5650851391 3219561.8744544983 0 3219561.8744544983 -39250.285720825195 0 0 0 0 -7801812.6710628066 -1033228.6807603836 0 -1033228.6807603836 15946833.224685669 0 0 0 0 91217.909326944209 -11092039.866146088 0 -11092039.866146088 24713309.498535156 0 0 0 0 -292246.96088496252 -25175680.226036072 0 -25175680.226036072 3916875.1735458374 0 0 0 0 -15769783.383715995 -21233673.00031662 0 -21233673.00031662 18545330.820121765 0 0 0 0 -61673949.98141025 -60168694.129397392 0 -60168694.129397392 5628239.198348999 0 0 0 0 -43850246.670251869 41788349.542026043 0 41788349.542026043 -16490864.316299438 0 0 0 0 -292290875.77339756 -100179617.42483521 0 -100179617.42483521 -1248827.3477172852 0 0 0 0 -1254109.6927462064 601716.89850457758 0 601716.89850457758 2049167.7035489827 0 0 0 0 133613.56590433605 5566430.5525779724 0 5566430.5525779724 1033357.3273887634 0 0 0 0 7585899.4400213361 37882640.007590294 0 37882640.007590294 121958954.45001984 0 0 0 0 555796805.01767635 -433574790.16629028 0 -433574790.16629028 614853856.09272766 0 0 0 0 939246827.3710475 -696560508.17919159 0 -696560508.17919159 521959389.27281189 0 0 0 0 -1265917.3766627181 119468.92002967186 0 119468.92002967186 2137425.7875712365 0 0 0 0 -22038707.251441956 -390480667.9359436 0 -390480667.9359436 1162702388.9622955 0 0 0 0 -267142254.6825996 -879479381.24161148 0 -879479381.24161148 852815308.24298477 0 0 0 0 -36508.130673013628 -398148124.03425217 0 -398148124.03425217 -100322823.68263245 0 0 0 0 -141312631.16396159 29549895.37323761 0 29549895.37323761 -6883645.3459968567 0 0 0 0 -1672963.8480635369 -1287240.3310420141 0 -1287240.3310420141 420446.37925058603 0 0 0 0 170406594.88081169 -587991218.25991821 0 -587991218.25991821 1046565823.2924805 0 0 0 0 189256577.8998251 -566502917.46659851 0 -566502917.46659851 514475526.54768658 0 0 0 0 273556653.88122988 -399919471.70344543 0 -399919471.70344543 493273932.3161087 0 0 0 0 1276079.6916394827 -1762557.7209508717 0 -1762557.7209508717 536343.68723367155 0 0 0 0 323408160.9652437 -315375159.6328373 0 -315375159.6328373 636532655.96995544 0 0 0 0 242994401.95392561 -183037103.97452545 0 -183037103.97452545 794094685.07084656 0 0 0 0 111443838.83700991 -257554493.10256195 0 -257554493.10256195 757132603.39920044 0 0 0 0 143706602.12826777 -347313713.95988464 0 -347313713.95988464 609172480.39334297 0 0 0 0 282939294.81408858 -351892368.73121643 0 -351892368.73121643 608988436.68988037 0 0 0 0 -2840916.4994344711 -363242853.59289932 0 -363242853.59289932 1129916554.8523407 0 0 0 0 144274552.86985016 -316307283.8890419 0 -316307283.8890419 695369602.50437927 0 0 0 0 -132805990.37752199 -114335991.45546722 0 -114335991.45546722 750856194.7744751 0 0 0 0 -1413949.1693246462 -625981104.14102387 0 -625981104.14102387 835628351.06808472 0 0 0 0 64306666.915520489 -417260328.19792175 0 -417260328.19792175 796240589.41360474 0 0 0 0 -9726676.487184763 -427622984.65990448 0 -427622984.65990448 1283310983.326004 0 0 0 0 182051579.12742317 -432710109.67240524 0 -432710109.67240524 798234776.21424866 0 0 0 0 -409411468.21333313 -19497445.158401489 0 -19497445.158401489 -24633445.164779663 0 0 0 0 -381970997.1114006 -10529309.076095581 0 -10529309.076095581 -34375319.664596558 0 0 0 0 -234848322.39005566 256316363.99562454 0 256316363.99562454 304807185.39117432 0 0 0 0 -385916276.20992184 -95176109.994552612 0 -95176109.994552612 91084482.049972534 0 0 0 0 -449449991.43134451 8800108.636964798 0 8800108.636964798 582920141.28204346 0 0 0 0 -98181296.328069687 -91709810.302467346 0 -91709810.302467346 656577141.02338409 0 0 0 0 -288950403.89349699 87355488.27602005 0 87355488.27602005 488913936.13143921 0 0 0 0 -295567327.79334164 -324867197.35694885 0 -324867197.35694885 543536259.67263794 0 0 0 0 -76223131.518845558 -216280669.33100891 0 -216280669.33100891 347041563.24698257 0 0 0 0 112507344.79207039 -332138756.56632996 0 -332138756.56632996 559017217.33852386 0 0 0 0 -96086809.173813343 -194537751.4006424 0 -194537751.4006424 662529024.4994812 0 0 0 0 -135387597.22587872 -226400717.31492615 0 -226400717.31492615 598535992.44174194 0 0 0 0 32905018.851770401 -704161076.16188812 0 -704161076.16188812 568061848.11496878 0 0 0 0 -1118646.0438182838 1370193.9288277179 0 1370193.9288277179 -919349.91809639335 0 0 0 0 -1004389156.7239187 -635133042.23575592 0 -635133042.23575592 96042436.442207336 0 0 0 0 -542833009.65619183 5133775.522277832 0 5133775.522277832 323886358.30796814 0 0 0 0 -372784710.85564619 4289605.9443016052 0 4289605.9443016052 434097810.12683105 0 0 0 0 27806275.759614944 -427141558.4247818 0 -427141558.4247818 117266630.69795609 0 0 0 0 -568705548.40959883 -472453238.09692764 0 -472453238.09692764 634392475.51803589 0 0 0 0 -98581710.989131927 -377535204.87999725 0 -377535204.87999725 651994215.46875381 0 0 0 0 -84679938.308866501 -559636167.79320526 0 -559636167.79320526 1008645440.7199745 0 0 0 0 466538621.33255529 -342242632.23442459 0 -342242632.23442459 401162437.51976013 0 0 0 0 593877.56583345728 -907285.52514658868 0 -907285.52514658868 382637.90881511569 0 0 0 0 -278466211.86083746 -541094853.42153168 0 -541094853.42153168 674801206.75927734 0 0 0 0 29418556.123978615 -744840251.92664337 0 -744840251.92664337 458812025.96162987 0 0 0 0 84236644.568309307 -593788285.86112976 0 -593788285.86112976 655107748.38912392 0 0 0 0 -4596712.8390637012 -991337.2310565114 0 -991337.2310565114 2652630.6553499773 0 0 0 0 -8246970.7884471714 -609064.47902774811 0 -609064.47902774811 6204235.9850387573 0 0 0 0 150923986.38004398 -541364989.87407684 0 -541364989.87407684 669848826.01436043 0 0 0 0 -143963456.11260462 -137937965.66841125 0 -137937965.66841125 783133238.65641785 0 0 0 0 -272760347.2026118 -98193267.805274487 0 -98193267.805274487 752819723.31820679 0 0 0 0 -301725354.79870141 -328083572.58537722 0 -328083572.58537722 700625898.87161255 0 0 0 0 121375579.5438776 -231379257.72244263 0 -231379257.72244263 710689717.56181717 0 0 0 0 -187737029.44407225 -99430968.24366188 0 -99430968.24366188 899739936.23908997 0 0 0 0 -171977965.38809943 -171829094.49545288 0 -171829094.49545288 759017419.16670227 0 0 0 0 -151690569.60051107 -147882402.08917236 0 -147882402.08917236 771393120.01966858 0 0 0 0 499970859.30489635 453800811.02634048 0 453800811.02634048 804759939.28268051 0 0 0 0 -166991373.46131277 -245475981.03897858 0 -245475981.03897858 1547933381.9401398 0 0 0 0 354910894.86030138 -667919604.04596221 0 -667919604.04596221 701344770.87161255 0 0 0 0 86589403.603451967 -154886389.26984406 0 -154886389.26984406 303965507.49224854 0 0 0 0 124705609.17725778 -218708489.11597443 0 -218708489.11597443 297724172.82620239 0 0 0 0 235922587.8910417 -152357068.66472244 0 -152357068.66472244 145099097.17706299 0 0 0 0 -140443971.21499443 -190403443.70361328 0 -190403443.70361328 765850045.17358971 0 0 0 0 -137451660.42242765 -191139306.40339661 0 -191139306.40339661 594356227.78195953 0 0 0 0 -8885560.6825823784 23256383.448879242 0 23256383.448879242 83974728.367507935 0 0 0 0 -41161805.302567959 -2502893.5779762268 0 -2502893.5779762268 421867930.51999664 0 0 0 0 -21175838.942137897 -33499433.639034271 0 -33499433.639034271 35221465.626945496 0 0 0 0 16894869.22213316 -114504454.05612183 0 -114504454.05612183 313565163.35773754 0 0 0 0 79668134.797035843 27170002.835479736 0 27170002.835479736 71586848.656692505 0 0 0 0 -15715747.63844353 57405343.611581802 0 57405343.611581802 -25259490.591201782 0 0 0 0 50435017.22626698 51599385.614364624 0 51599385.614364624 -43928666.80606842 0 0 0 0 -5616774.302775491 7347255.2823277116 0 7347255.2823277116 11933871.865843162 0 0 0 0 -44241482.502549171 2152230.8972244263 0 2152230.8972244263 21506687.419775963 0 0 0 0 -591790341.66846466 -69502308.812675476 0 -69502308.812675476 923219.16656494141 0 0 0 0 -42205191.376379192 -12070086.902117729 0 -12070086.902117729 3950849.8358154297 0 0 0 0 -5343567.762963023 7212052.3444403559 0 7212052.3444403559 692297.35759566724 0 0 0 0 9515056.0142891407 -44318518.611094475 0 -44318518.611094475 24039106.224975586 0 0 0 0 -596919166.11867046 -63077545.475280762 0 -63077545.475280762 151154779.66319275 0 0 0 0 -92201632.252933025 -36231680.521549225 0 -36231680.521549225 48602086.217163086 0 0 0 0 -122601266.63494372 -107178403.41183472 0 -107178403.41183472 200922230.16969299 0 0 0 0 -135208651.21126235 -62237709.994483948 0 -62237709.994483948 41321709.182113647 0 0 0 0 -38204734.626063585 -45106351.668083191 0 -45106351.668083191 13157291.892204285 0 0 0 0 -41241784.61405021 68546684.446009159 0 68546684.446009159 37029578.950309753 0 0 0 0 -198726801.0994308 96940893.972721934 0 96940893.972721934 391825129.6999054 0 0 0 0 -4880113.1295137927 3397809.8861687705 0 3397809.8861687705 12621818.861635312 0 0 0 0 -196459498.85309839 187371527.68949127 0 187371527.68949127 41912636.804439306 0 0 0 0 52281665.110243797 -155988932.71151733 0 -155988932.71151733 430473864.35486603 0 0 0 0 3802489.4864023691 -5910393.0745928213 0 -5910393.0745928213 9636008.987666741 0 0 0 0 -134428597.75487876 -35662660.581726074 0 -35662660.581726074 33655735.507989883 0 0 0 0 31855069.272608399 81758662.410488129 0 81758662.410488129 30163809.692977905 0 0 0 0 339923528.7703054 -305216145.93313122 0 -305216145.93313122 -34080519.472488403 0 0 0 0 -80957488.430387974 -477687533.64417267 0 -477687533.64417267 1493283040.7589264 0 0 0 0 2356365.0473818155 -2058994.4239532202 0 -2058994.4239532202 2708552.6909120977 0 0 0 0 -76265105.909760714 340871791.65575027 0 340871791.65575027 1852908165.5065918 0 0 0 0 -90062660.135714054 -122838352.73832703 0 -122838352.73832703 1180320979.913105 0 0 0 0 -95461872.172623575 191468794.85188675 0 191468794.85188675 810500344.73141479 0 0 0 0 -6564624.8279099464 -41956689.215320587 0 -41956689.215320587 -32942722.817657471 0 0 0 0 -79853669.782942295 -25763706.47369957 0 -25763706.47369957 55862739.60848999 0 0 0 0 -14195284.226436377 9290792.5813598633 0 9290792.5813598633 67919404.485015869 0 0 0 0 -44111046.283918142 -42185014.820230484 0 -42185014.820230484 61259007.238761902 0 0 0 0 -7279236.0017349627 5611785.976934664 0 5611785.976934664 7269835.4432386905 0 0 0 0 -11220709.062820196 14518663.329315186 0 14518663.329315186 17914869.43303299 0 0 0 0 5791791.9449496083 -3756500.6523709968 0 -3756500.6523709968 2084291.7179540824 0 0 0 0 -2528275.1044406891 11977503.813423157 0 11977503.813423157 35849704.209457397 0 0 0 0 12868120.268815041 -288441019.61457825 0 -288441019.61457825 859645076.86496735 0 0 0 0 7158164.889293693 -5356855.4131214544 0 -5356855.4131214544 4998330.7912324965 0 0 0 0 185428192.27775431 -68085284.29315567 0 -68085284.29315567 268316551.57792664 0 0 0 0 14898516.811633229 -30600542.616485596 0 -30600542.616485596 25424705.510818481 0 0 0 0 -7308367.3939412981 4242487.3108367771 0 4242487.3108367771 7635084.7815670669 0 0 0 0 -553606.69322442263 -1657850.6128653437 0 -1657850.6128653437 3765771.1691072769 0 0 0 0 -112302838.06932807 -50910172.648284912 0 -50910172.648284912 763631779.35406971 0 0 0 0 -258616.17185044289 4990762.3466186523 0 4990762.3466186523 -20096193.692825317 0 0 0 0 -39390931.667494535 50139897.897735596 0 50139897.897735596 895094664.58178592 0 0 0 0 -11592933.911861897 3419163.0536766052 0 3419163.0536766052 33207126.121704102 0 0 0 0 -9937022.578228116 8462913.9077796936 0 8462913.9077796936 7781501.3288574219 0 0 0 0 -273777.49771738052 8425120.6899261475 0 8425120.6899261475 7649619.1414966583 0 0 0 0 -1378080.6786147356 15499802.721298218 0 15499802.721298218 -4375822.3690948486 0 0 0 0 -3929594.1057804823 -1692846.7100524902 0 -1692846.7100524902 4755823.8294143677 0 0 0 0 -8097323.6246497035 10816973.534915924 0 10816973.534915924 28833141.416992188 0 0 0 0 1469217.6553459167 2245653.6897468567 0 2245653.6897468567 29994415.254144669 0 0 0 0 -10011578.602775156 13831998.115610123 0 13831998.115610123 48209771.926025391 0 0 0 0 -9911512.2889210284 15025566.092308044 0 15025566.092308044 36643375.426055908 0 0 0 0 -16214916.242034167 10380197.183696747 0 10380197.183696747 84504433.054985046 0 0 0 0 -3515720.899324894 -41369679.300056458 0 -41369679.300056458 113288745.21375847 0 0 0 0 8805258.453083992 -11936807.688354492 0 -11936807.688354492 50037046.783729553 0 0 0 0 -8333949.2325977087 623443.89268875122 0 623443.89268875122 40607914.270362854 0 0 0 0 -13229124.535498381 -3897325.7702865601 0 -3897325.7702865601 63432436.808792114 0 0 0 0 -12087101.339711547 121197.51412582397 0 121197.51412582397 46080135.106399536 0 0 0 0 -12012363.83252953 -373718.56293010712 0 -373718.56293010712 40367204.008712769 0 0 0 0 -10607572.724572659 3310856.2925519943 0 3310856.2925519943 36097863.39906311 0 0 0 0 -2898303.9104639292 5288503.8550872803 0 5288503.8550872803 20776740.176187515 0 0 0 0 -5865117.1457603043 7158394.7707093656 0 7158394.7707093656 5370040.7423012555 0 0 0 0 40290187.173755646 69405701.596977234 0 69405701.596977234 -20306913.579006195 0 0 0 0 -46530674.86855793 31767203.426383972 0 31767203.426383972 39811015.217992783 0 0 0 0 34651384.973278046 -21697825.835983276 0 -21697825.835983276 20095753.216152191 0 0 0 0 -18748522.081609249 -52446125.425544739 0 -52446125.425544739 30492294.965871811 0 0 0 0 -6456989.7543835072 6252119.647156626 0 6252119.647156626 7073046.1421792358 0 0 0 0 -9521263.2020688057 -1219253.6884040833 0 -1219253.6884040833 39654188.844829559 0 0 0 0 -5737661.1091693044 -9665545.4136772156 0 -9665545.4136772156 49648717.602508545 0 0 0 0 -5361218.1301348209 -9099662.272857666 0 -9099662.272857666 48396006.154794693 0 0 0 0 -2893189.697982192 -8538583.7457695007 0 -8538583.7457695007 47078213.988723755 0 0 0 0 -5769326.304756701 -10189849.881420135 0 -10189849.881420135 53029225.003356934 0 0 0 0 6349427.9889273643 -11714844.245773315 0 -11714844.245773315 47230475.247436523 0 0 0 0 18256752.600278854 -22429520.622436523 0 -22429520.622436523 54889424.480712891 0 0 0 0 1011386.6558303833 -9336918.6066131592 0 -9336918.6066131592 50627399.625 0 0 0 0 4387602.2474703789 -11356362.687164307 0 -11356362.687164307 50657153.201324463 0 0 0 0 1371001.5313976109 -13879272.18103981 0 -13879272.18103981 54681211.463623047 0 0 0 0 30267124.922950745 -20141021.054916382 0 -20141021.054916382 -63928208.925804138 0 0 0 0 9225509.0085208416 -18083794.691162109 0 -18083794.691162109 55485400.648681641 0 0 0 0 2378708.5420045853 -13479037.396820068 0 -13479037.396820068 58094802.871780396 0 0 0 0 -5303811.4227234814 6155894.671938315 0 6155894.671938315 6900949.7831579968 0 0 0 0 2236019.26167202 -27643999.169670105 0 -27643999.169670105 78205688.780212402 0 0 0 0 -2645992.5907902718 -21456102.557403564 0 -21456102.557403564 83082823.159927368 0 0 0 0 -217964.15026540868 1217686.6356908679 0 1217686.6356908679 -3021351.2214646414 0 0 0 0 21583160.252338409 38045858.642791748 0 38045858.642791748 -53177262.454086304 0 0 0 0 15841424.774960518 -19064762.028656006 0 -19064762.028656006 51534454.984634399 0 0 0 0 4466026.6128554344 -12557453.050796509 0 -12557453.050796509 53661368.058654785 0 0 0 0 9670037.4794120789 -24758549.144271851 0 -24758549.144271851 61143170.930175781 0 0 0 0 11083561.969432831 -25011836.220977783 0 -25011836.220977783 59150141.122955322 0 0 0 0 4520336.1496543884 -19244296.1953125 0 -19244296.1953125 62150831.939468384 0 0 0 0 5377533.092487812 -25535126.661758423 0 -25535126.661758423 65891975.529785156 0 0 0 0 5872524.8403847218 -22155918.3307724 0 -22155918.3307724 65066456.598876953 0 0 0 0 484258.70158958435 -17237785.799743652 0 -17237785.799743652 73647482.011646271 0 0 0 0 3188124.3299636841 -15965801.790161133 0 -15965801.790161133 61111991.431045532 0 0 0 0 2147355.2918214798 -23250402.003326416 0 -23250402.003326416 73206786.834062576 0 0 0 0 -37819.72002196312 -14113495.219818115 0 -14113495.219818115 69412906.117614746 0 0 0 0 848957.72921943665 -20918369.247039795 0 -20918369.247039795 69169709.186431885 0 0 0 0 6917781.9202301502 -28216021.632316589 0 -28216021.632316589 69986408.086273193 0 0 0 0 36216107.728153229 14589663.555969238 0 14589663.555969238 -42090480.499842167 0 0 0 0 27176847.474365234 30316064.863494873 0 30316064.863494873 -20449317.137695312 0 0 0 0 17521887.84318161 2630099.6767730713 0 2630099.6767730713 21746409.891784668 0 0 0 0 23214199.504390717 -1354404.6995544434 0 -1354404.6995544434 -2058862.615814209 0 0 0 0 24201128.943134308 263890.48101806641 0 263890.48101806641 -26708338.097717285 0 0 0 0 25835675.398887634 -27420579.380859375 0 -27420579.380859375 -42781669.420886993 0 0 0 0 18502134.181900024 -23929221.158630371 0 -23929221.158630371 -22354369.32333374 0 0 0 0 -3746825.7082080841 -55327969.499984741 0 -55327969.499984741 -48243966.201950073 0 0 0 0 -24457460.392307281 -62514285.462738037 0 -62514285.462738037 -32599413.904052734 0 0 0 0 19710291.156788707 -27314459.831588745 0 -27314459.831588745 57142748.298278809 0 0 0 0 13581452.910004616 -31373096.61618042 0 -31373096.61618042 63621277.712585449 0 0 0 0 -7494213.1293258667 28796946.388687134 0 28796946.388687134 -53192607.66468811 0 0 0 0 -73361855.39945507 -36114631.39302063 0 -36114631.39302063 4825372.5903015137 0 0 0 0 -19799686.778025031 9142588.2006874084 0 9142588.2006874084 57389665.897949219 0 0 0 0 -23555942.33124733 -4960168.3927459717 0 -4960168.3927459717 70529268.799697876 0 0 0 0 -87325027.240821838 47294508.999206543 0 47294508.999206543 15038916.179870605 0 0 0 0 -110120481.7589941 7461586.3015441895 0 7461586.3015441895 27685151.042053223 0 0 0 0 -4340316.2621798515 -15562940.16368103 0 -15562940.16368103 86435911.563446045 0 0 0 0 -2808984.8047180176 -5280285.530456543 0 -5280285.530456543 88916986.590782166 0 0 0 0 -1590203.4604287148 -14186081.642707825 0 -14186081.642707825 78256746.387207031 0 0 0 0 -46738981.982254028 61475728.412719727 0 61475728.412719727 714038.97369384766 0 0 0 0 13145664.609543875 18245374.160687566 0 18245374.160687566 24958021.233093262 0 0 0 0 13246117.895561218 29644150.300567627 0 29644150.300567627 -8525477.4367370605 0 0 0 0 -32452193.919725418 38889850.973815918 0 38889850.973815918 41501558.269989014 0 0 0 0 9934658.9363594055 33541568.876098633 0 33541568.876098633 2044642.2591552734 0 0 0 0 -23252087.394088745 60369289.257781982 0 60369289.257781982 -3297881.6603431702 0 0 0 0 -31425928.494168282 30184390.690544128 0 30184390.690544128 19903303.731689453 0 0 0 0 -38107256.05298233 7922767.2135162354 0 7922767.2135162354 27574840.601989746 0 0 0 0 -56806549.133872986 28526089.721298218 0 28526089.721298218 36600454.782714844 0 0 0 0 -13714179.013656616 16497640.212844849 0 16497640.212844849 36830674.561380863 0 0 0 0 -38915582.845830917 7822664.9628219604 0 7822664.9628219604 79554401.511962891 0 0 0 0 -9423107.0857772827 2554578.9474945068 0 2554578.9474945068 44242817.190233231 0 0 0 0 -12672029.514217377 -19298232.42074585 0 -19298232.42074585 6715117.1986694336 0 0 0 0 -60476853.53194809 -3618587.5934448242 0 -3618587.5934448242 44730042.348085403 0 0 0 0 -12316858.470188141 18034533.781585693 0 18034533.781585693 134262127.03086853 0 0 0 0 -31309425.142551422 -17495060.57661438 0 -17495060.57661438 197903127.26446533 0 0 0 0 -4375463.884803772 -7260644.79637146 0 -7260644.79637146 83161128.607433319 0 0 0 0 -26098522.448350906 16760242.929519653 0 16760242.929519653 103301203.18743896 0 0 0 0 -12406291.634525299 -11864842.556945801 0 -11864842.556945801 119951536.39987946 0 0 0 0 -22744988.576247215 -11329725.551864624 0 -11329725.551864624 177417138.08828735 0 0 0 0 -4517781.9746837616 27913222.598495483 0 27913222.598495483 35592535.154190063 0 0 0 0 1957453.8596992493 5504901.3071899414 0 5504901.3071899414 63225231.991928101 0 0 0 0 367974.14897155762 -4400856.2296295166 0 -4400856.2296295166 82445551.594146729 0 0 0 0 4617346.5427160263 4020263.3926467896 0 4020263.3926467896 24872481.856628418 0 0 0 0 -2677178.1170706749 -12967197.288845062 0 -12967197.288845062 90512167.065032959 0 0 0 0 674376.96677207947 -19811770.3984375 0 -19811770.3984375 79457807.428110123 0 0 0 0 -29891666.939956665 -50961916.944763184 0 -50961916.944763184 236149004.04666138 0 0 0 0 -24453224.970500946 -53501052.947029114 0 -53501052.947029114 187527281.82077789 0 0 0 0 -26181316.056441307 -17942517.418869019 0 -17942517.418869019 197687819.12504578 0 0 0 0 -47122441.58245945 -37496417.950019836 0 -37496417.950019836 302840988.10205078 0 0 0 0 -68328384.062771797 -31335979.183124542 0 -31335979.183124542 47617368.814086914 0 0 0 0 -10009478.701747894 -24891477.751525879 0 -24891477.751525879 44532974.731964111 0 0 0 0 -23173243.609375 -43464647.505813599 0 -43464647.505813599 71769725.789733887 0 0 0 0 -36235411.577728271 -6979630.862701416 0 -6979630.862701416 63055723.26733017 0 0 0 0 -47743806.162380219 -61830492.538925171 0 -61830492.538925171 4009092.6431884766 0 0 0 0 -36496587.08259964 -42912778.531433105 0 -42912778.531433105 35765233.258361816 0 0 0 0 -8010552.4920425415 -36176048.002700806 0 -36176048.002700806 9378196.8307495117 0 0 0 0 -1281347.6055078506 -45372590.443099976 0 -45372590.443099976 -8194946.3572998047 0 0 0 0 11456853.491701126 -35676811.1664505 0 -35676811.1664505 9626072.5654296875 0 0 0 0 6100659.2068901062 -22912974.579833984 0 -22912974.579833984 26085678.719940186 0 0 0 0 9506915.2498550415 -30635962.154800415 0 -30635962.154800415 65579987.829284668 0 0 0 0 12949031.586040497 -17510481.901855469 0 -17510481.901855469 30180341.38243103 0 0 0 0 -7113148.6058197021 -36969652.753715515 0 -36969652.753715515 77518716.322387695 0 0 0 0 6694353.9267730713 -40671226.799438477 0 -40671226.799438477 75619483.529579163 0 0 0 0 274365.86079406738 -46445743.664604187 0 -46445743.664604187 30952853.14630127 0 0 0 0 -13757205.439472198 -58364020.13419342 0 -58364020.13419342 137169775.52644348 0 0 0 0 -3516822.6164016724 -55894490.122207642 0 -55894490.122207642 148552288.07099915 0 0 0 0 -10254932.315073013 -54646142.450805664 0 -54646142.450805664 149346091.25280762 0 0 0 0 -17477051.847068787 -75009781.758872986 0 -75009781.758872986 217478232.86038208 0 0 0 0 6863204.0976037979 -62066648.343967438 0 -62066648.343967438 134618775.76135254 0 0 0 0 13311316.39239502 -104091943.70797729 0 -104091943.70797729 190333200.34544373 0 0 0 0 24863826.9118433 -76364953.55745697 0 -76364953.55745697 124412391.97016144 0 0 0 0 14133605.088047028 -52774494.825561523 0 -52774494.825561523 63773940.144042969 0 0 0 0 916147.28311920166 -19534437.876327515 0 -19534437.876327515 59431734.385005951 0 0 0 0 67907033.908281326 -135498468.59268188 0 -135498468.59268188 205433672.42181396 0 0 0 0 4963751.9597892761 -60811965.015504837 0 -60811965.015504837 165122981.19161987 0 0 0 0 -20308771.693435669 -93092223.697608948 0 -93092223.697608948 255977702.550354 0 0 0 0 -9254045.6964035034 -88713625.532470703 0 -88713625.532470703 215298600.21881676 0 0 0 0 7153721.2624721527 -141232853.05825806 0 -141232853.05825806 270258690.40338898 0 0 0 0 -44040629.744830132 -149882282.17655182 0 -149882282.17655182 401172757.11381531 0 0 0 0 -57352053.249586105 -169369871.12379456 0 -169369871.12379456 393383940.09625626 0 0 0 0 453761.30522251129 -142237907.14416885 0 -142237907.14416885 309484550.44926453 0 0 0 0 58967262.376239777 -206532907.02908325 0 -206532907.02908325 314419135.96858978 0 0 0 0 -70068639.948486328 -62402769.026538849 0 -62402769.026538849 388417579.31262207 0 0 0 0 -58694313.473392487 -56830622.997028351 0 -56830622.997028351 293643148.68869019 0 0 0 0 -49999932.256765366 -97489229.956954956 0 -97489229.956954956 299135846.40270233 0 0 0 0 -64211965.558760643 -104987134.68263245 0 -104987134.68263245 388619073.34794617 0 0 0 0 -28568157.990899563 -108944474.74812698 0 -108944474.74812698 283983603.53265381 0 0 0 0 -110233939.56665611 -98753190.512153625 0 -98753190.512153625 399683533.49459076 0 0 0 0 -84172771.208313942 -182934750.35029602 0 -182934750.35029602 520363917.21777344 0 0 0 0 -120001216.35586452 -88507008.516132355 0 -88507008.516132355 564394567.647995 0 0 0 0 -191145775.7501812 -168692911.02319717 0 -168692911.02319717 592372133.31632233 0 0 0 0 -147059075.87411958 -160108871.1524229 0 -160108871.1524229 582506543.20561218 0 0 0 0 -134903966.68045998 -200315356.33563232 0 -200315356.33563232 567017926.70948029 0 0 0 0 -145441883.57779557 -171963355.89304495 0 -171963355.89304495 548852395.38066101 0 0 0 0 -164982420.43891621 -190132650.99107742 0 -190132650.99107742 609392698.37308502 0 0 0 0 38973284.747495651 -277314178.80329132 0 -277314178.80329132 494122029.67993736 0 0 0 0 27442417.486856461 -231479238.45847034 0 -231479238.45847034 459166745.79008484 0 0 0 0 -40875495.156988144 -210210924.84173965 0 -210210924.84173965 481235635.06039429 0 0 0 0 -60978265.664372444 -212799522.35826874 0 -212799522.35826874 650852759.54786682 0 0 0 0 -123027725.19593835 -240743339.61884308 0 -240743339.61884308 669633161.41679382 0 0 0 0 143506627.96504498 -390143379.17623138 0 -390143379.17623138 603189048.10449982 0 0 0 0 101388138.01689529 -326101072.91120911 0 -326101072.91120911 999157674.62117577 0 0 0 0 133964644.75163937 -69939916.686561584 0 -69939916.686561584 209847059.29420471 0 0 0 0 341469107.95837688 -414900694.78730774 0 -414900694.78730774 267704810.20582581 0 0 0 0 79415968.651614189 -258663812.2203598 0 -258663812.2203598 437038728.17980957 0 0 0 0 54331818.519749045 24017336.709853649 0 24017336.709853649 109992796.87368011 0 0 0 0 208670128.64054918 -184630825.11494446 0 -184630825.11494446 220780572.87083435 0 0 0 0 42679904.420617104 -79765323.734797478 0 -79765323.734797478 147251041.66401672 0 0 0 0 46753217.891434669 -59533261.242843628 0 -59533261.242843628 188123302.67479134 0 0 0 0 5187637.0900497437 36131173.040046692 0 36131173.040046692 37848760.683540344 0 0 0 0 138582185.27232933 -111137551.07618713 0 -111137551.07618713 99431005.332146168 0 0 0 0 15011813.267630577 19398246.820549011 0 19398246.820549011 11925372.252548218 0 0 0 0 204807965.94421577 -163105403.57604218 0 -163105403.57604218 -170409304.94762611 0 0 0 0 1857459.8344636802 -1596199.9751661867 0 -1596199.9751661867 1144791.8502717484 0 0 0 0 -179709143.93024254 -160447557.01215363 0 -160447557.01215363 1933073248.0621853 0 0 0 0 -82815497.59848851 106064893.3938539 0 106064893.3938539 1411736816.4998016 0 0 0 0 50147704.178894997 -152679413.15643311 0 -152679413.15643311 1329259400.7283077 0 0 0 0 70672746.214475632 -473788063.78417206 0 -473788063.78417206 803575417.30131531 0 0 0 0 171558270.34853745 -279422849.49260712 0 -279422849.49260712 927263093.17944336 0 0 0 0 438627340.06034374 4223479.2054443359 0 4223479.2054443359 969272838.0028801 0 0 0 0 584545607.91353035 -238669511.62794495 0 -238669511.62794495 1341072026.1853638 0 0 0 0 1514357.1445878409 487517.59817358851 0 487517.59817358851 1139681.3531951681 0 0 0 0 294174142.13708305 302985590.11064911 0 302985590.11064911 447529512.36468506 0 0 0 0 -8809116.3608989716 113666314.23389435 0 113666314.23389435 1131158784.8071594 0 0 0 0 269942150.77054596 102899807.39893341 0 102899807.39893341 94073617.480255127 0 0 0 0 276437254.71038365 114034182.12275791 0 114034182.12275791 -19648364.780433655 0 0 0 0 80710488.781284332 -93174475.713157654 0 -93174475.713157654 40436926.288578033 0 0 0 0 213391846.89467049 27369673.861919403 0 27369673.861919403 8980651.6922531128 0 0 0 0 162131167.9101696 7198656.4391098022 0 7198656.4391098022 99458843.420608521 0 0 0 0 -48373364.329192638 18858767.480171204 0 18858767.480171204 13227419.395332336 0 0 0 0 66059450.403362155 69637522.046471596 0 69637522.046471596 287486872.63798523 0 0 0 0 2758802.9498689091 462381.05593796819 0 462381.05593796819 4267728.948390469 0 0 0 0 35133393.405601501 -35396367.79592514 0 -35396367.79592514 18622778.568031788 0 0 0 0 -456179.27148528071 277908.11397327483 0 277908.11397327483 4597395.6212935373 0 0 0 0 649169579.79502773 -444849743.57551575 0 -444849743.57551575 507142311.29602051 0 0 0 0 34993814.333626747 25180966.798480988 0 25180966.798480988 16268345.994674683 0 0 0 0 118947538.75051498 -5614452.5355224609 0 -5614452.5355224609 3486149.4027938843 0 0 0 0 52623.631017327309 -601353.24381997436 0 -601353.24381997436 1535566.6217516288 0 0 0 0 105604730.05853558 50571265.311782837 0 50571265.311782837 6967006.7762298584 0 0 0 0 -106974428.45483017 713025744.26207733 0 713025744.26207733 -92742131.631057739 0 0 0 0 636443.02165434789 -1309943.3979317136 0 -1309943.3979317136 3551326.586637795 0 0 0 0 152046006.51165104 -124067403.36143494 0 -124067403.36143494 -104894271.68589783 0 0 0 0 152925404.33320689 -249153255.52695847 0 -249153255.52695847 93391648.625427246 0 0 0 0 144571840.77072716 -213718544.84553528 0 -213718544.84553528 9779198.1511993408 0 0 0 0 -12086584.689946651 -253672941.78438568 0 -253672941.78438568 357148484.22912598 0 0 0 0 -210402022.65272236 -28546260.891998291 0 -28546260.891998291 117683204.71984482 0 0 0 0 -35127684.598495483 44777104.556396484 0 44777104.556396484 -1665093.6534729004 0 0 0 0 -35275654.066419639 28128900.893460155 0 28128900.893460155 9991327.3622741699 0 0 0 0 198905976.28015709 -21226723.85704422 0 -21226723.85704422 7627527.736000061 0 0 0 0 166029414.33210802 105676388.53975296 0 105676388.53975296 10576629.841743469 0 0 0 0 140325016.30664611 77958726.36612606 0 77958726.36612606 -42626584.218551636 0 0 0 0 62513099.81475544 26899231.434513092 0 26899231.434513092 -19952994.383880615 0 0 0 0 146842698.7741394 57990895.872207642 0 57990895.872207642 -29143830.564407349 0 0 0 0 177794458.81961155 39116624.362014771 0 39116624.362014771 -36915661.761871338 0 0 0 0 164792048.39006948 60389989.024801254 0 60389989.024801254 -51589936.208816528 0 0 0 0 81956707.299162865 16702385.689468384 0 16702385.689468384 21717022.659896851 0 0 0 0 -119730394.35405827 104859188.38401031 0 104859188.38401031 -6286270.7354660034 0 0 0 0 60499737.609917641 84892054.162612915 0 84892054.162612915 -99484337.053604126 0 0 0 0 -208411378.11829615 -22404635.102592468 0 -22404635.102592468 -851908.04234313965 0 0 0 0 -308378915.66786194 -72798032.984905243 0 -72798032.984905243 326738109.24713898 0 0 0 0 -73293433.446595192 -130479666.8231163 0 -130479666.8231163 22080267.13621521 0 0 0 0 180329124.92241478 97580038.401306152 0 97580038.401306152 77816437.87412262 0 0 0 0 18241203.747849464 55331491.449298859 0 55331491.449298859 290659128.30794525 0 0 0 0 131817521.35388947 175665572.43488312 0 175665572.43488312 473689224.50069427 0 0 0 0 64846671.31452322 7854693.6086730957 0 7854693.6086730957 186444706.67262268 0 0 0 0 -6562248.6954545975 -10231908.540649414 0 -10231908.540649414 526235451.15847015 0 0 0 0 -68412021.90969944 29176516.012269974 0 29176516.012269974 650032743.34597778 0 0 0 0 -127758337.23505116 -131436820.10839844 0 -131436820.10839844 420620145.50909042 0 0 0 0 -167551896.65775585 -198284306.41886902 0 -198284306.41886902 716646981.65083313 0 0 0 0 -51787842.188153267 -161275583.37039185 0 -161275583.37039185 932181238.77418518 0 0 0 0 -133135618.17826176 -177238820.85110855 0 -177238820.85110855 493716050.48122025 0 0 0 0 -148974676.71164161 -9159867.6513667107 0 -9159867.6513667107 348034653.45800018 0 0 0 0 -193191839.9449656 -125902543.61290455 0 -125902543.61290455 605739531.78217316 0 0 0 0 -158053578.69351912 -120593932.46810532 0 -120593932.46810532 430139412.15332794 0 0 0 0 65780797.094949722 -63584531.189785004 0 -63584531.189785004 109939912.72366333 0 0 0 0 98466975.60986042 -217523825.67862701 0 -217523825.67862701 251724464.62728882 0 0 0 0 -16229425.74437809 -13200660.711109161 0 -13200660.711109161 129016444.22953606 0 0 0 0 -337030926.58358359 -142157374.89740944 0 -142157374.89740944 -27920722.562408447 0 0 0 0 902802.02310379269 -64995.662933897227 0 -64995.662933897227 3581409.168787241 0 0 0 0 -28409367.064211607 51915697.120918274 0 51915697.120918274 -22028384.383937836 0 0 0 0 -163615892.53238869 -68734233.181350708 0 -68734233.181350708 -14173022.79524231 0 0 0 0 -1330999.672501348 1451425.0819856003 0 1451425.0819856003 3062868.740731582 0 0 0 0 2392966.7958282726 8936420.7508740462 0 8936420.7508740462 12807851.661165059 0 0 0 0 7179526.7849364281 12699402.809886932 0 12699402.809886932 14603757.053703308 0 0 0 0 4091683.6769142151 18313129.084091187 0 18313129.084091187 23002944.148630142 0 0 0 0 -41519.476531455293 3390825.8632672206 0 3390825.8632672206 5047246.2600102872 0 0 0 0 -207312325.37449586 -106793644.86669016 0 -106793644.86669016 -6252479.8719787598 0 0 0 0 8664240.2841044739 14815251.35442853 0 14815251.35442853 19125606.956253052 0 0 0 0 8138412.1491319966 8145550.4472081065 0 8145550.4472081065 71918.807946521789 0 0 0 0 8970404.9320485592 8224928.1170883179 0 8224928.1170883179 14643113.190727234 0 0 0 0 27227424.722958565 -119118573.06037903 0 -119118573.06037903 -107312970.39737701 0 0 0 0 5592815.8009495735 12441293.726928711 0 12441293.726928711 20875023.12903595 0 0 0 0 9249406.0046190917 6572900.481085591 0 6572900.481085591 -275361.80696853623 0 0 0 0 78273639.269008636 -5148481.7593536377 0 -5148481.7593536377 -211286456.03406525 0 0 0 0 12137004.46144104 -64564156.727993011 0 -64564156.727993011 -264663406.76513672 0 0 0 0 457855040.48430443 -130075880.81375122 0 -130075880.81375122 -255521860.05983162 0 0 0 0 166505362.92458081 114570428.69614983 0 114570428.69614983 6960752.2613983154 0 0 0 0 -2110431.169962883 -366273292.60032845 0 -366273292.60032845 -24206042.005622864 0 0 0 0 707188307.14724064 -332425146.38236618 0 -332425146.38236618 -39352287.054508686 0 0 0 0 926941541.49311876 450037664.99222279 0 450037664.99222279 134931066.64471436 0 0 0 0 91844099.985356331 -744291499.7026062 0 -744291499.7026062 1561002510.0170364 0 0 0 0 768763453.40592384 -526100909.37362385 0 -526100909.37362385 20415370.546546936 0 0 0 0 1756354.2583028041 -3746957.8443543781 0 -3746957.8443543781 7260177.8774496466 0 0 0 0 637989109.17536998 -936661564.13703156 0 -936661564.13703156 580779963.83604431 0 0 0 0 259943624.12907982 21281810.532920837 0 21281810.532920837 -323700879.71559525 0 0 0 0 290191133.24209499 -449756956.95820236 0 -449756956.95820236 175920834.09802246 0 0 0 0 458891842.95874214 -396617708.20634842 0 -396617708.20634842 75517692.703765869 0 0 0 0 228675063.03133774 537273530.96668816 0 537273530.96668816 1113591297.4424362 0 0 0 0 316650243.12201977 220718553.70051956 0 220718553.70051956 101300943.1293869 0 0 0 0 -496203.94948886288 -578334.20021432266 0 -578334.20021432266 2788810.0651738048 0 0 0 0 -875313274.5563488 218391481.74422455 0 218391481.74422455 1609823453.718998 0 0 0 0 -214119297.77999687 57128673.111167908 0 57128673.111167908 1341085869.4146576 0 0 0 0 332665410.952142 -601402852.19640446 0 -601402852.19640446 873526645.9655304 0 0 0 0 -192122778.38206673 -157179281.85898972 0 -157179281.85898972 789117199.51300812 0 0 0 0 -33467169.521619558 -341590386.03100586 0 -341590386.03100586 618902101.94774628 0 0 0 0 -116334353.22957039 -25390617.238059998 0 -25390617.238059998 625146677.83576965 0 0 0 0 -146801433.24198818 -20375200.472099304 0 -20375200.472099304 637344361.7175827 0 0 0 0 -34741387.049562931 113780375.75052071 0 113780375.75052071 371215441.45613098 0 0 0 0 -109898523.9663868 -31257654.165794373 0 -31257654.165794373 419606808.25450134 0 0 0 0 81969772.789348602 424634178.94364929 0 424634178.94364929 902215231.45825958 0 0 0 0 -143984258.50691867 -42786976.196123123 0 -42786976.196123123 799961902.95913696 0 0 0 0 -16262401.529205322 215858121.09432983 0 215858121.09432983 665493188.54131699 0 0 0 0 -29333290.734582901 107709242.65316963 0 107709242.65316963 312121963.49066162 0 0 0 0 69411909.449994087 157401419.85558319 0 157401419.85558319 276571769.52201843 0 0 0 0 17779346.691020966 135896732.06270981 0 135896732.06270981 296947922.09799194 0 0 0 0 88313903.889888763 145433041.9248848 0 145433041.9248848 42508589.048721313 0 0 0 0 44050003.742208481 103949805.88690281 0 103949805.88690281 194991191.02581787 0 0 0 0 61731960.922901154 51701771.615905762 0 51701771.615905762 78124321.154983521 0 0 0 0 37737532.296697617 44146452.997268677 0 44146452.997268677 92439212.086090088 0 0 0 0 39934378.57808876 33477719.932777405 0 33477719.932777405 64721491.841064453 0 0 0 0 42495275.594228745 -7573776.5974578857 0 -7573776.5974578857 20962371.085144043 0 0 0 0 63941574.87984252 -40033915.920680046 0 -40033915.920680046 -54752196.613372803 0 0 0 0 -63618152.899839401 -62241602.58102417 0 -62241602.58102417 22475328.845718384 0 0 0 0 -41256948.341098785 20723601.892105103 0 20723601.892105103 329076741.3681488 0 0 0 0 -10706242.797363758 12365306.093166351 0 12365306.093166351 212214961.77035522 0 0 0 0 -25186368.837579727 49587132.477920532 0 49587132.477920532 289073440.93816757 0 0 0 0 -32462815.467567444 51636000.458343506 0 51636000.458343506 357106195.74390602 0 0 0 0 30687554.296108723 30317477.371416092 0 30317477.371416092 94108574.573791504 0 0 0 0 23753570.171203613 10569295.629997253 0 10569295.629997253 111059934.80330658 0 0 0 0 -10618899.20406723 25098423.492912292 0 25098423.492912292 209157531.65419197 0 0 0 0 -471494.67318964005 -9669825.8292045593 0 -9669825.8292045593 104287313.28936768 0 0 0 0 -5519035.1230131099 5618710.3804716468 0 5618710.3804716468 9404245.2109088376 0 0 0 0 32165968.597969055 -6281497.0350646973 0 -6281497.0350646973 -43636834.311317444 0 0 0 0 -9144853.0257740021 6931582.4626312256 0 6931582.4626312256 34391079.105224609 0 0 0 0 24616222.984394073 13746788.586898804 0 13746788.586898804 -41327155.330791473 0 0 0 0 18298649.580114365 -18380695.871231079 0 -18380695.871231079 -3228287.4632568359 0 0 0 0 -4703739.2331867218 -3550424.9355545044 0 -3550424.9355545044 36258270.755462646 0 0 0 0 -11627985.785592437 -20067400.134795189 0 -20067400.134795189 45491247.351135254 0 0 0 0 1583.4132919311523 12841353.323547363 0 12841353.323547363 93360131.171951294 0 0 0 0 26805118.814352036 -1728915.885635376 0 -1728915.885635376 35154730.651885986 0 0 0 0 32819347.471126556 1545820.9425354004 0 1545820.9425354004 -11775706.452514648 0 0 0 0 20729890.367725372 -1642989.8617248535 0 -1642989.8617248535 35205637.222686768 0 0 0 0 30719548.123008728 -4035190.127746582 0 -4035190.127746582 -4880145.9191131592 0 0 0 0 33161169.106867313 -4250232.6246490479 0 -4250232.6246490479 3395815.7528991699 0 0 0 0 26522392.856483459 7826224.8883361816 0 7826224.8883361816 376793.49666595459 0 0 0 0 36245509.210849762 6096936.5331420898 0 6096936.5331420898 -742936.03939056396 0 0 0 0 16200512.623104095 -1462004.6910858154 0 -1462004.6910858154 83871063.167121887 0 0 0 0 31004148.999593735 12879633.997169495 0 12879633.997169495 27620354.911132812 0 0 0 0 27552974.548650503 -7090370.9942903519 0 -7090370.9942903519 31201628.381988525 0 0 0 0 26461824.996109009 5151683.8493041992 0 5151683.8493041992 -15302165.234558105 0 0 0 0 19029257.639390945 -2995895.9001083374 0 -2995895.9001083374 2284124.5994567871 0 0 0 0 32250633.2342453 7051740.9105072021 0 7051740.9105072021 -12099596.43145752 0 0 0 0 22794759.433979034 6075162.4360656738 0 6075162.4360656738 -12179989.037261963 0 0 0 0 32418929.000563622 14870058.532592773 0 14870058.532592773 -24617137.838439941 0 0 0 0 38368347.424980164 1897176.6181793213 0 1897176.6181793213 -23396728.403259277 0 0 0 0 -48566.817958831787 -31792468.450744629 0 -31792468.450744629 -34660303.098754883 0 0 0 0 -32290190.456025124 -23771989.403930664 0 -23771989.403930664 16665539.342941284 0 0 0 0 -34221483.946264029 -28739401.692643166 0 -28739401.692643166 27194416.740280151 0 0 0 0 -5921558.5040125847 -29422321.865157127 0 -29422321.865157127 12753200.947052002 0 0 0 0 -32874216.213794708 -35739663.070922852 0 -35739663.070922852 18843044.672264099 0 0 0 0 18593092.503469467 -33555377.604042053 0 -33555377.604042053 6429217.2681427002 0 0 0 0 9433559.3372344971 -6718425.0181884766 0 -6718425.0181884766 32340123.230941772 0 0 0 0 20065900.590595245 8622924.7734375 0 8622924.7734375 9504336.5687866211 0 0 0 0 18060683.747077942 -20640778.118133545 0 -20640778.118133545 10374292.93081665 0 0 0 0 -9456619.9706356525 -10050209.629854202 0 -10050209.629854202 8700768.921081543 0 0 0 0 -8503556.2929115295 -12248136.619949341 0 -12248136.619949341 6702060.9074249268 0 0 0 0 -18250831.272476196 17630694.419326782 0 17630694.419326782 -14834260.645187378 0 0 0 0 -21120079.25617981 -6074594.7305908203 0 -6074594.7305908203 3799676.0860748291 0 0 0 0 914314.45425415039 7919833.5452270508 0 7919833.5452270508 -3010923.5903930664 0 0 0 0 7165583.9949798584 2701161.7611694336 0 2701161.7611694336 -3455178.412902832 0 0 0 0 7036778.1852836609 14971327.884231567 0 14971327.884231567 -18608277.935310364 0 0 0 0 -17747786.507152557 5650742.6539611816 0 5650742.6539611816 -3187866.7824707031 0 0 0 0 -17977208.379428864 -12917127.727470398 0 -12917127.727470398 -1294021.2830810547 0 0 0 0 -40069887.255088806 1991510.5457000732 0 1991510.5457000732 -3255540.1895904541 0 0 0 0 -38482073.319049835 -16146066.093429565 0 -16146066.093429565 -1016876.4801559448 0 0 0 0 -13061998.801687241 -5016382.3363952637 0 -5016382.3363952637 -1445973.0766601562 0 0 0 0 -31680936.829442024 -16911423.493927002 0 -16911423.493927002 -655237.86331176758 0 0 0 0 -29766518.441392899 -22386158.060340881 0 -22386158.060340881 11025123.795501709 0 0 0 0 -5394536.6537166936 -1963684.1742820628 0 -1963684.1742820628 14382968.405703008 0 0 0 0 -640829793.33296776 79788860.098712921 0 79788860.098712921 -51472179.901931763 0 0 0 0 -4915853.3264736943 -4187608.0011602864 0 -4187608.0011602864 18261962.835862353 0 0 0 0 -442683550.64398003 140061124.71170044 0 140061124.71170044 -109832072.5165863 0 0 0 0 130837172.55726767 -224898744.88327789 0 -224898744.88327789 170059482.02970886 0 0 0 0 -651550724.23271298 247043903.71195602 0 247043903.71195602 -38394736.90083313 0 0 0 0 40529878.091032028 -226678257.15090942 0 -226678257.15090942 279946606.91297913 0 0 0 0 -2528561.1391835371 -2396110.4870139062 0 -2396110.4870139062 3078811.9981137812 0 0 0 0 55756590.784677505 -211499961.30253601 0 -211499961.30253601 291097173.09439278 0 0 0 0 163057759.34576797 -157280966.10552597 0 -157280966.10552597 -13468564.331787109 0 0 0 0 -376630485.42099047 144246625.21326923 0 144246625.21326923 128630446.64788818 0 0 0 0 -49627772.262245178 -133841643.62550354 0 -133841643.62550354 266822232.61491585 0 0 0 0 594126.1335704634 -8265237.6508570202 0 -8265237.6508570202 20326711.620834932 0 0 0 0 -496000267.08007908 -240013402.23108673 0 -240013402.23108673 304498415.76080322 0 0 0 0 -41231471.256369591 -44651847.192646027 0 -44651847.192646027 8172299.0714874268 0 0 0 0 -27140557.2827034 -115981653.94883728 0 -115981653.94883728 136789295.04287052 0 0 0 0 -112269462.14219666 -2376659.9897003174 0 -2376659.9897003174 23067544.70192337 0 0 0 0 -2335033.530613102 -5330615.2742189206 0 -5330615.2742189206 4165166.9451927543 0 0 0 0 -20085990.354245305 2890342.467458725 0 2890342.467458725 34807904.036132812 0 0 0 0 -9635022.5000201464 -3076191.097694397 0 -3076191.097694397 25725306.344100952 0 0 0 0 -13480852.845784426 -1642529.3884277344 0 -1642529.3884277344 22482630.005554199 0 0 0 0 -12824073.773664594 1946435.5554351807 0 1946435.5554351807 41935596.52645874 0 0 0 0 -7592018.5770344734 -15280210.90763855 0 -15280210.90763855 57807841.331832886 0 0 0 0 -12421715.97105813 -3833623.1907272339 0 -3833623.1907272339 32341680.236801147 0 0 0 0 -7409631.0903558731 2932388.3936462402 0 2932388.3936462402 41358639.924163818 0 0 0 0 -663677169.94551992 101500226.06376398 0 101500226.06376398 -211393072.54109955 0 0 0 0 -6599641.8236795021 -248074.5390999876 0 -248074.5390999876 24305626.566368811 0 0 0 0 -591112736.11196053 236116960.47072744 0 236116960.47072744 31936678.986557007 0 0 0 0 -529461224.85413742 -60767228.959205627 0 -60767228.959205627 27746866.559129715 0 0 0 0 -3582524.8945110063 -2562441.2731468137 0 -2562441.2731468137 5627677.9286118671 0 0 0 0 -648968916.3011719 634409243.5656054 0 634409243.5656054 -278752341.64398193 0 0 0 0 -425917.49363574199 -1535158.7265496403 0 -1535158.7265496403 5600459.7618931048 0 0 0 0 74374637.901101112 -118980469.56919479 0 -118980469.56919479 -23972042.530403137 0 0 0 0 -461031461.61245537 318703823.34283829 0 318703823.34283829 -106288083.35023499 0 0 0 0 -6966144.5556459427 -3920451.7780895233 0 -3920451.7780895233 12694311.328071594 0 0 0 0 1789540.9682846069 7895359.4255523682 0 7895359.4255523682 2064532.062915802 0 0 0 0 -5824450.5093996916 -3082701.5322868824 0 -3082701.5322868824 16733154.264920212 0 0 0 0 3702327.7770316601 14767313.816257477 0 14767313.816257477 16554431.195968628 0 0 0 0 -21999894.999000788 -7918015.7032814026 0 -7918015.7032814026 -3338417.2618274689 0 0 0 0 -3697376.949246991 -5202403.2808465473 0 -5202403.2808465473 26414572.024112031 0 0 0 0 -8400010.0542025827 -7216059.7781902552 0 -7216059.7781902552 21186078.524800889 0 0 0 0 -30065044.638755798 -18992754.668449402 0 -18992754.668449402 -10814175.843963623 0 0 0 0 -9175538.8445119858 -6250627.9355010986 0 -6250627.9355010986 33518975.620377541 0 0 0 0 -12513399.097585201 -8446988.0278091431 0 -8446988.0278091431 37579267.449226379 0 0 0 0 -6792203.3376903534 -2960552.5646362305 0 -2960552.5646362305 38036137.632965088 0 0 0 0 -12205997.771922171 -7309219.0444469452 0 -7309219.0444469452 39766566.232589722 0 0 0 0 -2545122.3572835922 -4357304.8291091919 0 -4357304.8291091919 30383008.638946533 0 0 0 0 -1332880.3188975547 -1620318.1024558749 0 -1620318.1024558749 -512563.03889489174 0 0 0 0 3623336.77215904 16034903.099168777 0 16034903.099168777 40649355.396125793 0 0 0 0 -10090092.562987328 -78590451.715717316 0 -78590451.715717316 22040747.865127563 0 0 0 0 67449200.292367935 52028297.748443604 0 52028297.748443604 17980642.422083378 0 0 0 0 43838603.098425865 -46088630.295761108 0 -46088630.295761108 61885304.642320633 0 0 0 0 -6371772.5947422981 -3053388.0182800293 0 -3053388.0182800293 71672081.7603302 0 0 0 0 10170944.004968643 -12246194.406295776 0 -12246194.406295776 28626327.530426025 0 0 0 0 7420335.7042658329 -3606833.9116287231 0 -3606833.9116287231 7178056.9348678589 0 0 0 0 -7572188.8951292038 -5253688.4938735962 0 -5253688.4938735962 26813591.663375854 0 0 0 0 -48774219.411402106 5587541.8036270142 0 5587541.8036270142 29192158.232971191 0 0 0 0 -5781656.7697345018 -16389154.743965149 0 -16389154.743965149 30267109.849700928 0 0 0 0 -1258833.1678187426 -10304237.874069232 0 -10304237.874069232 23234257.955716014 0 0 0 0 -2387018.9828167362 -7307266.6379292719 0 -7307266.6379292719 10389857.635736689 0 0 0 0 60844060.96634382 -49676238.0936203 0 -49676238.0936203 -49238748.935261726 0 0 0 0 -4321398.4574965239 85454074.933717728 0 85454074.933717728 61464375.21736908 0 0 0 0 -22323928.748089492 -38615903.849607468 0 -38615903.849607468 -85344327.098636627 0 0 0 0 -76914734.595739365 132474020.12346268 0 132474020.12346268 35719553.725357056 0 0 0 0 -5256324.3380801678 -10574890.892837524 0 -10574890.892837524 25713979.249816895 0 0 0 0 -1325444.145031848 -6821340.8920678943 0 -6821340.8920678943 7327055.5445834249 0 0 0 0 -913726.92019605637 -16326096.808059692 0 -16326096.808059692 32393787.626373291 0 0 0 0 -620098019.87892199 211155686.28803253 0 211155686.28803253 27979103.131568909 0 0 0 0 -7731313.0313182371 2081798.167604059 0 2081798.167604059 27591353.813336037 0 0 0 0 -4166747.3066072464 -8763070.1246490479 0 -8763070.1246490479 27326981.725189209 0 0 0 0 503872557.72687358 -493479953.01631927 0 -493479953.01631927 -35576030.218048096 0 0 0 0 -261597443.70064989 324962868.67440987 0 324962868.67440987 726709755.25019836 0 0 0 0 65539450.041194439 -249847159.03980255 0 -249847159.03980255 207562771.58929443 0 0 0 0 -2877587.3637209274 -6175752.3256509118 0 -6175752.3256509118 19631897.198621362 0 0 0 0 -369895234.35493588 109735861.45594406 0 109735861.45594406 146621041.19261932 0 0 0 0 -259377701.47477055 58850610.23336792 0 58850610.23336792 95008210.712030411 0 0 0 0 -576546.58947058616 -906274.53759273235 0 -906274.53759273235 3462336.3463367969 0 0 0 0 -432681089.45414388 271777757.14730644 0 271777757.14730644 86620790.051338196 0 0 0 0 -244896711.03948581 211571948.26977921 0 211571948.26977921 66107245.970489502 0 0 0 0 -67575497.435371339 43187819.832298279 0 43187819.832298279 37288693.827066422 0 0 0 0 -157091634.97561949 208981787.22157669 0 208981787.22157669 -167101285.24913025 0 0 0 0 68774591.741668344 -10286285.677078247 0 -10286285.677078247 93343990.049736023 0 0 0 0 -75914126.5553734 63970775.419073343 0 63970775.419073343 118732914.31491852 0 0 0 0 -77014145.549664646 98359539.034166336 0 98359539.034166336 259607476.24599457 0 0 0 0 -71726507.064555049 -170135856.24911594 0 -170135856.24911594 705474466.9887085 0 0 0 0 13540029.284415841 -148120353.38762093 0 -148120353.38762093 244876827.59762573 0 0 0 0 -381940091.24192035 -70341287.312430382 0 -70341287.312430382 404959081.02875519 0 0 0 0 -171360537.47969139 -200000066.81270599 0 -200000066.81270599 49569482.622684479 0 0 0 0 -166942980.61233854 -83456159.191507339 0 -83456159.191507339 498359669.23583221 0 0 0 0 103218731.96038081 -489951853.43343735 0 -489951853.43343735 506145055.60521561 0 0 0 0 30299122.661148965 -112585483.93090105 0 -112585483.93090105 139401694.44397736 0 0 0 0 -185278480.60373902 -411852670.80587387 0 -411852670.80587387 1378670117.7413216 0 0 0 0 -122923109.52120197 -220311865.44042587 0 -220311865.44042587 681402717.79493332 0 0 0 0 -428896533.84158611 -480292248.89559555 0 -480292248.89559555 2205276111.2609925 0 0 0 0 -225195862.22400901 -695404672.70449257 0 -695404672.70449257 1325025533.8661423 0 0 0 0 -122195922.27500589 -999819407.40696907 0 -999819407.40696907 2201406347.3505745 0 0 0 0 -319730252.85519445 -54389900.701272964 0 -54389900.701272964 2204824132.9391747 0 0 0 0 -367246730.04977125 -284579266.51797199 0 -284579266.51797199 1512394035.5589523 0 0 0 0 -202018972.29742181 -178699903.05462265 0 -178699903.05462265 1551501443.6069355 0 0 0 0 147898510.10519364 114025030.83961391 0 114025030.83961391 214829719.90291595 0 0 0 0 83612322.822698176 279241799.18829918 0 279241799.18829918 754883823.498703 0 0 0 0 80006749.636570215 -83435683.988366842 0 -83435683.988366842 299476628.46716309 0 0 0 0 67435298.808167338 97049441.302278519 0 97049441.302278519 345592698.27128983 0 0 0 0 70023293.162067831 78020228.258131027 0 78020228.258131027 86571959.693340302 0 0 0 0 -86196476.812236071 42870131.71781826 0 42870131.71781826 -30544270.860916138 0 0 0 0 -67495065.04506366 -89842391.274688721 0 -89842391.274688721 260166498.09978485 0 0 0 0 1073865.2464442367 -9025655.6174237356 0 -9025655.6174237356 12151507.827212572 0 0 0 0 51216331.683437526 172376333.58081055 0 172376333.58081055 67866140.096076965 0 0 0 0 404408.50578449259 -1798734.1293433011 0 -1798734.1293433011 6733889.813320294 0 0 0 0 333051482.78238207 -535106823.74930096 0 -535106823.74930096 382607560.33027649 0 0 0 0 111813105.61525792 673139637.432621 0 673139637.432621 1765247709.0699501 0 0 0 0 578268151.89264035 -27938872.646434784 0 -27938872.646434784 2204619494.8539543 0 0 0 0 100707510.32403035 -399745279.62153053 0 -399745279.62153053 2163580572.8661337 0 0 0 0 -191068925.55639419 -17435.429166793823 0 -17435.429166793823 2204647625.1040154 0 0 0 0 -46755644.977300838 410033068.45843124 0 410033068.45843124 2144623281.0516357 0 0 0 0 -30549305.747678421 -337431585.45778275 0 -337431585.45778275 963919873.00827408 0 0 0 0 -102508094.29986009 -339635210.76890945 0 -339635210.76890945 2309063704.2063537 0 0 0 0 -425696868.66956031 128045864.03646469 0 128045864.03646469 2141339964.4365387 0 0 0 0 -91721210.257431149 -206315969.96669644 0 -206315969.96669644 624892616.81921387 0 0 0 0 -96767118.140909374 -231496.49882888794 0 -231496.49882888794 633244536.21319389 0 0 0 0 253197065.39777502 -140076800.65026665 0 -140076800.65026665 -134482925.85806274 0 0 0 0 -7310599.9875560701 -10751658.686467171 0 -10751658.686467171 51625997.03540802 0 0 0 0 4198.2594988411292 -52216.909027844667 0 -52216.909027844667 3935.8207804188132 0 0 0 0 -25373739.717469394 22588176.533081472 0 22588176.533081472 16827105.96157074 0 0 0 0 -24461980.08929348 -4170690.5427627563 0 -4170690.5427627563 34203940.989715576 0 0 0 0 -1285740.677729845 -9496919.1149864197 0 -9496919.1149864197 34875559.462890625 0 0 0 0 -7804862.5888879299 -8324343.5665502548 0 -8324343.5665502548 40743466.684745789 0 0 0 0 -1426097.4336245747 -12490897.551950708 0 -12490897.551950708 5529711.4409269877 0 0 0 0 -5398336.6679026624 -11528300.77051729 0 -11528300.77051729 13190595.307576403 0 0 0 0 -2866630.5340328217 -10434623.039299011 0 -10434623.039299011 40986265.639160156 0 0 0 0 -1318117.5239983797 -7672917.1996498108 0 -7672917.1996498108 32172612.732780457 0 0 0 0 -351221.32815569639 -4308863.4796028137 0 -4308863.4796028137 35353019.980895996 0 0 0 0 2179313.4486101866 -10120780.657543182 0 -10120780.657543182 33856523.447753906 0 0 0 0 7994804.6049146652 -6488133.7045440674 0 -6488133.7045440674 34801464.569934845 0 0 0 0 4224737.7620846033 -6202571.2252655029 0 -6202571.2252655029 34792190.636581421 0 0 0 0 3021060.3507535458 -8743657.4364395142 0 -8743657.4364395142 31118310.155628204 0 0 0 0 3158208.9276521206 -12643841.608215332 0 -12643841.608215332 24142661.095611572 0 0 0 0 5144952.8213624954 -11698349.006446838 0 -11698349.006446838 37285109.292892456 0 0 0 0 1367797.0322394371 -3140596.8670349121 0 -3140596.8670349121 43676824.19379425 0 0 0 0 3553189.4635148048 -7388203.5013828278 0 -7388203.5013828278 45557445.245925903 0 0 0 0 10391009.852630854 -1858709.53565979 0 -1858709.53565979 46952481.067153931 0 0 0 0 3545278.8450717926 -8433039.6847229004 0 -8433039.6847229004 61857880.053962708 0 0 0 0 3999383.301399231 1141349.2151184082 0 1141349.2151184082 71094333.598747253 0 0 0 0 3387664.4091415405 4663141.1735229492 0 4663141.1735229492 83684863.698455811 0 0 0 0 -5550517.4057118893 -8140897.3303146362 0 -8140897.3303146362 52539953.631866455 0 0 0 0 5194292.8779597282 -9636207.5095825195 0 -9636207.5095825195 54473931.385253906 0 0 0 0 18977160.187700272 4125826.0476913452 0 4125826.0476913452 58220246.649932861 0 0 0 0 3486147.7177963257 -14975612.458831787 0 -14975612.458831787 57758759.859970093 0 0 0 0 -2368541.3330640793 -669559.56993103027 0 -669559.56993103027 46212265.101196289 0 0 0 0 1532132.0338730812 -5789639.1325492859 0 -5789639.1325492859 47163147.827514648 0 0 0 0 2750944.3698812723 -5638864.4510917664 0 -5638864.4510917664 45190044.91633606 0 0 0 0 4956114.9850440025 -10641064.025650024 0 -10641064.025650024 47865394.139892578 0 0 0 0 2781256.6583395004 -6176867.9701309204 0 -6176867.9701309204 60882875.623413086 0 0 0 0 5032033.7879650593 -5451027.1333084106 0 -5451027.1333084106 53738047.326751709 0 0 0 0 1440303.8548259735 -11385927.025222778 0 -11385927.025222778 69925622.061462402 0 0 0 0 3291090.2546951771 -12425235.665481567 0 -12425235.665481567 56405602.723846436 0 0 0 0 4368239.6091353893 -11313910.792152405 0 -11313910.792152405 52726850.39453125 0 0 0 0 1922307.2953896523 -12452764.29234314 0 -12452764.29234314 52207866.351638794 0 0 0 0 1652478.8090333939 -13671785.891204834 0 -13671785.891204834 62627830.756698608 0 0 0 0 -4396114.9143601656 -6318634.3826293945 0 -6318634.3826293945 35589346.497047424 0 0 0 0 -1696876.6181621552 -8958629.8614349365 0 -8958629.8614349365 53123856.731864929 0 0 0 0 -348008.22463023663 -7747224.5444412231 0 -7747224.5444412231 44543398.322311401 0 0 0 0 -6290156.6492862701 -4776381.8517532349 0 -4776381.8517532349 45779467.04643631 0 0 0 0 -1552678.38590765 -10626393.234161377 0 -10626393.234161377 42435281.948394775 0 0 0 0 -7233746.4888374805 -9559341.3321533203 0 -9559341.3321533203 51393172.313621521 0 0 0 0 -14342537.606535912 -7722321.558265686 0 -7722321.558265686 46283436.927696228 0 0 0 0 -10766208.177360326 -1514588.9263916016 0 -1514588.9263916016 25809754.31438446 0 0 0 0 -7434407.3063623905 -4948744.9105224609 0 -4948744.9105224609 47348123.614603043 0 0 0 0 -9079166.6553326249 7413237.2032985687 0 7413237.2032985687 15863542.351776123 0 0 0 0 -23265278.923909664 -270472.26496505737 0 -270472.26496505737 36803686.926681519 0 0 0 0 -786922.65928602219 -6120770.7705993652 0 -6120770.7705993652 30283976.554176331 0 0 0 0 -94275.717777008424 -51574.152430534363 0 -51574.152430534363 99514.300151757896 0 0 0 0 -2990090.4215482473 -20232367.975753784 0 -20232367.975753784 54436729.390930176 0 0 0 0 -9548419.0605528355 -8531218.8707275391 0 -8531218.8707275391 45732387.550595403 0 0 0 0 -8648844.8028677702 -6330695.3545970917 0 -6330695.3545970917 50624215.79712677 0 0 0 0 -13063.559392430005 -49983.310924053192 0 -49983.310924053192 35358.591702058911 0 0 0 0 -24064665.74826014 18666124.121040344 0 18666124.121040344 25783864.522712708 0 0 0 0 -21786494.996901453 -17597576.637466431 0 -17597576.637466431 55145129.769775391 0 0 0 0 -4893639.7655970156 -24682304.430774689 0 -24682304.430774689 50141494.577552795 0 0 0 0 -8389321.5211756825 -11341581.0573349 0 -11341581.0573349 35769675.429674149 0 0 0 0 -1636054.6294723749 -18582279.520500183 0 -18582279.520500183 42423135.449874878 0 0 0 0 -9234039.0381401107 -19450633.694155395 0 -19450633.694155395 44159208.870849609 0 0 0 0 -9233296.7465282679 -19724177.395046234 0 -19724177.395046234 44739717.067604065 0 0 0 0 -2772970.4225566387 -20898979.09085083 0 -20898979.09085083 35949699.423210144 0 0 0 0 -7768490.6667093635 -21353543.686653137 0 -21353543.686653137 36019710.561538696 0 0 0 0 -5476177.9992927313 -17856036.523727417 0 -17856036.523727417 24108454.35168457 0 0 0 0 -888428.75169920921 -14282855.769908905 0 -14282855.769908905 39170841.242271423 0 0 0 0 -7263519.1298549771 -21681781.550811768 0 -21681781.550811768 33681750.84487915 0 0 0 0 4970633.3847050667 -21556516.008544922 0 -21556516.008544922 25488789.81678009 0 0 0 0 -9348073.8764642477 -7719730.8346862793 0 -7719730.8346862793 34372726.910736084 0 0 0 0 -4587130.9872974753 -18745822.432329178 0 -18745822.432329178 42224929.582344055 0 0 0 0 8592834.2421287298 -15645690.102386475 0 -15645690.102386475 28224651.490697861 0 0 0 0 545480.67244279385 -13336342.44127655 0 -13336342.44127655 28975987.141527176 0 0 0 0 7771889.4887459278 -43194823.485488892 0 -43194823.485488892 69318615.586399078 0 0 0 0 13879406.06836158 -17430412.278640747 0 -17430412.278640747 40470843.894325256 0 0 0 0 7119771.4687618017 -20924254.319793701 0 -20924254.319793701 22664231.170024872 0 0 0 0 101299.05189348315 -13646704.773238771 0 -13646704.773238771 5679329.3039953578 0 0 0 0 59040575.732388735 -33136609.445533752 0 -33136609.445533752 -12997265.740966797 0 0 0 0 147801068.56219721 -3981983.5529289246 0 -3981983.5529289246 -28191475.57321167 0 0 0 0 -715658.21281969734 -13279044.105835922 0 -13279044.105835922 10037054.449651351 0 0 0 0 1569281.9202356935 -2431474.5536613464 0 -2431474.5536613464 5519779.5765838623 0 0 0 0 -183226915.63400149 -4682110.7484073639 0 -4682110.7484073639 625964023.21681213 0 0 0 0 -92991628.032437027 153165936.52449036 0 153165936.52449036 622349189.22050071 0 0 0 0 -270821695.85834855 225821776.20239258 0 225821776.20239258 1298091013.8748932 0 0 0 0 -390275331.45256966 218568590.91506386 0 218568590.91506386 1313931414.4362984 0 0 0 0 -151230538.37562808 562508445.44419289 0 562508445.44419289 1078748717.4768181 0 0 0 0 -137581039.69103882 249174859.8371563 0 249174859.8371563 977759260.52244568 0 0 0 0 -429096759.39026755 457520602.01354408 0 457520602.01354408 2205458644.3141975 0 0 0 0 1389418013.2319293 717853452.34058189 0 717853452.34058189 103338875.70523071 0 0 0 0 3392172.3863193169 1977288.0135961249 0 1977288.0135961249 3381299.8510290682 0 0 0 0 -95907940.203602791 671293873.55752563 0 671293873.55752563 1277122543.6097488 0 0 0 0 378013640.05498588 1515109908.1599312 0 1515109908.1599312 2200884125.8446121 0 0 0 0 128458242.24559164 -43182471.925971985 0 -43182471.925971985 62654327.162849426 0 0 0 0 60919640.354452372 187324099.83706284 0 187324099.83706284 320218251.01270962 0 0 0 0 918699053.95395374 549923541.8459816 0 549923541.8459816 265762458.25457764 0 0 0 0 -2594959.5003473391 -12048949.537713602 0 -12048949.537713602 11140700.745072484 0 0 0 0 54226052.68320632 -14456650.110431671 0 -14456650.110431671 52577615.036045074 0 0 0 0 -8313650.9304814339 -12297686.134521484 0 -12297686.134521484 36599033.667922974 0 0 0 0 161952993.4197748 293324134.01689529 0 293324134.01689529 348627319.55170441 0 0 0 0 11336261.908563137 -27490761.313858032 0 -27490761.313858032 -8801529.5026283264 0 0 0 0 -6962511.5331268832 -13880785.4187994 0 -13880785.4187994 29441138.977416992 0 0 0 0 1052034.5131786522 -646374.00305489451 0 -646374.00305489451 -4132663.4313586056 0 0 0 0 797177.17529189587 -25503578.934844971 0 -25503578.934844971 -18587594.858158112 0 0 0 0 -208630.29154387768 -113467.93634908646 0 -113467.93634908646 3954274.6983642243 0 0 0 0 -14525803.605444908 -27683304.291900635 0 -27683304.291900635 7818296.5050354004 0 0 0 0 -5984846.9351624548 -6370521.9386501312 0 -6370521.9386501312 915735.87893676758 0 0 0 0 -12736493.177556872 -18143797.651824951 0 -18143797.651824951 24121167.666379452 0 0 0 0 -2014180.7584920526 -18756990.651847839 0 -18756990.651847839 4663544.6240844727 0 0 0 0 -6493934.864433229 -13870934.462482452 0 -13870934.462482452 14624168.259979248 0 0 0 0 501790.1355510354 -20192390.261314392 0 -20192390.261314392 19836756.317581177 0 0 0 0 4967216.7367612123 -13089578.550247192 0 -13089578.550247192 14900245.225814819 0 0 0 0 2472426.8701443672 -14701527.808876038 0 -14701527.808876038 7458444.8207855225 0 0 0 0 5097427.2125048339 -18261708.949737549 0 -18261708.949737549 12286155.788269043 0 0 0 0 -1219051.8861818314 -21026746.239898682 0 -21026746.239898682 11546698.191623688 0 0 0 0 -8765105.8192644119 -16270068.430335999 0 -16270068.430335999 11641273.218048096 0 0 0 0 9903332.7217058539 -10819692.761749268 0 -10819692.761749268 9326181.7802200317 0 0 0 0 20002466.21054998 -15031215.781166077 0 -15031215.781166077 10970702.721431732 0 0 0 0 -446343.70679585892 -2685666.6114884764 0 -2685666.6114884764 2916152.0680082217 0 0 0 0 4849133.1323115528 -15074794.176399231 0 -15074794.176399231 6540860.6498718262 0 0 0 0 1816922.8126565507 -11274014.974914551 0 -11274014.974914551 13953536.095848083 0 0 0 0 61235.635792536661 2763877.9187355042 0 2763877.9187355042 23635291.297821045 0 0 0 0 -738088.2205694 -2777712.289758794 0 -2777712.289758794 3146046.9342625886 0 0 0 0 -4249586.3604347659 -8276099.1099335775 0 -8276099.1099335775 16027695.802978754 0 0 0 0 4352653.6735458374 -17572279.027885437 0 -17572279.027885437 -2005868.9967712164 0 0 0 0 -13778140.94786799 -153502875.22073364 0 -153502875.22073364 16925038.43510437 0 0 0 0 4759394.853831917 -18543129.721710205 0 -18543129.721710205 200478.52708435059 0 0 0 0 519901.6280144453 -12947156.189453125 0 -12947156.189453125 -2037963.9995574951 0 0 0 0 -8101459.269666288 -10175954.677893639 0 -10175954.677893639 10681577.941467285 0 0 0 0 2044178.8705095053 -16783534.324493408 0 -16783534.324493408 7617616.418211937 0 0 0 0 -172751634.20950556 119310090.54037476 0 119310090.54037476 166646205.2352829 0 0 0 0 36710431.212609924 260953130.11526489 0 260953130.11526489 407551665.26568604 0 0 0 0 986790.21564553841 2917167.1569725424 0 2917167.1569725424 13846959.329025969 0 0 0 0 -11210935.721122684 10567843.719114304 0 10567843.719114304 -10623064.71723938 0 0 0 0 -1061637.4005514979 -1716279.8304786682 0 -1716279.8304786682 4958332.8640327454 0 0 0 0 -273812.54686865758 -3081520.9132980555 0 -3081520.9132980555 11638143.552557215 0 0 0 0 -5172825.7414738536 -2471307.3073043823 0 -2471307.3073043823 10765554.927062988 0 0 0 0 -42045584.144725814 -18581597.815124512 0 -18581597.815124512 -492199343.40953064 0 0 0 0 -375749.67614425195 -95850.252868041396 0 -95850.252868041396 844350.37352862954 0 0 0 0 174334.43430169765 -1742004.0552245751 0 -1742004.0552245751 5337851.0815799162 0 0 0 0 -15383464.637431443 -237324821.46070862 0 -237324821.46070862 -103857881.78062439 0 0 0 0 336911663.2080965 313796897.44799805 0 313796897.44799805 266656705.52480316 0 0 0 0 156691433.73529685 -128285626.28070068 0 -128285626.28070068 -124906290.45770454 0 0 0 0 -144155447.08556446 -97900989.888572693 0 -97900989.888572693 -413571.3359375 0 0 0 0 192869047.75469819 304421234.25278854 0 304421234.25278854 353315994.37756348 0 0 0 0 135832.89902833186 -906147.7249762211 0 -906147.7249762211 3898545.8659201711 0 0 0 0 -316596728.35389465 196181124.86809158 0 196181124.86809158 2197463923.4439125 0 0 0 0 217207945.69688469 -758530851.62392426 0 -758530851.62392426 1033596387.7512894 0 0 0 0 91442070.413823292 437665572.85888672 0 437665572.85888672 520875612.12869263 0 0 0 0 177407176.1082578 -688947523.84738159 0 -688947523.84738159 2201065363.8584046 0 0 0 0 244712.46651049319 12157811.547079086 0 12157811.547079086 198253261.91492462 0 0 0 0 -23762838.144794255 -448480802.40554047 0 -448480802.40554047 2055752576.8468285 0 0 0 0 -70438357.198167235 -78135270.266029358 0 -78135270.266029358 -53515603.734794617 0 0 0 0 363017.53951411525 -611010.67837887257 0 -611010.67837887257 1773266.115162611 0 0 0 0 354943947.96225321 -600868868.8224678 0 -600868868.8224678 1012000923.5940857 0 0 0 0 -335813041.55473435 332951347.84749603 0 332951347.84749603 2365972004.4475002 0 0 0 0 178811.20646908742 -1136937.7058562785 0 -1136937.7058562785 4562144.6050790697 0 0 0 0 -876497.58062384196 -1675080.1415808983 0 -1675080.1415808983 5389015.4705800712 0 0 0 0 -58607177.346668892 -40932206.370994568 0 -40932206.370994568 50489588.784042358 0 0 0 0 -47949973.802119434 12621029.204589844 0 12621029.204589844 26992269.690296173 0 0 0 0 -48141795.626793027 -49477125.016395569 0 -49477125.016395569 -21124554.373840332 0 0 0 0 -59108340.77932784 23967786.83770752 0 23967786.83770752 74689731.610433578 0 0 0 0 29933053.338421274 -8251154.9835538864 0 -8251154.9835538864 -28380086.275222778 0 0 0 0 26558095.360117853 45826035.214233875 0 45826035.214233875 -22500988.312133789 0 0 0 0 6496.9378734661586 -661722.39318110049 0 -661722.39318110049 1199977.686946325 0 0 0 0 202745.28329720531 -566704.77043215185 0 -566704.77043215185 564977.1075860858 0 0 0 0 19720114.52334404 -33746410.74363327 0 -33746410.74363327 -42712450.803070068 0 0 0 0 5161834.2996717561 538469.33488845825 0 538469.33488845825 4039058.1120262146 0 0 0 0 312364.97661999054 5676707.0056533813 0 5676707.0056533813 22307312.258396149 0 0 0 0 55839.559398452024 -247812.06166980416 0 -247812.06166980416 450612.1525727883 0 0 0 0 -26864427.946554493 -31163144.334411621 0 -31163144.334411621 14016106.441398621 0 0 0 0 -42046.284610430019 -6752182.376946412 0 -6752182.376946412 36139851.827156067 0 0 0 0 3174819.8105832897 -1831199.5072479248 0 -1831199.5072479248 24502519.322458267 0 0 0 0 3706339.4010841995 -17535602.552585602 0 -17535602.552585602 46191747.435699463 0 0 0 0 18077151.675783381 -19390820.169006348 0 -19390820.169006348 33246980.889068604 0 0 0 0 23718896.620455757 -22537851.769119263 0 -22537851.769119263 24993163.363311768 0 0 0 0 10094213.008484494 37397293.635726929 0 37397293.635726929 70131308.431640625 0 0 0 0 437993.21963708545 1933.923054497689 0 1933.923054497689 -425709.03008896112 0 0 0 0 16975703.275923282 -16121413.125473022 0 -16121413.125473022 32407890.939025879 0 0 0 0 8293197.7979263067 -18747554.632717133 0 -18747554.632717133 23257517.970565796 0 0 0 0 9684990.856842041 -13920325.131828308 0 -13920325.131828308 25007151.978277206 0 0 0 0 14427835.318175942 -20189195.178577423 0 -20189195.178577423 32944207.692749023 0 0 0 0 -1894532.825512588 -13649306.430023193 0 -13649306.430023193 23238715.905506134 0 0 0 0 2915745.5491810739 -21246138.272613525 0 -21246138.272613525 34003716.096641541 0 0 0 0 -3726565.4054829776 -22150317.318687439 0 -22150317.318687439 43248287.413208008 0 0 0 0 2142982.5451831073 -17671777.884120941 0 -17671777.884120941 35393915.650039673 0 0 0 0 10484151.824142382 -25056919.129211426 0 -25056919.129211426 41924284.031341553 0 0 0 0 487854.48591727018 -20118555.56325531 0 -20118555.56325531 43363574.830580235 0 0 0 0 14631095.39085339 -16142546.015636444 0 -16142546.015636444 42318741.58290863 0 0 0 0 17703903.209437102 -15545169.17565918 0 -15545169.17565918 34622304.330392838 0 0 0 0 27882722.85194087 -18002954.068397522 0 -18002954.068397522 42476841.56167984 0 0 0 0 12295799.469805405 -17675918.839662552 0 -17675918.839662552 59677108.560844421 0 0 0 0 21693358.588672817 -23513835.58531189 0 -23513835.58531189 47178143.134250641 0 0 0 0 -6111929.0832863748 -32238963.333206177 0 -32238963.333206177 64871021.405105591 0 0 0 0 374927.85714268684 -20940091.769241333 0 -20940091.769241333 47731541.510623932 0 0 0 0 1741817.7722027898 -43109857.193584442 0 -43109857.193584442 111462108.24449396 0 0 0 0 -36520623.549068734 -1590333.0877351761 0 -1590333.0877351761 70110972.981124878 0 0 0 0 60562240.786670342 -17205680.42873764 0 -17205680.42873764 53477067.013809204 0 0 0 0 27695405.860759959 19240368.882892609 0 19240368.882892609 110746366.96021271 0 0 0 0 4116904.4308543466 997747.25165557861 0 997747.25165557861 82336753.602531433 0 0 0 0 35741.852801878202 -14972586.007828737 0 -14972586.007828737 56808164.068634033 0 0 0 0 14346005.822346315 -5813566.9168167114 0 -5813566.9168167114 58637316.712905884 0 0 0 0 9285298.7303198241 -10413207.942075729 0 -10413207.942075729 63449880.748657227 0 0 0 0 -8244393.2737112641 -110897332.17801079 0 -110897332.17801079 -36097631.934357643 0 0 0 0 16400129.931305271 -27850953.373107214 0 -27850953.373107214 40572526.283667758 0 0 0 0 -61985080.329319954 -107072942.75902104 0 -107072942.75902104 -29179869.937981606 0 0 0 0 33118431.037469864 343575878.06433082 0 343575878.06433082 341944849.79665112 0 0 0 0 -87851742.61971426 -22786412.120822906 0 -22786412.120822906 69511121.345499992 0 0 0 0 -660923833.54223537 11167165.900273085 0 11167165.900273085 185457996.94691277 0 0 0 0 -107410428.96875072 -153658664.57462662 0 -153658664.57462662 -227249153.77911592 0 0 0 0 -225679920.19886208 -213557910.31323624 0 -213557910.31323624 -25526004.020928383 0 0 0 0 -176939125.44886017 -72361972.492004395 0 -72361972.492004395 49466733.986465454 0 0 0 0 7015114.144929029 -8931108.4409155324 0 -8931108.4409155324 -4576660.4514940307 0 0 0 0 -261826613.51337624 -160167530.95319176 0 -160167530.95319176 112660843.05237389 0 0 0 0 -159522438.32763672 -76439953.600921631 0 -76439953.600921631 48317869.192440033 0 0 0 0 -171089609.03084373 -56447129.177852631 0 -56447129.177852631 225889798.88528061 0 0 0 0 -94542622.77915597 -61042798.954365492 0 -61042798.954365492 292073736.08164597 0 0 0 0 -104026457.94642639 -115176461.50706482 0 -115176461.50706482 106390189.3075943 0 0 0 0 -55647857.111667633 -241644967.27101898 0 -241644967.27101898 -153065435.16100311 0 0 0 0 -74941643.654575825 -122006580.86343098 0 -122006580.86343098 -101635734.60284805 0 0 0 0 -95294819.546572208 -105567904.94604778 0 -105567904.94604778 95470435.271568298 0 0 0 0 -87717901.012438774 -237719785.20467949 0 -237719785.20467949 25865313.729637146 0 0 0 0 -226356733.78681183 -85851123.66012764 0 -85851123.66012764 109416473.67577934 0 0 0 0 -14922440.57322064 2419028.169200927 0 2419028.169200927 471603558.38058949 0 0 0 0 17070496.306651019 -21581498.555699795 0 -21581498.555699795 26631508.651069485 0 0 0 0 22796676.926661849 222949401.00829184 0 222949401.00829184 396159290.42128372 0 0 0 0 -264296726.44499779 -337241833.09172058 0 -337241833.09172058 -66081009.374881744 0 0 0 0 229487538.05265415 481934375.87463999 0 481934375.87463999 717630377.85851049 0 0 0 0 194790070.73931551 45559203.352285862 0 45559203.352285862 430658168.47378778 0 0 0 0 265792710.03777719 347677207.00465697 0 347677207.00465697 594135185.41254711 0 0 0 0 128648533.78507566 593484184.00808525 0 593484184.00808525 739181349.38896394 0 0 0 0 -19940291.431933403 399382108.56422877 0 399382108.56422877 884905451.8458128 0 0 0 0 64170496.421710968 721947766.2395134 0 721947766.2395134 732068419.8964386 0 0 0 0 -2526524.2714813561 1019600.9803761547 0 1019600.9803761547 1707854.3930440666 0 0 0 0 -9641951.2450742722 130296810.26378536 0 130296810.26378536 513375520.68624139 0 0 0 0 -71528009.737474442 204630025.13264847 0 204630025.13264847 859139772.45146275 0 0 0 0 -173738941.4522084 169159553.62686956 0 169159553.62686956 461696532.34942913 0 0 0 0 -65555804.0812397 314240581.77519274 0 314240581.77519274 716389636.2118988 0 0 0 0 68683186.018055916 218671861.29503536 0 218671861.29503536 436761009.76512671 0 0 0 0 223444075.80896139 234033004.16579032 0 234033004.16579032 404646278.34212017 0 0 0 0 208109943.45354152 348067505.69538689 0 348067505.69538689 1304771243.7118464 0 0 0 0 87801188.768305779 109270510.28374529 0 109270510.28374529 699111617.42015409 0 0 0 0 196496127.17893791 413985023.32313681 0 413985023.32313681 1443929689.8773346 0 0 0 0 188556756.16073132 749540839.50910187 0 749540839.50910187 255998544.75627899 0 0 0 0 132659937.89574814 1045265073.0513163 0 1045265073.0513163 549483372.56057549 0 0 0 0 -37071845.792708397 733850119.97886086 0 733850119.97886086 465345555.55982876 0 0 0 0 160370039.60303551 797827831.85015774 0 797827831.85015774 142844894.82988167 0 0 0 0 72719557.555848122 524868745.04886436 0 524868745.04886436 -7208107.6284656525 0 0 0 0 -321847404.10197878 393632651.95568633 0 393632651.95568633 -144741268.24297523 0 0 0 0 -89293215.532083035 -19908545.178120732 0 -19908545.178120732 1890998193.6123836 0 0 0 0 2255502.7950668493 572452.6427239296 0 572452.6427239296 1010512.0209397748 0 0 0 0 51641388.934135437 56471887.228152275 0 56471887.228152275 874344953.45075583 0 0 0 0 96615052.040289402 45585553.408640862 0 45585553.408640862 734040376.94203079 0 0 0 0 67634630.09157896 -14157295.34605974 0 -14157295.34605974 700554366.48856938 0 0 0 0 -1460234.874171922 535911.37071284198 0 535911.37071284198 1229386.5468317361 0 0 0 0 86702546.075147748 382322765.35991704 0 382322765.35991704 615004584.68852472 0 0 0 0 23835324.875680447 -58315307.123184681 0 -58315307.123184681 837557101.94720101 0 0 0 0 15097929.354692698 -32956238.623442296 0 -32956238.623442296 822000079.33142519 0 0 0 0 32048972.86425209 -71873726.770056039 0 -71873726.770056039 763003132.93295324 0 0 0 0 -15535742.643987656 -39199409.314324945 0 -39199409.314324945 980301796.10841346 0 0 0 0 5908426.0644470314 4545975.9081164366 0 4545975.9081164366 3624600.893044176 0 0 0 0 49685674.683887482 31092424.318270832 0 31092424.318270832 694829103.08813643 0 0 0 0 41848739.081360817 -32260492.016779423 0 -32260492.016779423 745794686.76095152 0 0 0 0 16618626.069638729 10536778.320988573 0 10536778.320988573 800637262.94336772 0 0 0 0 39495861.032282352 -46851646.167852946 0 -46851646.167852946 745993005.7702229 0 0 0 0 46505406.37641573 -53815627.112180293 0 -53815627.112180293 675348145.10594308 0 0 0 0 71353890.286833763 4036664.0021311939 0 4036664.0021311939 485418274.20807242 0 0 0 0 89695215.98700285 31384515.245158225 0 31384515.245158225 495378673.31494373 0 0 0 0 -67415418.085800648 -74397192.271702588 0 -74397192.271702588 532935709.18232858 0 0 0 0 107740686.68295395 390453106.81287068 0 390453106.81287068 403410988.64144266 0 0 0 0 344926045.97702265 241058662.69157201 0 241058662.69157201 400803702.71939266 0 0 0 0 273693436.40111995 -24820102.404947251 0 -24820102.404947251 525511049.07594037 0 0 0 0 -159318499.49763572 -226761149.82131884 0 -226761149.82131884 625909152.69194829 0 0 0 0 -142025036.46219397 -498918993.87980199 0 -498918993.87980199 273311393.66165853 0 0 0 0 476387292.97616816 115554285.36354619 0 115554285.36354619 -43400973.558168888 0 0 0 0 1927626.9230788911 -1876400.9654043801 0 -1876400.9654043801 2041076.2572722216 0 0 0 0 210133090.56673717 17158430.608600616 0 17158430.608600616 -25362471.669862747 0 0 0 0 109587618.30500531 -94166371.198515892 0 -94166371.198515892 -72581727.951058924 0 0 0 0 10418569.394332409 -96641375.879179478 0 -96641375.879179478 -1674105.6485471725 0 0 0 0 49510070.121877074 146945624.96464422 0 146945624.96464422 176369956.38743651 0 0 0 0 5002708.3833405739 -5271117.0752853751 0 -5271117.0752853751 5816045.2939849533 0 0 0 0 -140524988.81741238 -129862581.94663244 0 -129862581.94663244 130491587.00981709 0 0 0 0 62939334.256396294 -5766200.2596768439 0 -5766200.2596768439 -43196480.362734675 0 0 0 0 10295044.737192918 -6373984.2509158896 0 -6373984.2509158896 9290329.9643107504 0 0 0 0 -525987.4771065712 -218551551.65420744 0 -218551551.65420744 -31693239.404002249 0 0 0 0 45720414.659442931 -19798908.681868777 0 -19798908.681868777 16019847.64021492 0 0 0 0 37512669.406067014 -24532538.605903625 0 -24532538.605903625 18829879.699462891 0 0 0 0 46481838.892462179 -8432926.6757691652 0 -8432926.6757691652 25359523.76908493 0 0 0 0 -75579273.051011086 -125481542.17482211 0 -125481542.17482211 -133911722.39201474 0 0 0 0 4840421.4518390521 -1639637.721182806 0 -1639637.721182806 -826510.88372965774 0 0 0 0 -45724592.870633364 -35973425.996371984 0 -35973425.996371984 36133969.531912804 0 0 0 0 19668695.543135643 -92238746.353359699 0 -92238746.353359699 -1618332.8002678603 0 0 0 0 74107322.781042814 -21693245.156849384 0 -21693245.156849384 413450.40499186516 0 0 0 0 91815296.219447613 -49976462.972247124 0 -49976462.972247124 -8487034.1824960709 0 0 0 0 61416669.316465855 -59860176.046536922 0 -59860176.046536922 -1469997.5230789185 0 0 0 0 52211192.589825511 -52938833.461846352 0 -52938833.461846352 65864644.131958008 0 0 0 0 96603341.741627693 -122138415.68262863 0 -122138415.68262863 80210169.323990583 0 0 0 0 45575361.687525272 -59000856.380418777 0 -59000856.380418777 2189924.3968019485 0 0 0 0 29424711.57231307 -18868480.254473686 0 -18868480.254473686 -4023348.8812522888 0 0 0 0 6444564.3019871712 -23274001.473763466 0 -23274001.473763466 38946188.606050491 0 0 0 0 -6602652.5932912827 30954741.334760666 0 30954741.334760666 -19443075.029138088 0 0 0 0 122431648.54015708 -38591084.205650806 0 -38591084.205650806 -185451610.22901917 0 0 0 0 281601590.86503983 -413879386.17331505 0 -413879386.17331505 21526148.645343781 0 0 0 0 171115521.1690197 209272599.32234859 0 209272599.32234859 -523028731.78406906 0 0 0 0 -650191.58408267889 -1656649.02271365 0 -1656649.02271365 5540132.0743322046 0 0 0 0 364291.10796618462 -354443.78263735771 0 -354443.78263735771 55450073.683654785 0 0 0 0 -13177529.89629551 -281402.99997006357 0 -281402.99997006357 25437433.00769471 0 0 0 0 -81016899.854696274 131384115.61230755 0 131384115.61230755 -77875430.170074463 0 0 0 0 -3136515.9551787376 -7864641.4930591583 0 -7864641.4930591583 10295552.376236439 0 0 0 0 -34010403.572919846 873371.86372184753 0 873371.86372184753 66436230.680290222 0 0 0 0 -6571848.7540499046 -12121644.389996013 0 -12121644.389996013 36256695.826154046 0 0 0 0 8662658.7453422546 -10054211.232991695 0 -10054211.232991695 22936198.093097687 0 0 0 0 -6254232.20436983 -7191505.4638200104 0 -7191505.4638200104 23121612.426661339 0 0 0 0 -53216582.317173004 9535991.2782230377 0 9535991.2782230377 74750129.259017944 0 0 0 0 -17384231.158498555 4514028.9622284546 0 4514028.9622284546 18471946.251881011 0 0 0 0 -74530087.137084961 20120800.821992874 0 20120800.821992874 74667895.548324585 0 0 0 0 -68314326.50087738 12901882.615617752 0 12901882.615617752 79314434.262130737 0 0 0 0 -88376666.066833496 -21175156.990650177 0 -21175156.990650177 63854453.460933208 0 0 0 0 -106314229.92784882 -3815162.5454940796 0 -3815162.5454940796 76434587.062218666 0 0 0 0 -46313983.398062944 -111138179.50951326 0 -111138179.50951326 25886267.297513485 0 0 0 0 -116192953.55939674 -15799101.004030228 0 -15799101.004030228 80898841.100883484 0 0 0 0 1538183.3166035553 -10162141.178139251 0 -10162141.178139251 9198970.1542242989 0 0 0 0 1686941.3950942839 -24078427.174259353 0 -24078427.174259353 55692114.67736306 0 0 0 0 13406532.839269459 -117221977.94837564 0 -117221977.94837564 8344093.1521377563 0 0 0 0 -105171724.66016579 -3015586.4931221008 0 -3015586.4931221008 69773524.717819214 0 0 0 0 -85149342.759030342 29843179.877291679 0 29843179.877291679 85918515.438674927 0 0 0 0 -141708557.30737925 -15885359.720081329 0 -15885359.720081329 109016113.82968903 0 0 0 0 -127854001.22080612 -54028377.656826019 0 -54028377.656826019 29744576.351978302 0 0 0 0 -190108849.34052849 -76145004.111264229 0 -76145004.111264229 88638017.310653687 0 0 0 0 12891019.955687661 -30477094.864566248 0 -30477094.864566248 50037773.785192065 0 0 0 0 -117685118.59718895 32719280.195343733 0 32719280.195343733 183084839.18325043 0 0 0 0 -8058703.9956767829 2113263.8599523664 0 2113263.8599523664 7973623.7580377692 0 0 0 0 -116895021.72324991 -557715780.84755218 0 -557715780.84755218 21236561.960579634 0 0 0 0 -91758156.647182465 24013594.753408432 0 24013594.753408432 174750103.91867065 0 0 0 0 -84975009.21154213 71046700.384305 0 71046700.384305 407042798.78678894 0 0 0 0 -98068381.232919693 33509642.721830368 0 33509642.721830368 161537358.6162796 0 0 0 0 -127342459.11589432 -9003448.5005455017 0 -9003448.5005455017 102376329.00126839 0 0 0 0 -140273296.8234005 14784148.711502075 0 14784148.711502075 166515722.37083054 0 0 0 0 -192146667.09829807 -54132045.657295227 0 -54132045.657295227 138219037.71785736 0 0 0 0 -88772671.506103516 35652409.695884705 0 35652409.695884705 111974385.39942169 0 0 0 0 -53110505.61133194 72872393.513252258 0 72872393.513252258 125234680.79445457 0 0 0 0 -74427782.54361105 81491571.631716728 0 81491571.631716728 210509583.47851562 0 0 0 0 2614780.3647174835 112499762.37365723 0 112499762.37365723 128274102.77156067 0 0 0 0 10783309.387487411 86783003.395799637 0 86783003.395799637 74277093.978111267 0 0 0 0 -42528551.841030121 70315125.716407776 0 70315125.716407776 90972952.621833801 0 0 0 0 -33921358.878063202 52845715.17754364 0 52845715.17754364 51686423.599002838 0 0 0 0 -34253762.602493286 50436465.004493713 0 50436465.004493713 85677861.272909522 0 0 0 0 -87384206.091885567 31880190.852725983 0 31880190.852725983 86013879.056091309 0 0 0 0 -33656569.614549637 56184064.028141022 0 56184064.028141022 71711959.624427795 0 0 0 0 -13168489.220682763 7421779.0702795647 0 7421779.0702795647 5340711.8588263551 0 0 0 0 -46997811.111263275 -4885123.9439086914 0 -4885123.9439086914 43391422.623214722 0 0 0 0 -11412518.880744934 27499176.628082275 0 27499176.628082275 71532307.972169876 0 0 0 0 -11448512.852301942 60419865.988367237 0 60419865.988367237 72395823.89680481 0 0 0 0 -4516675.3490032777 647331.40857730433 0 647331.40857730433 6818071.4089821726 0 0 0 0 -8108672.2942672186 5850797.5848311447 0 5850797.5848311447 2016157.9718290265 0 0 0 0 6710307.7525529861 22401427.161380768 0 22401427.161380768 17036370.830909729 0 0 0 0 19541765.057369232 46220362.279497147 0 46220362.279497147 29854417.455413818 0 0 0 0 -13384695.839588165 31625253.249042511 0 31625253.249042511 25314447.724403381 0 0 0 0 9982443.6059556007 29207215.861256599 0 29207215.861256599 7206593.4478530884 0 0 0 0 11926675.615058899 22808308.299240112 0 22808308.299240112 12500380.187911987 0 0 0 0 -74435.091731054708 1559929.5118260682 0 1559929.5118260682 -3289958.425740689 0 0 0 0 20093075.602811813 -1619651.8758201599 0 -1619651.8758201599 -1370639.4763793945 0 0 0 0 12562924.03786087 -4499195.7362670898 0 -4499195.7362670898 5065669.8787865639 0 0 0 0 -99667.770351089537 419620.93219441548 0 419620.93219441548 390256.41679821769 0 0 0 0 625208.1666842103 -551401.38910210878 0 -551401.38910210878 -1775350.8228388354 0 0 0 0 64243789.431943417 32718989.037155151 0 32718989.037155151 -109162676.61767578 0 0 0 0 27987247.964915037 49767452.194880009 0 49767452.194880009 13118082.735702515 0 0 0 0 86691024.03371048 94448235.92911911 0 94448235.92911911 46436052.01058197 0 0 0 0 204243689.80462646 46901122.775684357 0 46901122.775684357 -34608212.785327911 0 0 0 0 -33758465.19716835 74256720.619865417 0 74256720.619865417 -8181642.1208457947 0 0 0 0 42069606.441478729 14994015.523139954 0 14994015.523139954 -29568768.158638 0 0 0 0 54987544.516311646 -40152832.069618225 0 -40152832.069618225 -55180277.594487667 0 0 0 0 191033366.78409576 -68098956.530002594 0 -68098956.530002594 -59407952.15237999 0 0 0 0 159211201.76884413 12201785.7315588 0 12201785.7315588 -45251420.17779541 0 0 0 0 301395533.06264114 -99900294.45911026 0 -99900294.45911026 -61032346.862163544 0 0 0 0 258064659.96419144 -28921691.698553085 0 -28921691.698553085 -78125304.796775818 0 0 0 0 292729535.54561901 -123443552.25901413 0 -123443552.25901413 -49048877.102321625 0 0 0 0 295704729.13916302 -112393642.28933525 0 -112393642.28933525 -87181500.135482788 0 0 0 0 437080806.00372601 -202624249.38237381 0 -202624249.38237381 -4863547.2803878784 0 0 0 0 335540257.46942091 -111170897.92899418 0 -111170897.92899418 -87174702.301177979 0 0 0 0 227587990.44095922 -41216053.955754757 0 -41216053.955754757 -64019388.079330444 0 0 0 0 397294602.05564785 -26339684.323419571 0 -26339684.323419571 -99994988.285972595 0 0 0 0 501680521.13463116 -161147857.73784637 0 -161147857.73784637 21665477.135379791 0 0 0 0 488039784.17048454 -37456406.613148689 0 -37456406.613148689 160295664.75375366 0 0 0 0 741474091.96289253 -222593035.94816589 0 -222593035.94816589 223652793.70230103 0 0 0 0 295585746.95480251 -112202433.41796112 0 -112202433.41796112 127218964.85709381 0 0 0 0 255248435.43317509 -146675734.46530914 0 -146675734.46530914 143624194.32453156 0 0 0 0 376187028.11509991 -275611955.52999973 0 -275611955.52999973 450045640.45393372 0 0 0 0 111807293.72050667 -115447345.99472237 0 -115447345.99472237 362925620.10348511 0 0 0 0 132881102.3346777 126952093.96440697 0 126952093.96440697 285567773.02613831 0 0 0 0 185790308.14365554 169672460.5844574 0 169672460.5844574 810943150.62119293 0 0 0 0 175652633.19804573 87511155.434229851 0 87511155.434229851 299060926.53733063 0 0 0 0 -52349266.347291946 -174127362.11338615 0 -174127362.11338615 707627716.78176498 0 0 0 0 570746908.27908611 -242159609.41296387 0 -242159609.41296387 551918292.57539368 0 0 0 0 473875801.61148262 -405837545.39651489 0 -405837545.39651489 544540064.06303787 0 0 0 0 736447708.15410137 127715581.03591442 0 127715581.03591442 338603957.30400848 0 0 0 0 128013692.00764847 -53888478.795150757 0 -53888478.795150757 980113339.71421051 0 0 0 0 541836440.14695168 -465938677.52684784 0 -465938677.52684784 642892289.25021362 0 0 0 0 57841892.782718658 -129230951.61279488 0 -129230951.61279488 601451258.12474823 0 0 0 0 52137041.730039597 -51009119.668909073 0 -51009119.668909073 240167179.32987213 0 0 0 0 158009650.64188385 67999031.270347595 0 67999031.270347595 354955232.689888 0 0 0 0 21279299.718276978 159502752.96711349 0 159502752.96711349 163467731.11714935 0 0 0 0 22376618.690989256 102194273.26620978 0 102194273.26620978 446599624.59239197 0 0 0 0 4348227.6958198547 94892530.782397747 0 94892530.782397747 73282508.310424805 0 0 0 0 58993356.071697235 313513726.58831787 0 313513726.58831787 75067156.861473083 0 0 0 0 382265506.26980639 147369838.71318722 0 147369838.71318722 -147427691.25829315 0 0 0 0 130852250.6061554 -138515026.28162766 0 -138515026.28162766 223691751.22784805 0 0 0 0 -69620413.065531731 229221068.32697773 0 229221068.32697773 -227115869.54824066 0 0 0 0 -49568461.779020309 22944044.915962219 0 22944044.915962219 30872934.098163605 0 0 0 0 4888979.0582568496 12697208.024745019 0 12697208.024745019 18411672.955549568 0 0 0 0 1983711.6553242803 13809152.159057617 0 13809152.159057617 13709373.275802612 0 0 0 0 -20644171.441339493 6127055.102481842 0 6127055.102481842 9794766.3860359192 0 0 0 0 -6122204.3985887142 3237641.6029871739 0 3237641.6029871739 6887498.035488192 0 0 0 0 -344567.05141700339 2152874.6429930218 0 2152874.6429930218 3808126.6531496495 0 0 0 0 -2188086.0235150475 -1046145.7539823968 0 -1046145.7539823968 2797009.4247353673 0 0 0 0 12601789.542345047 -22769253.798912048 0 -22769253.798912048 24119659.618423462 0 0 0 0 -47831595.581796646 -13213096.531440735 0 -13213096.531440735 58274756.419013977 0 0 0 0 -44053302.805646658 -36614441.754099846 0 -36614441.754099846 -23384795.404953003 0 0 0 0 -5506048.6590442657 -76141098.626976013 0 -76141098.626976013 17057704.759506226 0 0 0 0 62534282.494409084 38333038.260887146 0 38333038.260887146 25570359.973976135 0 0 0 0 -470840.71633148193 -1911275.9604187012 0 -1911275.9604187012 1608301.8917999268 0 0 0 0 -879143.52842080127 -620815.25411680713 0 -620815.25411680713 943421.46440194547 0 0 0 0 299396699.69790673 -113557753.63536024 0 -113557753.63536024 -86275672.139205933 0 0 0 0 123236723.74325752 -20297436.639625549 0 -20297436.639625549 -87378116.85986656 0 0 0 0 205167278.36902857 -66933424.850662231 0 -66933424.850662231 16685102.300674438 0 0 0 0 281027429.78627348 -151482768.46261597 0 -151482768.46261597 16650994.449645996 0 0 0 0 48414148.922953606 -93134794.836910248 0 -93134794.836910248 151303592.29853058 0 0 0 0 53856574.611081123 2830064.0434417725 0 2830064.0434417725 122637315.77743149 0 0 0 0 43763234.652142525 43969209.208583832 0 43969209.208583832 223163089.87702942 0 0 0 0 23230367.092994213 94176926.562070847 0 94176926.562070847 102058052.03356171 0 0 0 0 -68811661.565953255 -56170065.105827332 0 -56170065.105827332 190907579.3531723 0 0 0 0 -389457.12735421583 -224416.0662246393 0 -224416.0662246393 831137.85706573725 0 0 0 0 -13223361.918942928 -179323283.1122961 0 -179323283.1122961 127006097.52458191 0 0 0 0 201002.84306526184 5719585.5253219604 0 5719585.5253219604 -1241264.846206665 0 0 0 0 -171931220.15981483 60332546.652603149 0 60332546.652603149 138516224.44275284 0 0 0 0 4552352.5355662163 10560325.69682073 0 10560325.69682073 18959700.174488634 0 0 0 0 -93235074.855096221 65666025.826823711 0 65666025.826823711 18457933.584533691 0 0 0 0 -392609428.22420931 533426164.50301361 0 533426164.50301361 86143234.761510849 0 0 0 0 -38200045.459670067 22981818.583251953 0 22981818.583251953 -66918485.473087311 0 0 0 0 180261177.99728084 62038008.094085693 0 62038008.094085693 -288376421.55017853 0 0 0 0 325582601.50231457 -547483060.76427841 0 -547483060.76427841 300123850.65010834 0 0 0 0 37915846.074372292 -572343279.24058247 0 -572343279.24058247 577537143.79351807 0 0 0 0 29301311.722491264 -492680574.58459091 0 -492680574.58459091 551327208.3629837 0 0 0 0 -33241270.086951256 259857986.21029663 0 259857986.21029663 1514617924.5622482 0 0 0 0 -34300412.614252806 291661035.91382408 0 291661035.91382408 566511515.49032593 0 0 0 0 -161112111.2031188 -442630871.13531876 0 -442630871.13531876 881314596.41093445 0 0 0 0 -213961916.80170721 -207264054.80055523 0 -207264054.80055523 348337603.3112793 0 0 0 0 -401308181.21900654 -200528700.99655533 0 -200528700.99655533 486530056.48699188 0 0 0 0 -109909259.81302977 -426501005.21294403 0 -426501005.21294403 530122144.22575378 0 0 0 0 -5459756.9352903366 -441584678.90005207 0 -441584678.90005207 432559263.00881958 0 0 0 0 -93091116.508365452 -139467129.41731393 0 -139467129.41731393 139882214.12174225 0 0 0 0 145461878.2001127 -372851153.08115005 0 -372851153.08115005 331356672.23882675 0 0 0 0 114421104.31469339 -353130522.98174667 0 -353130522.98174667 773943006.93341064 0 0 0 0 -504444136.16237539 97835765.080336571 0 97835765.080336571 321139060.20079803 0 0 0 0 -97469707.497752666 82572590.311613083 0 82572590.311613083 155401694.36528015 0 0 0 0 -89705765.631157875 280830884.70404053 0 280830884.70404053 -71529542.696829796 0 0 0 0 2480575.026305371 7194526.1011139583 0 7194526.1011139583 15196070.356394842 0 0 0 0 264042863.78896809 130471561.4840889 0 130471561.4840889 -162735124.97094727 0 0 0 0 5661205.0549230576 30514825.867746353 0 30514825.867746353 22549104.467330933 0 0 0 0 167435144.01151276 184848511.4122467 0 184848511.4122467 161118310.25926781 0 0 0 0 501845680.55620384 138732129.29335785 0 138732129.29335785 -175140742.17956734 0 0 0 0 363284.12954808399 2100409.5107058138 0 2100409.5107058138 6480436.3511989266 0 0 0 0 101038592.2924633 765505695.55681229 0 765505695.55681229 786501972.74893188 0 0 0 0 458216210.18034208 129195069.63139725 0 129195069.63139725 778073643.38391113 0 0 0 0 1099888031.2221742 178301880.65647507 0 178301880.65647507 293509785.33575439 0 0 0 0 1228977481.7214041 -448039409.48927498 0 -448039409.48927498 -448699711.51582336 0 0 0 0 377025929.2956028 -671490354.78675461 0 -671490354.78675461 13036115.288103104 0 0 0 0 574620916.8798666 -347395164.62742424 0 -347395164.62742424 159193737.06244278 0 0 0 0 598424949.98440838 -185614927.39425659 0 -185614927.39425659 39981221.355995178 0 0 0 0 361894088.17235518 -82819883.016887665 0 -82819883.016887665 443185590.80697632 0 0 0 0 165139586.24305868 -255716497.89361382 0 -255716497.89361382 291595821.51807022 0 0 0 0 108151503.0045433 -190837896.06781006 0 -190837896.06781006 485873094.54969978 0 0 0 0 18919612.607961655 -432141033.5883522 0 -432141033.5883522 426187096.78928375 0 0 0 0 134167290.17138362 -208532109.72003174 0 -208532109.72003174 464403911.26944733 0 0 0 0 -30363676.236420393 -366504187.62988472 0 -366504187.62988472 560829049.22816467 0 0 0 0 62555594.454999685 -246720948.91974258 0 -246720948.91974258 444185386.92220306 0 0 0 0 62214686.544064164 -255778956.58615923 0 -255778956.58615923 289759685.00862122 0 0 0 0 36642518.652747154 -268397945.32009125 0 -268397945.32009125 284039204.88395309 0 0 0 0 -4514767.2302837372 -170478881.98632812 0 -170478881.98632812 205114092.20888901 0 0 0 0 44276713.341852188 -246108949.15457153 0 -246108949.15457153 267482903.25710678 0 0 0 0 70457863.772379875 -245381022.42923737 0 -245381022.42923737 264826686.0312767 0 0 0 0 50178091.050534248 -226808034.38147354 0 -226808034.38147354 250135413.44129181 0 0 0 0 31916983.336628914 -281080508.3677597 0 -281080508.3677597 384810753.49432373 0 0 0 0 100931173.67316628 -393584086.24095154 0 -393584086.24095154 356013960.12979126 0 0 0 0 108199671.00771618 -383809374.02225876 0 -383809374.02225876 264211186.84557915 0 0 0 0 248412507.67731905 -312540593.86587524 0 -312540593.86587524 217422830.82541656 0 0 0 0 550584368.29274845 63218518.198983192 0 63218518.198983192 27175856.988265991 0 0 0 0 328887134.18722439 -31326726.975730896 0 -31326726.975730896 25325973.64571774 0 0 0 0 364695447.71546841 -70008289.75595665 0 -70008289.75595665 -66454518.957298279 0 0 0 0 174899382.8386879 -182257009.58612823 0 -182257009.58612823 67724285.422217607 0 0 0 0 98910375.364232063 -70922477.101736069 0 -70922477.101736069 -49272817.719482422 0 0 0 0 174543009.62680626 -56545887.06590271 0 -56545887.06590271 79102318.264248371 0 0 0 0 127957111.42453194 -213551620.85136795 0 -213551620.85136795 146942994.166008 0 0 0 0 350981189.13757801 -122125242.24007034 0 -122125242.24007034 241792845.44709015 0 0 0 0 947176820.36841655 -215321316.19355488 0 -215321316.19355488 116428931.63515091 0 0 0 0 391771900.39266205 -268534162.98979378 0 -268534162.98979378 253185967.02321625 0 0 0 0 957261.12390111061 -2797672.1893596407 0 -2797672.1893596407 3997154.4353761896 0 0 0 0 5645228.1185426712 42660360.120197296 0 42660360.120197296 23432181.183757782 0 0 0 0 166490.77876797877 -267786.16817959398 0 -267786.16817959398 2190396.7024301887 0 0 0 0 376223649.2961092 349791176.30989838 0 349791176.30989838 312447847.84812546 0 0 0 0 368567587.26952267 304162507.24603081 0 304162507.24603081 41967204.081504822 0 0 0 0 337116326.90665388 257133383.11881447 0 257133383.11881447 -19605013.301673889 0 0 0 0 249587556.49333763 306548555.00576401 0 306548555.00576401 335851104.63958359 0 0 0 0 194655612.17211723 180030658.56226158 0 180030658.56226158 48009916.321990967 0 0 0 0 294751720.96812963 279019048.78054333 0 279019048.78054333 50490366.785293579 0 0 0 0 63802829.119795084 92375664.229774475 0 92375664.229774475 -31863838.449882507 0 0 0 0 -333466054.64271593 67093992.204792023 0 67093992.204792023 168682715.1948204 0 0 0 0 415736.1183542423 -1413871.1828452758 0 -1413871.1828452758 5248985.6488698348 0 0 0 0 3561598.9412870407 -24954966.866607666 0 -24954966.866607666 -23306219.274457932 0 0 0 0 -167060103.41990662 28777414.346206665 0 28777414.346206665 57338604.350486755 0 0 0 0 -82517915.905936241 123850949.29603767 0 123850949.29603767 44355771.813457489 0 0 0 0 1180890.1880992649 -5365508.1965967081 0 -5365508.1965967081 12576109.24847547 0 0 0 0 220747155.99740028 136863241.39196968 0 136863241.39196968 73567163.514194489 0 0 0 0 1136192.7271427703 -2216668.3117842712 0 -2216668.3117842712 2409814.5441997722 0 0 0 0 102715444.65461969 -52129811.108982086 0 -52129811.108982086 -86570186.607513428 0 0 0 0 30546642.501688004 -189857546.5988636 0 -189857546.5988636 -67812632.830873013 0 0 0 0 269342302.99618721 -6563152.8755226135 0 -6563152.8755226135 -30355064.8189888 0 0 0 0 131460967.81267643 -125569458.42530251 0 -125569458.42530251 -42754496.916940212 0 0 0 0 362109904.52720726 -41720701.971345901 0 -41720701.971345901 -78603355.979225159 0 0 0 0 144932653.09777832 -202309801.6660881 0 -202309801.6660881 -129297009.36150932 0 0 0 0 -43713112.923271179 -62770484.469677448 0 -62770484.469677448 -208801528.28417587 0 0 0 0 125622628.8549633 -236548568.52669048 0 -236548568.52669048 -173350520.62901497 0 0 0 0 10502535.176329717 -12608717.002139084 0 -12608717.002139084 16434838.476973921 0 0 0 0 227783303.11125183 519167184.86240578 0 519167184.86240578 345796235.87002945 0 0 0 0 234171295.60333776 309293452.63962173 0 309293452.63962173 471376932.94244099 0 0 0 0 568406098.94906545 402170241.68964291 0 402170241.68964291 411641426.75588036 0 0 0 0 285747289.85792327 421030129.77553082 0 421030129.77553082 589775631.43961143 0 0 0 0 4130936.9071642263 -3754598.1804827824 0 -3754598.1804827824 5079331.7140278388 0 0 0 0 572295834.32321501 554332145.2404865 0 554332145.2404865 882512843.2298851 0 0 0 0 574048879.43302536 411052657.09653854 0 411052657.09653854 -553056584.33394146 0 0 0 0 128530756.15349838 -190761177.46758962 0 -190761177.46758962 -142198902.82928848 0 0 0 0 58039682.993014336 -237078849.80511189 0 -237078849.80511189 -172283820.41328812 0 0 0 0 978361.06134004821 -7116102.6962265875 0 -7116102.6962265875 20650198.537272643 0 0 0 0 -6722989.8971858025 -228870493.03791142 0 -228870493.03791142 -103868657.65116119 0 0 0 0 -281431152.80821753 -96297449.440336227 0 -96297449.440336227 241147472.52578163 0 0 0 0 -125449856.46837568 82289321.450854301 0 82289321.450854301 379062551.91203308 0 0 0 0 596605014.85812616 -419327630.70217514 0 -419327630.70217514 12016343.027090073 0 0 0 0 -795392364.23601031 -190455596.51537657 0 -190455596.51537657 1870077558.3620567 0 0 0 0 179411868.26978874 -268239348.19470501 0 -268239348.19470501 69750435.315345764 0 0 0 0 828853392.53273249 -553184894.71448612 0 -553184894.71448612 -75685895.993473053 0 0 0 0 911505.30735957692 -5908221.0113119651 0 -5908221.0113119651 22263681.087694474 0 0 0 0 796202074.85662651 11560276.237630844 0 11560276.237630844 -122884241.59391022 0 0 0 0 800718037.20113099 -465677944.0043081 0 -465677944.0043081 34914574.088050842 0 0 0 0 1629696727.796499 -445671781.4894762 0 -445671781.4894762 126412052.37303066 0 0 0 0 705859210.67522407 -315807644.54103851 0 -315807644.54103851 248032865.57844353 0 0 0 0 1146677.2730409801 -1771385.1493620188 0 -1771385.1493620188 10096636.165334918 0 0 0 0 806208453.2000277 867840911.62114525 0 867840911.62114525 -22520523.367919922 0 0 0 0 628485004.78089046 946401074.24134016 0 946401074.24134016 740744323.31293488 0 0 0 0 621143902.76030004 277198964.01965237 0 277198964.01965237 843498485.13895226 0 0 0 0 566968720.84128404 251564541.57299042 0 251564541.57299042 453170926.02048588 0 0 0 0 650339123.22076058 306205011.58795738 0 306205011.58795738 473582591.45639038 0 0 0 0 444285958.46537411 129308781.38449478 0 129308781.38449478 410427948.14572906 0 0 0 0 343607162.31453121 335128526.02762127 0 335128526.02762127 418025694.05701941 0 0 0 0 534103881.73795497 190209354.31700039 0 190209354.31700039 499404256.39247894 0 0 0 0 535969942.49920893 185707987.90093637 0 185707987.90093637 426085974.12577438 0 0 0 0 973327714.6050086 146582288.8318119 0 146582288.8318119 -522272673.72758579 0 0 0 0 529056687.92098141 -100519534.96264839 0 -100519534.96264839 1058607459.4820595 0 0 0 0 954342930.05658102 131049178.86963749 0 131049178.86963749 374980582.14665985 0 0 0 0 -222635435.03316021 -137713010.29855156 0 -137713010.29855156 45041931.074542999 0 0 0 0 -308547660.78898048 56582044.451658249 0 56582044.451658249 108976754.13357925 0 0 0 0 -75618152.639209747 61683424.72637558 0 61683424.72637558 -31930317.312225342 0 0 0 0 -26496497.62940979 -173635320.85703278 0 -173635320.85703278 206408339.64311218 0 0 0 0 -26064583.415639877 -166731884.89319992 0 -166731884.89319992 243588946.44665718 0 0 0 0 -4950815.8487997055 -114430417.20110703 0 -114430417.20110703 64488772.477989197 0 0 0 0 -162999837.56805897 -77057204.381679535 0 -77057204.381679535 149357418.73745728 0 0 0 0 -74144576.790225506 -165169799.18928528 0 -165169799.18928528 149146133.39483643 0 0 0 0 55242848.410230637 -153059723.68706512 0 -153059723.68706512 140030944.38265991 0 0 0 0 81240969.200674847 -271552558.49141932 0 -271552558.49141932 225395255.47629547 0 0 0 0 113046829.52320087 -165361830.22295189 0 -165361830.22295189 157407549.65343094 0 0 0 0 -74161807.819302082 -249287971.37286568 0 -249287971.37286568 160736251.04623032 0 0 0 0 -118028316.53444481 -60130127.024326324 0 -60130127.024326324 98874769.159231186 0 0 0 0 102198899.90583599 -202360100.23352051 0 -202360100.23352051 41735478.393264771 0 0 0 0 317008458.80733448 -345415071.10919571 0 -345415071.10919571 37343384.541965485 0 0 0 0 93799985.009981334 -209279463.53435135 0 -209279463.53435135 130870486.34491158 0 0 0 0 270832198.9515205 -323699078.62556076 0 -323699078.62556076 144439520.78966475 0 0 0 0 278439202.59579188 -176613670.96243668 0 -176613670.96243668 253134193.38565636 0 0 0 0 371062390.75896788 -357665987.74563074 0 -357665987.74563074 251586180.71290588 0 0 0 0 338185379.32517862 -230070836.65508175 0 -230070836.65508175 261386419.89059067 0 0 0 0 638936052.20874357 -184330576.97989082 0 -184330576.97989082 87712625.0666008 0 0 0 0 723438765.20763969 -278304697.53366566 0 -278304697.53366566 -104340682.7109108 0 0 0 0 559121541.74694574 -511445297.00525045 0 -511445297.00525045 112498756.8652153 0 0 0 0 647180589.2305932 -313862539.07902145 0 -313862539.07902145 -107805999.12920284 0 0 0 0 680135102.40473223 -440531647.93839836 0 -440531647.93839836 66588246.031168938 0 0 0 0 122468021.53393753 -373284825.7313711 0 -373284825.7313711 525871571.36437988 0 0 0 0 107081368.72014385 -182233808.37848282 0 -182233808.37848282 -5584659.5002670288 0 0 0 0 -46400012.005367279 -421897265.48374367 0 -421897265.48374367 223265249.54275131 0 0 0 0 282435231.62754536 -251010547.03998947 0 -251010547.03998947 -9726011.9088478088 0 0 0 0 -197544130.39276874 -71562376.706642151 0 -71562376.706642151 -16929449.549156189 0 0 0 0 -252583411.95219851 -204686176.91759109 0 -204686176.91759109 134977242.73437119 0 0 0 0 -460132733.90703356 186571840.55564499 0 186571840.55564499 -254116387.60360909 0 0 0 0 -463985258.58309197 -225552792.09509468 0 -225552792.09509468 53845364.492916107 0 0 0 0 -549605246.38971663 62422044.872852325 0 62422044.872852325 -155314563.39439583 0 0 0 0 -3467844.7265117848 -1630137.6512301937 0 -1630137.6512301937 6705306.499156788 0 0 0 0 -706489485.37654328 113515698.0461731 0 113515698.0461731 92694858.33732605 0 0 0 0 -594397249.21052289 241173106.8029747 0 241173106.8029747 -54551967.262733459 0 0 0 0 -236390772.47351378 75971958.641564488 0 75971958.641564488 -98916319.525188446 0 0 0 0 154719866.8178499 796092.01162528992 0 796092.01162528992 205155137.50655651 0 0 0 0 -922416.38426247309 -1564834.0322750295 0 -1564834.0322750295 7516509.5532109886 0 0 0 0 -1396999.6772309695 819321.76704970561 0 819321.76704970561 12637496.473806463 0 0 0 0 447536230.76883417 -254092257.7432909 0 -254092257.7432909 97438343.01272583 0 0 0 0 -703161140.83715844 443768234.95201874 0 443768234.95201874 194674803.27360153 0 0 0 0 -2475807.1969457828 -1067997.8770704251 0 -1067997.8770704251 16442271.046940565 0 0 0 0 -2320750.8907856205 211686.2696087081 0 211686.2696087081 5705233.3278412446 0 0 0 0 -1326336316.6796625 368138298.6937561 0 368138298.6937561 300494578.15320778 0 0 0 0 -502058140.34866512 -23904374.244204044 0 -23904374.244204044 -451201445.80150223 0 0 0 0 -846581778.16645288 -289623891.74111748 0 -289623891.74111748 136325407.14725494 0 0 0 0 -935791950.42290926 599127316.53794098 0 599127316.53794098 681816688.10370255 0 0 0 0 198778348.14888957 457769188.01376915 0 457769188.01376915 -541081799.52975655 0 0 0 0 173687357.44658828 743411492.69526482 0 743411492.69526482 933724487.2340889 0 0 0 0 -41986708.82119149 132412032.6297245 0 132412032.6297245 74685654.544021606 0 0 0 0 -476973168.85877723 -243139642.64430624 0 -243139642.64430624 355334059.97887039 0 0 0 0 -25951647.148982167 28421915.716324091 0 28421915.716324091 747810160.39824295 0 0 0 0 435569796.45009995 -52772861.915416718 0 -52772861.915416718 372485122.69920635 0 0 0 0 512853118.39481896 525279269.62138557 0 525279269.62138557 239283886.68224144 0 0 0 0 443618825.00373179 634385466.9356873 0 634385466.9356873 1536329170.0522118 0 0 0 0 292683938.73773289 974232325.92501354 0 974232325.92501354 1560176450.7141991 0 0 0 0 286640101.04250431 1062073381.0911241 0 1062073381.0911241 694114304.65156174 0 0 0 0 254564958.58265361 1162532139.9199042 0 1162532139.9199042 1479118331.5281734 0 0 0 0 113101749.37085509 1015425329.6559968 0 1015425329.6559968 1743663443.9517632 0 0 0 0 188921439.42297852 1580560381.3847809 0 1580560381.3847809 2199559593.5290031 0 0 0 0 -51298854.667936251 1293981876.7013206 0 1293981876.7013206 1536456624.7116375 0 0 0 0 60977360.548861995 1302920462.1305571 0 1302920462.1305571 546148533.13251877 0 0 0 0 45333.111321406199 1589034.3368510716 0 1589034.3368510716 1616598.5436756462 0 0 0 0 -368236918.8801617 -109717802.60275936 0 -109717802.60275936 -831301999.11742401 0 0 0 0 374879485.28666508 -586704001.8972435 0 -586704001.8972435 2187291525.4935265 0 0 0 0 275414155.2563557 1576767197.9948997 0 1576767197.9948997 1893617434.3353882 0 0 0 0 218900.17556630258 902904.27190805599 0 902904.27190805599 5000745.9731988236 0 0 0 0 -153855.38867323045 -2126713.0758009488 0 -2126713.0758009488 4774478.6643208489 0 0 0 0 1013644588.8221071 -1264444804.6755161 0 -1264444804.6755161 1057690111.5757751 0 0 0 0 23609882.671505004 255017298.77842331 0 255017298.77842331 196528572.55715179 0 0 0 0 406543210.40739286 -486000305.76735115 0 -486000305.76735115 83575740.043495178 0 0 0 0 772262159.26325428 -178359619.04633427 0 -178359619.04633427 1576810605.8080006 0 0 0 0 41927106.670032322 -129120323.23611641 0 -129120323.23611641 1547238183.3328457 0 0 0 0 372672952.83984637 247681452.93979108 0 247681452.93979108 1078098860.5389042 0 0 0 0 284192439.27722704 49902925.124459267 0 49902925.124459267 936780604.6008234 0 0 0 0 334181451.61896968 19879327.329170227 0 19879327.329170227 1774619862.453476 0 0 0 0 355755379.62896872 824959058.04251766 0 824959058.04251766 1360863331.9249802 0 0 0 0 1160023376.7365813 -824797594.52228546 0 -824797594.52228546 815766092.87985802 0 0 0 0 491265571.46352684 -368915293.69477797 0 -368915293.69477797 1620523941.013998 0 0 0 0 1070004500.2519958 748418072.64497757 0 748418072.64497757 1112140238.6243458 0 0 0 0 1325406698.4137573 250058369.01536489 0 250058369.01536489 1478771377.3172035 0 0 0 0 526616594.89423591 706253217.79487514 0 706253217.79487514 2205529990.9760761 0 0 0 0 477400370.44498086 466128983.27289343 0 466128983.27289343 1458247310.8403835 0 0 0 0 419150725.89891231 280653949.25871468 0 280653949.25871468 2204248313.9669666 0 0 0 0 253964804.39361209 99676697.793168545 0 99676697.793168545 1786840226.8283825 0 0 0 0 -19043870.783189055 21807852.458772659 0 21807852.458772659 2204914292.4604168 0 0 0 0 218000816.71621001 -9709021.9689593315 0 -9709021.9689593315 1798915327.2783051 0 0 0 0 -104004691.82291348 -179392630.50470638 0 -179392630.50470638 1728964371.4211426 0 0 0 0 -264425064.79558948 -278182488.75500631 0 -278182488.75500631 2204466187.0489101 0 0 0 0 -26828504.626929134 -349784093.24070692 0 -349784093.24070692 1397854354.0947437 0 0 0 0 115311508.32745953 -84260631.47830677 0 -84260631.47830677 1759567775.9675059 0 0 0 0 -533748624.26230055 -694946090.00128937 0 -694946090.00128937 2205229974.1024857 0 0 0 0 -378975017.83820045 -545313113.14536333 0 -545313113.14536333 1648022867.67624 0 0 0 0 -386388512.73316491 -298993901.22474003 0 -298993901.22474003 1676154691.7460151 0 0 0 0 -203290447.11675334 -525955564.79647827 0 -525955564.79647827 764627184.27183151 0 0 0 0 -828776.91271307878 512570.30969874561 0 512570.30969874561 3301533.5391900092 0 0 0 0 -624952476.37500834 919888758.7860055 0 919888758.7860055 335852642.21514893 0 0 0 0 -428322435.245781 341258189.64139962 0 341258189.64139962 1816021746.3234043 0 0 0 0 261557490.83094501 730230091.25715446 0 730230091.25715446 1143946793.1216307 0 0 0 0 392942212.12618756 213823380.14498186 0 213823380.14498186 9208943.6858949661 0 0 0 0 -72500533.632121444 152041025.48292589 0 152041025.48292589 1336419163.8280182 0 0 0 0 344926095.63316321 -817612922.64085579 0 -817612922.64085579 1460310978.2827616 0 0 0 0 12406097.308137909 107402324.05614853 0 107402324.05614853 1515283634.0438871 0 0 0 0 -1259333.5032127635 -639271.6747147264 0 -639271.6747147264 4594747.9905061536 0 0 0 0 -391386239.4705869 -468698872.0854454 0 -468698872.0854454 562824123.6199913 0 0 0 0 -301805428.18053865 -587494285.52378082 0 -587494285.52378082 -258862965.57478333 0 0 0 0 264432005.08507764 -55780996.149353981 0 -55780996.149353981 372267970.72519302 0 0 0 0 -305112151.21183437 -194154506.3258028 0 -194154506.3258028 1271331561.7069292 0 0 0 0 135243300.99295497 76076876.371269226 0 76076876.371269226 487853699.56027222 0 0 0 0 370427391.88712418 259820427.04770088 0 259820427.04770088 251811201.55609703 0 0 0 0 119586126.82849652 283311630.08995914 0 283311630.08995914 390491560.27982712 0 0 0 0 321798462.89199746 277508303.34782887 0 277508303.34782887 313537375.93845177 0 0 0 0 31803816.182037592 349419031.78970242 0 349419031.78970242 300263509.4223547 0 0 0 0 26122820.571527243 175416137.44119072 0 175416137.44119072 16380172.117359161 0 0 0 0 124383321.80192111 221711027.62594455 0 221711027.62594455 132331323.43274307 0 0 0 0 -149210615.719933 58640180.144871593 0 58640180.144871593 125639410.72525406 0 0 0 0 -169725466.88534808 204939948.44928551 0 204939948.44928551 259293688.24280357 0 0 0 0 135029971.29521453 63778968.831235051 0 63778968.831235051 -97318866.885284424 0 0 0 0 -486937632.54037732 -129983988.01810578 0 -129983988.01810578 120843033.00647163 0 0 0 0 -2416989.1717709731 -385713.74665510654 0 -385713.74665510654 7864765.7704957686 0 0 0 0 -464241305.81388426 170043702.48596478 0 170043702.48596478 219644115.33038521 0 0 0 0 10503156.352558874 230070799.67812264 0 230070799.67812264 17436412.894090652 0 0 0 0 24200751.804930449 -177046205.86715984 0 -177046205.86715984 186475147.47520041 0 0 0 0 -289400400.69930172 -30610635.749475479 0 -30610635.749475479 -42586855.623979568 0 0 0 0 -230706997.18601799 118722714.32549191 0 118722714.32549191 -26888935.451418638 0 0 0 0 -303109670.49796677 124907354.02861404 0 124907354.02861404 207614734.97839642 0 0 0 0 -194454839.36133111 70936527.413589478 0 70936527.413589478 4048566.4872455597 0 0 0 0 270274249.23325372 442612015.08053398 0 442612015.08053398 -95580727.213752747 0 0 0 0 1657321.1360064661 1032648.8491679505 0 1032648.8491679505 471327.416378567 0 0 0 0 2824606.7886067331 89945112.469880164 0 89945112.469880164 194553067.927742 0 0 0 0 -439065.98968386324 308414.72795933951 0 308414.72795933951 1969907.653785795 0 0 0 0 1888446.641240309 2679899.6782582412 0 2679899.6782582412 3528645.3026162703 0 0 0 0 -13830516.268500328 -52825335.894152641 0 -52825335.894152641 125543664.87708664 0 0 0 0 11838329.389561653 15275194.50760746 0 15275194.50760746 90814560.079255581 0 0 0 0 -620129892.04520607 24436657.967712879 0 24436657.967712879 197410188.41310501 0 0 0 0 -133204723.90997338 -205385615.77153158 0 -205385615.77153158 -91728933.116436005 0 0 0 0 3968964.1767690182 338746921.22180986 0 338746921.22180986 318714275.6774025 0 0 0 0 -504464300.94232559 529500976.60919285 0 529500976.60919285 52127658.338582039 0 0 0 0 83199883.321037769 457381472.60694408 0 457381472.60694408 -371767203.71788216 0 0 0 0 72099815.085779309 76117088.239835978 0 76117088.239835978 961954538.62309265 0 0 0 0 37009212.633388996 -72274765.954391479 0 -72274765.954391479 334892777.93030548 0 0 0 0 367034037.97827053 509484173.00417995 0 509484173.00417995 583405042.3526516 0 0 0 0 165405506.36547756 526548230.23837852 0 526548230.23837852 519085300.92781162 0 0 0 0 252903753.66471744 437858531.86019993 0 437858531.86019993 589774556.05255699 0 0 0 0 -1586806.2305747597 -24552.748997000046 0 -24552.748997000046 1292307.3380978191 0 0 0 0 297560080.38536507 127369449.02356386 0 127369449.02356386 570228952.42518234 0 0 0 0 265849327.58356136 316780798.37192059 0 316780798.37192059 47768720.342041969 0 0 0 0 88228681.57785511 556194907.17747974 0 556194907.17747974 455699078.27240467 0 0 0 0 144031845.09357801 495366840.09700394 0 495366840.09700394 486791572.26812363 0 0 0 0 291266850.63978112 419018372.74898481 0 419018372.74898481 391635004.37718582 0 0 0 0 164763473.48900023 420879936.47199059 0 420879936.47199059 443941287.15727329 0 0 0 0 141063608.13095409 347804118.65675902 0 347804118.65675902 225245461.21005821 0 0 0 0 151808362.70640087 652977811.76800346 0 652977811.76800346 466467355.48158097 0 0 0 0 118496715.1622467 565987517.04288101 0 565987517.04288101 297300875.75642586 0 0 0 0 -65835603.491034254 60935379.206022143 0 60935379.206022143 -22440592.758075714 0 0 0 0 -58404599.819452405 86319786.737058878 0 86319786.737058878 -81398354.952186584 0 0 0 0 -129973102.45612574 113799258.95880222 0 113799258.95880222 -20141646.947859764 0 0 0 0 -61288924.483725667 56879342.220380783 0 56879342.220380783 -18918775.333551407 0 0 0 0 -61511382.99404633 36008928.868613243 0 36008928.868613243 25131360.787419319 0 0 0 0 -73795593.440011114 9348759.3354009986 0 9348759.3354009986 76275301.154899597 0 0 0 0 -71747685.875807449 27675070.154969513 0 27675070.154969513 41709256.973623276 0 0 0 0 -28983543.135866955 -7266913.8744354844 0 -7266913.8744354844 2455575.1806678772 0 0 0 0 -30099838.947743148 2672210.1863355637 0 2672210.1863355637 -20942433.042474747 0 0 0 0 -15326119.613070257 9816427.614400845 0 9816427.614400845 6661937.7823191984 0 0 0 0 -15318664.836092681 -9942488.1193132401 0 -9942488.1193132401 -29963170.709810257 0 0 0 0 -11160507.31060027 -3312124.6983327866 0 -3312124.6983327866 -19714181.157718658 0 0 0 0 -51406768.11276865 18317817.590836048 0 18317817.590836048 -5224473.0012130737 0 0 0 0 -11854082.246216351 782204.61330263689 0 782204.61330263689 6023941.1529105473 0 0 0 0 14869724.464540482 58656463.621813774 0 58656463.621813774 13111807.279602528 0 0 0 0 -14992207.716003358 25321917.649279594 0 25321917.649279594 -52616479.803345203 0 0 0 0 -102958932.0241009 -74770496.804975033 0 -74770496.804975033 28926481.654470444 0 0 0 0 -3002205.328707695 -14112409.886810303 0 -14112409.886810303 -117281394.6547451 0 0 0 0 4645269.6031975746 46932337.328466415 0 46932337.328466415 -328625500.39953041 0 0 0 0 -265002744.56637955 468942149.91835022 0 468942149.91835022 -454723367.06392479 0 0 0 0 -542094109.24199581 170939316.67426872 0 170939316.67426872 -108529668.26439059 0 0 0 0 -50973046.536839485 234648136.03587008 0 234648136.03587008 -625602930.11714649 0 0 0 0 -4166247.45120796 276429.97586572357 0 276429.97586572357 506997.78559062886 0 0 0 0 -493977366.6903522 523162303.95473087 0 523162303.95473087 -194763127.49365425 0 0 0 0 -332348054.11665702 43198950.23526001 0 43198950.23526001 9577147.55052948 0 0 0 0 -429168910.9713335 326760317.35403061 0 326760317.35403061 75160363.904747009 0 0 0 0 -265465698.53532457 116459645.12483597 0 116459645.12483597 77506251.201425076 0 0 0 0 -88425041.400592089 130722151.10011435 0 130722151.10011435 -96740834.504291534 0 0 0 0 -97411026.773052692 118436459.87304306 0 118436459.87304306 -106790434.24122512 0 0 0 0 -164246111.13567162 219737121.65363407 0 219737121.65363407 -189923955.23150826 0 0 0 0 -164550382.23393583 214625560.92319584 0 214625560.92319584 -254027145.84888935 0 0 0 0 -268341474.81029439 140112777.61198902 0 140112777.61198902 1630383.9265699387 0 0 0 0 -161008048.14570999 171608613.25410366 0 171608613.25410366 -85706097.383209229 0 0 0 0 -187004188.55284822 119420763.6855526 0 119420763.6855526 16834803.367355347 0 0 0 0 -136928098.94102597 168829432.78925371 0 168829432.78925371 7238682.8613367081 0 0 0 0 -193403453.83753514 129285933.5064249 0 129285933.5064249 2997356.7419624329 0 0 0 0 -226710325.56529069 72497674.679474354 0 72497674.679474354 -940118.90800654888 0 0 0 0 -242109726.66341686 107159161.92754221 0 107159161.92754221 -1629582.156999588 0 0 0 0 -1238419.6517495597 -71690.071321032941 0 -71690.071321032941 2843712.1267590355 0 0 0 0 60976307.728217125 -239413051.6680603 0 -239413051.6680603 343826519.04179764 0 0 0 0 -185696062.39161086 116273774.50507259 0 116273774.50507259 -47060240.810856819 0 0 0 0 -213924030.31526923 339111142.5146246 0 339111142.5146246 -43779869.093431868 0 0 0 0 -308968.64610808482 379958.93465476483 0 379958.93465476483 1173941.495614728 0 0 0 0 -214412061.65853751 263766995.38314819 0 263766995.38314819 319562887.28996944 0 0 0 0 -149147902.0068022 146137022.22248173 0 146137022.22248173 92021862.649594307 0 0 0 0 -193787334.61460638 125129412.364748 0 125129412.364748 256204812.07999611 0 0 0 0 -133165686.54556835 182353867.23623085 0 182353867.23623085 88006948.316063881 0 0 0 0 -138860875.28145278 138146703.59405327 0 138146703.59405327 59037949.967796087 0 0 0 0 -104406205.00820363 89728115.647025108 0 89728115.647025108 51415948.915939331 0 0 0 0 -109969936.62442808 107847817.48750737 0 107847817.48750737 25670425.059112549 0 0 0 0 -109222966.0020988 121908590.18940639 0 121908590.18940639 -26710665.733532906 0 0 0 0 -110499036.22385097 80502395.240625381 0 80502395.240625381 84875562.572600365 0 0 0 0 -132529160.92862678 115185408.6357336 0 115185408.6357336 141215422.53625202 0 0 0 0 -122902582.5016121 78750988.88117981 0 78750988.88117981 93998572.801808357 0 0 0 0 -180799300.5785203 114039383.39374781 0 114039383.39374781 146647193.78070307 0 0 0 0 -188553362.95044529 102388197.23256701 0 102388197.23256701 133795207.13465214 0 0 0 0 -266118875.87906754 49122490.780463219 0 49122490.780463219 189419527.19364882 0 0 0 0 -203149850.89193246 -6405503.5874662399 0 -6405503.5874662399 123449235.45441532 0 0 0 0 -216165279.17912659 99001424.783908606 0 99001424.783908606 225817109.49276161 0 0 0 0 -184706493.54127353 -4660104.0347583294 0 -4660104.0347583294 556007896.81321144 0 0 0 0 -194945018.19657618 -51620481.002733231 0 -51620481.002733231 371714683.44077492 0 0 0 0 -113243152.10294414 -139870311.24777842 0 -139870311.24777842 205347319.03934669 0 0 0 0 -134105879.8397785 -177870791.0042634 0 -177870791.0042634 288159096.04646111 0 0 0 0 -124033406.46237312 -159742784.03563595 0 -159742784.03563595 102152898.53651476 0 0 0 0 -343845336.99841237 -226164700.79884547 0 -226164700.79884547 62571890.279342651 0 0 0 0 -325418650.08047086 -33153907.817949802 0 -33153907.817949802 56932935.121395111 0 0 0 0 -230323232.23571491 -102378960.55576968 0 -102378960.55576968 -58677387.12198925 0 0 0 0 -282824405.46750855 -61421342.917837143 0 -61421342.917837143 197721458.72964001 0 0 0 0 -131665850.45970947 -4901215.2822091579 0 -4901215.2822091579 832692888.61771488 0 0 0 0 -54496314.711959124 -177274034.93233013 0 -177274034.93233013 862029224.63520741 0 0 0 0 -73698682.697444797 -77916649.82233429 0 -77916649.82233429 362029823.74803162 0 0 0 0 -116321498.68958263 -157800486.78553417 0 -157800486.78553417 480531578.35803413 0 0 0 0 -84057264.898590446 -364105554.17407656 0 -364105554.17407656 360804858.69222665 0 0 0 0 181607465.7022559 -230155987.86162186 0 -230155987.86162186 511957194.04736519 0 0 0 0 -510107859.56191015 -271503856.55182862 0 -271503856.55182862 1181382282.1002445 0 0 0 0 55818436.039397001 -305588202.50990105 0 -305588202.50990105 535072320.7733928 0 0 0 0 -2309372.2218245324 467597.7121392237 0 467597.7121392237 6992578.0379849281 0 0 0 0 37315543.229261607 -242684864.94995463 0 -242684864.94995463 379184937.39717007 0 0 0 0 -1935985.442356769 -801461.8272283827 0 -801461.8272283827 5318658.6637991481 0 0 0 0 463121763.22786713 -1367400721.3269124 0 -1367400721.3269124 2202537159.8105416 0 0 0 0 -387849591.14651501 119608523.61065459 0 119608523.61065459 141062745.24201703 0 0 0 0 -542926.39467824833 -690512462.69419622 0 -690512462.69419622 1219661059.1326284 0 0 0 0 -421281302.76633865 -187800509.49315357 0 -187800509.49315357 69064618.424193382 0 0 0 0 -360548223.02259564 152403019.35972977 0 152403019.35972977 -253067819.30142435 0 0 0 0 -509101517.4877013 10796658.475224972 0 10796658.475224972 -39365600.300851345 0 0 0 0 456762510.55733621 -400503006.85054302 0 -400503006.85054302 -275687270.10434979 0 0 0 0 -483677672.76893187 -358206837.76496792 0 -358206837.76496792 -345850224.88610888 0 0 0 0 -218561.07912684139 -816533.99977326533 0 -816533.99977326533 1948496.531930228 0 0 0 0 66932013.16380769 -223359109.5548687 0 -223359109.5548687 8378203.0259971619 0 0 0 0 45096353.752609313 -329121907.76035643 0 -329121907.76035643 81540477.058777332 0 0 0 0 -17303651.361727834 -415481016.10278153 0 -415481016.10278153 375389840.96690273 0 0 0 0 20650703.190112561 -309585131.63271832 0 -309585131.63271832 77941585.148073196 0 0 0 0 465667324.78396726 -785733236.78275347 0 -785733236.78275347 104945080.5025048 0 0 0 0 -230474299.22486296 -1244203512.109633 0 -1244203512.109633 2194065956.0854893 0 0 0 0 -488846834.87030792 -193343803.91291738 0 -193343803.91291738 613936384.53142929 0 0 0 0 -346981317.98042047 -516445625.7775737 0 -516445625.7775737 1349774717.3880854 0 0 0 0 667655206.96060967 -714257465.99523723 0 -714257465.99523723 406945753.09631348 0 0 0 0 -729606.44179164595 257892.24921590672 0 257892.24921590672 6008352.7379342774 0 0 0 0 48677774.832606785 599922641.02882421 0 599922641.02882421 2200689347.3258305 0 0 0 0 -44442073.529514059 76880563.382878304 0 76880563.382878304 1234295333.7057252 0 0 0 0 -7834369.3133853534 3531610.1211365778 0 3531610.1211365778 7963681.5473732632 0 0 0 0 -27512232.111860275 -18484863.390546799 0 -18484863.390546799 49994791.105691433 0 0 0 0 -26031443.565924644 2191196.3806872368 0 2191196.3806872368 28730067.166028976 0 0 0 0 -29195444.62209326 -3279961.1310919523 0 -3279961.1310919523 84638342.254396439 0 0 0 0 -114586720.36398576 -224372697.0609138 0 -224372697.0609138 2205473667.536942 0 0 0 0 18665787.518206596 20560927.531300545 0 20560927.531300545 34058807.981884956 0 0 0 0 -4835306.6473412681 4089808.0859218966 0 4089808.0859218966 4225577.7169963364 0 0 0 0 -19543017.527192727 -302195441.8467474 0 -302195441.8467474 2019819282.6057615 0 0 0 0 99700402.826244369 -484396984.56019497 0 -484396984.56019497 2205556265.4531794 0 0 0 0 -6905965.5845246315 -64419879.351922989 0 -64419879.351922989 135533022.42737389 0 0 0 0 -27737810.45159483 -33210535.98380518 0 -33210535.98380518 160001510.94111252 0 0 0 0 1009655.786332652 2226897.8954396192 0 2226897.8954396192 -390235.08317836374 0 0 0 0 35447472.114922523 -52751512.645143509 0 -52751512.645143509 138736564.38702536 0 0 0 0 98221814.466268539 -53482767.325839043 0 -53482767.325839043 68329769.098142147 0 0 0 0 33794203.095573664 -64082628.424930096 0 -64082628.424930096 57320669.648415089 0 0 0 0 37333284.604848385 1696201.2181210518 0 1696201.2181210518 -2921212.3637046814 0 0 0 0 4315505.120291912 -6104324.0009868573 0 -6104324.0009868573 -6347917.0211296724 0 0 0 0 2521213.4843742251 -49578128.721573591 0 -49578128.721573591 63559221.6336689 0 0 0 0 18410584.487931967 -35294252.719781399 0 -35294252.719781399 39211692.440215588 0 0 0 0 1346010.5970821381 -24447723.276340961 0 -24447723.276340961 9178229.2779121399 0 0 0 0 4601014.9714842699 -4792924.3693477772 0 -4792924.3693477772 -8703052.6054103635 0 0 0 0 3679025.1448101997 -31403475.256165743 0 -31403475.256165743 11617583.495328724 0 0 0 0 4103158.5136052673 -10268877.171533227 0 -10268877.171533227 17367102.223942462 0 0 0 0 -222122349.91673738 38935338.666056156 0 38935338.666056156 39598672.294802666 0 0 0 0 -267915002.65263814 -13000436.330609322 0 -13000436.330609322 86215870.136060715 0 0 0 0 2293850.3774648872 -10024177.505333312 0 -10024177.505333312 20676379.033524416 0 0 0 0 -181945295.75658917 18470595.536190033 0 18470595.536190033 360214319.49924541 0 0 0 0 -302600254.1547628 34547673.631002426 0 34547673.631002426 637267689.76687241 0 0 0 0 -197130592.68841362 112503493.12710571 0 112503493.12710571 660176828.23914909 0 0 0 0 -549039201.52323556 222722857.3374126 0 222722857.3374126 2206186815.6132488 0 0 0 0 -387681187.26961082 -228146944.50774002 0 -228146944.50774002 1654626520.3304176 0 0 0 0 -517072905.31205207 220802231.2679534 0 220802231.2679534 1246097096.9470081 0 0 0 0 -222902790.93579495 299004074.80068016 0 299004074.80068016 1254342995.4983864 0 0 0 0 -304326354.70111156 894761695.16793346 0 894761695.16793346 2200252517.9403648 0 0 0 0 -14159333.044271976 -22910296.261707783 0 -22910296.261707783 10688478.222669601 0 0 0 0 445799786.74697411 386628725.38549995 0 386628725.38549995 233444275.15735817 0 0 0 0 103871625.45249993 158307459.8870039 0 158307459.8870039 145363974.30771255 0 0 0 0 -5584081.7754207253 -83489588.506778717 0 -83489588.506778717 124088418.42979097 0 0 0 0 -21000401.619184613 -89888598.977431297 0 -89888598.977431297 118295975.13732529 0 0 0 0 8084629.5914239883 -34765382.90435791 0 -34765382.90435791 49749091.608860016 0 0 0 0 -1273542.5403575038 -4364151.9217676707 0 -4364151.9217676707 4283559.6584667452 0 0 0 0 -71482041.35475266 313070417.36867905 0 313070417.36867905 2203273969.2254877 0 0 0 0 681566056.39433539 602153313.07775831 0 602153313.07775831 298820412.40352249 0 0 0 0 2657250.8676165789 1289024.4034600221 0 1289024.4034600221 3104567.1300502885 0 0 0 0 -99326671.280572489 -406075074.04412842 0 -406075074.04412842 1988871657.9862823 0 0 0 0 -1626027.0112471348 1553082.7728485391 0 1553082.7728485391 2195733.4017024217 0 0 0 0 205598552.31636718 -58047873.636814117 0 -58047873.636814117 90678310.031435013 0 0 0 0 73513243.430697933 -93599283.606645107 0 -93599283.606645107 125929168.76272964 0 0 0 0 65320296.314894989 -333232528.80252075 0 -333232528.80252075 2373143809.8095064 0 0 0 0 3618852.5528236786 4073940.2188095152 0 4073940.2188095152 11343837.699126743 0 0 0 0 -27828038.298572063 -819206.81673336029 0 -819206.81673336029 37314960.940038681 0 0 0 0 37197648.078366786 -48475605.086455107 0 -48475605.086455107 94194909.974123001 0 0 0 0 4300939.0568810925 -14494574.595857466 0 -14494574.595857466 5589432.2426089104 0 0 0 0 -1092049.1646344662 -15748561.172660828 0 -15748561.172660828 42520281.262177467 0 0 0 0 10763100.81225419 -27247294.303342879 0 -27247294.303342879 39409335.755426407 0 0 0 0 -31445943.789969444 11151709.710542679 0 11151709.710542679 28225057.781003952 0 0 0 0 -43333255.237878323 12268974.222410202 0 12268974.222410202 30231537.077308655 0 0 0 0 -8517143.7251739707 -568665.27090897877 0 -568665.27090897877 31354684.753641915 0 0 0 0 -48381096.071103096 38168848.908078194 0 38168848.908078194 -4436994.7207508087 0 0 0 0 -5268716.6588312881 -2483464.5414589178 0 -2483464.5414589178 9465614.6966502313 0 0 0 0 -101368750.73238206 10407200.718240261 0 10407200.718240261 47632230.656339645 0 0 0 0 -26821707.993385553 -25012294.777417183 0 -25012294.777417183 62577075.062858582 0 0 0 0 294840651.06089687 -309593704.51565742 0 -309593704.51565742 206666317.95703888 0 0 0 0 14797140.885515571 -123785996.04797459 0 -123785996.04797459 286979066.10057831 0 0 0 0 150589696.67147636 -274715317.10411263 0 -274715317.10411263 294157364.65167809 0 0 0 0 -363616174.62979746 139311140.74605179 0 139311140.74605179 -322106663.61452484 0 0 0 0 -1383786.3771187523 464554.81699118391 0 464554.81699118391 1617489.7480454464 0 0 0 0 -260285647.59263664 279330787.72116852 0 279330787.72116852 -160001057.71628189 0 0 0 0 -1072000.8599816789 -249633.61869722791 0 -249633.61869722791 1454054.8757386915 0 0 0 0 -109895256.614627 -144873010.36026955 0 -144873010.36026955 -143611091.24263382 0 0 0 0 -299609743.59340054 409076361.6930809 0 409076361.6930809 -291430424.00270844 0 0 0 0 -494534165.45209026 27685094.647815704 0 27685094.647815704 359946981.52482617 0 0 0 0 -29331171.077451229 -20666976.692360878 0 -20666976.692360878 79203652.105518341 0 0 0 0 20503563.372436389 -74853808.496212959 0 -74853808.496212959 74926562.639219284 0 0 0 0 2753731.9799918304 -3416488.5870488221 0 -3416488.5870488221 -1559149.093518171 0 0 0 0 -2179922.2882773876 -40258536.386500359 0 -40258536.386500359 32806564.327228546 0 0 0 0 4778371.8843142986 -16123020.516626358 0 -16123020.516626358 43823939.628038406 0 0 0 0 -7541199.6902107 -22777969.376130581 0 -22777969.376130581 64721095.378166199 0 0 0 0 -18249840.946568489 -14061473.944807053 0 -14061473.944807053 51881418.683796883 0 0 0 0 -7064204.9879751801 1681202.4226581207 0 1681202.4226581207 31161489.061331797 0 0 0 0 -68305777.498896599 8183222.0299601555 0 8183222.0299601555 52103031.419117928 0 0 0 0 -32344821.27617228 13438782.371868849 0 13438782.371868849 37157857.557310104 0 0 0 0 5309431.7419819832 -14218185.067770004 0 -14218185.067770004 35090052.871696472 0 0 0 0 -59844301.679083109 -170365368.88756609 0 -170365368.88756609 601958941.60179377 0 0 0 0 -52085061.344064951 -135522862.42909813 0 -135522862.42909813 715687197.68162155 0 0 0 0 -71699131.316577196 -50309054.009690762 0 -50309054.009690762 528995650.96007156 0 0 0 0 1866324.6647548578 -3755295.3418927845 0 -3755295.3418927845 -685438.47012539953 0 0 0 0 88835762.79066968 -159703186.55194664 0 -159703186.55194664 484594059.9036274 0 0 0 0 -123561018.78982657 -129253518.0222398 0 -129253518.0222398 797972777.2140646 0 0 0 0 38441200.992871925 -117928135.83905792 0 -117928135.83905792 745538197.51761436 0 0 0 0 -19654879.890079528 -310909145.11848068 0 -310909145.11848068 1135135084.8319845 0 0 0 0 222366715.02270913 -441513247.13869476 0 -441513247.13869476 1190151912.1810675 0 0 0 0 -175447100.72228658 123687202.87809563 0 123687202.87809563 1170348366.0764027 0 0 0 0 -96695691.125040352 -338129062.7292031 0 -338129062.7292031 430621355.42049026 0 0 0 0 80529616.927845716 326667472.5585537 0 326667472.5585537 158858820.95657635 0 0 0 0 346365811.67177236 -14978677.269366264 0 -14978677.269366264 124852317.29157066 0 0 0 0 87316319.701099634 -195625909.63345146 0 -195625909.63345146 443495580.70217514 0 0 0 0 -66452071.847456932 48064321.852310181 0 48064321.852310181 511330115.12044382 0 0 0 0 43151029.771707535 -42305755.877876282 0 -42305755.877876282 422023659.76215839 0 0 0 0 63032800.439675331 -31968635.596859932 0 -31968635.596859932 45662070.900617599 0 0 0 0 85937730.901910782 20607109.464155197 0 20607109.464155197 129799268.94672787 0 0 0 0 126858680.07221127 -82248300.862435341 0 -82248300.862435341 80614397.299663544 0 0 0 0 -14312773.7815938 -66984191.203832626 0 -66984191.203832626 169104811.18584633 0 0 0 0 -13324938.854143739 -74652555.93476963 0 -74652555.93476963 213266836.17624855 0 0 0 0 -65187777.803519845 -15016041.223818779 0 -15016041.223818779 106204333.75200081 0 0 0 0 -65223897.253502429 -15158855.202560425 0 -15158855.202560425 119500228.23095512 0 0 0 0 -133538845.19120301 54118284.908810854 0 54118284.908810854 153029386.17569351 0 0 0 0 -118007739.60532379 31341678.571752548 0 31341678.571752548 185807560.47407341 0 0 0 0 10874840.843375206 -59143555.911973953 0 -59143555.911973953 204390332.691679 0 0 0 0 -127512521.2641207 24117009.212892532 0 24117009.212892532 215737630.65412474 0 0 0 0 -72660435.979054451 -57016522.993656158 0 -57016522.993656158 332957837.93407822 0 0 0 0 -56890379.409522295 154318990.7198658 0 154318990.7198658 34573772.102771759 0 0 0 0 -113033206.47731733 12599515.47825098 0 12599515.47825098 11466984.246751785 0 0 0 0 -79406318.756119967 108741888.6122818 0 108741888.6122818 245217903.73698711 0 0 0 0 -204998454.55823338 49684739.016855478 0 49684739.016855478 129055994.19979095 0 0 0 0 -127411473.38934374 25267253.482808113 0 25267253.482808113 153053498.55468941 0 0 0 0 -140580307.53663445 101243437.59526825 0 101243437.59526825 168064027.65213442 0 0 0 0 80322792.298394442 -59425243.378064632 0 -59425243.378064632 49968976.497058868 0 0 0 0 217474158.60782313 -164086769.62100101 0 -164086769.62100101 76458873.290542603 0 0 0 0 131394023.40536499 160138940.23202705 0 160138940.23202705 241349843.50264549 0 0 0 0 3451365.8302181079 -3038794.4733621366 0 -3038794.4733621366 -1934062.8262175266 0 0 0 0 182826.79419129656 -903971.34484674782 0 -903971.34484674782 1578984.7525208537 0 0 0 0 33713931.779317379 -100021286.55730772 0 -100021286.55730772 123561225.58948898 0 0 0 0 49830732.956676006 -34752391.137157023 0 -34752391.137157023 89018868.839702606 0 0 0 0 -36336030.465208292 -52271649.747738361 0 -52271649.747738361 79010912.899237633 0 0 0 0 -102216726.97627926 79663048.748454571 0 79663048.748454571 55853311.856253624 0 0 0 0 -44911923.725107193 52080112.829131126 0 52080112.829131126 12534571.466589928 0 0 0 0 -32157431.723516464 9006298.9721288681 0 9006298.9721288681 193929892.56142139 0 0 0 0 -17711443.038981438 8873328.5264420509 0 8873328.5264420509 50281277.935623169 0 0 0 0 50881058.551058769 95854064.649308205 0 95854064.649308205 47608295.231178284 0 0 0 0 -97661554.122374535 45849666.572553158 0 45849666.572553158 78530352.491543293 0 0 0 0 -1245753.0284628868 27905117.420501232 0 27905117.420501232 -32932726.787139893 0 0 0 0 -11135457.299538843 8291864.8563220091 0 8291864.8563220091 13795423.561697666 0 0 0 0 -1998324.7346899509 97024374.937197685 0 97024374.937197685 -79550498.289997578 0 0 0 0 65283200.447201729 -187968450.18815422 0 -187968450.18815422 477756001.29228592 0 0 0 0 -8979179.1226199549 4121721.6465640953 0 4121721.6465640953 31033813.280999828 0 0 0 0 717572.21112023108 -5487730.2114969837 0 -5487730.2114969837 3994875.99243173 0 0 0 0 -11971199.730586052 -3874449.6512980461 0 -3874449.6512980461 49587197.189229965 0 0 0 0 -157174.79995750543 373683.92177796736 0 373683.92177796736 -324753.42130469158 0 0 0 0 -14628355.838817835 -252435975.0007565 0 -252435975.0007565 738842639.34448338 0 0 0 0 102954081.88983154 -270057215.22320366 0 -270057215.22320366 514474754.38176823 0 0 0 0 86807771.903909683 -202821082.34226513 0 -202821082.34226513 487565550.69599152 0 0 0 0 -5425457.9260544777 2435786.9268729687 0 2435786.9268729687 227275150.67181015 0 0 0 0 202287783.36703491 -187957741.99588156 0 -187957741.99588156 221257458.67593479 0 0 0 0 11778622.515890121 -128576704.38355732 0 -128576704.38355732 367440831.96438646 0 0 0 0 288143583.83520317 -505870461.37803602 0 -505870461.37803602 616190351.94076157 0 0 0 0 -13448565.327128975 10059630.874468025 0 10059630.874468025 7645819.8261137586 0 0 0 0 149033748.60176945 -185079719.85873508 0 -185079719.85873508 -72417006.00556612 0 0 0 0 -19297033.508683205 8402774.4949300289 0 8402774.4949300289 68624158.11741662 0 0 0 0 -114776327.8114872 3095090.4523568153 0 3095090.4523568153 134836999.75511837 0 0 0 0 37701175.353484064 27359556.301237106 0 27359556.301237106 -114065470.68470097 0 0 0 0 -18422268.469104953 -26598521.886880875 0 -26598521.886880875 -34300622.421524048 0 0 0 0 88745617.968872309 21090399.528235435 0 21090399.528235435 -16580522.851682663 0 0 0 0 5502991.1663928032 -22629120.908233643 0 -22629120.908233643 52703323.904379845 0 0 0 0 -18891027.329432249 -32308066.074677467 0 -32308066.074677467 29660254.40124321 0 0 0 0 19906719.124050975 -65910463.54322052 0 -65910463.54322052 55463556.904949188 0 0 0 0 -15532721.981210589 -14603034.834804535 0 -14603034.834804535 -6581515.2470016479 0 0 0 0 -27258345.926403224 -9044857.3490667343 0 -9044857.3490667343 -5024606.053760767 0 0 0 0 -19647875.243860245 -19606065.362160683 0 -19606065.362160683 -17222610.427204132 0 0 0 0 6913711.607041439 -3465698.5036785044 0 -3465698.5036785044 6567374.6401805356 0 0 0 0 37449493.533412933 -45695633.092195511 0 -45695633.092195511 29352546.838859677 0 0 0 0 55038715.57182312 -56511237.290495753 0 -56511237.290495753 817972142.26373339 0 0 0 0 13969832.202230453 -50501966.518134356 0 -50501966.518134356 851286015.39583015 0 0 0 0 26839670.715719461 -56139503.754422322 0 -56139503.754422322 830326795.70509028 0 0 0 0 2530170.8700320981 -291040.49580693385 0 -291040.49580693385 1163705.7619151715 0 0 0 0 56117339.748550415 15714470.982442379 0 15714470.982442379 1057748005.525468 0 0 0 0 -55017003.90975523 -183171545.50616145 0 -183171545.50616145 1534416566.1059465 0 0 0 0 136047167.18546009 -89248209.850346267 0 -89248209.850346267 530968341.17717522 0 0 0 0 136407497.8069773 -256762906.17111927 0 -256762906.17111927 805699290.58694601 0 0 0 0 122773872.02425301 -89742818.066649109 0 -89742818.066649109 807855307.14381456 0 0 0 0 83937582.271542549 -31238570.989807218 0 -31238570.989807218 540294347.8899436 0 0 0 0 114671722.41674137 -135771765.82800847 0 -135771765.82800847 774457317.62006009 0 0 0 0 141494218.01721907 -92308546.737804174 0 -92308546.737804174 475433028.8178333 0 0 0 0 71302719.804828078 126820253.59353849 0 126820253.59353849 266755585.71275407 0 0 0 0 116698870.21936178 -76055934.591211498 0 -76055934.591211498 538376706.28659248 0 0 0 0 207424875.44393253 -5283713.8550142944 0 -5283713.8550142944 181102137.32885003 0 0 0 0 -246891468.76330584 -77953538.130227089 0 -77953538.130227089 326399969.91576862 0 0 0 0 2330424.9407903189 4990921.4595129713 0 4990921.4595129713 6452754.3670370989 0 0 0 0 -48525028.856975049 250100268.03868344 0 250100268.03868344 -83711622.913822889 0 0 0 0 -54481039.054510593 -71541375.644097567 0 -71541375.644097567 170369991.60663337 0 0 0 0 85644779.137218475 55614898.420605183 0 55614898.420605183 256176468.12265086 0 0 0 0 -58252325.879833221 -119653544.56444603 0 -119653544.56444603 117544941.77904546 0 0 0 0 15472685.100178719 -68255788.358404815 0 -68255788.358404815 529518828.82376003 0 0 0 0 -124159779.52974367 -112463943.081882 0 -112463943.081882 515601606.17222643 0 0 0 0 -50670436.714592934 -126085019.82715988 0 -126085019.82715988 784432076.74792814 0 0 0 0 -39360511.61663723 -118100502.81810093 0 -118100502.81810093 506375151.76210904 0 0 0 0 274400603.74995518 -161590877.25192189 0 -161590877.25192189 489422408.08745998 0 0 0 0 268454905.60545254 -454673221.98756695 0 -454673221.98756695 1019213335.8945227 0 0 0 0 338996735.28942859 -122929185.04013255 0 -122929185.04013255 735791773.08852196 0 0 0 0 -49576656.749834657 -202243076.99934244 0 -202243076.99934244 708917620.58725977 0 0 0 0 -66835901.836688042 -197260225.15957713 0 -197260225.15957713 1004476771.1109741 0 0 0 0 -119566321.05613899 -177922799.32963181 0 -177922799.32963181 749044089.25246596 0 0 0 0 -99155028.602576733 -107075604.80407 0 -107075604.80407 556852613.53713346 0 0 0 0 -54085496.757263184 -208562233.51838017 0 -208562233.51838017 678226996.98911667 0 0 0 0 6962997.8603264354 -174598782.33775067 0 -174598782.33775067 548055015.45538139 0 0 0 0 2316785.6867625397 3248720.2571101673 0 3248720.2571101673 4632631.5602450809 0 0 0 0 -19414763.664023355 -179856777.56265414 0 -179856777.56265414 548851811.3547163 0 0 0 0 4101116.2591805458 -10191086.653019428 0 -10191086.653019428 196357649.33664924 0 0 0 0 -14504065.110111326 -209325825.51143923 0 -209325825.51143923 462206388.75672436 0 0 0 0 227156979.28075683 -546137537.26278853 0 -546137537.26278853 -75798738.699889183 0 0 0 0 134454096.92710769 -575274196.91618013 0 -575274196.91618013 1111485831.8167439 0 0 0 0 108498.34659201006 645973.72251638584 0 645973.72251638584 2256084.6292074602 0 0 0 0 204004711.38912362 -393489605.21835661 0 -393489605.21835661 790034687.85578072 0 0 0 0 222126826.4852339 -122952599.6881299 0 -122952599.6881299 -182831614.1100893 0 0 0 0 252064579.05017257 7966394.945040226 0 7966394.945040226 -127832928.09455013 0 0 0 0 -500767.66366793221 574011.30458550958 0 574011.30458550958 10249671.130944908 0 0 0 0 -468650614.81620198 69998365.083295822 0 69998365.083295822 126995512.62479591 0 0 0 0 -142174191.38088655 195483953.47095203 0 195483953.47095203 15426492.991662741 0 0 0 0 -140107492.74811244 -103259198.53073692 0 -103259198.53073692 -39548771.861764908 0 0 0 0 -62524604.214725494 -221373.61069917679 0 -221373.61069917679 -74335168.656800508 0 0 0 0 -59996048.976844683 -48151513.172973052 0 -48151513.172973052 588590619.43488407 0 0 0 0 -378894755.19254053 49422133.871622086 0 49422133.871622086 198382493.08466244 0 0 0 0 -289614.7351124906 862140.32540081965 0 862140.32540081965 7860995.1629680507 0 0 0 0 425001349.81520319 685872569.26245356 0 685872569.26245356 -27633745.339823723 0 0 0 0 3606196.8670166265 5777032.4390134076 0 5777032.4390134076 6676305.4838302489 0 0 0 0 -146061823.61512041 124066691.58975232 0 124066691.58975232 223071567.76713771 0 0 0 0 175119147.74596691 -366228801.754035 0 -366228801.754035 -10654394.451795101 0 0 0 0 245458926.07663393 406541725.87257004 0 406541725.87257004 330653854.8571167 0 0 0 0 188941.05398308358 835174.4088364183 0 835174.4088364183 5150871.0170869473 0 0 0 0 491954855.2983433 251479757.32393622 0 251479757.32393622 62098085.007419586 0 0 0 0 -318274111.02422339 -299411109.92670012 0 -299411109.92670012 531528450.27975261 0 0 0 0 83623371.610627517 -322082872.80270886 0 -322082872.80270886 290479961.75149727 0 0 0 0 -169390373.09149444 -23716862.581318378 0 -23716862.581318378 43757744.315535069 0 0 0 0 177756262.92432415 315821558.42153859 0 315821558.42153859 72257188.703134537 0 0 0 0 215082501.00662971 97618599.125725746 0 97618599.125725746 -14293863.146953583 0 0 0 0 11451125.962765694 54765441.554719925 0 54765441.554719925 -31044649.695264816 0 0 0 0 -109336124.98987103 94610670.185738564 0 94610670.185738564 86521204.938019753 0 0 0 0 -295196311.74582595 45862713.198760748 0 45862713.198760748 188801195.05204916 0 0 0 0 635484.9013451424 4407942.4148347788 0 4407942.4148347788 13439252.08518908 0 0 0 0 -64757724.730055809 -1844955.3475456238 0 -1844955.3475456238 22255314.533119202 0 0 0 0 -173295284.51368523 146258891.39359093 0 146258891.39359093 -39553087.969100952 0 0 0 0 -2540170.8181307875 -573721.72760105878 0 -573721.72760105878 3631518.6666140966 0 0 0 0 -159604936.00487435 68790701.594874144 0 68790701.594874144 -104484549.75152414 0 0 0 0 37278454.590203285 147583353.67418003 0 147583353.67418003 -38306217.585289955 0 0 0 0 93632169.475581527 278788942.72528267 0 278788942.72528267 41438933.339561462 0 0 0 0 41960150.688309789 249343539.92835712 0 249343539.92835712 213166027.28189659 0 0 0 0 -18660099.329455256 30139816.717712402 0 30139816.717712402 555461537.74930191 0 0 0 0 11670141.754075527 126128835.74630547 0 126128835.74630547 220112483.97537899 0 0 0 0 88763522.432392836 286731193.87536526 0 286731193.87536526 80073141.732586861 0 0 0 0 67832.135248629493 757491.33089386974 0 757491.33089386974 3026664.1586866565 0 0 0 0 84482987.452418193 348670005.55946875 0 348670005.55946875 236137116.34561348 0 0 0 0 58426071.279699355 -125641993.85138011 0 -125641993.85138011 293903507.61020851 0 0 0 0 -6661052.7995626181 297320761.25610924 0 297320761.25610924 603788717.57002831 0 0 0 0 343395451.07127106 -132034698.57064533 0 -132034698.57064533 67148787.220594406 0 0 0 0 52750621.260062933 46250839.237873077 0 46250839.237873077 -10375275.89402771 0 0 0 0 -18298870.282072201 40730670.132836163 0 40730670.132836163 101822212.54437447 0 0 0 0 -67772064.767439365 -51123042.251953125 0 -51123042.251953125 163045101.90204239 0 0 0 0 13138679.410501599 -3083753.3963499069 0 -3083753.3963499069 -8192935.4463348389 0 0 0 0 58692926.805792809 -69239114.748334885 0 -69239114.748334885 46368179.936637878 0 0 0 0 14649596.093340874 -21793384.205192566 0 -21793384.205192566 -13698468.626634598 0 0 0 0 -21241912.981219292 -12462729.682037354 0 -12462729.682037354 6053546.3869495392 0 0 0 0 108740706.28594548 -9510093.8459305763 0 -9510093.8459305763 -17129222.80412674 0 0 0 0 41310662.029563442 59277718.823451042 0 59277718.823451042 68458740.28512001 0 0 0 0 1376437.3790260782 1193350.5055250223 0 1193350.5055250223 -1960168.2472523153 0 0 0 0 -18683356.63090381 40073490.853515625 0 40073490.853515625 10745498.143297195 0 0 0 0 8575633.5271264315 16563713.56826663 0 16563713.56826663 -9289434.1104736328 0 0 0 0 1766690.3244115373 3995810.9347690861 0 3995810.9347690861 1830966.4959851466 0 0 0 0 -107933853.30695987 12468746.975558281 0 12468746.975558281 47343543.46059227 0 0 0 0 -86392495.442306519 9159975.7200679779 0 9159975.7200679779 -2390240.450630188 0 0 0 0 -124876657.96117938 -58466928.860088587 0 -58466928.860088587 130129045.54719543 0 0 0 0 9198140.7159562111 -83476639.7191782 0 -83476639.7191782 36221443.369735718 0 0 0 0 -172815379.53510889 58604612.613630533 0 58604612.613630533 113647490.17356491 0 0 0 0 -95784479.152076721 29619340.514080048 0 29619340.514080048 58860044.668195724 0 0 0 0 477061.04104262311 487546.20821614936 0 487546.20821614936 -331803.90586370602 0 0 0 0 -12777555.294904828 5449627.6876101494 0 5449627.6876101494 -22042069.568519592 0 0 0 0 -3359569.491973877 -13406790.263576508 0 -13406790.263576508 -25241081.404598713 0 0 0 0 -7554020.8012232184 24318852.890781045 0 24318852.890781045 -25908948.739017487 0 0 0 0 -842344.41719055176 688074.75473499298 0 688074.75473499298 5222447.7316732407 0 0 0 0 2413011.8077928424 45690987.701472223 0 45690987.701472223 -15327652.273555756 0 0 0 0 -182040878.69875121 300408132.68294072 0 300408132.68294072 -86072722.91052115 0 0 0 0 3225397.0614780355 7251457.0147884684 0 7251457.0147884684 13692695.258216098 0 0 0 0 -235823578.73340881 141119677.81674486 0 141119677.81674486 7741199.487932682 0 0 0 0 -5130936.9908080101 133992463.41016388 0 133992463.41016388 -45069556.864845037 0 0 0 0 71179384.518582821 90727028.827442527 0 90727028.827442527 -239118738.38640204 0 0 0 0 300433305.53074169 108036625.04197705 0 108036625.04197705 -77535526.913138494 0 0 0 0 28031251.652335167 119360905.83080192 0 119360905.83080192 -74367627.434369504 0 0 0 0 -37098584.06277132 179195019.17508882 0 179195019.17508882 251369714.04498172 0 0 0 0 -14144504.179646969 85538958.116654873 0 85538958.116654873 -155141496.28196844 0 0 0 0 8699630.2627110798 11116349.803487007 0 11116349.803487007 13075411.372754674 0 0 0 0 -17562.270830154419 231775170.81742632 0 231775170.81742632 -236035502.17975268 0 0 0 0 69878391.958963394 35324752.497918367 0 35324752.497918367 -132117484.38876939 0 0 0 0 64105656.783958435 -20649287.913747251 0 -20649287.913747251 -173766801.64885503 0 0 0 0 204482491.06740952 77556404.971400827 0 77556404.971400827 -173633362.81729329 0 0 0 0 60912256.214715004 43993694.394171953 0 43993694.394171953 -133835575.29708931 0 0 0 0 40748699.607250214 -169625235.08172432 0 -169625235.08172432 -195382401.25634277 0 0 0 0 21119819.760030746 -159462630.42526758 0 -159462630.42526758 17983582.61044208 0 0 0 0 50634485.423578262 -13427776.609118819 0 -13427776.609118819 -166945078.84463635 0 0 0 0 180749312.53275585 -14718154.378744066 0 -14718154.378744066 -191197304.41390187 0 0 0 0 46462222.396009415 -144010293.93397778 0 -144010293.93397778 -231945235.15846214 0 0 0 0 11170759.584338188 -48376623.089664996 0 -48376623.089664996 -123640672.15419966 0 0 0 0 31781789.270386696 -94254257.428399384 0 -94254257.428399384 -29526914.009521842 0 0 0 0 227780201.9174366 -160754158.66095197 0 -160754158.66095197 -9856336.7168958187 0 0 0 0 152571031.53393888 20776647.225105464 0 20776647.225105464 127580309.46967065 0 0 0 0 115892580.48805761 -2738572.029903546 0 -2738572.029903546 -75791958.031648219 0 0 0 0 267757088.19833851 61130831.773912072 0 61130831.773912072 -71224176.29865481 0 0 0 0 616554339.40281034 153199212.88789797 0 153199212.88789797 130995040.72701263 0 0 0 0 108468507.58326483 -118433375.40248251 0 -118433375.40248251 444622215.22206688 0 0 0 0 36285683.435173512 11817749.881477907 0 11817749.881477907 259645726.81306815 0 0 0 0 214180679.17636728 206188989.90027237 0 206188989.90027237 293696072.42680925 0 0 0 0 227125787.13695145 201020567.65742806 0 201020567.65742806 -149886398.44331676 0 0 0 0 115550007.20943856 -388593275.15018415 0 -388593275.15018415 787996403.52072477 0 0 0 0 585283.79016250372 1759348.9531440905 0 1759348.9531440905 2829691.3532906594 0 0 0 0 41662294.42821002 -72621997.810717285 0 -72621997.810717285 314676717.14774227 0 0 0 0 -166702282.11584413 -121168870.85192192 0 -121168870.85192192 394055339.21212649 0 0 0 0 -58242358.809651852 143913547.53732359 0 143913547.53732359 219530366.1910708 0 0 0 0 -173811703.33574009 112165608.21558118 0 112165608.21558118 226563705.49130964 0 0 0 0 61944368.973198414 -24384496.24576804 0 -24384496.24576804 243224551.52954102 0 0 0 0 41205595.936071396 213080526.26793802 0 213080526.26793802 767274362.19191349 0 0 0 0 -58941988.536004066 -29336483.323960304 0 -29336483.323960304 123764218.32776308 0 0 0 0 1558937.9872012138 35421972.898085594 0 35421972.898085594 -14005395.379455566 0 0 0 0 28955022.501919985 -93721807.897508144 0 -93721807.897508144 53557398.031105042 0 0 0 0 -14392714.730582893 -7339626.4986829758 0 -7339626.4986829758 32000010.484560013 0 0 0 0 -7780306.9162667226 -2114946.3093983047 0 -2114946.3093983047 48355.200184399262 0 0 0 0 -7439852.16076684 -8280302.3034076691 0 -8280302.3034076691 17370493.814570904 0 0 0 0 297546.40946674347 243767.30292844772 0 243767.30292844772 13049690.857156754 0 0 0 0 60448705.894324541 -121873935.91495705 0 -121873935.91495705 107443310.69811249 0 0 0 0 -54568618.155538559 5388313.1703763008 0 5388313.1703763008 99059182.804289818 0 0 0 0 -11029215.495666649 -4132140.5305245835 0 -4132140.5305245835 6769220.9226300661 0 0 0 0 3971938.5953554255 7943047.5653222557 0 7943047.5653222557 14910345.182574594 0 0 0 0 -60520826.567688465 -106752006.1439209 0 -106752006.1439209 120086226.65410328 0 0 0 0 105398948.95862892 -50251915.191769838 0 -50251915.191769838 -2449318.3539199829 0 0 0 0 -18672312.007987499 71566850.594433308 0 71566850.594433308 -25966201.89460659 0 0 0 0 129959512.02418923 -128478253.12436771 0 -128478253.12436771 93353666.93554306 0 0 0 0 4344635.1683754567 6884776.9876619065 0 6884776.9876619065 10607414.963746183 0 0 0 0 57114942.589124501 -41631048.120476723 0 -41631048.120476723 99031988.150859833 0 0 0 0 96319236.506943464 -55722072.96117878 0 -55722072.96117878 99196617.813501358 0 0 0 0 -60949327.807118654 19072073.355705261 0 19072073.355705261 67327910.900365829 0 0 0 0 53916630.561927855 -47672800.01019907 0 -47672800.01019907 99040877.824729919 0 0 0 0 -57812.15929210186 -3990379.4756946564 0 -3990379.4756946564 101316362.65247726 0 0 0 0 30550076.341196537 -34577398.534763336 0 -34577398.534763336 141338562.18988228 0 0 0 0 31213377.167339563 -48176186.433742523 0 -48176186.433742523 149986207.83297729 0 0 0 0 123270620.75144327 -123932926.25713396 0 -123932926.25713396 161603991.10718727 0 0 0 0 52597582.804883957 -83177922.538024902 0 -83177922.538024902 154833860.56270027 0 0 0 0 3351370.3277182467 5340720.8954495108 0 5340720.8954495108 8140731.3429476395 0 0 0 0 -142078388.73265934 104247991.66536808 0 104247991.66536808 -5375683.1335246563 0 0 0 0 -90087933.298434138 -5509947.9467573166 0 -5509947.9467573166 50424604.730848312 0 0 0 0 -100893598.3645184 163908777.86303043 0 163908777.86303043 -65285682.010299683 0 0 0 0 -76135461.491706371 61297729.330091476 0 61297729.330091476 37799657.466815948 0 0 0 0 98205359.658626318 170056703.16106129 0 170056703.16106129 105636392.05457878 0 0 0 0 94888390.552682519 143630592.04453301 0 143630592.04453301 50800352.57334137 0 0 0 0 -214872454.26700759 -143912907.65986729 0 -143912907.65986729 149848261.59555054 0 0 0 0 -157500992.22593355 154857733.45842457 0 154857733.45842457 884252940.55285454 0 0 0 0 -106364839.23474073 -26510220.067809105 0 -26510220.067809105 243557091.95969391 0 0 0 0 -106281467.44356394 -24112745.567739487 0 -24112745.567739487 32124354.472923279 0 0 0 0 -91671416.675854445 72627560.310726166 0 72627560.310726166 8219606.9471569061 0 0 0 0 3442092.8161682952 4095040.6543876771 0 4095040.6543876771 3953728.8219155055 0 0 0 0 292941824.78932941 135381032.2073946 0 135381032.2073946 -48653150.924404144 0 0 0 0 120424420.69098687 -27095361.240255356 0 -27095361.240255356 -69245242.432806969 0 0 0 0 406576665.36336267 406815434.64700127 0 406815434.64700127 245618147.20853329 0 0 0 0 -880655.91756825591 -142383.95630918816 0 -142383.95630918816 319328.56701781694 0 0 0 0 -138288186.96496901 -356080162.34678841 0 -356080162.34678841 544192075.53773499 0 0 0 0 706632335.96588802 276134112.40155792 0 276134112.40155792 818829268.6504097 0 0 0 0 393626737.97069144 101658762.41694641 0 101658762.41694641 -44894435.883636236 0 0 0 0 2020013.6907291294 1295398.3550270591 0 1295398.3550270591 883264.76716559753 0 0 0 0 -25732647.048848242 207461739.38279533 0 207461739.38279533 281455071.95572281 0 0 0 0 95114996.840252817 36234028.505880356 0 36234028.505880356 77847279.004158974 0 0 0 0 7866542.4464712143 188621218.18307638 0 188621218.18307638 259241462.28302193 0 0 0 0 -14700118.309083581 -75211888.298353195 0 -75211888.298353195 203024617.43245578 0 0 0 0 -17931125.786105275 -15075404.615518093 0 -15075404.615518093 46760990.348430634 0 0 0 0 540746.54037702084 94911308.973554134 0 94911308.973554134 -18774057.494810104 0 0 0 0 -11361230.039417237 -62224371.759430885 0 -62224371.759430885 52877338.840221405 0 0 0 0 -34388810.337192714 -38706214.215524673 0 -38706214.215524673 29451506.475576401 0 0 0 0 24382301.268704236 -63375846.697268963 0 -63375846.697268963 10190214.768627167 0 0 0 0 63361043.667548642 -71966828.298678398 0 -71966828.298678398 48013813.321491241 0 0 0 0 1370681.1838982403 -9979258.2742652893 0 -9979258.2742652893 -428801.48203849792 0 0 0 0 -56050924.768172503 -126135031.03606129 0 -126135031.03606129 105956893.93291473 0 0 0 0 -3943131.9529842241 -858637.23180900887 0 -858637.23180900887 166025.60349554196 0 0 0 0 -2588131.2350183725 3022239.0302181244 0 3022239.0302181244 7164806.7874975204 0 0 0 0 -29907423.764406502 -35149756.98768425 0 -35149756.98768425 24113412.190457344 0 0 0 0 -46790354.886937976 -28184530.47631073 0 -28184530.47631073 47733911.678514481 0 0 0 0 -23444008.665462077 -6831662.3310413361 0 -6831662.3310413361 12775717.768566132 0 0 0 0 -5556542.5688698292 -46160396.185192108 0 -46160396.185192108 47872908.589796066 0 0 0 0 -186830.40728292463 28003.196832085028 0 28003.196832085028 178538.3071574457 0 0 0 0 27109459.036415756 -13197018.014608383 0 -13197018.014608383 9943356.7558860779 0 0 0 0 9635574.9719941318 -15310186.862277269 0 -15310186.862277269 22865883.848034859 0 0 0 0 -298819.84863353078 74930.008121415973 0 74930.008121415973 321048.48446033709 0 0 0 0 -557055.32159310579 -33613324.91110754 0 -33613324.91110754 11603730.310112 0 0 0 0 11157574.314929247 -14588425.237386703 0 -14588425.237386703 14443160.957541943 0 0 0 0 15001760.484471142 -23653962.056706429 0 -23653962.056706429 24271361.607942581 0 0 0 0 32914666.915878594 2486501.2033145428 0 2486501.2033145428 32989704.933603287 0 0 0 0 -65468065.20051825 -22186298.283413887 0 -22186298.283413887 18339295.342935562 0 0 0 0 11552141.975898087 -44859667.02408123 0 -44859667.02408123 -9128937.6784439087 0 0 0 0 9855165.1423028111 -44322723.147727966 0 -44322723.147727966 22614337.267050743 0 0 0 0 7822672.3568108976 -20571561.518666267 0 -20571561.518666267 23360204.387042046 0 0 0 0 9064374.2761704326 -23154263.851799965 0 -23154263.851799965 -1354133.5840797424 0 0 0 0 -9924205.0815727562 -45005299.656271935 0 -45005299.656271935 -23328765.285262108 0 0 0 0 -302898877.80099785 -216153936.71379983 0 -216153936.71379983 -79498414.035194397 0 0 0 0 -32094288.387913525 9537080.1629781723 0 9537080.1629781723 7964898.0812339783 0 0 0 0 18398145.104160294 -32654916.070970535 0 -32654916.070970535 42518745.935090065 0 0 0 0 52468635.74749054 214165060.54688263 0 214165060.54688263 330991491.25803089 0 0 0 0 2828178.4573156475 -180556.80882860906 0 -180556.80882860906 53838.047201536596 0 0 0 0 62135575.086813688 -57364936.403993607 0 -57364936.403993607 -58906987.208664656 0 0 0 0 -85823050.334723055 294927812.10706401 0 294927812.10706401 732545195.12912941 0 0 0 0 -4661850.8108238652 601334176.29290199 0 601334176.29290199 530527897.27959633 0 0 0 0 609181604.90271044 89600440.368371964 0 89600440.368371964 -820947615.95063782 0 0 0 0 13982348.046779513 926647.28005123138 0 926647.28005123138 73976464.892362595 0 0 0 0 2354315.6431195736 -8981521.125585556 0 -8981521.125585556 70742318.740259647 0 0 0 0 50879241.067231983 18003064.286678314 0 18003064.286678314 47921339.534582138 0 0 0 0 5374114.8614826668 1236225.6564195883 0 1236225.6564195883 223188.50185683323 0 0 0 0 4353982.9425337315 5550423.4892787933 0 5550423.4892787933 120035093.4628458 0 0 0 0 401223390.15900278 -228111958.22405243 0 -228111958.22405243 -209875924.45583248 0 0 0 0 -43776328.364867568 30128005.394512177 0 30128005.394512177 164726643.97702169 0 0 0 0 2788951.4152965541 2079980.8112201039 0 2079980.8112201039 567289.13965651719 0 0 0 0 -4107694.8985829353 -1239808.4207544327 0 -1239808.4207544327 102229003.43799508 0 0 0 0 6537759.0163261592 -4856387.730530262 0 -4856387.730530262 80350978.134815216 0 0 0 0 -2290841.563193202 -16214429.47107029 0 -16214429.47107029 80152445.315213129 0 0 0 0 12167095.383329451 -8162287.44490242 0 -8162287.44490242 41568834.301556587 0 0 0 0 2225602.5584347248 1050970.7556066513 0 1050970.7556066513 39161840.709956884 0 0 0 0 -284215.49327450292 138190.60893562064 0 138190.60893562064 389833.85477606393 0 0 0 0 -7436504.9986021519 -8347596.5751211643 0 -8347596.5751211643 24463634.596843719 0 0 0 0 -5222118.749438405 -4156489.483250618 0 -4156489.483250618 22914775.267301559 0 0 0 0 17092332.057277679 -8961504.9503908157 0 -8961504.9503908157 8086803.6529045105 0 0 0 0 9181880.6228593588 -21258645.078601837 0 -21258645.078601837 32123286.809467643 0 0 0 0 -6628957.0511014462 -3315596.160487175 0 -3315596.160487175 23033073.044717789 0 0 0 0 -10981584.448157728 -2482897.0040881634 0 -2482897.0040881634 23272570.564605713 0 0 0 0 -13507354.687123537 -5228492.9642767906 0 -5228492.9642767906 23324904.071817398 0 0 0 0 -6471561.6293713897 -3621400.6765092611 0 -3621400.6765092611 23659476.07790184 0 0 0 0 -10564409.054318666 11275071.714299202 0 11275071.714299202 6228984.3916988373 0 0 0 0 -201267.10037618084 102994.01693849452 0 102994.01693849452 276619.59193041362 0 0 0 0 -11013986.373973727 11292282.372689247 0 11292282.372689247 42471041.650008202 0 0 0 0 -13562197.91744566 21964.944111824036 0 21964.944111824036 67796947.956962585 0 0 0 0 -3920825.2015900612 2091797.183134079 0 2091797.183134079 68214162.253610611 0 0 0 0 -6500688.1605757475 4819476.0784430504 0 4819476.0784430504 81354357.195987701 0 0 0 0 -2628702.2272589207 -1923531.6739330292 0 -1923531.6739330292 88711286.017604828 0 0 0 0 -1741117.1975629777 -12153764.985020459 0 -12153764.985020459 97397417.210704803 0 0 0 0 4038644.6347925663 -372608.01686167717 0 -372608.01686167717 88317019.492307663 0 0 0 0 82985445.589538574 -29547804.459312439 0 -29547804.459312439 200660999.95426083 0 0 0 0 -2096064.1819508011 1564163.863084076 0 1564163.863084076 1374866.0281928638 0 0 0 0 -4223681.7377541065 -4318730.2996244431 0 -4318730.2996244431 96285633.971660614 0 0 0 0 -4504999.0386959612 -1216486.2679985762 0 -1216486.2679985762 76149086.093990326 0 0 0 0 -2810202.612175703 -8965077.9148006439 0 -8965077.9148006439 85644410.71642828 0 0 0 0 13237722.139500618 -24400347.662970066 0 -24400347.662970066 75746138.484989166 0 0 0 0 135532856.25667429 -162057650.21810913 0 -162057650.21810913 96422178.824268341 0 0 0 0 -633344.5428025974 -1089145.0065784343 0 -1089145.0065784343 3002377.0606840104 0 0 0 0 17109423.267560959 -19612497.819549561 0 -19612497.819549561 71542996.868738174 0 0 0 0 39810018.515775681 -44071895.124275208 0 -44071895.124275208 60400709.187187195 0 0 0 0 64422484.389610201 -233663288.02775288 0 -233663288.02775288 197995094.1477623 0 0 0 0 72082091.83139801 -191395305.83099627 0 -191395305.83099627 150799972.92168427 0 0 0 0 134820027.34660435 -161394763.57483673 0 -161394763.57483673 136414437.66291547 0 0 0 0 51778413.719362795 -116009641.14187741 0 -116009641.14187741 208150189.29005432 0 0 0 0 25454177.984495007 -51343888.991397321 0 -51343888.991397321 258836661.32826614 0 0 0 0 -1305915.4827555218 -532120.78327995166 0 -532120.78327995166 1916775.661911916 0 0 0 0 25475200.350803614 -51390144.816206932 0 -51390144.816206932 119841686.50475562 0 0 0 0 -42101433.908929348 -2043280.0310173035 0 -2043280.0310173035 227181199.95914841 0 0 0 0 -58167761.22953701 -31118428.735750198 0 -31118428.735750198 307024749.32948685 0 0 0 0 -136429167.25618231 -7959872.9061536789 0 -7959872.9061536789 518529808.028862 0 0 0 0 -59551195.412414312 -49935984.597225189 0 -49935984.597225189 301340788.27058125 0 0 0 0 -34631976.009631038 -85766886.775894165 0 -85766886.775894165 283917743.69407654 0 0 0 0 -152627205.22790623 103218118.88733101 0 103218118.88733101 278534135.96810913 0 0 0 0 -182984863.50443339 -449962212.24376488 0 -449962212.24376488 860077387.92390442 0 0 0 0 -123378165.81863359 -314168046.9025774 0 -314168046.9025774 434885317.9311142 0 0 0 0 -169628162.8355211 -383258778.66152763 0 -383258778.66152763 451701949.55468369 0 0 0 0 -123243411.72847441 -263164841.99452972 0 -263164841.99452972 507556037.10229743 0 0 0 0 -28760413.227138519 -244063709.37613297 0 -244063709.37613297 368273842.42394257 0 0 0 0 -8438342.9054675102 -196171835.90521812 0 -196171835.90521812 215794847.04070568 0 0 0 0 -39649961.930173874 -305184222.91806221 0 -305184222.91806221 278866202.85426712 0 0 0 0 64442676.788867712 -353826606.42167282 0 -353826606.42167282 114124841.28252411 0 0 0 0 48740726.081009865 -374305375.80360413 0 -374305375.80360413 278080297.92621267 0 0 0 0 185319007.34245729 -342635361.33291435 0 -342635361.33291435 112052637.23373032 0 0 0 0 -25618627.803350925 -573121617.18014717 0 -573121617.18014717 168081272.8190155 0 0 0 0 -20675192.508842349 -470711223.6721611 0 -470711223.6721611 148004411.96436691 0 0 0 0 -38736259.109431267 -478341198.2328968 0 -478341198.2328968 460612721.11841345 0 0 0 0 45814631.714329243 -479975460.86111832 0 -479975460.86111832 141204242.42663383 0 0 0 0 46379271.475643396 -481550353.65955162 0 -481550353.65955162 42329727.097408295 0 0 0 0 -49501283.809214115 -558792251.67963791 0 -558792251.67963791 72732287.82925415 0 0 0 0 -38511625.812514305 -507797620.5785408 0 -507797620.5785408 170648656.02050781 0 0 0 0 67499786.825282842 -466396225.49288464 0 -466396225.49288464 -35712400.579633713 0 0 0 0 38809580.05831337 -525765959.27395248 0 -525765959.27395248 -56864890.965240479 0 0 0 0 -132907651.57953739 -369373958.16696358 0 -369373958.16696358 -12501487.533527851 0 0 0 0 145457778.40159634 -365063473.52507401 0 -365063473.52507401 34901223.089035988 0 0 0 0 176366282.638376 -365130268.98977852 0 -365130268.98977852 83841317.016544342 0 0 0 0 213837365.71306849 -364824074.47027588 0 -364824074.47027588 27587862.486698151 0 0 0 0 146418459.06278807 -442248525.47192001 0 -442248525.47192001 1965841.9421958923 0 0 0 0 302612027.97177196 -327271143.54206848 0 -327271143.54206848 26504318.324947655 0 0 0 0 224028160.69618607 -341355875.6732235 0 -341355875.6732235 60764242.050067902 0 0 0 0 280906520.14316797 -237505463.08826828 0 -237505463.08826828 24734886.404167175 0 0 0 0 240233733.39084077 -243154500.61459351 0 -243154500.61459351 54205963.221906662 0 0 0 0 401703781.79173565 -222403158.29813004 0 -222403158.29813004 22084255.792509079 0 0 0 0 254135467.68516922 -109978993.79785919 0 -109978993.79785919 17911937.114368439 0 0 0 0 326409803.74035215 -147785812.19169044 0 -147785812.19169044 25628122.856826782 0 0 0 0 203699912.31479454 -144773904.65561867 0 -144773904.65561867 49537388.741476059 0 0 0 0 202806274.68633556 -168905122.17109108 0 -168905122.17109108 89660157.016555786 0 0 0 0 124771135.99956274 -240783690.80840111 0 -240783690.80840111 131264832.80163002 0 0 0 0 126899891.55986547 -286429448.57741356 0 -286429448.57741356 183340291.9072299 0 0 0 0 186334732.36799467 -231256495.86414909 0 -231256495.86414909 74723630.073535919 0 0 0 0 793515936.60310149 8683689.5388908386 0 8683689.5388908386 552081068.20705223 0 0 0 0 -14390040.43246007 -611501315.39713717 0 -611501315.39713717 1383319592.4457626 0 0 0 0 -273587250.77759391 217404723.54344845 0 217404723.54344845 1519412951.6225872 0 0 0 0 190144162.82996279 -472940496.1850059 0 -472940496.1850059 1265921470.4735603 0 0 0 0 -263333734.64522362 318794652.37679338 0 318794652.37679338 782495489.66360474 0 0 0 0 -88966.514160907042 555388.042563339 0 555388.042563339 5398560.1499378718 0 0 0 0 -287669705.06589794 -89427246.530439377 0 -89427246.530439377 685913265.25589561 0 0 0 0 -210034929.24852467 -438899944.90339756 0 -438899944.90339756 598194240.26082611 0 0 0 0 -352950802.46938479 -31080293.077222347 0 -31080293.077222347 1181569191.5609913 0 0 0 0 -158657220.15813076 -43555266.924417973 0 -43555266.924417973 665185307.99501872 0 0 0 0 -202672308.69636917 -268911616.81859064 0 -268911616.81859064 789850834.0059166 0 0 0 0 -438597787.14514637 -73699085.061065674 0 -73699085.061065674 1224063266.3282928 0 0 0 0 94086132.43709898 618515734.26768494 0 618515734.26768494 942521905.52119207 0 0 0 0 -394123.40502860327 -1061019.1830568048 0 -1061019.1830568048 5853644.5449219272 0 0 0 0 -449894383.98429418 -81449973.381937742 0 -81449973.381937742 1568834088.3052807 0 0 0 0 1058110494.5223303 -703481306.38914776 0 -703481306.38914776 300611215.26610565 0 0 0 0 -230299155.44955504 -490026639.5692327 0 -490026639.5692327 1243621413.0120487 0 0 0 0 880542220.28201532 433551678.67348337 0 433551678.67348337 462030999.84690094 0 0 0 0 -311902444.57708359 -107465009.45925331 0 -107465009.45925331 1771168380.0462608 0 0 0 0 -185167270.68200827 -151631105.45783043 0 -151631105.45783043 658936588.20554161 0 0 0 0 -239782954.33928156 232311931.2679739 0 232311931.2679739 995216602.40618515 0 0 0 0 114991821.25427151 -914783094.83659363 0 -914783094.83659363 1320837056.4825592 0 0 0 0 -75919782.466114998 -514423295.81526566 0 -514423295.81526566 486971336.64504623 0 0 0 0 -94339624.676193237 -555892606.72741699 0 -555892606.72741699 485965307.58286655 0 0 0 0 140907975.75055802 -542101869.97727299 0 -542101869.97727299 143617565.10297394 0 0 0 0 -78739729.895195723 -137934169.94262981 0 -137934169.94262981 107582078.94721985 0 0 0 0 -527700576.38961816 63993264.030956268 0 63993264.030956268 81994296.04712677 0 0 0 0 -340325322.63758564 -562853563.34877586 0 -562853563.34877586 -26208420.082870483 0 0 0 0 -284433660.04969358 -463154793.79695702 0 -463154793.79695702 140134434.79210281 0 0 0 0 -55268617.736981869 -428743265.86214256 0 -428743265.86214256 -163036944.13657761 0 0 0 0 -755406789.4595592 -312621806.47692108 0 -312621806.47692108 50590349.082159042 0 0 0 0 -249955454.1637907 -396001262.67409515 0 -396001262.67409515 4285064.268901825 0 0 0 0 -131616115.70850849 -325206883.56996155 0 -325206883.56996155 -242360433.98232651 0 0 0 0 -260669697.94359863 -259752993.47384715 0 -259752993.47384715 -497968191.29250336 0 0 0 0 -723319481.11838365 -315200106.35988426 0 -315200106.35988426 -115940557.53928137 0 0 0 0 -69067224.771059394 1988122.9291563034 0 1988122.9291563034 31055973.459518433 0 0 0 0 -769984.13682457188 -7053574.1278546667 0 -7053574.1278546667 9788326.9644647762 0 0 0 0 -327940.17601432838 -1415874.269179903 0 -1415874.269179903 2551593.3034975622 0 0 0 0 -4544366.4019769505 1434939.3352406919 0 1434939.3352406919 66603554.646710396 0 0 0 0 -63061309.466978073 -139075092.01985931 0 -139075092.01985931 93138146.616470337 0 0 0 0 -2807438.2376343962 -4182105.001162766 0 -4182105.001162766 15703876.682610087 0 0 0 0 -3808987.7009377629 -7325090.9842255237 0 -7325090.9842255237 2253621.4239743352 0 0 0 0 -14330136.931656957 -142827662.35204077 0 -142827662.35204077 187801006.2283988 0 0 0 0 -15481455.634143949 29553034.79373455 0 29553034.79373455 32972031.854364395 0 0 0 0 5110562.045467943 29647919.452375412 0 29647919.452375412 -40038903.547538757 0 0 0 0 48559431.919104934 -63488334.59420681 0 -63488334.59420681 35518839.703903198 0 0 0 0 106385017.56346095 -27379001.673387051 0 -27379001.673387051 57775490.393199921 0 0 0 0 32695436.552695364 11314653.526548326 0 11314653.526548326 -39435932.438009262 0 0 0 0 302366597.52623904 72720075.778150082 0 72720075.778150082 -214386268.18305779 0 0 0 0 1242565.4718069732 -4694580.0292396452 0 -4694580.0292396452 -1780241.0838926872 0 0 0 0 191627717.59597397 -135871991.54269409 0 -135871991.54269409 195367399.47430897 0 0 0 0 139631127.51096225 -152836750.29963493 0 -152836750.29963493 210160323.40335846 0 0 0 0 152820585.68551883 -118353082.55450344 0 -118353082.55450344 117610428.8562088 0 0 0 0 290690985.70877981 -145413176.34652328 0 -145413176.34652328 157282962.11717606 0 0 0 0 212134008.79902124 -191052791.65152168 0 -191052791.65152168 155440554.93046188 0 0 0 0 151287180.03712901 -115618802.98608416 0 -115618802.98608416 161332269.16851425 0 0 0 0 106592262.5824517 -131411872.18954277 0 -131411872.18954277 174705355.90185547 0 0 0 0 91956986.555146188 -37995986.053726196 0 -37995986.053726196 70883039.716995239 0 0 0 0 -15233653.507853448 35043003.817830086 0 35043003.817830086 35343243.515302658 0 0 0 0 75708615.616712525 -56315079.2599518 0 -56315079.2599518 13723053.780252457 0 0 0 0 43172465.15865615 -55764305.517530441 0 -55764305.517530441 75680965.36230278 0 0 0 0 74012451.689799547 -119204218.74119568 0 -119204218.74119568 155529477.27115631 0 0 0 0 29898236.740914822 -120482730.30457973 0 -120482730.30457973 127165294.05967331 0 0 0 0 -1314305285.8739114 -403125746.9425211 0 -403125746.9425211 290878679.06829071 0 0 0 0 -587516.81077584671 -3998836.2869649064 0 -3998836.2869649064 10722399.49510124 0 0 0 0 -557856299.83392382 -406996004.32390594 0 -406996004.32390594 21320032.073574066 0 0 0 0 -276370718.14356875 -379999970.48322296 0 -379999970.48322296 -65114647.536920547 0 0 0 0 -668713005.11965096 -29867849.15240097 0 -29867849.15240097 121064373.8118248 0 0 0 0 -519899912.49523801 -10408375.786840916 0 -10408375.786840916 -114540373.11491776 0 0 0 0 -541673321.73079884 202447030.59356576 0 202447030.59356576 1015097118.9174805 0 0 0 0 -1056998893.8447151 362565542.18661499 0 362565542.18661499 2200752412.3000526 0 0 0 0 592513409.61586988 -1054660987.4709153 0 -1054660987.4709153 2151263313.0131302 0 0 0 0 -771455624.46995378 843847270.59870911 0 843847270.59870911 1070550555.8978863 0 0 0 0 -312603.27398589539 -1323058.7623822181 0 -1323058.7623822181 5122743.869023487 0 0 0 0 119720181.94316107 -90610160.429880142 0 -90610160.429880142 116874939.71687317 0 0 0 0 182825054.23866618 -187943580.27020264 0 -187943580.27020264 148201993.23405361 0 0 0 0 -1206665.9785461307 -949059.10790515132 0 -949059.10790515132 3664738.1707481518 0 0 0 0 112196028.55599308 -860100255.26510143 0 -860100255.26510143 2200942659.740427 0 0 0 0 204327480.78194007 -125449185.97653913 0 -125449185.97653913 130163711.91319466 0 0 0 0 -87981905.603211045 -300236412.27716255 0 -300236412.27716255 635986163.09684372 0 0 0 0 -1550417.6558161674 -347422.2124444861 0 -347422.2124444861 3315358.9730246104 0 0 0 0 176741489.78791404 -198857221.33883095 0 -198857221.33883095 181389878.05862045 0 0 0 0 -219052102.06971213 280300299.34522265 0 280300299.34522265 662264224.01566315 0 0 0 0 -182187620.71701261 109028515.80003214 0 109028515.80003214 457043749.78108025 0 0 0 0 324219272.33701056 -353098453.82623482 0 -353098453.82623482 272554113.25147247 0 0 0 0 749930756.28917599 -509888833.27322769 0 -509888833.27322769 286470615.06799269 0 0 0 0 518219125.97718716 -263149387.08612919 0 -263149387.08612919 229918557.71212006 0 0 0 0 542463610.10071659 -185875170.99143028 0 -185875170.99143028 64696460.175907135 0 0 0 0 451338443.2252779 -120559409.90104008 0 -120559409.90104008 3817138.6825637817 0 0 0 0 381387595.54746783 -228796637.12065792 0 -228796637.12065792 53594954.827018738 0 0 0 0 506744714.02238971 -373513599.08321381 0 -373513599.08321381 122604398.95400238 0 0 0 0 370422969.08590412 -283850668.93898201 0 -283850668.93898201 63663348.738891602 0 0 0 0 319730379.20973802 -340919387.88708115 0 -340919387.88708115 31173107.64421463 0 0 0 0 317711041.91984856 -291513843.91318512 0 -291513843.91318512 131581292.90613937 0 0 0 0 194294635.4975372 -415857915.63719463 0 -415857915.63719463 43343707.713592529 0 0 0 0 333085733.249461 -396466692.9325242 0 -396466692.9325242 22147711.630298615 0 0 0 0 -230964054.76771855 -274604574.4954071 0 -274604574.4954071 95645399.356160164 0 0 0 0 -195617595.55315894 -376602952.5102644 0 -376602952.5102644 317449994.14518356 0 0 0 0 169444394.29619065 -504608826.62496758 0 -504608826.62496758 198896266.88056564 0 0 0 0 -94060177.85564208 -185494818.38010597 0 -185494818.38010597 427464745.28748417 0 0 0 0 106579492.72485735 -563841546.20484447 0 -563841546.20484447 1077671647.3390617 0 0 0 0 -726412237.54981136 141643502.82640839 0 141643502.82640839 1068816497.2113953 0 0 0 0 -578121765.25215054 -269370840.31129217 0 -269370840.31129217 2205947670.1389313 0 0 0 0 57831111.545720965 -513886077.05312443 0 -513886077.05312443 1081805942.1592731 0 0 0 0 246219303.44475776 -995822510.92691755 0 -995822510.92691755 2200255084.1888275 0 0 0 0 582448720.80768251 -205036991.58718157 0 -205036991.58718157 275475559.0214386 0 0 0 0 2159673270.0190468 -1068945821.0309982 0 -1068945821.0309982 546954523.67669487 0 0 0 0 365456646.87361455 1168458753.509779 0 1168458753.509779 2200234908.6628571 0 0 0 0 967403003.37389946 1147483556.1023121 0 1147483556.1023121 1364878660.1037292 0 0 0 0 3178404.0201803767 -2188108.683244145 0 -2188108.683244145 8862812.7517953068 0 0 0 0 453242558.45900637 920651609.38459778 0 920651609.38459778 1300581447.5612869 0 0 0 0 -59817713.83908502 660057484.69558716 0 660057484.69558716 1773939623.5787964 0 0 0 0 -59548359.870350763 663816665.97265685 0 663816665.97265685 1622662341.763504 0 0 0 0 -68499254.160991937 295135975.07416153 0 295135975.07416153 1252711981.2792206 0 0 0 0 222444435.69934374 631572608.38132477 0 631572608.38132477 1108814008.7386169 0 0 0 0 172572284.07362631 411637221.75077438 0 411637221.75077438 512216103.21076202 0 0 0 0 218941604.81077123 300761170.74106979 0 300761170.74106979 600111301.19359207 0 0 0 0 67823960.24614659 560015463.60784531 0 560015463.60784531 926711492.13549042 0 0 0 0 217850.55671032617 2425208.5058073122 0 2425208.5058073122 363148.61947444081 0 0 0 0 811571261.84048319 -98206566.112311363 0 -98206566.112311363 -413427130.66461182 0 0 0 0 788283623.33490455 777618697.69589233 0 777618697.69589233 772622449.12088013 0 0 0 0 665058186.76756883 512067528.36820602 0 512067528.36820602 200420469.27942657 0 0 0 0 386523911.01808894 -17562075.911300659 0 -17562075.911300659 -326159930.22238922 0 0 0 0 -156739299.25809848 -158191840.79011536 0 -158191840.79011536 89569796.897052765 0 0 0 0 679984431.53972244 -119979517.08048534 0 -119979517.08048534 38194050.108737946 0 0 0 0 1802696.3490426806 -4878575.1199702164 0 -4878575.1199702164 24834326.227704011 0 0 0 0 2441825.4448495661 -3407710.0940588359 0 -3407710.0940588359 -2649435.9235181063 0 0 0 0 89245867.319183946 50408566.371311188 0 50408566.371311188 289411068.60868073 0 0 0 0 -70284086.938108951 107302365.70785522 0 107302365.70785522 618701545.2094574 0 0 0 0 139928377.12701374 8289883.9442462921 0 8289883.9442462921 13279515.342845917 0 0 0 0 55606605.395212427 39042184.730918884 0 39042184.730918884 10744888.897766113 0 0 0 0 1490711.1324456697 -4868748.7138934825 0 -4868748.7138934825 4461516.3610968143 0 0 0 0 12185457.313695043 -84975.311882019043 0 -84975.311882019043 24761409.575309753 0 0 0 0 13599089.990233123 -28156459.849758148 0 -28156459.849758148 -24772633.043243408 0 0 0 0 1982172.865057227 -8779370.3946053293 0 -8779370.3946053293 16129278.159608915 0 0 0 0 294012591.92530251 -14067210.29095459 0 -14067210.29095459 28876348.297092438 0 0 0 0 170534917.62773407 -67602261.929023743 0 -67602261.929023743 70723621.416656494 0 0 0 0 2489595.4668136081 -5075758.4462867323 0 -5075758.4462867323 12168930.599774398 0 0 0 0 37153083.782142043 19695889.077346802 0 19695889.077346802 21770227.170604706 0 0 0 0 48451549.736286454 -13026011.127513885 0 -13026011.127513885 24447573.3072052 0 0 0 0 12175822.992280781 553007.36977005005 0 553007.36977005005 36625359.309875488 0 0 0 0 18160586.926742554 -11076403.470726013 0 -11076403.470726013 57152901.624977112 0 0 0 0 10784202.291119754 315888708.4138031 0 315888708.4138031 730705494.00453949 0 0 0 0 95851590.805458397 -87776239.397247314 0 -87776239.397247314 93555125.60531044 0 0 0 0 225247.39746149504 -568990.03413902968 0 -568990.03413902968 1057968.8024039119 0 0 0 0 65254066.278537937 4672285.5702271461 0 4672285.5702271461 3531610.7775154114 0 0 0 0 34998630.996677496 169880057.29671574 0 169880057.29671574 1290356028.4162903 0 0 0 0 4356741.4427569211 75954382.116744995 0 75954382.116744995 1027182231.6938705 0 0 0 0 -94230567.831769437 407186538.27220917 0 407186538.27220917 1328767671.5421333 0 0 0 0 -285650554.85248375 114319502.76494217 0 114319502.76494217 1490027592.8257599 0 0 0 0 -334245714.49614149 417077254.49658585 0 417077254.49658585 2206870351.3397727 0 0 0 0 -243076875.84392443 -196982837.40707588 0 -196982837.40707588 2199514817.7240219 0 0 0 0 -151778753.52546948 -501174262.3970871 0 -501174262.3970871 884896943.82463837 0 0 0 0 -444251.61002935795 -1258419.832977321 0 -1258419.832977321 3574084.8115727901 0 0 0 0 75174949.536331654 -373864706.7945385 0 -373864706.7945385 31593941.642211914 0 0 0 0 194041653.03625414 724201130.5422287 0 724201130.5422287 2204526122.4768162 0 0 0 0 -115278952.74815506 154989353.92175293 0 154989353.92175293 435119207.76559448 0 0 0 0 -161112650.93738836 -71408653.427928925 0 -71408653.427928925 746156544.97984314 0 0 0 0 -189418682.66080934 72109456.91711235 0 72109456.91711235 878518849.25782013 0 0 0 0 -174964707.58420241 105455504.80186081 0 105455504.80186081 1069847890.366869 0 0 0 0 65813338.654537961 237080021.50434113 0 237080021.50434113 920267385.92680168 0 0 0 0 -401891552.99538827 -339036039.2941761 0 -339036039.2941761 222812299.09516144 0 0 0 0 -125599884.63136412 175150126.58935165 0 175150126.58935165 1261736549.3823166 0 0 0 0 -154949664.57028949 125976071.97693872 0 125976071.97693872 932321702.39894485 0 0 0 0 -645200938.26094747 14510739.430744171 0 14510739.430744171 2204349118.6309319 0 0 0 0 -335231.13174891705 -2826461.718076963 0 -2826461.718076963 4490480.5008800179 0 0 0 0 -123713819.82178369 -26270276.452919006 0 -26270276.452919006 906670515.07604599 0 0 0 0 16313482.419285417 -45793145.74414444 0 -45793145.74414444 820660855.36907196 0 0 0 0 194205.5637463312 -1251056.2414941266 0 -1251056.2414941266 1966730.2801510245 0 0 0 0 -258352350.06956527 6634958.3015823364 0 6634958.3015823364 2506119946.3066177 0 0 0 0 -24458156.172047928 -1126503767.6693649 0 -1126503767.6693649 -77884179.500356674 0 0 0 0 78207715.270483494 289276103.93882561 0 289276103.93882561 1409549989.1026764 0 0 0 0 20345883.628526449 64100299.259094238 0 64100299.259094238 254942139.03761864 0 0 0 0 84780938.366697818 -636932603.49817228 0 -636932603.49817228 741266793.40076447 0 0 0 0 -93849323.488202512 91461545.586761475 0 91461545.586761475 729544913.27370834 0 0 0 0 526785.85213452578 2570566.4457130432 0 2570566.4457130432 12877936.51830101 0 0 0 0 2109754.2255923008 -2042619.1689343154 0 -2042619.1689343154 4046711.3388973251 0 0 0 0 114839871.6972755 -178216064.53474808 0 -178216064.53474808 336081942.9497757 0 0 0 0 -113058659.36290437 142601885.8579216 0 142601885.8579216 15003086.303855896 0 0 0 0 190448979.39291167 -45016182.579490662 0 -45016182.579490662 -64779068.550117493 0 0 0 0 1107663.4488550103 -260576.57490903139 0 -260576.57490903139 2247825.9524669424 0 0 0 0 230918083.44389641 122806410.86113739 0 122806410.86113739 5884165.1955604553 0 0 0 0 1766447.7587290548 383713.94247960672 0 383713.94247960672 3769229.741194725 0 0 0 0 -92058258.432216346 71580130.192447662 0 71580130.192447662 888303125.57947159 0 0 0 0 912440.26297259552 -1886024.1704581976 0 -1886024.1704581976 2438542.141822122 0 0 0 0 -61108103.936381608 53708684.535022736 0 53708684.535022736 863061933.02828217 0 0 0 0 424901.15516528487 2202940.4783477783 0 2202940.4783477783 14525381.516525269 0 0 0 0 409736.1601241827 2943413.9498100281 0 2943413.9498100281 18764683.392967224 0 0 0 0 726329.1994702518 -5444451.7167282104 0 -5444451.7167282104 11344451.578872681 0 0 0 0 -3199391.2378905416 -3168074.436296463 0 -3168074.436296463 23068384.26902771 0 0 0 0 6946238.0679742694 12301206.832588196 0 12301206.832588196 28961631.060138702 0 0 0 0 4390097.9138104171 11136392.024902344 0 11136392.024902344 35594484.414299011 0 0 0 0 15818532.390492819 5375822.0790557861 0 5375822.0790557861 19416012.721511841 0 0 0 0 9176748.6253235042 6285142.6477813721 0 6285142.6477813721 16791546.409576416 0 0 0 0 13927885.165629622 10757045.937755585 0 10757045.937755585 19105329.163459778 0 0 0 0 8748346.1525099874 9313173.1658096313 0 9313173.1658096313 12915030.703231812 0 0 0 0 2263713.6876828372 3319962.7846183777 0 3319962.7846183777 16119479.516357422 0 0 0 0 2488476.8902502358 6608809.9737758636 0 6608809.9737758636 8173152.6733856201 0 0 0 0 -21095.749455094337 4211105.6271514893 0 4211105.6271514893 15873295.713628769 0 0 0 0 2889193.116345048 9452659.8675193787 0 9452659.8675193787 20501666.738494873 0 0 0 0 -45234315.164944649 60437318.105312347 0 60437318.105312347 33178214.067001343 0 0 0 0 831853.51434499584 14348122.25750196 0 14348122.25750196 12750806.419746399 0 0 0 0 4615845.5868912227 9028315.3311065063 0 9028315.3311065063 9448226.7432617471 0 0 0 0 517051.97430860251 9326379.1721544266 0 9326379.1721544266 6187005.6983642578 0 0 0 0 -187733.28651496122 239352.0034949854 0 239352.0034949854 2515007.3341662623 0 0 0 0 -719647.2168481946 13208278.890487671 0 13208278.890487671 19467177.971405029 0 0 0 0 3936247.079118669 6956844.5805130005 0 6956844.5805130005 16071105.216056824 0 0 0 0 8676719.5466510653 7821397.6775665283 0 7821397.6775665283 13274324.548095703 0 0 0 0 14055755.024952233 6807418.5112380981 0 6807418.5112380981 13788932.331634521 0 0 0 0 8606685.9848060962 7888161.7975740433 0 7888161.7975740433 15556204.685958862 0 0 0 0 9316615.3090325892 10451404.657928467 0 10451404.657928467 14940343.717224121 0 0 0 0 1073559.3731987774 12089926.515106201 0 12089926.515106201 16530931.982513428 0 0 0 0 43420030.578536034 30982293.081569672 0 30982293.081569672 -115012794.9226532 0 0 0 0 -282169541.49922365 93078251.891626358 0 93078251.891626358 3010740.3007965088 0 0 0 0 -131674413.46235347 -63574911.619428635 0 -63574911.619428635 -147664544.01660156 0 0 0 0 4247604.0866469005 4695850.7103485167 0 4695850.7103485167 7397612.4781156629 0 0 0 0 -51710.631005465984 3951885.1945953369 0 3951885.1945953369 13754243.864364624 0 0 0 0 23413608.998700976 -45931392.15165329 0 -45931392.15165329 -86519812.09336853 0 0 0 0 608659.28461551666 124027065.72257233 0 124027065.72257233 -33078967.327821732 0 0 0 0 -40331763.913984179 90228706.792792797 0 90228706.792792797 130288311.39478302 0 0 0 0 -53545390.984867096 -18875132.378425598 0 -18875132.378425598 127837511.60135281 0 0 0 0 -3111268.0218687057 95520705.338111877 0 95520705.338111877 -222304084.32025337 0 0 0 0 23431197.557754517 -101564978.77541733 0 -101564978.77541733 235861518.40483093 0 0 0 0 1506592.2527114667 429034.19453539327 0 429034.19453539327 -472762.04941471666 0 0 0 0 5589245.2177678347 24544746.007553101 0 24544746.007553101 2993179.6472740173 0 0 0 0 -3703311.0302834511 89326198.823505402 0 89326198.823505402 144696647.69465256 0 0 0 0 19058287.176120341 38061923.905500889 0 38061923.905500889 -34064553.08480835 0 0 0 0 -249871.27992418967 812954.4785579294 0 812954.4785579294 -2533058.5454468112 0 0 0 0 -4475083.4110066891 5824534.0364685059 0 5824534.0364685059 23364963.136985779 0 0 0 0 -3726147.3081638291 13239716.103431001 0 13239716.103431001 925702.50729437172 0 0 0 0 -4945242.1310852058 1138009.8655398786 0 1138009.8655398786 7378890.6292700693 0 0 0 0 99036833.360561132 -43624243.825111389 0 -43624243.825111389 -61396139.609817505 0 0 0 0 3504374.6309890747 23966649.172382355 0 23966649.172382355 18915483.130001068 0 0 0 0 -3125133.4289754452 12744504.981118709 0 12744504.981118709 -3255725.579351671 0 0 0 0 10655960.82967326 18971716.870311737 0 18971716.870311737 21242026.09368515 0 0 0 0 -9220223.2731990814 29346068.28821373 0 29346068.28821373 70904217.017402649 0 0 0 0 5745711.2364503592 7722575.7825164795 0 7722575.7825164795 18820247.975420952 0 0 0 0 -3011195.4705611318 6512416.5918989182 0 6512416.5918989182 15915625.9766922 0 0 0 0 -734357.16983668564 8170849.9807393663 0 8170849.9807393663 12294944.315363459 0 0 0 0 6375368.6038457006 7696925.8122749329 0 7696925.8122749329 18655495.615486145 0 0 0 0 9306333.6941826716 7948377.6594848633 0 7948377.6594848633 15362338.835350037 0 0 0 0 -947880.3940500021 4276185.4267578125 0 4276185.4267578125 15101644.271728516 0 0 0 0 -6467285.9252858264 4516227.9143507183 0 4516227.9143507183 7614302.0946501382 0 0 0 0 -47440868.799754143 -35141629.48840332 0 -35141629.48840332 -21465816.273948669 0 0 0 0 -14519397.49320364 17561307.249053955 0 17561307.249053955 63547359.70765686 0 0 0 0 -9157177.6724581718 19159955.68390274 0 19159955.68390274 42513063.898191452 0 0 0 0 -4965635.0351985004 10591707.755452223 0 10591707.755452223 15341025.613763139 0 0 0 0 -5111044.3643689156 4386706.8859329224 0 4386706.8859329224 43670405.267835617 0 0 0 0 2747662.2006170051 -151320.17703853548 0 -151320.17703853548 15644345.999608826 0 0 0 0 -5093731.8050641669 12374503.932262365 0 12374503.932262365 26026979.900775664 0 0 0 0 5958696.1555272639 -1158912.6370849609 0 -1158912.6370849609 26664819.928146362 0 0 0 0 12950436.162785858 1028223.4774627686 0 1028223.4774627686 19342815.594028473 0 0 0 0 5918731.101839643 4399589.6654727459 0 4399589.6654727459 20357041.467056274 0 0 0 0 9613005.2171765864 4522807.3807678223 0 4522807.3807678223 16039581.970100403 0 0 0 0 13734537.209442109 -4466768.3302612305 0 -4466768.3302612305 15463670.835571289 0 0 0 0 12087501.934415311 -993810.11073493958 0 -993810.11073493958 15785333.830688477 0 0 0 0 3990102.9006802151 -1328434.4720652401 0 -1328434.4720652401 16019423.95080455 0 0 0 0 6210260.8158213254 -5203570.7929600477 0 -5203570.7929600477 27151584.430885315 0 0 0 0 323931.11633205414 -4017105.0163269043 0 -4017105.0163269043 73611521.817062378 0 0 0 0 5382851.2012073994 -6179783.8611621857 0 -6179783.8611621857 37650616.584381104 0 0 0 0 -2726933.9638795853 -10012986.411148071 0 -10012986.411148071 68631009.196304321 0 0 0 0 2404694.0234508514 -9943772.6107788086 0 -9943772.6107788086 75752265.751228333 0 0 0 0 -6051529.9621067047 -2389218.691368103 0 -2389218.691368103 16341747.353363991 0 0 0 0 -5044614.9508695602 8721767.0181884766 0 8721767.0181884766 43363682.052282333 0 0 0 0 -74067237.177686691 -3264306.8603897095 0 -3264306.8603897095 70204296.339729309 0 0 0 0 -2317577.3263736395 -1246175.0453950744 0 -1246175.0453950744 27406974.413568579 0 0 0 0 60959.388688536361 -548496.51391493529 0 -548496.51391493529 5979754.3383059446 0 0 0 0 1051979.7952659635 7045024.7130009271 0 7045024.7130009271 23864701.756792955 0 0 0 0 -27737109.961241245 17494533.382434845 0 17494533.382434845 51639340.869476318 0 0 0 0 2418676.5980157168 -16670904.23217069 0 -16670904.23217069 40821726.396368474 0 0 0 0 12323424.059707642 -2295382.2863540649 0 -2295382.2863540649 48088238.090321541 0 0 0 0 -10069197.72808075 25546671.314880371 0 25546671.314880371 55178108.192634583 0 0 0 0 -6664723.0025931736 4940327.627121523 0 4940327.627121523 29190964.152626127 0 0 0 0 -2594441.588016225 938024.35102869011 0 938024.35102869011 3470300.8367595933 0 0 0 0 -31903294.830966949 -17308402.458683014 0 -17308402.458683014 61611287.332420349 0 0 0 0 -13992297.455387115 -2385989.9163475037 0 -2385989.9163475037 113025817.61764383 0 0 0 0 -7385162.5050707897 1446358.2612346541 0 1446358.2612346541 11799632.832495024 0 0 0 0 4058144.309381485 -19386592.442586899 0 -19386592.442586899 99253469.088792801 0 0 0 0 -27017444.955604553 18941957.261005402 0 18941957.261005402 95814325.43378067 0 0 0 0 11900101.107561111 6928750.227973938 0 6928750.227973938 99511767.744094849 0 0 0 0 -4522189.7847614288 2708884.2557201385 0 2708884.2557201385 83393473.269935608 0 0 0 0 -8727250.3044204712 15986537.815788269 0 15986537.815788269 58075322.27009201 0 0 0 0 7309077.9753456116 -913148.60749435425 0 -913148.60749435425 48508313.910713196 0 0 0 0 4806300.2002639771 762142.76425170898 0 762142.76425170898 47460286.795219421 0 0 0 0 2790156.4646377563 -1927148.2869777679 0 -1927148.2869777679 50738736.014945984 0 0 0 0 2501189.8449859619 -8220312.3031730652 0 -8220312.3031730652 71701731.512063026 0 0 0 0 -2696085.8316488266 1125811.6617307663 0 1125811.6617307663 70030486.689033508 0 0 0 0 -36245499.511821747 -24382266.747983932 0 -24382266.747983932 50859487.12802887 0 0 0 0 1892131.6189037713 -4101204.6885404801 0 -4101204.6885404801 -617517.09727216139 0 0 0 0 16974291.78880167 -17337932.480241537 0 -17337932.480241537 57159411.699142456 0 0 0 0 8913538.5922660828 -14386000.123832703 0 -14386000.123832703 56990554.547008991 0 0 0 0 5960160.6010704041 -23561113.710370064 0 -23561113.710370064 38357954.394561768 0 0 0 0 4783251.0085639954 -3266083.9112434387 0 -3266083.9112434387 51496255.228069305 0 0 0 0 24742221.732650757 -37185241.555984497 0 -37185241.555984497 47347509.695549011 0 0 0 0 -13820141.116127968 -39628984.070184708 0 -39628984.070184708 47305541.938789368 0 0 0 0 -1571918.8667163849 -26857492.258907318 0 -26857492.258907318 41304893.655142784 0 0 0 0 -1131912.2688188553 -19273380.551742554 0 -19273380.551742554 43036541.261428833 0 0 0 0 4276929.1713981628 -27496748.148094177 0 -27496748.148094177 55147016.340083599 0 0 0 0 34353634.323867321 -22556910.874948502 0 -22556910.874948502 28290294.294372559 0 0 0 0 -56050926.151305676 -5447721.6632595062 0 -5447721.6632595062 1683292.1853179932 0 0 0 0 -57799253.374113083 -25507593.089981079 0 -25507593.089981079 18492009.200714111 0 0 0 0 -7366158.3992729187 -91647105.474302292 0 -91647105.474302292 15428901.937763214 0 0 0 0 2749679.3879473903 -6633129.7974167159 0 -6633129.7974167159 15247698.239997104 0 0 0 0 1771962.7825833843 -4940177.6780427136 0 -4940177.6780427136 18167915.177440856 0 0 0 0 9233325.427749604 -8000201.3735961914 0 -8000201.3735961914 19164354.653751373 0 0 0 0 -29468443.407841682 48207400.946702957 0 48207400.946702957 22873077.349311829 0 0 0 0 104815136.72044563 43792172.248121262 0 43792172.248121262 -37547771.946990967 0 0 0 0 -43441479.914095879 -20803005.691549301 0 -20803005.691549301 19823439.452598572 0 0 0 0 -594606.40483156522 -4213658.4289082512 0 -4213658.4289082512 18525905.94714196 0 0 0 0 10408412.203020111 -3961300.7610797882 0 -3961300.7610797882 16185037.817687988 0 0 0 0 929386.03996071219 -10835798.06473732 0 -10835798.06473732 20526319.903320312 0 0 0 0 18360722.615539551 -29916885.996868134 0 -29916885.996868134 22024655.520122528 0 0 0 0 1216780.036094185 -5127488.7882232592 0 -5127488.7882232592 8632856.0281475969 0 0 0 0 11790030.125616074 -5531067.2622470856 0 -5531067.2622470856 18133212.133399963 0 0 0 0 11199884.434762955 -31682098.347911835 0 -31682098.347911835 23043348.863135338 0 0 0 0 -22672451.67313385 1495758.5232410431 0 1495758.5232410431 23584318.214569092 0 0 0 0 18882933.864831924 -24651980.793575287 0 -24651980.793575287 29779761.981018066 0 0 0 0 20638393.043924332 -26679124.24023819 0 -26679124.24023819 -31307900.347728729 0 0 0 0 6024285.7855540803 -9887099.1101874951 0 -9887099.1101874951 12503099.233033217 0 0 0 0 -1444028.2571108714 1637307.5601480072 0 1637307.5601480072 1205561.9230816029 0 0 0 0 191661852.84812582 -64396367.863893867 0 -64396367.863893867 38065819.943466187 0 0 0 0 -18476713.784392357 -7218886.9655780792 0 -7218886.9655780792 3839167.1617126465 0 0 0 0 -43275866.803046227 -9611181.0189094543 0 -9611181.0189094543 8489919.8038024902 0 0 0 0 951283.50087146275 -24139641.108853146 0 -24139641.108853146 29783708.460185111 0 0 0 0 270663985.50682735 -81720211.173034668 0 -81720211.173034668 31880084.512988091 0 0 0 0 14143803.869061351 -12444618.457393646 0 -12444618.457393646 17721831.954772949 0 0 0 0 16670292.721407697 -4394594.1644859314 0 -4394594.1644859314 18020382.125137329 0 0 0 0 27945179.066996217 -14554958.245548248 0 -14554958.245548248 27127382.154270172 0 0 0 0 28009525.796383698 334589.36554962397 0 334589.36554962397 15739139.185829163 0 0 0 0 24826503.533455536 4860495.5260734558 0 4860495.5260734558 13399356.419502258 0 0 0 0 21883865.265140936 -1238367.1910705566 0 -1238367.1910705566 15598486.237976074 0 0 0 0 13439305.460577644 5577394.0248374939 0 5577394.0248374939 14142144.782842636 0 0 0 0 17857995.409348927 3564830.8905658722 0 3564830.8905658722 14299467.970680237 0 0 0 0 17122176.724691119 -841998.32238817215 0 -841998.32238817215 14436452.865844727 0 0 0 0 17802009.370994121 -7873416.6767311096 0 -7873416.6767311096 16168005.181201935 0 0 0 0 22131443.256147057 -401805.83806610107 0 -401805.83806610107 13972202.444248199 0 0 0 0 13274642.935860179 194082843.05701828 0 194082843.05701828 1056023040.7856102 0 0 0 0 717543.89879691566 86894397.323401138 0 86894397.323401138 410330879.72854614 0 0 0 0 143823493.71427473 36695984.088113785 0 36695984.088113785 79847688.62386322 0 0 0 0 123394.06126801553 -111500.06963739544 0 -111500.06963739544 772274.40537492931 0 0 0 0 -234819963.3284747 717377296.7937355 0 717377296.7937355 2198337520.079731 0 0 0 0 150977982.00539196 450512986.88674164 0 450512986.88674164 960144983.33463669 0 0 0 0 491516954.64468014 1162906459.399292 0 1162906459.399292 711416046.50327301 0 0 0 0 1789329.1413945931 2451990.6541087851 0 2451990.6541087851 5074712.5056214929 0 0 0 0 614845857.79656649 817384678.60917377 0 817384678.60917377 -57559805.715530396 0 0 0 0 77880141.112662256 -37353298.198872566 0 -37353298.198872566 -123200698.769104 0 0 0 0 95845767.937819779 -128613453.57278347 0 -128613453.57278347 55836183.908538818 0 0 0 0 -175415.57114604861 -112042.92819201946 0 -112042.92819201946 682087.60639883578 0 0 0 0 53038042.996822104 -95163799.077140808 0 -95163799.077140808 429751049.34254837 0 0 0 0 17136177.163201928 6351741.4376182556 0 6351741.4376182556 75883179.876277924 0 0 0 0 148066789.99350822 73832956.316093445 0 73832956.316093445 95148688.379402161 0 0 0 0 -216811680.41484046 -17223596.794441223 0 -17223596.794441223 138410543.56656027 0 0 0 0 -26739702.51732862 1171004.2775382996 0 1171004.2775382996 139751135.20241404 0 0 0 0 -137452105.79863381 -37193081.47403717 0 -37193081.47403717 -32761241.409454346 0 0 0 0 611081.72259287885 3217912.4232854433 0 3217912.4232854433 17091204.857569039 0 0 0 0 -267245027.99276471 91633692.708715439 0 91633692.708715439 98923623.5753479 0 0 0 0 21802226.970546264 -8701612.2158527374 0 -8701612.2158527374 4398803.9401092529 0 0 0 0 -13385504.14334549 13932602.381212234 0 13932602.381212234 24977286.473358154 0 0 0 0 -418050048.46292472 -2132050.9306297302 0 -2132050.9306297302 220489939.37143326 0 0 0 0 -464729992.9755249 302695364.66610718 0 302695364.66610718 -21517301.025039315 0 0 0 0 2953390.9335070532 5713417.2297948189 0 5713417.2297948189 10629752.818820074 0 0 0 0 -52614605.003130242 -582832806.64382553 0 -582832806.64382553 2201696171.1130829 0 0 0 0 -236142725.72351435 254910301.28325272 0 254910301.28325272 2201954543.4940109 0 0 0 0 -127033251.63222575 -149578155.00572777 0 -149578155.00572777 596487180.69262695 0 0 0 0 147164409.34030193 271807104.72172165 0 271807104.72172165 333425926.02627182 0 0 0 0 112593828.2598615 -164449054.26150894 0 -164449054.26150894 -37917346.771957397 0 0 0 0 153940626.60377526 -68666953.000305176 0 -68666953.000305176 -218777924.91138649 0 0 0 0 1342812859.6784151 -1234755939.7775126 0 -1234755939.7775126 515803134.11871338 0 0 0 0 344946179.17311591 612765485.23847961 0 612765485.23847961 732824029.96888733 0 0 0 0 1092569.7144489128 -1871197.6910396386 0 -1871197.6910396386 6876557.6249147356 0 0 0 0 48387118.969303876 -1379592780.9055023 0 -1379592780.9055023 2201254745.375524 0 0 0 0 -375191302.43780315 -506209064.70002174 0 -506209064.70002174 1171479551.7231522 0 0 0 0 -201029952.12770724 -1208538795.734642 0 -1208538795.734642 516658575.00554657 0 0 0 0 404472942.064399 -1514451658.4324646 0 -1514451658.4324646 667461355.82679749 0 0 0 0 835886606.35192692 -758674941.59347534 0 -758674941.59347534 72098696.733688354 0 0 0 0 336603553.52379435 -560804744.75075531 0 -560804744.75075531 1070614086.2875366 0 0 0 0 771704855.62184167 -616717259.4028511 0 -616717259.4028511 931896087.45544434 0 0 0 0 781087181.19116271 -654197073.42724609 0 -654197073.42724609 1055617296.7247009 0 0 0 0 138397083.00639755 -126638733.24580765 0 -126638733.24580765 1290762024.9686737 0 0 0 0 335689.65068818419 270328.74787982553 0 270328.74787982553 1806678.2409534305 0 0 0 0 -31505789.439745545 54366447.46660614 0 54366447.46660614 6879288.6269822121 0 0 0 0 350361230.73467183 -209503221.97232819 0 -209503221.97232819 24619331.866096497 0 0 0 0 106602921.01221609 424693855.64417267 0 424693855.64417267 554545708.18917847 0 0 0 0 -75450782.576505005 -75521169.469860077 0 -75521169.469860077 -38208758.92338562 0 0 0 0 -561837.78614710865 -1874190.4403634781 0 -1874190.4403634781 16077086.843868315 0 0 0 0 -634569648.17867851 66080792.483371735 0 66080792.483371735 691284197.6739006 0 0 0 0 -1783969.5870551562 -1938408.8039044291 0 -1938408.8039044291 4881739.9801322594 0 0 0 0 -86553320.296823978 -34464439.065999031 0 -34464439.065999031 -117807120.96322632 0 0 0 0 -2673237.9599232227 -4541767.8485527039 0 -4541767.8485527039 16152174.482744217 0 0 0 0 -1872.9582363881127 3532743.070727719 0 3532743.070727719 15078292.445226699 0 0 0 0 -17763059.185087204 -23881774.2215271 0 -23881774.2215271 19103845.486557007 0 0 0 0 -1420871.0919385278 -1705351.7747694626 0 -1705351.7747694626 6483967.6261645332 0 0 0 0 -263420175.26375335 -108981763.70116043 0 -108981763.70116043 1559882.126663208 0 0 0 0 -215488671.4825058 361797568.13206482 0 361797568.13206482 -273384072.82435608 0 0 0 0 61828754.514137506 -256372374.14784241 0 -256372374.14784241 -460723100.80250359 0 0 0 0 -41786380.036102653 41270823.075656891 0 41270823.075656891 48829213.380653381 0 0 0 0 16041940.252116799 -51583391.175239563 0 -51583391.175239563 77003582.411712646 0 0 0 0 245724784.0855155 536505348.83020782 0 536505348.83020782 -253584794.01533508 0 0 0 0 2026588.6842635088 751479.64161095768 0 751479.64161095768 733344.07961392403 0 0 0 0 16977998.285409369 7708960.7033810019 0 7708960.7033810019 1952325.4692077637 0 0 0 0 -1356488.0581127745 -2804853.9402477741 0 -2804853.9402477741 4483936.5319310427 0 0 0 0 -384304.09899164387 3272419.1174263912 0 3272419.1174263912 28114369.401583672 0 0 0 0 -26174978.392930172 -36017149.536739111 0 -36017149.536739111 64782120.977218628 0 0 0 0 -49552077.618983984 -8802181.8814201355 0 -8802181.8814201355 97083189.520336151 0 0 0 0 19970029.720190473 -24494429.639280796 0 -24494429.639280796 60518722.80871582 0 0 0 0 12146192.609804794 76556955.106860638 0 76556955.106860638 29108232.130172729 0 0 0 0 -15904267.498145103 24578640.637393951 0 24578640.637393951 29361116.424377441 0 0 0 0 -16173024.289314806 24287395.490856171 0 24287395.490856171 102309231.44474411 0 0 0 0 -99585.124037623405 25794596.959327698 0 25794596.959327698 5693571.6846485138 0 0 0 0 -3357608.3878747225 17975346.780950546 0 17975346.780950546 21952754.918640137 0 0 0 0 636108.85354165512 10118239.293078192 0 10118239.293078192 -5473425.0839065537 0 0 0 0 20209778.50570178 22506766.577613831 0 22506766.577613831 34361697.044364929 0 0 0 0 202215.82740731444 938915.65663837641 0 938915.65663837641 1745166.8391862065 0 0 0 0 -2456386.6223817766 34272567.645609856 0 34272567.645609856 -38368547.815612793 0 0 0 0 336558.29300718126 2441018.9523518067 0 2441018.9523518067 283292.7695003897 0 0 0 0 -28977393.72203362 26749378.564516068 0 26749378.564516068 33991222.525064468 0 0 0 0 -1774910.8229696031 2928175.1435320801 0 2928175.1435320801 24366413.164884523 0 0 0 0 -116903670.86647058 -16674355.32437706 0 -16674355.32437706 30913569.775741577 0 0 0 0 -197583623.34115881 20013719.237119436 0 20013719.237119436 70954877.763198853 0 0 0 0 -75610365.654502392 515528.67980194092 0 515528.67980194092 131482515.25146484 0 0 0 0 -74010017.34809804 3999421.5936584473 0 3999421.5936584473 -32811483.867675781 0 0 0 0 -279533403.46889687 -60629844.265258789 0 -60629844.265258789 10253428.622314453 0 0 0 0 26539146.407847404 -57225861.03730011 0 -57225861.03730011 68771191.105760574 0 0 0 0 -93696509.22892046 22142289.721042633 0 22142289.721042633 90296380.085906982 0 0 0 0 -70126236.618363917 -26866153.687444687 0 -26866153.687444687 -19465925.184860229 0 0 0 0 -145328039.89615434 11407304.04579258 0 11407304.04579258 12560352.02280426 0 0 0 0 -132890531.94898438 25158509.248218536 0 25158509.248218536 27613517.506346703 0 0 0 0 -149246644.36407995 7376892.4041595459 0 7376892.4041595459 19417722.97089386 0 0 0 0 -177576.75983926863 -385131.09033259004 0 -385131.09033259004 638130.49333677441 0 0 0 0 -166346513.00352326 -60453998.901870728 0 -60453998.901870728 -26433080.59980011 0 0 0 0 -12085799.363762632 36232370.431803703 0 36232370.431803703 46189751.17691803 0 0 0 0 -30408971.867105305 -68558970.868164062 0 -68558970.868164062 3182814.5792198181 0 0 0 0 112687.9670139479 -796986.15351536125 0 -796986.15351536125 1046073.9562079906 0 0 0 0 -21339087.617411733 -49588803.165710449 0 -49588803.165710449 -10347683.438461304 0 0 0 0 -40962370.799765348 5605447.0170860291 0 5605447.0170860291 14548128.156845093 0 0 0 0 -4684764.2452347279 -26011931.689811707 0 -26011931.689811707 20924270.500061035 0 0 0 0 -34484225.046005964 -22812657.171503067 0 -22812657.171503067 151654288.90220642 0 0 0 0 -25472200.354696751 -72124665.90329361 0 -72124665.90329361 209781641.34972382 0 0 0 0 61543535.283977985 -106049769.12049103 0 -106049769.12049103 151678823.3116934 0 0 0 0 5833855.4253797531 -112817198.61364746 0 -112817198.61364746 254737580.88687134 0 0 0 0 2462022.2977832556 8764540.2097091675 0 8764540.2097091675 28270491.554718018 0 0 0 0 87781.087633248651 -450565.40832571685 0 -450565.40832571685 637176.87694965303 0 0 0 0 -26880760.849157028 -48502676.939722538 0 -48502676.939722538 286392009.82559967 0 0 0 0 71331922.3295964 -158536204.05596924 0 -158536204.05596924 238447148.27577782 0 0 0 0 97619643.026369482 -142104184.00484085 0 -142104184.00484085 158840374.29188156 0 0 0 0 -44596.825964628253 -130398333.60090785 0 -130398333.60090785 263547373.54429626 0 0 0 0 295713.500491718 -130287697.04785919 0 -130287697.04785919 263581339.10990334 0 0 0 0 59839964.088399798 105540882.41944885 0 105540882.41944885 149794916.42498016 0 0 0 0 67885906.934557632 -140219915.38090515 0 -140219915.38090515 44605013.579174042 0 0 0 0 -48565471.168985963 23917130.612085342 0 23917130.612085342 111979492.67887878 0 0 0 0 61821244.181397043 125383704.94661522 0 125383704.94661522 131214878.59297943 0 0 0 0 175458.08453915731 116624.53298553079 0 116624.53298553079 515350.88302212954 0 0 0 0 -2892572.1810525432 -12478116.197296143 0 -12478116.197296143 59627755.36977005 0 0 0 0 -1459532.1801607534 -15998475.818548203 0 -15998475.818548203 64848234.020202637 0 0 0 0 -7656.2336796504442 -14313956.907394409 0 -14313956.907394409 60791844.889587402 0 0 0 0 17157.575197252019 -12872991.665602975 0 -12872991.665602975 52994500.880096436 0 0 0 0 -327460.82783098274 -261422.91078682244 0 -261422.91078682244 237355.06684395671 0 0 0 0 2655170.1231042258 -17272638.773269653 0 -17272638.773269653 57631050.015888214 0 0 0 0 2623928.887274384 -20338551.289545059 0 -20338551.289545059 61806210.648361206 0 0 0 0 -1209638.0775283622 -254311.89257048815 0 -254311.89257048815 501954.82405658066 0 0 0 0 60726400.371560335 -194206432.58119583 0 -194206432.58119583 299852966.90290833 0 0 0 0 81857320.294286236 -81294797.469843388 0 -81294797.469843388 201425488.81585693 0 0 0 0 5420795.0450418238 -27357417.101393998 0 -27357417.101393998 59311865.754272461 0 0 0 0 5188805.119944036 -21583764.565242767 0 -21583764.565242767 62276729.748161316 0 0 0 0 -3962734.7641573325 -18475928.300376892 0 -18475928.300376892 62891611.14041996 0 0 0 0 121242.0729939267 -24714356.925174713 0 -24714356.925174713 72304051.917762756 0 0 0 0 -8577311.9124355465 -14287423.464317322 0 -14287423.464317322 70571212.732413292 0 0 0 0 -20110126.541018516 -21378383.914001465 0 -21378383.914001465 89149603.696944237 0 0 0 0 23058651.197539642 -41714008.929044724 0 -41714008.929044724 13298324.329307556 0 0 0 0 -1423349.8253300837 1059810.0898762345 0 1059810.0898762345 1562523.4546080083 0 0 0 0 -2210046.8156614304 -30631217.726932526 0 -30631217.726932526 63103273.380672455 0 0 0 0 3575042.919252038 -42123955.321685791 0 -42123955.321685791 85760630.805468559 0 0 0 0 4265388.189163208 -188751306.13360214 0 -188751306.13360214 382981277.9540329 0 0 0 0 -1739980.1958716311 165366.74716760218 0 165366.74716760218 976835.23382759094 0 0 0 0 -109091169.04589915 -117516012.83596039 0 -117516012.83596039 201392325.06732559 0 0 0 0 -26147048.398822784 -85096622.419815063 0 -85096622.419815063 100422369.62856293 0 0 0 0 -226830152.41817299 -120237072.32289791 0 -120237072.32289791 96365759.857818604 0 0 0 0 -267540821.56219959 166828321.10957336 0 166828321.10957336 70480938.202705383 0 0 0 0 -117256258.28200316 64157510.608795166 0 64157510.608795166 132556391.86175537 0 0 0 0 -87543186.043936968 -19421955.887332916 0 -19421955.887332916 320784895.97383118 0 0 0 0 74370591.989525497 -81126053.760015488 0 -81126053.760015488 202321766.37839508 0 0 0 0 1152133.3854477406 -143174619.67507172 0 -143174619.67507172 383006040.74980545 0 0 0 0 40879378.435365677 -43324614.892784119 0 -43324614.892784119 218413699.2175293 0 0 0 0 -24255913.753384918 19209070.42159462 0 19209070.42159462 204809911.50325012 0 0 0 0 -103560666.54910851 52519712.244430542 0 52519712.244430542 141510478.08432007 0 0 0 0 10647135.524966598 -39270921.485801697 0 -39270921.485801697 197438988.70204163 0 0 0 0 -84962694.708517075 32564068.345062256 0 32564068.345062256 138772458.02513123 0 0 0 0 924990.04167042673 21062470.080698013 0 21062470.080698013 59407125.84664917 0 0 0 0 -88013336.502497673 45296144.453720093 0 45296144.453720093 118593453.9992981 0 0 0 0 -10067951.434559882 21195496.661952972 0 21195496.661952972 95010637.429023743 0 0 0 0 9224410.3584642708 23400082.438909531 0 23400082.438909531 94843529.396217346 0 0 0 0 -310836.54985956848 475198.54504966736 0 475198.54504966736 201247639.94916534 0 0 0 0 1997868.4596441984 -15585012.267837524 0 -15585012.267837524 182008399.01281738 0 0 0 0 -470602.95447796944 2163186.3289240822 0 2163186.3289240822 2108283.101105243 0 0 0 0 13381584.251268208 -80606907.538532257 0 -80606907.538532257 258626537.43424606 0 0 0 0 31218099.986625776 -83400612.553865433 0 -83400612.553865433 110742933.0771637 0 0 0 0 91130891.689540938 14340684.30065155 0 14340684.30065155 -10516844.610565186 0 0 0 0 -48839685.559461854 -26342211.63584137 0 -26342211.63584137 264428364.63866425 0 0 0 0 55777996.178874798 -182638139.63150406 0 -182638139.63150406 262747166.73987579 0 0 0 0 -17819873.561334804 -45497673.198246002 0 -45497673.198246002 187073135.2903862 0 0 0 0 -9634938.2835746258 68580485.712936401 0 68580485.712936401 139502731.41799927 0 0 0 0 13877145.559787508 31127117.426893234 0 31127117.426893234 57647238.910446167 0 0 0 0 -4674278.4500652552 -2790218.1968612671 0 -2790218.1968612671 7444481.9442987442 0 0 0 0 21091553.921017468 60570691.76666832 0 60570691.76666832 16095901.966972351 0 0 0 0 369041.16147998825 300222.5992968753 0 300222.5992968753 882881.72129893303 0 0 0 0 -31335717.126155317 -1026547.0729236603 0 -1026547.0729236603 21295160.274032593 0 0 0 0 -10892650.566494167 -640478.50372314453 0 -640478.50372314453 16073444.621490479 0 0 0 0 -24302556.500689387 -2400906.4087677002 0 -2400906.4087677002 21526961.262916565 0 0 0 0 -11797981.571991086 -4270580.9779510498 0 -4270580.9779510498 14379992.641639709 0 0 0 0 -24576404.006763577 52844.564056396484 0 52844.564056396484 14835688.819946289 0 0 0 0 5265855.8453695253 2255952.5812931061 0 2255952.5812931061 19965349.56842041 0 0 0 0 -20897051.031601965 -731625.12371063232 0 -731625.12371063232 19811746.457672119 0 0 0 0 5567470.861862123 -187465.18566131592 0 -187465.18566131592 11875748.744087219 0 0 0 0 -12994491.818670429 476567.08782291412 0 476567.08782291412 21477925.343856812 0 0 0 0 4960455.4483617395 8723821.0741968155 0 8723821.0741968155 31167593.726394653 0 0 0 0 7362799.3705238104 -714532.11114501953 0 -714532.11114501953 17822352.652687073 0 0 0 0 18684571.310631573 12588258.819358826 0 12588258.819358826 13004884.100967407 0 0 0 0 -11032638.041592758 1970343.1734499931 0 1970343.1734499931 25750112.72303772 0 0 0 0 10343555.189716369 9325730.9514312744 0 9325730.9514312744 30094152.14440155 0 0 0 0 9581091.3954912201 2290492.3230781555 0 2290492.3230781555 36380843.009292603 0 0 0 0 10372635.362708598 15853296.493637085 0 15853296.493637085 42424815.724571228 0 0 0 0 11571066.714494079 1510128.822845459 0 1510128.822845459 19077008.313072205 0 0 0 0 17651097.258975446 -3387569.1473388672 0 -3387569.1473388672 14502784.50642395 0 0 0 0 8440143.7168305516 -4822060.0531921387 0 -4822060.0531921387 28202133.105355263 0 0 0 0 8295717.1419525594 -1362088.0200386047 0 -1362088.0200386047 27826232.169733047 0 0 0 0 3238646.3903095387 2567632.922908783 0 2567632.922908783 41449732.838935852 0 0 0 0 -586217.95945500955 8619475.4700260162 0 8619475.4700260162 62997078.377449036 0 0 0 0 -8188961.7132630646 -5910424.1844520569 0 -5910424.1844520569 82127649.930316925 0 0 0 0 -2701195.6555384994 7713671.7178115845 0 7713671.7178115845 81293917.128738403 0 0 0 0 1539255.9713495076 5886391.3674507141 0 5886391.3674507141 56864560.721294403 0 0 0 0 -7960198.1365368962 -17339505.016525269 0 -17339505.016525269 77722029.72064209 0 0 0 0 -5525129.1565506458 -14176252.163192749 0 -14176252.163192749 67981817.504291534 0 0 0 0 -7140554.9937669933 -6041126.856338501 0 -6041126.856338501 55686635.895019531 0 0 0 0 -980103.66703525186 -4399620.6360092163 0 -4399620.6360092163 46082115.897941589 0 0 0 0 -4057211.172007367 -965576.24335479736 0 -965576.24335479736 57074714.537106514 0 0 0 0 573443.64896252751 -4926787.3726654053 0 -4926787.3726654053 30873991.165512085 0 0 0 0 -1098200.8739995137 1359577.7328453064 0 1359577.7328453064 34579716.262836456 0 0 0 0 -3621135.3238819242 -6838233.1118354797 0 -6838233.1118354797 42549142.807487488 0 0 0 0 -3951390.6719660517 -2530456.0437221527 0 -2530456.0437221527 41949210.756820679 0 0 0 0 -2775155.8947988069 -6466601.2302932739 0 -6466601.2302932739 33138411.522926331 0 0 0 0 -4580399.0584942773 -949955.98344802856 0 -949955.98344802856 29514816.006729126 0 0 0 0 -4413.6213924873673 -5394786.8392181396 0 -5394786.8392181396 26849289.107963562 0 0 0 0 -4814204.7356612533 -1831828.4042005539 0 -1831828.4042005539 38959685.130264282 0 0 0 0 -1678.2317816859977 -8327347.944316864 0 -8327347.944316864 41457359.798719406 0 0 0 0 -6491730.3412574874 -6754754.9670543671 0 -6754754.9670543671 54437958.639308929 0 0 0 0 -1926930.0516288169 -8692136.6791229248 0 -8692136.6791229248 53550836.12247467 0 0 0 0 -6741514.6236979002 -9662073.5495986938 0 -9662073.5495986938 60239041.243980408 0 0 0 0 -4919.7940890804357 -12528960.945850274 0 -12528960.945850274 58384061.386734009 0 0 0 0 2383465.5008401871 38491704.19852066 0 38491704.19852066 161613009.55768299 0 0 0 0 -121642233.16176033 30287797.853103638 0 30287797.853103638 297124123.92100525 0 0 0 0 1374654.8729529756 -810856.17520675203 0 -810856.17520675203 38125894.591193616 0 0 0 0 -2486183.0258661653 -153511.78190200776 0 -153511.78190200776 13395051.31459048 0 0 0 0 290335352.2291261 418210148.7391777 0 418210148.7391777 -110650265.90214539 0 0 0 0 -150760657.48444438 109178457.86253357 0 109178457.86253357 -7910739.502243042 0 0 0 0 -43347746.446423769 10070933.080574989 0 10070933.080574989 45641616.852890015 0 0 0 0 384227533.53565478 -136768188.02645874 0 -136768188.02645874 -39370832.251888275 0 0 0 0 -543090901.42253256 29559149.999633789 0 29559149.999633789 161467481.59427929 0 0 0 0 86814518.347467899 -41810948.971290588 0 -41810948.971290588 143398260.43999863 0 0 0 0 -5104152.2977352738 293843617.09877157 0 293843617.09877157 607895927.57226562 0 0 0 0 323644990.01885134 418275401.48085451 0 418275401.48085451 322236599.32772827 0 0 0 0 -150895612.08748785 42461573.356223397 0 42461573.356223397 179177889.15611267 0 0 0 0 -541894.66523766518 -94627746.729011536 0 -94627746.729011536 61444379.805213928 0 0 0 0 -128820985.8544209 22643649.767539978 0 22643649.767539978 154727025.35351562 0 0 0 0 -18011891.298700452 -24863995.515304565 0 -24863995.515304565 77414980.143211365 0 0 0 0 -157312347.37292337 -8359289.7826004028 0 -8359289.7826004028 132194494.71144104 0 0 0 0 -2881548.0730519537 -5684559.8580138851 0 -5684559.8580138851 58566167.078471862 0 0 0 0 -3940856.496796228 -5501548.5068799593 0 -5501548.5068799593 20575412.401671007 0 0 0 0 -14248469.051890254 -17345801.154920578 0 -17345801.154920578 92319954.565135956 0 0 0 0 -1957262.2366601229 -7300250.5667591095 0 -7300250.5667591095 76844765.211263657 0 0 0 0 7986055.4861726165 -29272224.160634995 0 -29272224.160634995 109683296.07914734 0 0 0 0 4155020.3846008852 -3316379.1439772733 0 -3316379.1439772733 11230340.323004352 0 0 0 0 -3122576.5129680634 -33105492.444004059 0 -33105492.444004059 137290214.15506363 0 0 0 0 2226561.359099865 -9505450.146396637 0 -9505450.146396637 42995944.886032104 0 0 0 0 -8085119.5499706855 3617986.0750257531 0 3617986.0750257531 22500460.93569155 0 0 0 0 -6402805.3836414814 3382697.0663728714 0 3382697.0663728714 41725918.24662137 0 0 0 0 -9709357.1816191077 3815453.1306694746 0 3815453.1306694746 41684182.383119583 0 0 0 0 2366389.6618432999 -9352777.5195426941 0 -9352777.5195426941 38769929.076519012 0 0 0 0 -4775686.8812942076 2566205.8235316854 0 2566205.8235316854 40087677.226307884 0 0 0 0 -1460021.0042841434 262777.96440124512 0 262777.96440124512 34328055.158406258 0 0 0 0 -9439018.7218543291 -212270.61358976364 0 -212270.61358976364 72455756.327823639 0 0 0 0 153872.52684831619 7497081.4143877029 0 7497081.4143877029 72880895.1537323 0 0 0 0 -8358722.7098305495 2082438.5866273753 0 2082438.5866273753 43751091.631146125 0 0 0 0 -10156907.868289351 -2932326.506234169 0 -2932326.506234169 68534091.069490433 0 0 0 0 -7329872.9309902191 3689309.7903251648 0 3689309.7903251648 68300115.900012672 0 0 0 0 -10237995.93973875 -1133536.0739021301 0 -1133536.0739021301 78596713.347361565 0 0 0 0 -12759546.089113951 -840151.01332378387 0 -840151.01332378387 77816867.617013931 0 0 0 0 -12528572.973046526 3766385.5275049508 0 3766385.5275049508 73890680.126708984 0 0 0 0 -8142867.3940372467 -2467014.0988483429 0 -2467014.0988483429 75188121.233949661 0 0 0 0 -41517308.332208157 -1914441.2572860718 0 -1914441.2572860718 9772135.9558410645 0 0 0 0 -56371205.815301895 -14898075.20728302 0 -14898075.20728302 1752757.9004669189 0 0 0 0 -14041029.131574541 20741058.831225246 0 20741058.831225246 41305484.107188664 0 0 0 0 -6646733.3536942005 1828852.5495615005 0 1828852.5495615005 69481133.271938324 0 0 0 0 -7721506.5129952431 -1867973.6414842606 0 -1867973.6414842606 69341782.400798798 0 0 0 0 3173304.5226041619 -913060.7297141985 0 -913060.7297141985 5492585.7255769074 0 0 0 0 -5909229.4429826736 799460.11889648438 0 799460.11889648438 13260860.289245605 0 0 0 0 -4326090.0160056055 -2023136.6661644913 0 -2023136.6661644913 31451967.899214175 0 0 0 0 178465.47290417412 2132334.9396074153 0 2132334.9396074153 14719063.192442507 0 0 0 0 3298586.36525774 3464046.0210266113 0 3464046.0210266113 29673395.390357971 0 0 0 0 -4440680.3490943909 -11054247.349884033 0 -11054247.349884033 46634932.252861261 0 0 0 0 -10108391.359384537 4775434.4757938385 0 4775434.4757938385 30612318.894439697 0 0 0 0 -2934194.4529728889 12256622.116104126 0 12256622.116104126 50057891.130821228 0 0 0 0 10016469.350394487 9850937.1096801758 0 9850937.1096801758 19536110.330001831 0 0 0 0 -7046372.5335538089 16769435.956226945 0 16769435.956226945 21703251.005737305 0 0 0 0 -5612407.7085649911 6214179.4143208712 0 6214179.4143208712 33339684.125005007 0 0 0 0 -7677343.5985164642 1413496.4275856018 0 1413496.4275856018 20462741.911003113 0 0 0 0 -5373668.6075445367 15657856.085954361 0 15657856.085954361 27044439.351997972 0 0 0 0 -4401503.9318209412 9593570.8518920448 0 9593570.8518920448 14561436.085054398 0 0 0 0 -1564556.7801568618 9626624.0292403102 0 9626624.0292403102 7726005.4255786091 0 0 0 0 -31923167.863555908 -2109522.3028259277 0 -2109522.3028259277 -25508101.820495605 0 0 0 0 -41782831.137506485 -1088145.3215103149 0 -1088145.3215103149 11865751.06036377 0 0 0 0 1556360.2459567925 -3278107.0079528317 0 -3278107.0079528317 20028316.918627769 0 0 0 0 -19111960.671242088 4642410.1257247925 0 4642410.1257247925 20072563.57913208 0 0 0 0 14581778.971562862 11528032.004730225 0 11528032.004730225 30450493.128601074 0 0 0 0 5286328.1605486684 -10027924.890393317 0 -10027924.890393317 35568089.871483043 0 0 0 0 -7119148.8499377789 -17122016.192952778 0 -17122016.192952778 63359091.416621253 0 0 0 0 -13920903.056202412 3560510.0283355713 0 3560510.0283355713 48410133.565238953 0 0 0 0 -26894688.64509964 -14307912.274604797 0 -14307912.274604797 46780031.394195557 0 0 0 0 -37011735.394742012 -12450980.811531067 0 -12450980.811531067 47478655.654968262 0 0 0 0 -20255695.625943244 8041300.7390031815 0 8041300.7390031815 45441179.69140625 0 0 0 0 -10599281.901571751 10857449.72996521 0 10857449.72996521 48322024.960601807 0 0 0 0 -17419621.027041197 6131650.3551368713 0 6131650.3551368713 54380994.154632568 0 0 0 0 -11369173.726327121 13628900.577038765 0 13628900.577038765 55463652.119644165 0 0 0 0 -12987343.751529217 9877856.9791641235 0 9877856.9791641235 52648557.595954895 0 0 0 0 -13868471.999018669 8607253.643951416 0 8607253.643951416 74358987.066703796 0 0 0 0 -7181073.3833270073 12058959.884632111 0 12058959.884632111 61108741.699424744 0 0 0 0 -14465178.59986949 -17199464.609149933 0 -17199464.609149933 110361671.27037048 0 0 0 0 -5404.4292368888855 -16098086.265899658 0 -16098086.265899658 71632117.139611721 0 0 0 0 -6305063.0570964813 -2574884.9532279968 0 -2574884.9532279968 42654720.856193542 0 0 0 0 -13989314.413200021 2883351.045876503 0 2883351.045876503 63390451.095153809 0 0 0 0 1607039.3396611214 3702783.1189193726 0 3702783.1189193726 80727184.056581497 0 0 0 0 -14834908.919788957 13250542.737630844 0 13250542.737630844 102142949.65851593 0 0 0 0 -14946784.089814425 -13486775.89591217 0 -13486775.89591217 98339212.153291702 0 0 0 0 -18872657.938720942 -6449627.5817337036 0 -6449627.5817337036 166854172.67100525 0 0 0 0 2962918.2824987769 20166340.563796997 0 20166340.563796997 105040583.5546608 0 0 0 0 18598392.809960008 -28754990.962917328 0 -28754990.962917328 149987583.39060974 0 0 0 0 50434453.243405581 18660214.985244751 0 18660214.985244751 -90526795.779556274 0 0 0 0 249389.98560498073 3178972.0097028613 0 3178972.0097028613 2738229.2419034317 0 0 0 0 -46723858.530352451 -44778595.221294403 0 -44778595.221294403 192906266.62479401 0 0 0 0 -49029444.149601519 30970053.755452618 0 30970053.755452618 102825721.05044556 0 0 0 0 27622638.158951044 -42379288.604263306 0 -42379288.604263306 63289774.051773071 0 0 0 0 4517155.8386244774 706038.78381347656 0 706038.78381347656 -10678519.590400696 0 0 0 0 -5662639.5836777687 -72629952.881988525 0 -72629952.881988525 125097388.74935532 0 0 0 0 -5458550.9995756149 -65545724.159244537 0 -65545724.159244537 48934440.738670349 0 0 0 0 -4489795.7851066589 -131564496.55302429 0 -131564496.55302429 141288416.36426544 0 0 0 0 -64204884.550510645 -93321495.466253281 0 -93321495.466253281 124692154.01213074 0 0 0 0 60923072.047548294 -120002112.5008316 0 -120002112.5008316 78975001.376625061 0 0 0 0 2188516.9087070841 -1981319.2402886972 0 -1981319.2402886972 3273700.7948829383 0 0 0 0 -405760183.84244537 -129587284.56227112 0 -129587284.56227112 830477735.66485596 0 0 0 0 55541877.774404526 -68714884.443035126 0 -68714884.443035126 15519615.433238983 0 0 0 0 -486031811.86562252 -636684145.95064163 0 -636684145.95064163 601141231.62380981 0 0 0 0 -58155005.478208065 -427626000.61599731 0 -427626000.61599731 -50192868.087905884 0 0 0 0 -15043286.130913258 89530956.123474121 0 89530956.123474121 118583558.97678757 0 0 0 0 -4334240.0543939322 -105643430.20046282 0 -105643430.20046282 151254977.02818298 0 0 0 0 291324584.82325745 476047130.57821655 0 476047130.57821655 259178726.12088203 0 0 0 0 -4491933.7905775122 966808.10192155093 0 966808.10192155093 2652372.996075578 0 0 0 0 945464.7827660623 2270556.1866388023 0 2270556.1866388023 3367361.1499284655 0 0 0 0 73938715.601255417 133003844.20484161 0 133003844.20484161 -24910759.561637878 0 0 0 0 36662324.391409397 378381759.92044067 0 378381759.92044067 336855706.03775406 0 0 0 0 116598081.93194246 -162200259.78103638 0 -162200259.78103638 171353550.56567764 0 0 0 0 120385826.00141251 -192100492.41810226 0 -192100492.41810226 407343129.58520508 0 0 0 0 31663276.126080036 -107053303.54229736 0 -107053303.54229736 135549887.13205719 0 0 0 0 22677991.724508286 -79096294.865512848 0 -79096294.865512848 77372701.565704346 0 0 0 0 -58547897.400529861 -38742817.074623108 0 -38742817.074623108 90436895.333515167 0 0 0 0 -95466498.158323288 -39663713.449684143 0 -39663713.449684143 102362194.24020386 0 0 0 0 -35673801.077545166 -86101678.443649292 0 -86101678.443649292 100366031.41043091 0 0 0 0 -56858027.472366333 -74813214.052001953 0 -74813214.052001953 105135647.4525528 0 0 0 0 -49750194.496887207 -46387518.72492981 0 -46387518.72492981 94448080.20904541 0 0 0 0 -24825579.755004525 -142685982.97612762 0 -142685982.97612762 201134923.32965088 0 0 0 0 -39629378.020775735 -109809539.10781097 0 -109809539.10781097 234255086.45651245 0 0 0 0 131239250.07642651 -167710503.56616211 0 -167710503.56616211 -167185954.42709351 0 0 0 0 -164203374.79647052 -158097353.87341309 0 -158097353.87341309 829825722.68781281 0 0 0 0 -18241127.469401002 -164650998.17315674 0 -164650998.17315674 271545950.41923714 0 0 0 0 -84777663.65604949 -153118772.10552979 0 -153118772.10552979 270257314.57016182 0 0 0 0 -4535256.2124357224 -41791954.788017273 0 -41791954.788017273 -15364145.344299316 0 0 0 0 34063736.693620205 -863516571.46295166 0 -863516571.46295166 282042544.3903656 0 0 0 0 -22387160.060389996 646818183.97540283 0 646818183.97540283 1409903785.921936 0 0 0 0 81340915.118527174 193035869.27828979 0 193035869.27828979 455705182.40396118 0 0 0 0 223971780.09807038 -121472869.0885582 0 -121472869.0885582 64932781.711006165 0 0 0 0 177826065.43960857 -48700090.048324585 0 -48700090.048324585 3797146.8475418091 0 0 0 0 1316106.4020955465 -3049192.5750391558 0 -3049192.5750391558 1591878.5591910928 0 0 0 0 87278889.62395525 42874252.570960999 0 42874252.570960999 25338757.728607178 0 0 0 0 -1551857.1386081111 -1052703.9968749657 0 -1052703.9968749657 2194038.6044876277 0 0 0 0 542478.07086393237 -70748237.313129425 0 -70748237.313129425 178323171.22271729 0 0 0 0 -2295877.4855650067 -15291098.464897156 0 -15291098.464897156 65911475.196920395 0 0 0 0 -78237526.53018555 44727549.035551071 0 44727549.035551071 288216498.82400513 0 0 0 0 -61365930.480231293 -97169606.718070984 0 -97169606.718070984 228186286.47061157 0 0 0 0 -61812021.937902331 -101636181.91944885 0 -101636181.91944885 377319062.35385132 0 0 0 0 -77726537.047043681 51810771.391143799 0 51810771.391143799 384876231.65321302 0 0 0 0 -5500183.9349300265 2071130.8273162842 0 2071130.8273162842 68345764.57311058 0 0 0 0 -1287946.0465657397 -273426.58567059785 0 -273426.58567059785 5317226.4596921206 0 0 0 0 -33961562.98346737 9268815.2434062958 0 9268815.2434062958 15502818.728179932 0 0 0 0 -5255559.2066748738 -1329533.5705280304 0 -1329533.5705280304 8698823.7552185059 0 0 0 0 -24625491.24132511 383004.74321556091 0 383004.74321556091 9728206.1500091553 0 0 0 0 -1722759.2939655804 -1524560.8310004212 0 -1524560.8310004212 7754402.8964489102 0 0 0 0 -3508884.5177143868 -2782755.4393426292 0 -2782755.4393426292 5767552.0735705495 0 0 0 0 -1118644.706220746 -10870001.811401367 0 -10870001.811401367 10057019.77796936 0 0 0 0 47685906.839980364 -16891555.192768097 0 -16891555.192768097 9923018.9895706177 0 0 0 0 -2104847.4825068936 -2326209.9651473463 0 -2326209.9651473463 2359866.4324430823 0 0 0 0 -26144740.991554499 2561690.3972930908 0 2561690.3972930908 26426455.759223938 0 0 0 0 -3941387.6032059193 -6758228.2687072754 0 -6758228.2687072754 -6497515.2534713745 0 0 0 0 -26776677.565583885 -5652644.5379943848 0 -5652644.5379943848 14868902.624469757 0 0 0 0 -4542185.7473009527 -14627367.921526432 0 -14627367.921526432 -36375725.472137451 0 0 0 0 -2361385.2749496768 -1601624.0574229583 0 -1601624.0574229583 11767734.312551022 0 0 0 0 -9633732.9396598339 -65078666.875497818 0 -65078666.875497818 72978773.222396851 0 0 0 0 -2236607.366414547 -43741076.406995773 0 -43741076.406995773 72377590.507461548 0 0 0 0 65637183.941822529 -53972052.673145294 0 -53972052.673145294 35489519.652244568 0 0 0 0 965010.76594149787 2837721.3378478438 0 2837721.3378478438 9725187.2885775566 0 0 0 0 32089098.247856617 -42613021.844324112 0 -42613021.844324112 31902819.179002762 0 0 0 0 24498389.994196773 -16209051.862054825 0 -16209051.862054825 -7977625.6216239929 0 0 0 0 20739506.247929573 -16052842.830190659 0 -16052842.830190659 35212348.914978027 0 0 0 0 4053312.0861773822 -16117518.799538521 0 -16117518.799538521 50508028.889186218 0 0 0 0 -69582115.77541995 -47097689.145269394 0 -47097689.145269394 69025853.845836639 0 0 0 0 -19030592.468712807 -37571869.565597534 0 -37571869.565597534 55337497.395884514 0 0 0 0 -23844290.912576139 -23816007.125582695 0 -23816007.125582695 46877914.073440552 0 0 0 0 -14387094.175446272 -38663236.47851944 0 -38663236.47851944 68224872.67931366 0 0 0 0 -5781420.7442291975 -39433299.95247221 0 -39433299.95247221 39850540.823963165 0 0 0 0 -24995028.532433987 -44930651.71481514 0 -44930651.71481514 55255632.119527817 0 0 0 0 -7778387.6544705033 -43855090.206706047 0 -43855090.206706047 47291685.069290161 0 0 0 0 -20211099.1503582 -23187640.433494568 0 -23187640.433494568 51880673.500255585 0 0 0 0 -27773369.949465752 -17283270.199611664 0 -17283270.199611664 75454490.923652649 0 0 0 0 190613.03130802419 -20662019.100957058 0 -20662019.100957058 59018759.29295738 0 0 0 0 -10762731.000264276 -4932466.7468577549 0 -4932466.7468577549 20367204.053710103 0 0 0 0 -32468957.247695923 -17136290.126787186 0 -17136290.126787186 77688581.384796143 0 0 0 0 -54761081.061664581 -12770648.470394135 0 -12770648.470394135 76966076.702102661 0 0 0 0 924887.58101654053 -42577410.560394287 0 -42577410.560394287 152762698.93025208 0 0 0 0 -9784494.1970197558 -28300305.314778328 0 -28300305.314778328 69879583.244033813 0 0 0 0 -364411.34238409996 -49705532.664287567 0 -49705532.664287567 67150556.033676147 0 0 0 0 -5695433.9316372341 9380489.8984910436 0 9380489.8984910436 35221177.207577571 0 0 0 0 -8982180.6464994159 675548.7858505249 0 675548.7858505249 78653380.404123306 0 0 0 0 -413963.22889328003 -6651138.5830078125 0 -6651138.5830078125 36551831.16934967 0 0 0 0 2327897.3448857735 -16986826.641427297 0 -16986826.641427297 18895979.01794371 0 0 0 0 -5378355.5520356325 -6257049.3060074393 0 -6257049.3060074393 36724667.742797434 0 0 0 0 -5431289.8460600609 -3983232.1897522733 0 -3983232.1897522733 64893775.218187958 0 0 0 0 -19932408.967485189 2933557.8899269104 0 2933557.8899269104 80820118.888065338 0 0 0 0 -112954609.76525384 -66100664.82491684 0 -66100664.82491684 54217528.738265991 0 0 0 0 -8812655.7684008032 -577348.57039546967 0 -577348.57039546967 57980804.780937195 0 0 0 0 52339991.170905113 -63355542.965492249 0 -63355542.965492249 -198168557.68884277 0 0 0 0 -22834252.403575242 25207397.375365257 0 25207397.375365257 166907881.37860107 0 0 0 0 -4078499.2202371843 -1972018.586727187 0 -1972018.586727187 20198873.975299276 0 0 0 0 27371856.763100863 57004253.31892395 0 57004253.31892395 245002199.47906494 0 0 0 0 -5457054.9849271774 -29426301.431983948 0 -29426301.431983948 113614129.5272541 0 0 0 0 20578477.355717838 -16764872.252988815 0 -16764872.252988815 113485380.23886871 0 0 0 0 -21741270.210166484 6613856.0404939651 0 6613856.0404939651 93476176.132980347 0 0 0 0 -7734466.3390619159 -6577925.7799682617 0 -6577925.7799682617 89423568.799552917 0 0 0 0 -9063055.9475538339 8436885.3123217523 0 8436885.3123217523 78036012.174957275 0 0 0 0 -8315040.6629587412 8459401.9946517944 0 8459401.9946517944 77597606.731735229 0 0 0 0 -7366890.6031184196 6902703.4100532532 0 6902703.4100532532 76440267.700847626 0 0 0 0 -10530159.914955735 5010900.6153907776 0 5010900.6153907776 76651684.921088219 0 0 0 0 -971604.56156373117 -4778684.5576857403 0 -4778684.5576857403 24924430.130946323 0 0 0 0 -10162653.424405217 7151971.6876220703 0 7151971.6876220703 81777432.444129944 0 0 0 0 -544111.80756511493 -1415675.848864492 0 -1415675.848864492 7825510.665625656 0 0 0 0 -24706890.483392119 28800946.459492683 0 28800946.459492683 43923434.433071136 0 0 0 0 -82585437.321796179 10497649.259807587 0 10497649.259807587 98243470.337734222 0 0 0 0 -30047772.407646656 -90110134.827074051 0 -90110134.827074051 -11903396.600270271 0 0 0 0 -93060238.742791057 -69050776.196902275 0 -69050776.196902275 89905339.140323639 0 0 0 0 -67341054.697338343 -42511763.190036774 0 -42511763.190036774 111403833.98594666 0 0 0 0 -11278068.499025822 -48587474.366315842 0 -48587474.366315842 60443007.118869781 0 0 0 0 -362173.02872991562 -49214410.037303925 0 -49214410.037303925 44305578.141113281 0 0 0 0 -168299.83192777634 -40511414.329719543 0 -40511414.329719543 48759469.172264099 0 0 0 0 -25788463.559229374 -65509425.49956131 0 -65509425.49956131 41404691.617328167 0 0 0 0 -7109140.6041107178 -31082144.715276718 0 -31082144.715276718 64962838.977682114 0 0 0 0 -37179878.99475956 -28075117.101770401 0 -28075117.101770401 105474043.43366241 0 0 0 0 -38239660.307185888 -20777189.856334686 0 -20777189.856334686 140461992.84095764 0 0 0 0 -30525956.888954401 -21724835.028047562 0 -21724835.028047562 100558747.00706482 0 0 0 0 -22169400.462353468 7147529.1467761993 0 7147529.1467761993 128488303.8333025 0 0 0 0 -28201323.336765826 3562554.1552381516 0 3562554.1552381516 128384071.9828949 0 0 0 0 -26446932.842369556 -601204.41565895081 0 -601204.41565895081 112443125.62991714 0 0 0 0 -16220818.183075905 -5957465.9136562347 0 -5957465.9136562347 114946777.18510151 0 0 0 0 -21214339.026006848 -21126326.493135452 0 -21126326.493135452 146733306.08569717 0 0 0 0 -47823618.534141302 -473615.07541465759 0 -473615.07541465759 135114894.3604393 0 0 0 0 -41879130.653646141 -11210869.895881891 0 -11210869.895881891 105272210.97210693 0 0 0 0 -1257014.2361729145 -3948422.6469287872 0 -3948422.6469287872 101286699.67795944 0 0 0 0 -24615746.972057819 24938566.65912056 0 24938566.65912056 106712232.84916496 0 0 0 0 -6290993.8223822117 14062028.463573456 0 14062028.463573456 96179973.606721878 0 0 0 0 -15227090.385602951 30899061.391471863 0 30899061.391471863 206866367.9183712 0 0 0 0 -1583584.5942452536 -438847.9365003109 0 -438847.9365003109 548912.81846211967 0 0 0 0 -203853.5413916111 42431455.745687485 0 42431455.745687485 57251701.570871353 0 0 0 0 -20166530.860346794 75207390.693450928 0 75207390.693450928 273672780.48102188 0 0 0 0 223479279.20761681 43227632.586975098 0 43227632.586975098 262299337.98487091 0 0 0 0 46876741.23800993 35643849.140478134 0 35643849.140478134 105303223.99265671 0 0 0 0 -206477.92698668689 5801008.6357022449 0 5801008.6357022449 -438397.95476484671 0 0 0 0 -4766719.129512405 -720242.93339575455 0 -720242.93339575455 3314387.6786145647 0 0 0 0 -4269534.5937261581 -2912569.0314331055 0 -2912569.0314331055 130474275.07596397 0 0 0 0 -1995401.8700275421 15540443.300949097 0 15540443.300949097 114034049.99721527 0 0 0 0 -14534034.515060425 30819072.659967422 0 30819072.659967422 95517313.47983551 0 0 0 0 275181.99518147297 4626019.8941745497 0 4626019.8941745497 5871953.6818719991 0 0 0 0 3808607.7161798477 1567187.5470542908 0 1567187.5470542908 19966984.325138092 0 0 0 0 4176283.9505395889 15483199.65143013 0 15483199.65143013 88597393.439530373 0 0 0 0 -219744.5649971962 7675996.7305259705 0 7675996.7305259705 9893361.8261184692 0 0 0 0 1036398.2843828201 8637418.1861553192 0 8637418.1861553192 16027122.377151489 0 0 0 0 3395135.8437943459 9449166.9149532318 0 9449166.9149532318 10741474.765518188 0 0 0 0 1255461.497010231 7014061.5085945129 0 7014061.5085945129 15115570.425354004 0 0 0 0 -20961024.360137939 23621219.010856628 0 23621219.010856628 20320444.690063477 0 0 0 0 -9616626.3373260498 11278628.212471008 0 11278628.212471008 18709347.430084229 0 0 0 0 -25723005.836933136 23594624.789375305 0 23594624.789375305 21504427.130340576 0 0 0 0 -25899264.747345686 19405549.896905422 0 19405549.896905422 16058489.779800415 0 0 0 0 -18466016.042279243 34671708.375469208 0 34671708.375469208 4166113.4444885254 0 0 0 0 -24519006.54229641 21304350.693044662 0 21304350.693044662 18917586.833633423 0 0 0 0 -29292980.055362701 30150570.112190247 0 30150570.112190247 6435015.9097290039 0 0 0 0 -29976622.30696106 16217316.811508179 0 16217316.811508179 20174617.276062012 0 0 0 0 -27853248.383712769 16156221.377532959 0 16156221.377532959 11509390.378952026 0 0 0 0 -36950037.998805046 14028477.9894104 0 14028477.9894104 20327206.337921143 0 0 0 0 -1895160.4721236266 12038329.862524476 0 12038329.862524476 24347442.791347064 0 0 0 0 -17018752.148205757 -999520.1502532959 0 -999520.1502532959 26338461.292541504 0 0 0 0 -24149319.276608944 313142.13008880615 0 313142.13008880615 32060698.974517822 0 0 0 0 -34642039.960998535 9827634.2194366455 0 9827634.2194366455 40976403.641052246 0 0 0 0 5281689.2624087613 5089219.6258835942 0 5089219.6258835942 -10520173.920090474 0 0 0 0 -4056464.66993469 25605133.946844876 0 25605133.946844876 102397139.24632263 0 0 0 0 -56326949.507678986 34156257.989822388 0 34156257.989822388 -47856834.733963013 0 0 0 0 -18099460.602417752 16201697.462352447 0 16201697.462352447 37143397.204177402 0 0 0 0 -4198685.1447696686 21512620.363548279 0 21512620.363548279 94137899.229354858 0 0 0 0 20757381.898069382 45699650.091426849 0 45699650.091426849 86015423.204582214 0 0 0 0 2756810.6153538227 35792845.673810482 0 35792845.673810482 104000814.76892853 0 0 0 0 1713819.1777839661 29043459.027023315 0 29043459.027023315 84372084.981246948 0 0 0 0 -33921374.176399231 83853072.378875732 0 83853072.378875732 62313591.945617676 0 0 0 0 28451162.96187973 42558898.752571106 0 42558898.752571106 -29733711.890800476 0 0 0 0 -16137074.30644989 -25331634.576400757 0 -25331634.576400757 36545465.560153961 0 0 0 0 11789821.25157547 -843131.04117774963 0 -843131.04117774963 57183379.778438568 0 0 0 0 -36327696.669719696 -17522590.116874695 0 -17522590.116874695 63701989.116203308 0 0 0 0 14696620.712659836 -9675840.4721717834 0 -9675840.4721717834 81950069.739490509 0 0 0 0 14689610.809811592 28903580.89191246 0 28903580.89191246 59843393.304084778 0 0 0 0 11388358.169501305 24192540.273317337 0 24192540.273317337 83565654.750198364 0 0 0 0 -15390712.954175949 2338119.0542144775 0 2338119.0542144775 82007461.506011963 0 0 0 0 -7505681.8890305422 -2507876.2534568403 0 -2507876.2534568403 19003123.905498169 0 0 0 0 -30384918.996759415 -1185026.1912536621 0 -1185026.1912536621 86748293.957300186 0 0 0 0 -36041918.255768478 -7642236.6528528631 0 -7642236.6528528631 81956716.594245911 0 0 0 0 -8174225.80313324 6842324.8531846479 0 6842324.8531846479 30884918.657179207 0 0 0 0 -26299681.592456818 18985171.853992462 0 18985171.853992462 16881883.71182251 0 0 0 0 -28235669.514751434 20372804.253036499 0 20372804.253036499 18792899.077255249 0 0 0 0 -30358276.134548187 10416860.21231842 0 10416860.21231842 321006.34564208984 0 0 0 0 -14907202.436351947 4285337.0432992354 0 4285337.0432992354 44935022.114104539 0 0 0 0 -9872315.5170860291 2880080.3812255859 0 2880080.3812255859 10874867.31353569 0 0 0 0 3752433.6905501578 -9481457.3274959065 0 -9481457.3274959065 42603828.337348975 0 0 0 0 9393967.251916647 -4897070.0001516342 0 -4897070.0001516342 69708702.891468048 0 0 0 0 -3885700.384191399 654036.61442159861 0 654036.61442159861 22426080.815495707 0 0 0 0 -53426933.02824986 5093109.7652139664 0 5093109.7652139664 98772783.222096443 0 0 0 0 -5204720.9199244091 4364748.8163436335 0 4364748.8163436335 10330420.911664613 0 0 0 0 -8678547.4193129521 898383.85012160987 0 898383.85012160987 35040727.09724468 0 0 0 0 762585.14035357116 1356768.045947548 0 1356768.045947548 2431993.3073411845 0 0 0 0 31686859.596721888 26301221.367763519 0 26301221.367763519 44105177.666305542 0 0 0 0 -24621088.52533704 -63100037.278885126 0 -63100037.278885126 9542679.7572212219 0 0 0 0 -36393789.519818783 -22319559.850728989 0 -22319559.850728989 112047554.35790181 0 0 0 0 -29342044.807027817 56185726.62456131 0 56185726.62456131 200238188.69473839 0 0 0 0 -11687473.401597232 -41414645.002789736 0 -41414645.002789736 46917910.117733002 0 0 0 0 13979531.019741118 39644929.011569977 0 39644929.011569977 78779425.745746613 0 0 0 0 592844.536206007 -132853.13444900513 0 -132853.13444900513 82225252.385313988 0 0 0 0 5276807.2082066536 -26502073.820236206 0 -26502073.820236206 39628390.988075256 0 0 0 0 111394.85512951249 -249038.1644150801 0 -249038.1644150801 -359771.67788824439 0 0 0 0 -38469517.073615074 11929102.204444885 0 11929102.204444885 31394686.934753418 0 0 0 0 31129937.961692333 2568088.5440940857 0 2568088.5440940857 -19868550.828010559 0 0 0 0 27024229.527856827 -17177359.219345093 0 -17177359.219345093 10038794.287872314 0 0 0 0 -39639885.915967464 -7258664.1181640625 0 -7258664.1181640625 83250341.565216064 0 0 0 0 33299578.427591324 43373464.532875061 0 43373464.532875061 101199705.98277664 0 0 0 0 5550748.4074678421 4032568.0030822754 0 4032568.0030822754 109575976.90419769 0 0 0 0 -46250436.336849838 51205234.313868523 0 51205234.313868523 80770318.634674072 0 0 0 0 30429085.348496437 2599953.7827835083 0 2599953.7827835083 55842324.440414429 0 0 0 0 2348375.1605985919 1555952.1394698545 0 1555952.1394698545 26145615.666818224 0 0 0 0 5647985.4763345718 31490831.250213623 0 31490831.250213623 104663098.82817078 0 0 0 0 8890648.6543979645 3742504.3258056641 0 3742504.3258056641 59255394.52507019 0 0 0 0 -3712834.107478207 -4660530.0031949058 0 -4660530.0031949058 36015231.084371947 0 0 0 0 -27744422.942503929 26766923.14182663 0 26766923.14182663 -6207423.963973999 0 0 0 0 -10208002.071971416 -4756661.0111618042 0 -4756661.0111618042 38458223.141578674 0 0 0 0 -522740.58316898346 13832958.142223358 0 13832958.142223358 2814252.5673675537 0 0 0 0 -3471093.4005408287 7640154.6000366211 0 7640154.6000366211 8968285.0235366821 0 0 0 0 3736929.8735609055 -4281478.6265640259 0 -4281478.6265640259 -10038664.878433228 0 0 0 0 21224801.540612221 10582806.212051392 0 10582806.212051392 -2741192.2748718262 0 0 0 0 68952454.450296402 -18786993.734580994 0 -18786993.734580994 69789271.387226105 0 0 0 0 6561891.3530817032 -10407215.564990997 0 -10407215.564990997 68664184.033111572 0 0 0 0 -48862.385795593262 -204805.79634094238 0 -204805.79634094238 72229187.517501831 0 0 0 0 -6351844.5301952362 -20001200.792449951 0 -20001200.792449951 62832001.653900146 0 0 0 0 19566303.590522289 -9832026.1888008118 0 -9832026.1888008118 32284004.944580078 0 0 0 0 2430898.7205195427 -10840635.219120026 0 -10840635.219120026 32710966.370239258 0 0 0 0 -2709237.8236446381 -19382527.202915192 0 -19382527.202915192 45033818.664260864 0 0 0 0 -14128572.718576431 -12292539.87902832 0 -12292539.87902832 54167296.529281616 0 0 0 0 -12659985.111199379 -27465447.254859924 0 -27465447.254859924 34624222.61177063 0 0 0 0 -28040101.56018585 -25785863.130167484 0 -25785863.130167484 61286443.971862793 0 0 0 0 -26853819.721823215 -7478074.6883926392 0 -7478074.6883926392 39493363.217605591 0 0 0 0 -47862.253525733948 2734682.0273170471 0 2734682.0273170471 49632979.767486572 0 0 0 0 -6984302.105035305 -13842948.774589539 0 -13842948.774589539 51805287.664291382 0 0 0 0 -2341351.1852316856 12133562.42748642 0 12133562.42748642 82706532.827377319 0 0 0 0 7144900.2392334938 10069696.404983521 0 10069696.404983521 54234241.85063076 0 0 0 0 886151.26626905287 1222749.7775012553 0 1222749.7775012553 4179702.6454293728 0 0 0 0 24784938.73204875 24178202.064271927 0 24178202.064271927 51422909.23475647 0 0 0 0 15954879.676056385 35923307.266929626 0 35923307.266929626 65067402.37758255 0 0 0 0 -543137.77305841446 2715545.0867385864 0 2715545.0867385864 69056528.299209595 0 0 0 0 51653827.271596432 69760279.214889526 0 69760279.214889526 69316287.705085754 0 0 0 0 -177404.02198493481 -2622400.0138630867 0 -2622400.0138630867 144013964.01196289 0 0 0 0 2773969.1317820549 10335053.942604065 0 10335053.942604065 6993162.1113471985 0 0 0 0 5028513.7382233143 9764432.372051239 0 9764432.372051239 -109522.74934387207 0 0 0 0 6237205.3482253551 6855544.0280189514 0 6855544.0280189514 5560553.9384613037 0 0 0 0 26022148.853274822 37770043.718261719 0 37770043.718261719 42085799.851945877 0 0 0 0 5623157.0103862286 3553424.5797672272 0 3553424.5797672272 -6251031.8449707031 0 0 0 0 319844.19263002835 264616.24544660002 0 264616.24544660002 860040.36109629273 0 0 0 0 11423137.627420425 39365158.968952179 0 39365158.968952179 74254113.443782806 0 0 0 0 -3149445.5810294887 -1249580.5530600846 0 -1249580.5530600846 20118426.812101491 0 0 0 0 349799.55006313324 15021526.983623505 0 15021526.983623505 17794840.257049561 0 0 0 0 13483843.953520775 23217575.698165894 0 23217575.698165894 101065664.92756462 0 0 0 0 -5388522.1127848979 13316012.186437029 0 13316012.186437029 13166312.064225897 0 0 0 0 -256429.52930641174 10575107.121875763 0 10575107.121875763 25269844.461834908 0 0 0 0 1679542.570182479 7135701.2991483659 0 7135701.2991483659 25675122.634532306 0 0 0 0 -1901837.9957504272 4370466.8950424194 0 4370466.8950424194 17035515.767791748 0 0 0 0 -214091.64185226802 2637811.7388947234 0 2637811.7388947234 9543070.3513629958 0 0 0 0 -18232808.230519295 23857747.214515686 0 23857747.214515686 119267869.62420654 0 0 0 0 -8483899.4748811722 -7204864.0251083374 0 -7204864.0251083374 184118445.01477814 0 0 0 0 -1903001.426682489 -508124.79766514525 0 -508124.79766514525 3367232.5329127312 0 0 0 0 2842672.7805950642 10897561.162090302 0 10897561.162090302 5021413.7080993652 0 0 0 0 3021610.1510228165 7236962.5794099346 0 7236962.5794099346 10696559.07689558 0 0 0 0 2525110.3143509552 8317316.9282839298 0 8317316.9282839298 10734855.999649048 0 0 0 0 -2053538.8085374832 9155535.9670257568 0 9155535.9670257568 15406517.898210526 0 0 0 0 933831.24375930429 12984211.496456992 0 12984211.496456992 10430143.426897824 0 0 0 0 -1258706.4521331787 23853373.499866486 0 23853373.499866486 9427621.6502723694 0 0 0 0 -12112358.968456984 22440666.516319275 0 22440666.516319275 4683864.1560211182 0 0 0 0 19493771.366458535 27129935.623762131 0 27129935.623762131 -17303790.062194824 0 0 0 0 2529537.3847703538 4794246.9498252794 0 4794246.9498252794 1936063.5665557981 0 0 0 0 -6346107.1104636192 15965103.815383911 0 15965103.815383911 11243155.92530632 0 0 0 0 -164664.88821959496 27013819.990932465 0 27013819.990932465 -11104479.005699158 0 0 0 0 10305433.386216402 13446516.891166687 0 13446516.891166687 -512867.0610332489 0 0 0 0 7902373.8272657394 19109019.317245483 0 19109019.317245483 -4306191.3082885742 0 0 0 0 16959068.673120618 15892513.984169006 0 15892513.984169006 -9514801.2760238647 0 0 0 0 21276031.788335562 15351123.703842163 0 15351123.703842163 -17450417.684356689 0 0 0 0 7747419.9355436563 31091087.677764893 0 31091087.677764893 -15324972.409255981 0 0 0 0 12700311.373954058 30380017.349952698 0 30380017.349952698 -18790418.820838928 0 0 0 0 8402882.9100656509 9289022.0276527405 0 9289022.0276527405 -4764324.7318954468 0 0 0 0 3993308.508040905 7382397.256778717 0 7382397.256778717 -4915091.9535980225 0 0 0 0 1236245.7624025345 2292798.0804157257 0 2292798.0804157257 -10061911.245513916 0 0 0 0 8529369.878251791 9852211.3397521973 0 9852211.3397521973 -7243823.7618865967 0 0 0 0 13385689.411964893 10108532.401008606 0 10108532.401008606 -7463029.8374900818 0 0 0 0 20319505.85520196 4953400.5937156677 0 4953400.5937156677 -3681249.6782302856 0 0 0 0 11620038.279006958 5722292.1815547943 0 5722292.1815547943 -5554372.2827301025 0 0 0 0 6031263.7348666191 9077599.4575271606 0 9077599.4575271606 79286.752155303955 0 0 0 0 5851298.6747994721 6447262.5998361111 0 6447262.5998361111 2391122.0141143799 0 0 0 0 1169175.8355240822 4362675.6751708984 0 4362675.6751708984 16374041.461650848 0 0 0 0 11845646.891780138 3153084.2291374207 0 3153084.2291374207 4142805.3944244385 0 0 0 0 53355.083785772324 6035012.8692569733 0 6035012.8692569733 14178136.198196411 0 0 0 0 2838903.9480027631 3668144.7980543375 0 3668144.7980543375 12243103.656494141 0 0 0 0 2790407.9700688869 2278408.4368124008 0 2278408.4368124008 15315655.410095215 0 0 0 0 20478010.454189539 -3399263.3711051941 0 -3399263.3711051941 9711327.1964645386 0 0 0 0 11582068.327757835 5338999.8979415894 0 5338999.8979415894 1141818.6675338745 0 0 0 0 2345075.0286951065 7005862.3790435791 0 7005862.3790435791 18383751.030853271 0 0 0 0 20967933.324358225 -2925908.7961997986 0 -2925908.7961997986 9722733.8433303833 0 0 0 0 3739044.5299873352 -1812970.8288993835 0 -1812970.8288993835 25627851.353561401 0 0 0 0 9398818.2979431152 -6378408.4839553833 0 -6378408.4839553833 38885551.57081604 0 0 0 0 -226376.56079912186 4721831.3337898254 0 4721831.3337898254 16331691.153030396 0 0 0 0 314979.83436632156 4436019.4218101501 0 4436019.4218101501 15614452.697235107 0 0 0 0 15771283.487768173 22159658.042610168 0 22159658.042610168 -10940784.421424866 0 0 0 0 18941431.888561726 18180875.101821899 0 18180875.101821899 -3963565.7266921997 0 0 0 0 29431590.419611216 24770618.867843628 0 24770618.867843628 -12060158.989601135 0 0 0 0 37366257.248208523 9050979.6053314209 0 9050979.6053314209 -8657662.3467540741 0 0 0 0 20744014.720775723 16547566.324359894 0 16547566.324359894 1332350.4501342773 0 0 0 0 38043387.021987915 2968935.9764251709 0 2968935.9764251709 4878501.7207145691 0 0 0 0 51387293.706727475 21677871.611634254 0 21677871.611634254 26305277.47958374 0 0 0 0 45755223.793338537 -20927626.785881042 0 -20927626.785881042 22577745.309432983 0 0 0 0 56587879.353459358 -29317539.870147705 0 -29317539.870147705 40502442.192594528 0 0 0 0 33177486.93478328 22159715.434382439 0 22159715.434382439 -4099856.0265045166 0 0 0 0 37431832.425642014 -6376770.3151321411 0 -6376770.3151321411 -522942.39319610596 0 0 0 0 22245571.608669519 7776544.8662490845 0 7776544.8662490845 15377610.701942444 0 0 0 0 18042095.133061409 6308136.3274993896 0 6308136.3274993896 -5693058.7575073242 0 0 0 0 16621955.849716663 23341805.975410461 0 23341805.975410461 -32435212.008041382 0 0 0 0 23593150.144948795 15782423.279257774 0 15782423.279257774 -17941082.631515503 0 0 0 0 7538067.3935816288 25665764.437789917 0 25665764.437789917 -6831384.9457969666 0 0 0 0 20448472.77185297 24333091.144388199 0 24333091.144388199 -16125471.969146729 0 0 0 0 -7459307.6005766392 37962847.755710602 0 37962847.755710602 -12915523.984863281 0 0 0 0 9260785.5938515067 25960214.619485855 0 25960214.619485855 -24840580.942581177 0 0 0 0 7669410.7384991646 30890742.977264404 0 30890742.977264404 -17504006.709075928 0 0 0 0 10548736.57556963 34610119.149528503 0 34610119.149528503 -13264043.540512085 0 0 0 0 -11348800.497272015 31321602.930404663 0 31321602.930404663 -20987253.858772278 0 0 0 0 -32677461.792785168 34823318.81879425 0 34823318.81879425 -16040370.781211853 0 0 0 0 -3151630.9502532482 37610390.845726013 0 37610390.845726013 -29459687.606674194 0 0 0 0 -310765.73946094513 20057130.841918945 0 20057130.841918945 -22016276.07635498 0 0 0 0 -18908753.465613723 42770528.327774048 0 42770528.327774048 -35718088.224563599 0 0 0 0 -40031554.45912841 51119790.359146118 0 51119790.359146118 -28646038.143287659 0 0 0 0 71865331.535005212 19992801.106227875 0 19992801.106227875 -56793258.498687744 0 0 0 0 -28186771.235175133 26948020.364631653 0 26948020.364631653 -48777461.36151123 0 0 0 0 -61764372.39398998 49230875.967529297 0 49230875.967529297 23475695.998336792 0 0 0 0 -78468835.436462402 58630338.617622375 0 58630338.617622375 -62240577.673522949 0 0 0 0 5136537.0123676332 4038933.2165912651 0 4038933.2165912651 2617694.0549438074 0 0 0 0 -68460435.521346092 81466273.813270569 0 81466273.813270569 -46614985.159919739 0 0 0 0 -71587436.272307396 78787928.908168793 0 78787928.908168793 -43361740.170425415 0 0 0 0 -804669.11358189397 10293187.823496651 0 10293187.823496651 27718568.354970753 0 0 0 0 -93616083.384079933 64874735.463745117 0 64874735.463745117 -48949691.716644287 0 0 0 0 6523375.0916161537 -1324048.8333110809 0 -1324048.8333110809 30322996.998764038 0 0 0 0 -67695604.925580978 77676803.086982727 0 77676803.086982727 -43314364.976626873 0 0 0 0 -65862296.851408958 79532546.865287781 0 79532546.865287781 -45268005.626586914 0 0 0 0 -52445668.06775856 52179101.416584015 0 52179101.416584015 -73277962.992797852 0 0 0 0 -70850576.495187759 30864788.438964844 0 30864788.438964844 -74353710.132885456 0 0 0 0 4622277.1417900939 1869859.6211980693 0 1869859.6211980693 -2851668.4310110658 0 0 0 0 7537296.2331344923 6594489.1786976755 0 6594489.1786976755 4940013.8170150369 0 0 0 0 -85126830.497971535 49596171.380931854 0 49596171.380931854 -15631473.068496704 0 0 0 0 -15894669.49588871 20731082.378936768 0 20731082.378936768 -77872657.418411255 0 0 0 0 -106670152.24722481 -6422084.4320907593 0 -6422084.4320907593 -56231051.296783447 0 0 0 0 -121677073.13879204 20632337.247467041 0 20632337.247467041 -45875180.539260864 0 0 0 0 71517762.769508362 19663649.147514343 0 19663649.147514343 -130657088.27886963 0 0 0 0 16062861.441113472 161786620.93132496 0 161786620.93132496 66608636.517868042 0 0 0 0 -69707669.936187744 91644064.167449951 0 91644064.167449951 124417597.82172394 0 0 0 0 2451214.492890358 2980610.7344207764 0 2980610.7344207764 33904043.94556427 0 0 0 0 10768257.264820576 8461641.4184837341 0 8461641.4184837341 26596018.151268005 0 0 0 0 3580140.0051550865 1053234.5835914612 0 1053234.5835914612 26972747.910835266 0 0 0 0 708628.38801193237 6427771.1428222656 0 6427771.1428222656 20815015.429896355 0 0 0 0 3590797.0972552299 4004952.4714317322 0 4004952.4714317322 20573661.464584351 0 0 0 0 3829450.3574609756 7108557.8516159058 0 7108557.8516159058 27123762.643787503 0 0 0 0 6070787.3811635971 3165395.6175041199 0 3165395.6175041199 21093315.303138733 0 0 0 0 7537409.1201095581 6194108.5188484192 0 6194108.5188484192 20797584.143364429 0 0 0 0 4285389.347248897 3557352.9264461994 0 3557352.9264461994 18666314.103622437 0 0 0 0 4492988.8790022433 7571509.6184340715 0 7571509.6184340715 15049346.730552673 0 0 0 0 8278262.9685697556 -850969.68131256104 0 -850969.68131256104 18698542.580543518 0 0 0 0 -2399571.3887496032 8805263.4918011781 0 8805263.4918011781 20322088.234870486 0 0 0 0 11702000.875723839 809572.55294418335 0 809572.55294418335 19365203.004325867 0 0 0 0 -28426792.853481293 25964247.017204285 0 25964247.017204285 43616177.880462646 0 0 0 0 -38744700.525150299 136761512.8190155 0 136761512.8190155 47144231.251678467 0 0 0 0 3531624.0974508161 4998267.1684794948 0 4998267.1684794948 -8379721.0645451322 0 0 0 0 -58037470.2758255 65182485.426315308 0 65182485.426315308 111698120.22286987 0 0 0 0 -20975101.586910248 23509673.205629349 0 23509673.205629349 -41886458.02432251 0 0 0 0 -91622091.351886749 61225112.636245728 0 61225112.636245728 -56900345.348999023 0 0 0 0 -13369767.419715881 11783574.288024902 0 11783574.288024902 -106344213.0687561 0 0 0 0 -63260273.291072845 103523077.38713074 0 103523077.38713074 28613812.173995972 0 0 0 0 -36633751.230102539 47646565.84223938 0 47646565.84223938 14946273.675506592 0 0 0 0 -55060627.819763184 78840757.924713135 0 78840757.924713135 23687510.957416534 0 0 0 0 -50114747.024244308 63964963.746009827 0 63964963.746009827 53609520.600585938 0 0 0 0 -35969121.148971558 79233626.870880127 0 79233626.870880127 -11733943.93838501 0 0 0 0 -20455144.121139526 68254255.88722229 0 68254255.88722229 -19508814.76473999 0 0 0 0 -36890214.609080076 54494216.841527939 0 54494216.841527939 -30802405.131530762 0 0 0 0 6655405.4031448364 89479900.013641357 0 89479900.013641357 -24426657.135604858 0 0 0 0 -38538868.33405304 24035649.659378052 0 24035649.659378052 40538902.206725597 0 0 0 0 38059402.58562851 10543511.865684509 0 10543511.865684509 -161047552.00704956 0 0 0 0 58600447.488153458 43959196.605316162 0 43959196.605316162 -163996888.10736084 0 0 0 0 103541498.84889603 103035857.58040619 0 103035857.58040619 -130013197.43927002 0 0 0 0 -3133599.4343792591 -912367.46483850479 0 -912367.46483850479 8432655.8558332622 0 0 0 0 14122040.934692383 52556677.984771729 0 52556677.984771729 -57788922.831008911 0 0 0 0 -11885426.766937256 65484323.057678223 0 65484323.057678223 -54419361.494812012 0 0 0 0 -47456858.707416534 40507565.219688416 0 40507565.219688416 11919270.736919403 0 0 0 0 -46767062.641399384 38414805.855178833 0 38414805.855178833 18129615.254077911 0 0 0 0 -35190707.197372437 20569055.25352478 0 20569055.25352478 779343.90927886963 0 0 0 0 16791703.040306807 23090156.448287964 0 23090156.448287964 -15011368.059585571 0 0 0 0 -27573855.115253448 34724802.858276367 0 34724802.858276367 -50767117.428314209 0 0 0 0 11770231.567730965 13079333.684270132 0 13079333.684270132 10707318.855299711 0 0 0 0 -125269557.79259109 -32832630.018959045 0 -32832630.018959045 173408139.0803833 0 0 0 0 -67199630.531242371 -45748594.553237915 0 -45748594.553237915 -38852630.232851028 0 0 0 0 -28468140.580097198 35411913.877182007 0 35411913.877182007 4211165.4553718567 0 0 0 0 -54673413.631225586 43851547.04259491 0 43851547.04259491 81529978.271858215 0 0 0 0 -65553957.436325073 96200555.337593079 0 96200555.337593079 156516586.91473389 0 0 0 0 11265542.328181505 24617244.425094604 0 24617244.425094604 -14554339.355447769 0 0 0 0 -10568245.596874923 32322450.558487892 0 32322450.558487892 -12720149.49987793 0 0 0 0 88295026.697509766 19025072.694400787 0 19025072.694400787 -40146401.633560181 0 0 0 0 10149532.912616983 8702934.8970490247 0 8702934.8970490247 6830279.8348988146 0 0 0 0 -8984531.9305906296 40133413.234275818 0 40133413.234275818 -18350194.181253433 0 0 0 0 5386989.4960765736 3038180.4329631999 0 3038180.4329631999 -2975528.4344784915 0 0 0 0 -76583882.015266418 102482362.74515533 0 102482362.74515533 41098778.258789062 0 0 0 0 -73733694.003051758 103198587.0713501 0 103198587.0713501 91642849.390342712 0 0 0 0 -259.24742471347849 699697.19424057007 0 699697.19424057007 885780.8358039856 0 0 0 0 -1341409.1512117179 80981.181089043617 0 80981.181089043617 4043703.686630249 0 0 0 0 -6334136.2106970958 3299470.8197822571 0 3299470.8197822571 6527698.3655395508 0 0 0 0 -1313137.501833067 3542798.9724578857 0 3542798.9724578857 2018583.8632965088 0 0 0 0 -4281745.3521582903 2959135.3412895203 0 2959135.3412895203 -1701469.3988494873 0 0 0 0 -6088421.2533104839 2043405.760840416 0 2043405.760840416 1791386.855758667 0 0 0 0 -3931851.056262129 -1435222.1106300354 0 -1435222.1106300354 -248706.10187530518 0 0 0 0 -1648.7550551969462 -3017085.336730957 0 -3017085.336730957 10187395.599716187 0 0 0 0 -2504437.3109765695 3983177.9749832153 0 3983177.9749832153 -6405588.6491241455 0 0 0 0 -4220098.7204415146 3556312.7817373276 0 3556312.7817373276 15920284.729309082 0 0 0 0 -1993558.8521737866 -3823708.6255865097 0 -3823708.6255865097 17936892.770401001 0 0 0 0 -403861.44892652333 -4203511.467628479 0 -4203511.467628479 3514913.29246521 0 0 0 0 -5249054.6760677043 4899362.197593689 0 4899362.197593689 96244.049682617188 0 0 0 0 -6946869.6794929588 -2782232.9002609253 0 -2782232.9002609253 17724214.034706116 0 0 0 0 -48121.889425390429 -4416.9639562740922 0 -4416.9639562740922 7027.7725328598171 0 0 0 0 293779.51344354078 -381682.77239227295 0 -381682.77239227295 4744414.8530578613 0 0 0 0 -1285421.574528113 -3477587.0536994934 0 -3477587.0536994934 19590605.960113525 0 0 0 0 -2930948.8486398235 574835.60636806488 0 574835.60636806488 21670314.317108154 0 0 0 0 -2188143.3982733563 -4655800.9237613678 0 -4655800.9237613678 24984579.973175049 0 0 0 0 -2392034.5109978393 2102617.3213424683 0 2102617.3213424683 18192130.514007568 0 0 0 0 -4290143.3667965382 1238537.8271980286 0 1238537.8271980286 25193286.015975952 0 0 0 0 3166195.3033874035 -169444.75630950928 0 -169444.75630950928 24517398.943702698 0 0 0 0 -153864.26317323864 10212.900739789009 0 10212.900739789009 22900.692339187488 0 0 0 0 -724381.71738393046 -619522.95460510254 0 -619522.95460510254 3315827.36536026 0 0 0 0 1266714.3886596225 -1466059.6041412354 0 -1466059.6041412354 3313453.6960601807 0 0 0 0 1256064.7614293993 -1233773.6005897522 0 -1233773.6005897522 11633993.602409363 0 0 0 0 1605177.8541259416 -1093686.3865184784 0 -1093686.3865184784 2588530.8075408936 0 0 0 0 17391.350239550884 -48507.704805530608 0 -48507.704805530608 26039.375886075199 0 0 0 0 1113414.3633626513 -2492003.9591674805 0 -2492003.9591674805 4919448.0839614868 0 0 0 0 -5454206.3485318925 8197638.5001089573 0 8197638.5001089573 -3426489.46118927 0 0 0 0 -558733.63626349345 3310950.6164627075 0 3310950.6164627075 -3137369.5125017166 0 0 0 0 -3470170.9043600559 2473230.32447052 0 2473230.32447052 3609061.0833587646 0 0 0 0 -3979491.842326913 1280845.4328117371 0 1280845.4328117371 3037536.1802825928 0 0 0 0 -3092385.1074184999 336483.30688476562 0 336483.30688476562 1230630.2057876587 0 0 0 0 -470311.42472913116 -2552545.1434555054 0 -2552545.1434555054 3672980.1166152954 0 0 0 0 -91994.281320501861 -300518.08477858454 0 -300518.08477858454 1212441.6506970003 0 0 0 0 -2462284.1387954503 2457922.8683319092 0 2457922.8683319092 1852751.3965988159 0 0 0 0 118517.19793889904 -2578896.566619873 0 -2578896.566619873 2232726.198059082 0 0 0 0 -2383249.7029148368 54865.783414583653 0 54865.783414583653 10245346.801138371 0 0 0 0 -15019.156115186852 -1306982.6559953708 0 -1306982.6559953708 319687.73088462651 0 0 0 0 -2250838.7752406001 -2218095.9859466553 0 -2218095.9859466553 -907067.7949256897 0 0 0 0 -4192531.7791133337 -12602498.105694294 0 -12602498.105694294 -6671525.4915161133 0 0 0 0 -2954754.6812927527 -2195740.1918260157 0 -2195740.1918260157 7931997.9348232001 0 0 0 0 -2519855.5969207585 5881562.3730697632 0 5881562.3730697632 -1879228.5453338623 0 0 0 0 73161.710177287459 -1522080.3470611572 0 -1522080.3470611572 1165351.3350067139 0 0 0 0 -785024.15175114572 70109.553009033203 0 70109.553009033203 1494414.4721469879 0 0 0 0 -362166.8027288802 -1398807.5738983154 0 -1398807.5738983154 3630933.3490834236 0 0 0 0 -33394.832981107756 84808.675266265869 0 84808.675266265869 804140.11795806885 0 0 0 0 6842831.5606209934 -2223558.7213058472 0 -2223558.7213058472 14978413.457923889 0 0 0 0 -322340.57550354511 -28323.583464279771 0 -28323.583464279771 108309.32141390815 0 0 0 0 -430602.32881231606 -250077.58353424072 0 -250077.58353424072 533025.31638336182 0 0 0 0 -898213.03316623718 -5780250.5166358948 0 -5780250.5166358948 23209569.340515137 0 0 0 0 2673318.7495518625 -2851416.4433670044 0 -2851416.4433670044 25505227.732383728 0 0 0 0 3601815.7190820668 -7081739.9954440594 0 -7081739.9954440594 28002385.267471313 0 0 0 0 13316155.190122724 -6555830.2567977905 0 -6555830.2567977905 23043112.954559326 0 0 0 0 20040529.147568464 -11957264.789558411 0 -11957264.789558411 23842305.778877258 0 0 0 0 -7987361.343236804 12767764.149841309 0 12767764.149841309 32738044.022882462 0 0 0 0 6809993.7209105194 -11656502.297159195 0 -11656502.297159195 34528084.255493164 0 0 0 0 17948983.520890191 -5728158.6931037903 0 -5728158.6931037903 21074967.370941162 0 0 0 0 -549.9839642416664 -354528.3869967768 0 -354528.3869967768 320797.57065437734 0 0 0 0 17761121.022912547 -28565002.484703064 0 -28565002.484703064 45027762.868164062 0 0 0 0 10773046.545129657 8748068.83568573 0 8748068.83568573 9551526.1640319824 0 0 0 0 72350.1661975428 -108126.83676654845 0 -108126.83676654845 20318.635047955438 0 0 0 0 9534427.9060368687 1694227.4942131042 0 1694227.4942131042 -5537173.4562988281 0 0 0 0 -1089896.1568905525 -248136.71966552734 0 -248136.71966552734 1162500.2036895752 0 0 0 0 -23986.02190118852 -13690.804336445406 0 -13690.804336445406 25771.705793380737 0 0 0 0 -32413513.504187882 -39748851.509986877 0 -39748851.509986877 4942017.7315444946 0 0 0 0 25872050.318900131 -45681989.539453506 0 -45681989.539453506 -2526991.9110565186 0 0 0 0 -2634540.0792201036 -1106645.3423655033 0 -1106645.3423655033 11061275.507320732 0 0 0 0 22831838.835801005 -6943132.9967422485 0 -6943132.9967422485 13550334.682113647 0 0 0 0 26796395.086018443 -26781308.041397095 0 -26781308.041397095 43676327.441513062 0 0 0 0 -25099924.696775496 16499568.296352386 0 16499568.296352386 16016866.163482666 0 0 0 0 16403826.890356362 -7976469.7092895508 0 -7976469.7092895508 19091335.58366394 0 0 0 0 6116134.89692384 9898233.8721313477 0 9898233.8721313477 10826262.492019653 0 0 0 0 -2541519.7180246157 -1547369.8699390329 0 -1547369.8699390329 11712504.602973551 0 0 0 0 -50143523.528501987 -25540473.631126404 0 -25540473.631126404 20568385.009784698 0 0 0 0 12870343.890176296 -95174554.027305603 0 -95174554.027305603 197891837.82574463 0 0 0 0 -14908985.982536197 -9530320.4728126526 0 -9530320.4728126526 1586109.4428710938 0 0 0 0 -46136100.341397524 13879670.415077209 0 13879670.415077209 60469195.962234497 0 0 0 0 -33798698.945185661 -34588046.283935547 0 -34588046.283935547 61536343.934020996 0 0 0 0 -35794229.701428592 -51134126.841706753 0 -51134126.841706753 28545972.315719604 0 0 0 0 21548857.210985184 94191027.518798828 0 94191027.518798828 -81548297.57559967 0 0 0 0 -34734671.948795319 -26433453.464782715 0 -26433453.464782715 76517286.684989929 0 0 0 0 138604.98929451732 -2498.2357123866677 0 -2498.2357123866677 506444.40471546352 0 0 0 0 -28157752.825243473 -36209936.694160461 0 -36209936.694160461 48460201.158958435 0 0 0 0 -11791738.705229759 -23212956.789253235 0 -23212956.789253235 39280624.643287659 0 0 0 0 10415388.435827255 -1991414.7130432129 0 -1991414.7130432129 9797369.5969009399 0 0 0 0 -3135010.9429497719 4316875.4935836792 0 4316875.4935836792 34643692.901199341 0 0 0 0 4811035.7572488785 13600051.811264038 0 13600051.811264038 -31150218.440919876 0 0 0 0 -8053341.4825878143 -39920568.494399548 0 -39920568.494399548 -16916991.018707275 0 0 0 0 74039162.081564426 -25229884.765228271 0 -25229884.765228271 30190275.487838745 0 0 0 0 1071662.9388386786 1784119.9139203355 0 1784119.9139203355 3027463.5411220789 0 0 0 0 -52356340.559389353 17964721.410675049 0 17964721.410675049 32429643.503509521 0 0 0 0 24294625.265108585 20586819.094787598 0 20586819.094787598 12515546.46156311 0 0 0 0 -13035760.89505291 -706171.75032043457 0 -706171.75032043457 39236548.261755943 0 0 0 0 -34824286.818359375 -3977221.9207458496 0 -3977221.9207458496 22932464.928710938 0 0 0 0 -9625264.6734113693 34426208.235031128 0 34426208.235031128 20616385.190994263 0 0 0 0 7771127.2609901428 39637884.8490448 0 39637884.8490448 35625807.075241089 0 0 0 0 -36758544.307518005 23490560.96661377 0 23490560.96661377 30334786.91834259 0 0 0 0 18713130.026655197 48477083.3540802 0 48477083.3540802 21427716.820251465 0 0 0 0 -13001871.760222912 52693035.28754425 0 52693035.28754425 91720829.331495285 0 0 0 0 24544257.819175228 14755730.611493826 0 14755730.611493826 24389388.642791748 0 0 0 0 -19823292.471365929 17640993.397956848 0 17640993.397956848 79625054.362480164 0 0 0 0 3126798.3030328751 617777.2693939209 0 617777.2693939209 -24573647.171310425 0 0 0 0 -45022.434183711186 -29971.130920723081 0 -29971.130920723081 259348.63758933544 0 0 0 0 8202994.6675004959 6985278.4758148193 0 6985278.4758148193 -45550318.439056396 0 0 0 0 -1264807.9490013123 6374011.4139556885 0 6374011.4139556885 -5519428.9239397049 0 0 0 0 -3474152.6033058167 12858755.235347748 0 12858755.235347748 -5122158.4385910034 0 0 0 0 -12981595.256210327 38933542.148345947 0 38933542.148345947 1343644.222076416 0 0 0 0 -478586.45442032814 4198226.5327186584 0 4198226.5327186584 13971541.002948761 0 0 0 0 23273963.572016597 13230004.647849083 0 13230004.647849083 -4997901.4308929443 0 0 0 0 -11131706.9692173 37531661.554840088 0 37531661.554840088 -7919924.7857894897 0 0 0 0 -1315253.1089008437 729344.45385403186 0 729344.45385403186 2302774.0544521287 0 0 0 0 379140.3154464555 2714562.8653589711 0 2714562.8653589711 732043.22146362066 0 0 0 0 -7647721.8654146194 -7195890.9510879517 0 -7195890.9510879517 -18725853.295837402 0 0 0 0 4177620.1139279976 5876784.0760501772 0 5876784.0760501772 7792275.4201254398 0 0 0 0 -2040776.182923317 7813502.5569458008 0 7813502.5569458008 5623646.9586029053 0 0 0 0 -436113.60872456944 2780855.93761345 0 2780855.93761345 10933071.781372517 0 0 0 0 2416385.4768004417 1173905.565788269 0 1173905.565788269 10403681.159339905 0 0 0 0 -2342993.381855011 7211115.3072357178 0 7211115.3072357178 5092238.7440948486 0 0 0 0 748091.05654716492 12398611.028495789 0 12398611.028495789 -4006125.1496810913 0 0 0 0 168352.99018239975 8456590.8822135925 0 8456590.8822135925 7646095.1929168701 0 0 0 0 1236114.2350640297 6802077.2646408081 0 6802077.2646408081 4920418.5530986786 0 0 0 0 -1239744.2880942822 6602180.4647254944 0 6602180.4647254944 12530572.825492859 0 0 0 0 1132774.8052506447 4297237.5740070343 0 4297237.5740070343 13341818.98487854 0 0 0 0 -610746.91595244408 6302263.8409919739 0 6302263.8409919739 17423847.855712891 0 0 0 0 126741.79640960693 3994899.4787979126 0 3994899.4787979126 16486732.750152588 0 0 0 0 30502.364680349827 3532471.1908731461 0 3532471.1908731461 20144303.766143799 0 0 0 0 5562371.3301255703 6739301.9464101791 0 6739301.9464101791 16477876.649597168 0 0 0 0 761767.84193992615 1271568.7805709839 0 1271568.7805709839 11247140.299362183 0 0 0 0 6985899.9104146957 2026725.0386123657 0 2026725.0386123657 13164278.551236153 0 0 0 0 4685880.0835084915 8559200.4377670288 0 8559200.4377670288 18278701.052265167 0 0 0 0 6425746.9132581949 964135.60736846924 0 964135.60736846924 13236574.855392456 0 0 0 0 234656.70810597856 912237.26740595698 0 912237.26740595698 2446953.7911584154 0 0 0 0 3727417.0833966732 2759765.2146110535 0 2759765.2146110535 12302733.458305359 0 0 0 0 -1245301.1653631013 2037555.0389932571 0 2037555.0389932571 10958264.859598875 0 0 0 0 -29295646.154130578 -15886568.797729492 0 -15886568.797729492 18435188.868385315 0 0 0 0 -51200362.422697067 -15683081.416797638 0 -15683081.416797638 60437122.447296143 0 0 0 0 -25972426.239725024 30266084.201721191 0 30266084.201721191 66856431.99822998 0 0 0 0 77534889.277575552 -22287587.573303223 0 -22287587.573303223 -58489067.376647949 0 0 0 0 64251239.522379622 49243499.990783691 0 49243499.990783691 18801627.041275024 0 0 0 0 36310744.358612165 76046468.402183533 0 76046468.402183533 96731931.125198364 0 0 0 0 -25856083.034603316 -24844648.389930725 0 -24844648.389930725 -60862385.396621704 0 0 0 0 -66865699.52662044 -25296073.953304291 0 -25296073.953304291 121735908.58992004 0 0 0 0 -1981725.3012844566 436487.58275797963 0 436487.58275797963 6062663.2184219956 0 0 0 0 -2498132.1126354933 8130434.0575027466 0 8130434.0575027466 -2487423.5559997559 0 0 0 0 -591624.83302462939 2352737.1939067468 0 2352737.1939067468 5183993.3377407938 0 0 0 0 -1252743.6984639168 2104362.2240905762 0 2104362.2240905762 4210122.7491874695 0 0 0 0 -287024.32041042193 1591032.570202997 0 1591032.570202997 6820638.3847818226 0 0 0 0 65121066.374229439 74404423.022075653 0 74404423.022075653 56595022.601989746 0 0 0 0 -208828.15888432064 62168.63533411175 0 62168.63533411175 1472956.7374072112 0 0 0 0 12914278.753259391 -4931878.2818908691 0 -4931878.2818908691 12899227.269945145 0 0 0 0 -512410.38781133899 -154512.05597478896 0 -154512.05597478896 1453455.9863830954 0 0 0 0 8820804.7337046415 4198038.4639320374 0 4198038.4639320374 7667172.0126037598 0 0 0 0 141342332.83834088 61644608.23223114 0 61644608.23223114 -2702930.615737915 0 0 0 0 99537.755375977315 155754.79301331379 0 155754.79301331379 483407.22226563096 0 0 0 0 3490076.1444262117 -25520308.515274048 0 -25520308.515274048 24872023.674423218 0 0 0 0 24229660.551839568 -16150143.27186203 0 -16150143.27186203 7230826.5659179688 0 0 0 0 721423.92983953655 -6370380.0656013489 0 -6370380.0656013489 6253484.611114502 0 0 0 0 -4133730.32923791 1093937.0868692398 0 1093937.0868692398 4595060.7021484375 0 0 0 0 -48531.153920426965 -4369880.4051399231 0 -4369880.4051399231 1678919.7134857178 0 0 0 0 376305.06433435943 572473.3665112406 0 572473.3665112406 1627913.8076761961 0 0 0 0 -3536307.4163589403 379852.86097145081 0 379852.86097145081 9290023.9489898682 0 0 0 0 -1961805.5785980187 -3371049.0191993713 0 -3371049.0191993713 9753612.9741668701 0 0 0 0 -3147725.5848260373 447830.25512695312 0 447830.25512695312 5248624.4537353516 0 0 0 0 -4172730.9183017313 297107.48796844482 0 297107.48796844482 6144557.5929718018 0 0 0 0 -2760858.4594285488 -790098.25540542603 0 -790098.25540542603 2727973.2398681641 0 0 0 0 37025999.584623039 49758542.596107483 0 49758542.596107483 -6947734.1352539062 0 0 0 0 -12503857.47698459 12738795.502287865 0 12738795.502287865 24085126.217529297 0 0 0 0 -28817258.190208942 8892337.8443946838 0 8892337.8443946838 52134407.625205994 0 0 0 0 384715.22881991172 703586.77186328173 0 703586.77186328173 423275.73244558275 0 0 0 0 28834553.995575562 11128652.417510986 0 11128652.417510986 -2945344.8768157959 0 0 0 0 17043563.516835272 40417572.498504639 0 40417572.498504639 20672086.73235321 0 0 0 0 25783957.66906023 23891264.033187866 0 23891264.033187866 -24726911.798683167 0 0 0 0 37243032.966301203 39182781.508743286 0 39182781.508743286 -13113776.780014038 0 0 0 0 239292.42167526484 11987049.477630615 0 11987049.477630615 9875182.4351959229 0 0 0 0 1306302.0691000172 3425369.7184609137 0 3425369.7184609137 2537858.8164209127 0 0 0 0 13234533.645596296 10928776.803173065 0 10928776.803173065 205026.3734703064 0 0 0 0 -643240.98007285595 6400694.8389892578 0 6400694.8389892578 9863374.4488830566 0 0 0 0 4097235.3511377387 5061725.6961948127 0 5061725.6961948127 8515962.3132774979 0 0 0 0 6213973.3796128035 5840387.9837722778 0 5840387.9837722778 8006866.3085021973 0 0 0 0 1045456.9103867598 1982028.9551482424 0 1982028.9551482424 1990403.9882964194 0 0 0 0 -1091386.173637853 333186.05299961381 0 333186.05299961381 3224980.1299975663 0 0 0 0 6701696.5249826908 11973569.12272644 0 11973569.12272644 8407376.9671325684 0 0 0 0 -2247077.597541213 1036793.9691543579 0 1036793.9691543579 3503611.4889984131 0 0 0 0 -2096207.3207518347 1045162.030837059 0 1045162.030837059 3328604.4065856934 0 0 0 0 -2432411.7982124425 1439857.3792476654 0 1439857.3792476654 3397056.4186553955 0 0 0 0 -2839392.05065386 1850642.0401039124 0 1850642.0401039124 4963854.7509765625 0 0 0 0 -4253106.4727151394 677323.9089050293 0 677323.9089050293 5623119.944442749 0 0 0 0 -3375978.8798799515 977307.89926147461 0 977307.89926147461 4464561.6640014648 0 0 0 0 -5547968.5337570459 -818016.23245239258 0 -818016.23245239258 4181541.0097961426 0 0 0 0 -205217.03321534765 381185.11336216331 0 381185.11336216331 544751.7603726536 0 0 0 0 -3427933.4771472365 -832277.53902435303 0 -832277.53902435303 9645662.8695030212 0 0 0 0 -3347305.1099658608 1977688.1859893799 0 1977688.1859893799 6646618.4741477966 0 0 0 0 -2006364.731225729 915099.3440246582 0 915099.3440246582 6083034.0218696594 0 0 0 0 -2948271.7890627682 2419596.8937225342 0 2419596.8937225342 3708993.9905395508 0 0 0 0 -4438734.6345598977 1814960.2954940796 0 1814960.2954940796 8277663.8018493652 0 0 0 0 -4388689.8922864012 3307863.0450019836 0 3307863.0450019836 3581226.1906967163 0 0 0 0 -5673302.0062665287 -1543892.2544527054 0 -1543892.2544527054 6997498.6244659424 0 0 0 0 -5146598.4485531319 4027133.6902294159 0 4027133.6902294159 20763620.489982605 0 0 0 0 -5807438.0268496796 1102070.8574981689 0 1102070.8574981689 11748885.322410583 0 0 0 0 -5452942.794089701 -4843508.5957641602 0 -4843508.5957641602 23537700.101364136 0 0 0 0 -26186587.371786341 -8983147.0334243774 0 -8983147.0334243774 23050578.523803711 0 0 0 0 -9340120.3748974688 6452560.9309539795 0 6452560.9309539795 37176470.003456116 0 0 0 0 1083765.3534296248 13880749.697731018 0 13880749.697731018 31721525.531097412 0 0 0 0 104091.36821219178 -175907.2751115635 0 -175907.2751115635 286618.33116349764 0 0 0 0 -2852238.9738575937 9124153.0318183899 0 9124153.0318183899 26076174.595863342 0 0 0 0 -1778703.4987089336 7714231.7699966431 0 7714231.7699966431 27835343.629909515 0 0 0 0 -4770446.5655497611 2909612.0005569458 0 2909612.0005569458 20976294.14410305 0 0 0 0 323336.48460427299 2447304.8888206482 0 2447304.8888206482 21380644.830054283 0 0 0 0 -897176.71843878925 2137434.9255981445 0 2137434.9255981445 26353183.888633728 0 0 0 0 -7396.1775442896687 6089283.7966642706 0 6089283.7966642706 30823109.825942993 0 0 0 0 12184.764926414489 5543246.8999328613 0 5543246.8999328613 21452566.001922607 0 0 0 0 760.40335477371787 5791.9440300092101 0 5791.9440300092101 16877.388742491603 0 0 0 0 -401626.16992772277 3874344.4300384521 0 3874344.4300384521 19426795.699790955 0 0 0 0 -1614787.6898420295 1616201.2347812653 0 1616201.2347812653 7922588.8356018066 0 0 0 0 -868968.89956587646 5791974.9673614502 0 5791974.9673614502 20063116.980766296 0 0 0 0 3651.7641150763229 2334.9356167688966 0 2334.9356167688966 5739.035437092185 0 0 0 0 2411342.0262499577 6281490.5196533203 0 6281490.5196533203 5658203.9043254852 0 0 0 0 562.57197573610904 1264774.135723114 0 1264774.135723114 4315487.0676956177 0 0 0 0 111069.73444015013 700208.82947254181 0 700208.82947254181 3649388.9564361572 0 0 0 0 -12226099.444871113 9815727.4412994385 0 9815727.4412994385 82873297.460914612 0 0 0 0 6114476.195878163 32444521.420448303 0 32444521.420448303 719552.93835449219 0 0 0 0 -12870340.338265724 13570469.228038788 0 13570469.228038788 146777010.66238403 0 0 0 0 -3435868.2016542554 10433696.790016174 0 10433696.790016174 82226673.888240814 0 0 0 0 36164395.918459892 -4542015.7307815552 0 -4542015.7307815552 -52849476.276695251 0 0 0 0 23559968.302434444 75722095.600494385 0 75722095.600494385 247693647.68951416 0 0 0 0 19334522.61917156 16697365.477973938 0 16697365.477973938 82573747.862518311 0 0 0 0 83999836.71098727 -5543706.5048217773 0 -5543706.5048217773 143239627.97568512 0 0 0 0 14797945.71526289 2662806.0650634766 0 2662806.0650634766 144375206.36891174 0 0 0 0 113438391.68650633 58378899.383987427 0 58378899.383987427 119070284.51673126 0 0 0 0 56377327.068232596 63755729.997344971 0 63755729.997344971 120859479.70829773 0 0 0 0 10188132.368799478 5522690.5681266785 0 5522690.5681266785 78931078.0362854 0 0 0 0 6821736.453364253 56229963.212120056 0 56229963.212120056 49416345.612304688 0 0 0 0 1654290.0420301855 -3886362.3901901245 0 -3886362.3901901245 76210630.444252014 0 0 0 0 -647670.31849591807 307633.25577414036 0 307633.25577414036 1098554.5852135718 0 0 0 0 45375683.154032022 -99125467.181762695 0 -99125467.181762695 143330090.10372829 0 0 0 0 -36910476.596995786 19030500.255512238 0 19030500.255512238 -3454937.0457878113 0 0 0 0 -15827682.110930614 97132251.310018539 0 97132251.310018539 -74110652.464172363 0 0 0 0 3301588.1230063364 -1512891.9898834229 0 -1512891.9898834229 -48161175.532470703 0 0 0 0 -2697.455710218067 33050524.006910376 0 33050524.006910376 4978807.8297271729 0 0 0 0 54569462.686285913 -147034577.58535004 0 -147034577.58535004 276938024.67412752 0 0 0 0 -22818.994451597129 34903903.254145928 0 34903903.254145928 -71062647.890548706 0 0 0 0 -191973.07803665422 59210.921845234931 0 59210.921845234931 561579.55953317881 0 0 0 0 420279.49476849835 -42550470.093493581 0 -42550470.093493581 275435492.01591492 0 0 0 0 43695505.306554466 -70580916.664108276 0 -70580916.664108276 236675068.46993256 0 0 0 0 82677.250875623446 -145131.0808172673 0 -145131.0808172673 264191.06005134061 0 0 0 0 -31849162.582331669 -9759112.8862686157 0 -9759112.8862686157 194855972.8303299 0 0 0 0 23485463.838157468 -71173719.929145813 0 -71173719.929145813 148604468.13558578 0 0 0 0 81592648.213559836 -95219510.93635273 0 -95219510.93635273 155537538.46520233 0 0 0 0 19206233.456631284 -40087393.714737892 0 -40087393.714737892 111597087.06718445 0 0 0 0 19121122.242881279 -13497377.279438019 0 -13497377.279438019 58632826.873239517 0 0 0 0 -1614047.9677522182 2604059.506980896 0 2604059.506980896 42994707.286331177 0 0 0 0 -9396556.5029975623 -13646189.224323273 0 -13646189.224323273 102003379.79564667 0 0 0 0 15941718.518305466 -48449790.722465515 0 -48449790.722465515 97452489.151339531 0 0 0 0 3751572.0692086518 -33550363.711971283 0 -33550363.711971283 88057279.86366272 0 0 0 0 -1045282.4944596738 -38837551.722290039 0 -38837551.722290039 109200775.35871887 0 0 0 0 19546222.177815706 -53568273.817481995 0 -53568273.817481995 100259725.25007248 0 0 0 0 24339749.333903491 -48529151.794897079 0 -48529151.794897079 97313234.319160461 0 0 0 0 7477020.6226646304 -43306549.163150787 0 -43306549.163150787 95080842.267700195 0 0 0 0 55648863.882721409 -72727785.212608337 0 -72727785.212608337 109377056.68714428 0 0 0 0 -72994611.309950948 -55272529.309188843 0 -55272529.309188843 11150735.465065002 0 0 0 0 389949.16559577623 47786.01549526304 0 47786.01549526304 169666.49564771354 0 0 0 0 -16957248.024524212 115322271.99549866 0 115322271.99549866 227294992.42781925 0 0 0 0 -37603588.890964627 66241016.384166718 0 66241016.384166718 36016460.717071533 0 0 0 0 -107885501.91923988 -27351380.744274139 0 -27351380.744274139 142278052.86484528 0 0 0 0 -58766553.18178013 74547955.332830429 0 74547955.332830429 225293255.09791565 0 0 0 0 -1468300.8077387479 193283.82143928856 0 193283.82143928856 1480531.8343694061 0 0 0 0 23762529.28708604 -57783491.073692322 0 -57783491.073692322 98501105.837239742 0 0 0 0 25947569.809222169 -52858984.789522171 0 -52858984.789522171 85704866.146881104 0 0 0 0 8092638.1634320915 -40235153.335662842 0 -40235153.335662842 91264387.573791504 0 0 0 0 18523221.5141415 -38133984.873435974 0 -38133984.873435974 59150119.906595953 0 0 0 0 1651277.3726324439 -37646933.224456787 0 -37646933.224456787 104303219.13007355 0 0 0 0 6934095.1794846654 -30487031.04334259 0 -30487031.04334259 71160475.540405273 0 0 0 0 21645334.064175427 -53562338.875293732 0 -53562338.875293732 94400362.091201782 0 0 0 0 10301739.570892006 -42663805.537036896 0 -42663805.537036896 86210809.826599121 0 0 0 0 31573691.640916944 -29851349.897338867 0 -29851349.897338867 86318978.000137329 0 0 0 0 22945808.227570176 -33628024.246902466 0 -33628024.246902466 88760721.224514008 0 0 0 0 3787927.5779612064 -34478974.566858292 0 -34478974.566858292 98675182.75112915 0 0 0 0 10420498.305354178 -41802730.698740005 0 -41802730.698740005 90077047.431060791 0 0 0 0 7719896.6569949985 -42670633.028190613 0 -42670633.028190613 96744286.121086121 0 0 0 0 -274136.51191037893 -37057729.499725342 0 -37057729.499725342 99821952.077777863 0 0 0 0 7689.7431621551514 -33488278.472740173 0 -33488278.472740173 90911311.294870377 0 0 0 0 4499641.8150296807 -37205843.548568726 0 -37205843.548568726 90152864.961791992 0 0 0 0 6536901.1885445714 -28841936.144287109 0 -28841936.144287109 71257878.590499878 0 0 0 0 8632859.8205046058 -34178532.078994751 0 -34178532.078994751 69389114.327484131 0 0 0 0 3198917.711502254 -37605985.016281128 0 -37605985.016281128 81923434.206451416 0 0 0 0 8006244.1652709842 -15574741.181854248 0 -15574741.181854248 38928503.626495361 0 0 0 0 191697.67606759071 -4794100.2805328369 0 -4794100.2805328369 28330810.960235596 0 0 0 0 -2580334.5510828495 -15739127.340690613 0 -15739127.340690613 84453355.128736496 0 0 0 0 13854875.353838205 -19456700.826385498 0 -19456700.826385498 33878175.666091919 0 0 0 0 6777315.7780507207 -9172081.7438049316 0 -9172081.7438049316 29078565.165374756 0 0 0 0 -13567773.464816093 3441876.8777770996 0 3441876.8777770996 21448478.601593018 0 0 0 0 875235.32422230428 2117880.1207992807 0 2117880.1207992807 3226740.8959474713 0 0 0 0 -4351538.6202897131 8400945.4847602844 0 8400945.4847602844 18597748.496429443 0 0 0 0 -5062777.9390300512 9071018.7548751831 0 9071018.7548751831 11897495.772705078 0 0 0 0 13259522.585155249 -8312539.960357666 0 -8312539.960357666 15330765.397228241 0 0 0 0 19354872.872095466 -32491086.600158691 0 -32491086.600158691 34836325.427043915 0 0 0 0 39962563.176413298 -13980208.111495972 0 -13980208.111495972 -11416684.296554565 0 0 0 0 53842920.524724245 -47498925.381721497 0 -47498925.381721497 27006847.236877441 0 0 0 0 438882.77245958534 653219.911117048 0 653219.911117048 306818.67120429873 0 0 0 0 -18502009.859074086 24245673.225923538 0 24245673.225923538 45363064.081497192 0 0 0 0 16705714.670072079 -26477330.258255005 0 -26477330.258255005 38375385.298461914 0 0 0 0 31972016.239609718 -61349174.672142029 0 -61349174.672142029 66617212.001800537 0 0 0 0 13786756.954888582 -30413215.49243927 0 -30413215.49243927 113714183.28726196 0 0 0 0 10021628.415192842 -40901675.693374634 0 -40901675.693374634 89151420.017440796 0 0 0 0 28561353.622874439 -42619161.842788696 0 -42619161.842788696 70929527.241378784 0 0 0 0 13020741.17518568 -19603299.103178024 0 -19603299.103178024 16293122.145202637 0 0 0 0 -5305512.2613096237 -22908635.218917847 0 -22908635.218917847 85227722.75604248 0 0 0 0 23881860.753142118 -1359368.4754180908 0 -1359368.4754180908 -5514486.9048995972 0 0 0 0 1896440.7552867651 3483334.3853803128 0 3483334.3853803128 3047025.006246835 0 0 0 0 1493419.6898990418 1446982.2344437316 0 1446982.2344437316 996182.79764865898 0 0 0 0 541516.76733222604 1429432.3483710289 0 1429432.3483710289 427928.29304504395 0 0 0 0 5583830.312731266 6945015.2256584167 0 6945015.2256584167 9842087.1898565292 0 0 0 0 2559470.3571876287 4681508.26471138 0 4681508.26471138 9461232.0878143311 0 0 0 0 2176098.8975911858 4493114.2013647482 0 4493114.2013647482 661998.68388181552 0 0 0 0 2050556.0090460777 4844821.9069747925 0 4844821.9069747925 13321712.865104437 0 0 0 0 646568.33284921944 61062.487140417099 0 61062.487140417099 -1460072.4365001246 0 0 0 0 13534565.195307076 11008992.657990456 0 11008992.657990456 17724887.767921448 0 0 0 0 -1326069.0326510668 -19313264.254871368 0 -19313264.254871368 49089652.990264893 0 0 0 0 39293999.933391213 -43861099.562149048 0 -43861099.562149048 64071248.933578491 0 0 0 0 28499641.293388635 -14890992.309926987 0 -14890992.309926987 47436107.517974854 0 0 0 0 21379321.717020392 -20670841.420677185 0 -20670841.420677185 44664898.121482849 0 0 0 0 29631305.63299489 -47919183.396987915 0 -47919183.396987915 75432444.011802673 0 0 0 0 13982217.624157071 -42453531.673492432 0 -42453531.673492432 79154027.524894714 0 0 0 0 61307623.959837198 -84137422.727928162 0 -84137422.727928162 100097952.85799217 0 0 0 0 20649874.459333181 -42479417.000205994 0 -42479417.000205994 85986120.469192505 0 0 0 0 47009521.433704376 -44966797.044635773 0 -44966797.044635773 82871155.268005371 0 0 0 0 48646361.914049983 -52294064.91476059 0 -52294064.91476059 61305435.697128296 0 0 0 0 56074711.472798467 -100561408.6596489 0 -100561408.6596489 117093535.10160065 0 0 0 0 46698797.459604502 -84296948.878196716 0 -84296948.878196716 88886661.673736572 0 0 0 0 37985771.005003035 -58527548.923030853 0 -58527548.923030853 -91536686.375534058 0 0 0 0 -796321.02488678694 -40185582.43000412 0 -40185582.43000412 211585985.93941498 0 0 0 0 160098.70186159818 -10715.053900450468 0 -10715.053900450468 81244.120447598398 0 0 0 0 -33089641.638725996 -4125282.8646850586 0 -4125282.8646850586 41457477.847129822 0 0 0 0 40931952.902173519 -101098796.69671249 0 -101098796.69671249 42080400.641952515 0 0 0 0 -11358641.034894425 -10110288.4229092 0 -10110288.4229092 101655365.59675598 0 0 0 0 -10832942.408007979 -33234346.32910943 0 -33234346.32910943 63681955.028701782 0 0 0 0 24405818.499774337 -37684143.30216217 0 -37684143.30216217 121956661.68591309 0 0 0 0 29450622.81913127 -12337415.252429008 0 -12337415.252429008 168299830.63583374 0 0 0 0 -35202700.490329266 35055251.639551163 0 35055251.639551163 353043765.68491364 0 0 0 0 33148885.220368266 113343959.26138115 0 113343959.26138115 304869839.18763733 0 0 0 0 -24692628.952732466 33890826.704880714 0 33890826.704880714 118912543.97661591 0 0 0 0 -20380060.990253747 56225973.68901062 0 56225973.68901062 234402217.06138611 0 0 0 0 -15561190.937645823 20728883.851337433 0 20728883.851337433 87853272.144355774 0 0 0 0 -16589667.028692007 81682327.421512604 0 81682327.421512604 364414138.3177948 0 0 0 0 -53695.409423692967 290803.09013347328 0 290803.09013347328 283517.05333745293 0 0 0 0 -39250.043791554752 450034.9916754663 0 450034.9916754663 336588.20792752504 0 0 0 0 2578944.8316760883 -8359806.5066242218 0 -8359806.5066242218 105987952.39214325 0 0 0 0 -10372217.76386188 -153133.62103652954 0 -153133.62103652954 137549397.49610901 0 0 0 0 -13301934.807957053 5944400.4251403809 0 5944400.4251403809 104056813.11678123 0 0 0 0 5701380.5146567523 -3422068.4727420807 0 -3422068.4727420807 63828978.274642944 0 0 0 0 -884085.03066897392 7684948.3408508301 0 7684948.3408508301 45239835.332046509 0 0 0 0 -42749315.526597738 -13641679.914985657 0 -13641679.914985657 132622206.40497398 0 0 0 0 -25823298.353189886 -13823067.699111938 0 -13823067.699111938 81688975.72077179 0 0 0 0 -21657081.524142712 -2884780.2630844116 0 -2884780.2630844116 62395633.343109131 0 0 0 0 26942.559322119574 -488539.34891498834 0 -488539.34891498834 567055.81050869077 0 0 0 0 -6479262.1341267824 -12572880.249420166 0 -12572880.249420166 -15621406.18737793 0 0 0 0 8776834.9908659458 -27461915.508216858 0 -27461915.508216858 67490454.624298096 0 0 0 0 113486.95542305341 -156525.82850426435 0 -156525.82850426435 206597.86334171891 0 0 0 0 -31526409.144710183 -41331474.59299469 0 -41331474.59299469 34356926.335189819 0 0 0 0 -3970276.2800959349 -19892323.025465965 0 -19892323.025465965 81872307.92137146 0 0 0 0 2081382.9561200186 -799118.74833810329 0 -799118.74833810329 139056.74824331701 0 0 0 0 -1867853.3787963723 -511438.61715304852 0 -511438.61715304852 1298367.2197776735 0 0 0 0 9164464.8756663799 -17776695.606132507 0 -17776695.606132507 59129739.830041222 0 0 0 0 3550407.7896698713 -25904399.410079956 0 -25904399.410079956 76497327.720947266 0 0 0 0 -10518651.705497861 -11043860.56256485 0 -11043860.56256485 -2364306.5948524475 0 0 0 0 1960174.6946055889 -21655887.448944092 0 -21655887.448944092 -40955975.511505127 0 0 0 0 -41975076.127359986 -60771310.506187439 0 -60771310.506187439 -67879153.741661072 0 0 0 0 -59167075.205139481 -68868764.181806564 0 -68868764.181806564 -61183770.096168518 0 0 0 0 -69269217.221374691 -45877587.209129333 0 -45877587.209129333 -57654418.665710449 0 0 0 0 777657.07202441851 -44699.495219059289 0 -44699.495219059289 -11583.362384434789 0 0 0 0 -68135157.675916255 -64889499.418014526 0 -64889499.418014526 -68331284.687507629 0 0 0 0 -1329034.5311704837 319281.27084159851 0 319281.27084159851 136303885.43132019 0 0 0 0 12880653.224961326 2334456.934753418 0 2334456.934753418 65779436.641967773 0 0 0 0 -3524986.8573609293 10132737.578144073 0 10132737.578144073 108165184.08320618 0 0 0 0 26468033.788502231 -3405424.6295280457 0 -3405424.6295280457 105506011.84532166 0 0 0 0 -1474239.727774173 85478182.207233429 0 85478182.207233429 152596176.97938538 0 0 0 0 14612897.429543197 90414298.898857117 0 90414298.898857117 -73006366.652824402 0 0 0 0 41035228.703459263 70474469.3371315 0 70474469.3371315 -63396296.502334595 0 0 0 0 -17815397.263061389 34440891.558097839 0 34440891.558097839 94130669.393787384 0 0 0 0 12029.736004676291 169945.28654067963 0 169945.28654067963 119029.50719899498 0 0 0 0 10385226.665787302 -16648363.121570587 0 -16648363.121570587 124761239.03383636 0 0 0 0 -83770356.566407353 9923210.5160064697 0 9923210.5160064697 179204783.71499634 0 0 0 0 -159171247.45868364 -41919641.631252289 0 -41919641.631252289 63721082.385597229 0 0 0 0 -169425.02514210192 -161152.02725280449 0 -161152.02725280449 2858496.694546476 0 0 0 0 -144453661.93313283 77074932.393733978 0 77074932.393733978 118824390.19422913 0 0 0 0 -127992626.01711383 14716481.286125183 0 14716481.286125183 -54386786.90864563 0 0 0 0 -21031228.417929769 66435400.422447205 0 66435400.422447205 -31908058.847595215 0 0 0 0 -27272701.92688483 43434393.092155457 0 43434393.092155457 40928311.286190033 0 0 0 0 -78688453.664112866 22213001.366317749 0 22213001.366317749 38362984.591690063 0 0 0 0 -190441.3150964324 174653.26596480422 0 174653.26596480422 2428179.7427037954 0 0 0 0 6598.2739987289942 5676850.0415039062 0 5676850.0415039062 -2672475.1478805542 0 0 0 0 -6029.4811567205652 2698505.5797691345 0 2698505.5797691345 -687564.27886581421 0 0 0 0 -7786429.229899371 2871727.1044692993 0 2871727.1044692993 1466616.2169494629 0 0 0 0 -5746507.1433737548 5598267.093132019 0 5598267.093132019 -2005297.9031143188 0 0 0 0 -3803600.2625280269 -226180.25047683716 0 -226180.25047683716 3006725.1647644043 0 0 0 0 -45451828.140286535 -18624773.595565796 0 -18624773.595565796 128317588.25466537 0 0 0 0 44390373.595901757 55007924.628578186 0 55007924.628578186 -214386191.23120117 0 0 0 0 -90447309.174749672 -62551059.838821411 0 -62551059.838821411 -50701677.58416748 0 0 0 0 -105567439.31284642 -100215614.65196228 0 -100215614.65196228 -8936910.049987793 0 0 0 0 -17053779.965473711 -207948200.02513123 0 -207948200.02513123 97487939.31072998 0 0 0 0 -86844425.311159745 -43533503.649902344 0 -43533503.649902344 -56528983.033905029 0 0 0 0 -115633745.1870265 -84590726.229049683 0 -84590726.229049683 -18739352.005706787 0 0 0 0 69617.56408774633 -546945.15080581233 0 -546945.15080581233 2047756.9338471442 0 0 0 0 -88127468.930083036 -55256453.978302002 0 -55256453.978302002 -54053329.769981384 0 0 0 0 -109362174.52286288 -50834065.56502533 0 -50834065.56502533 -47745634.305847168 0 0 0 0 -81638540.392055213 -64409113.504829407 0 -64409113.504829407 -41429516.128417969 0 0 0 0 37384.503697907669 -79889.068080155179 0 -79889.068080155179 39014.685145586729 0 0 0 0 21718513.778209597 39707922.95413208 0 39707922.95413208 129358611.75685883 0 0 0 0 39254797.609319568 113407053.24436951 0 113407053.24436951 285103818.80322266 0 0 0 0 16572.394687791319 40970843.332500458 0 40970843.332500458 118371854.25963593 0 0 0 0 133394.04547055386 181860.19718679786 0 181860.19718679786 346503.06994430721 0 0 0 0 -876481.92245166656 608769.3025226593 0 608769.3025226593 2918197.6106338501 0 0 0 0 -5237462.3917370532 39897103.569660187 0 39897103.569660187 132252356.474823 0 0 0 0 70033776.28501302 11374924.051206589 0 11374924.051206589 55497795.58682251 0 0 0 0 35558515.118228316 14794033.54208374 0 14794033.54208374 9438269.8786735535 0 0 0 0 101457070.19836849 25212337.469717026 0 25212337.469717026 10495405.544883728 0 0 0 0 94982904.040414095 -6027336.9472465515 0 -6027336.9472465515 1476933.6937561035 0 0 0 0 53179486.154463768 -13175245.396408081 0 -13175245.396408081 6879900.1901741028 0 0 0 0 115287994.92339683 -3365690.8861732483 0 -3365690.8861732483 60298944.631126404 0 0 0 0 104449129.2241801 56061094.181674957 0 56061094.181674957 112012651.85535431 0 0 0 0 107794308.75446171 44497180.284351349 0 44497180.284351349 33675647.168289185 0 0 0 0 89682214.087570906 12635160.020004272 0 12635160.020004272 59935657.582115173 0 0 0 0 71889882.054525495 68762046.445159912 0 68762046.445159912 84577540.248191833 0 0 0 0 47947258.931604624 47987726.192649841 0 47987726.192649841 79297659.780471802 0 0 0 0 79876673.948378563 35784719.854003906 0 35784719.854003906 109556614.13595581 0 0 0 0 50240583.631766558 69047852.629798889 0 69047852.629798889 143661996.74411011 0 0 0 0 76217392.167691708 52990043.595989227 0 52990043.595989227 6832086.2063903809 0 0 0 0 29007601.775782585 58248501.092506409 0 58248501.092506409 79175089.215805054 0 0 0 0 54475448.677939653 72734198.255821228 0 72734198.255821228 8876348.8761358261 0 0 0 0 56236850.23170054 95471990.366416931 0 95471990.366416931 -30359627.251060486 0 0 0 0 60108753.109939218 30832206.24256897 0 30832206.24256897 55212268.931613922 0 0 0 0 71701015.70843637 66979148.535423279 0 66979148.535423279 23340984.410606384 0 0 0 0 66173186.502744079 56646373.466705322 0 56646373.466705322 12801663.610664368 0 0 0 0 62182406.205221951 32354484.497657776 0 32354484.497657776 -13493984.766067505 0 0 0 0 26987215.246059358 77784931.231452942 0 77784931.231452942 1752819.1360321045 0 0 0 0 18733799.11585331 76715074.336898804 0 76715074.336898804 -50119562.502098083 0 0 0 0 -12272314.084197581 41598946.929693222 0 41598946.929693222 -13192269.087738037 0 0 0 0 60244984.364297241 123518831.84649372 0 123518831.84649372 -6597179.324508667 0 0 0 0 13112336.436006069 58457047.279701233 0 58457047.279701233 -17865349.396652222 0 0 0 0 6081661.4877405167 101855675.20212173 0 101855675.20212173 24682452.819572449 0 0 0 0 -1702712.0848457813 124030937.01994324 0 124030937.01994324 93729936.40272522 0 0 0 0 105026593.00345922 -8611188.8728675842 0 -8611188.8728675842 -70187048.140113831 0 0 0 0 -64789927.331146836 18255619.12166214 0 18255619.12166214 52893012.641693115 0 0 0 0 87712.023193459376 -119219.0665259026 0 -119219.0665259026 86270.783394888043 0 0 0 0 -107664259.24638283 97260300.333320618 0 97260300.333320618 -18990850.240386963 0 0 0 0 -66354062.297960281 98601860.458885193 0 98601860.458885193 -42506772.650196075 0 0 0 0 -7150956.1430317163 45860834.528312683 0 45860834.528312683 -39956077.636672974 0 0 0 0 -97361905.524298787 40830212.429140091 0 40830212.429140091 -25145743.751846313 0 0 0 0 14169846.900769949 18979255.036689758 0 18979255.036689758 -40296561.941644669 0 0 0 0 8833022.1391049623 10908430.226940155 0 10908430.226940155 -19476713.091522217 0 0 0 0 38113943.158076763 8367420.3155326843 0 8367420.3155326843 -28468937.609619141 0 0 0 0 -19505567.519518197 33837039.242683411 0 33837039.242683411 -28768599.258178711 0 0 0 0 29759950.409543276 21881175.486114502 0 21881175.486114502 -32594078.416870117 0 0 0 0 64986738.636862755 11475728.748413086 0 11475728.748413086 -14706765.76650238 0 0 0 0 17161608.894296169 6707751.8863525391 0 6707751.8863525391 -13216379.409332275 0 0 0 0 54898184.394141674 -21280384.626178741 0 -21280384.626178741 -6234789.6794891357 0 0 0 0 45819944.817449331 -10823965.079818726 0 -10823965.079818726 -14210992.858421326 0 0 0 0 32471520.048575401 -10078441.041603088 0 -10078441.041603088 -8410387.4520797729 0 0 0 0 34349223.563384831 -1557596.1953287125 0 -1557596.1953287125 -20176105.977050781 0 0 0 0 31937459.127044588 -9993575.3843860626 0 -9993575.3843860626 7373677.1167907715 0 0 0 0 42374261.955523968 -21734299.047317505 0 -21734299.047317505 -6924864.2601089478 0 0 0 0 42926948.842861652 -20089184.863845825 0 -20089184.863845825 -2199758.182220459 0 0 0 0 44263162.292479038 -25463377.043792725 0 -25463377.043792725 9866171.2465591431 0 0 0 0 60506896.905294895 -23353484.593139648 0 -23353484.593139648 6457006.9560089111 0 0 0 0 36281512.910492897 -7292225.4266433716 0 -7292225.4266433716 23606747.346664429 0 0 0 0 96182164.754661083 -17582758.037284851 0 -17582758.037284851 6529198.4024200439 0 0 0 0 75173090.420751572 -10819980.981994629 0 -10819980.981994629 12644016.205383301 0 0 0 0 67287885.977636099 -4384798.0230560303 0 -4384798.0230560303 9953938.986328125 0 0 0 0 328834.86699262762 1916524.5322614722 0 1916524.5322614722 368554.70222036541 0 0 0 0 3084862.0206489414 16286735.105564356 0 16286735.105564356 19506094.670776367 0 0 0 0 24701.767910742201 124332.40803759545 0 124332.40803759545 354065.30154827051 0 0 0 0 42895250.459827423 -8107545.1287384033 0 -8107545.1287384033 11289117.963115692 0 0 0 0 71324195.791679382 1926851.3316497803 0 1926851.3316497803 -7731301.6957130432 0 0 0 0 -646499.337847444 265873.98932673968 0 265873.98932673968 9054059.3262679875 0 0 0 0 15378128.971089125 -13822559.945606232 0 -13822559.945606232 5365598.5401649475 0 0 0 0 32953643.675930262 -28269951.754388809 0 -28269951.754388809 -2362184.4005661011 0 0 0 0 -20158722.333332777 12289004.446559906 0 12289004.446559906 13708670.58505249 0 0 0 0 55455216.500224739 -27355081.731163025 0 -27355081.731163025 -5952148.1620941162 0 0 0 0 45734960.762078121 -23955531.569382101 0 -23955531.569382101 -5467464.602355957 0 0 0 0 40926631.938849926 -26058911.437759399 0 -26058911.437759399 -5389069.2015151978 0 0 0 0 37734394.767295957 -22755336.548961639 0 -22755336.548961639 -2720434.7083282471 0 0 0 0 -1932754.7522764206 8032532.2215423584 0 8032532.2215423584 15029668.860359192 0 0 0 0 10536647.936965942 5006335.5257568359 0 5006335.5257568359 3418572.5156288147 0 0 0 0 569471.2824029224 4124189.4252466783 0 4124189.4252466783 638217.78934799321 0 0 0 0 -4431029.2692921162 11445947.917991638 0 11445947.917991638 -1616451.8578920364 0 0 0 0 -1818198.439323891 2871887.3670675755 0 2871887.3670675755 16123572.45111084 0 0 0 0 13939883.316229582 -3226866.556930542 0 -3226866.556930542 -10168828.74152565 0 0 0 0 7422106.0870223045 21629245.06136322 0 21629245.06136322 7032007.3837966919 0 0 0 0 33715775.40213573 -16799201.59513092 0 -16799201.59513092 34799257.171554565 0 0 0 0 19179705.049039364 8639688.4672698975 0 8639688.4672698975 8763077.4680938721 0 0 0 0 -1810960.8332111835 866955.83190155029 0 866955.83190155029 25036871.37285614 0 0 0 0 -48542864.848629713 1687810.5893211365 0 1687810.5893211365 30159578.527778625 0 0 0 0 -4422802.1947878003 10306771.149166107 0 10306771.149166107 -39571.017562866211 0 0 0 0 19912981.475584507 12965503.614994049 0 12965503.614994049 -8327301.0404510498 0 0 0 0 36907198.305429816 -34224398.773391724 0 -34224398.773391724 36696320.769062042 0 0 0 0 37032573.044039786 -28242091.89636898 0 -28242091.89636898 53562893.077476501 0 0 0 0 31733618.401277065 -25598972.832885742 0 -25598972.832885742 12561141.659301758 0 0 0 0 -47377137.666494861 -34168652.595483541 0 -34168652.595483541 29007700.588150024 0 0 0 0 -123743.01315965925 -479682.28820958082 0 -479682.28820958082 7795360.9490060508 0 0 0 0 31800153.064722776 -15356732.421272278 0 -15356732.421272278 -9351419.4448814392 0 0 0 0 55282795.961173296 -17322408.136127472 0 -17322408.136127472 -25161575.67275238 0 0 0 0 59184365.04297328 28967003.108413696 0 28967003.108413696 65386613.734752655 0 0 0 0 67932132.379845917 -35673487.142616272 0 -35673487.142616272 10110878.379234314 0 0 0 0 -35182.081179523753 -232171.05882006884 0 -232171.05882006884 6049385.54081662 0 0 0 0 -89753544.125844359 -13321690.110954285 0 -13321690.110954285 92315114.598838806 0 0 0 0 154797417.15865278 75187776.004701614 0 75187776.004701614 -46774413.94354248 0 0 0 0 200452640.12801993 294690033.96710205 0 294690033.96710205 316333273.61489868 0 0 0 0 90899.152982154599 -16386.300210074522 0 -16386.300210074522 2482606.6146543771 0 0 0 0 61699925.036201537 131595844.66585159 0 131595844.66585159 328469040.23950195 0 0 0 0 81485753.663357675 130211580.05794144 0 130211580.05794144 178398261.98823547 0 0 0 0 76881450.039988041 -77128158.446899414 0 -77128158.446899414 41194659.924713135 0 0 0 0 -46371193.870557837 -15197448.613262177 0 -15197448.613262177 48713798.223487854 0 0 0 0 154356982.64328337 -201570714.35359955 0 -201570714.35359955 227461363.50081635 0 0 0 0 135266865.0196799 -26344768.235931396 0 -26344768.235931396 -48692725.285301208 0 0 0 0 80031611.433577478 -123817656.86783028 0 -123817656.86783028 186397134.91389465 0 0 0 0 35693096.230998158 -51747443.425422668 0 -51747443.425422668 242614187.00214386 0 0 0 0 46559407.262855768 -16827792.675704956 0 -16827792.675704956 249654552.80374146 0 0 0 0 -1470555.8022683859 -113604729.52919769 0 -113604729.52919769 616867375.40112305 0 0 0 0 143435683.905577 218635591.87244225 0 218635591.87244225 479887617.47496796 0 0 0 0 299233062.3172189 115257361.44330597 0 115257361.44330597 304962891.80155003 0 0 0 0 47732474.017384171 89627150.980098724 0 89627150.980098724 343289380.40649462 0 0 0 0 6764962.0354145765 165099403.84257698 0 165099403.84257698 471067285.56614685 0 0 0 0 33021375.428425312 173326185.70135117 0 173326185.70135117 320272684.41746426 0 0 0 0 -38958336.851644814 104947993.04673386 0 104947993.04673386 532240677.65757751 0 0 0 0 22751177.929278314 227600842.72651863 0 227600842.72651863 654930144.0401535 0 0 0 0 130497419.70087129 -25766375.328977585 0 -25766375.328977585 612521625.70915985 0 0 0 0 71404543.928728342 90320096.939426422 0 90320096.939426422 445588602.19702148 0 0 0 0 -298897.7102806028 100332171.41333294 0 100332171.41333294 431248604.59539795 0 0 0 0 -40250532.426334858 141155083.61322403 0 141155083.61322403 509647369.43302155 0 0 0 0 -18943972.98416245 104556395.94221497 0 104556395.94221497 561987059.03050613 0 0 0 0 8992643.3663140535 227657683.4679718 0 227657683.4679718 469828827.17197418 0 0 0 0 -29292395.401438773 115576901.13905716 0 115576901.13905716 619479693.72264099 0 0 0 0 16156545.155298233 63740804.583629608 0 63740804.583629608 448691365.9296875 0 0 0 0 83562308.744274288 -56542959.31394577 0 -56542959.31394577 662459476.47544861 0 0 0 0 -28774801.882482648 86087893.073497772 0 86087893.073497772 558028261.83904648 0 0 0 0 52622744.622822642 62008959.141845703 0 62008959.141845703 347966788.17792892 0 0 0 0 54924980.462038159 85060347.402080536 0 85060347.402080536 301922366.32653809 0 0 0 0 85863196.497020602 -4440402.7551574707 0 -4440402.7551574707 450602974.19073188 0 0 0 0 117411336.31309086 59885503.198898315 0 59885503.198898315 320934162.59591675 0 0 0 0 142206907.7650919 8786288.0130233765 0 8786288.0130233765 267836811.52074432 0 0 0 0 114244496.65291688 61314546.024323642 0 61314546.024323642 203411028.26208496 0 0 0 0 115353069.29939684 -5535360.0064638257 0 -5535360.0064638257 222148045.10434723 0 0 0 0 90398955.040836811 53688691.383243561 0 53688691.383243561 149913917.04659653 0 0 0 0 87469347.332671762 -5706355.3302192688 0 -5706355.3302192688 104485800.36345673 0 0 0 0 56474112.554664373 91548748.645904541 0 91548748.645904541 271796872.20704651 0 0 0 0 96771384.893560171 60728342.455986023 0 60728342.455986023 208515545.70071936 0 0 0 0 55148988.546495318 74970380.916927338 0 74970380.916927338 218036330.78611755 0 0 0 0 23284729.421324849 73178308.653873444 0 73178308.653873444 217943158.98408508 0 0 0 0 65634760.665154099 68300923.472202301 0 68300923.472202301 208163522.1552887 0 0 0 0 69442099.441701531 56023441.576454163 0 56023441.576454163 146125537.79449463 0 0 0 0 107716068.34990239 67039021.033874512 0 67039021.033874512 130692172.19856262 0 0 0 0 136239870.34294057 17474545.984420776 0 17474545.984420776 132458188.42995834 0 0 0 0 88073230.139305592 53654478.787570953 0 53654478.787570953 192770297.58013916 0 0 0 0 91026822.436793029 75911179.511745453 0 75911179.511745453 280095811.74684143 0 0 0 0 143133427.783687 44326805.204185486 0 44326805.204185486 194275540.60495567 0 0 0 0 141792481.14090002 63898703.167987823 0 63898703.167987823 280224775.85595703 0 0 0 0 130390050.20272559 66437649.353729248 0 66437649.353729248 266348656.58757019 0 0 0 0 182921593.23563808 22332501.254806519 0 22332501.254806519 303111976.58127594 0 0 0 0 127265153.47095644 9382519.6577911377 0 9382519.6577911377 432389020.15913391 0 0 0 0 150480370.81193084 102527285.83272934 0 102527285.83272934 384036033.52636719 0 0 0 0 117670362.15203595 134054050.69286346 0 134054050.69286346 362604480.15962219 0 0 0 0 43351217.484312177 126789953.52178192 0 126789953.52178192 432166084.85897827 0 0 0 0 83286506.81635797 79010472.813476562 0 79010472.813476562 274529749.05958557 0 0 0 0 25985089.716023326 92277348.964614868 0 92277348.964614868 319565943.292099 0 0 0 0 26145635.741864204 98622129.050266266 0 98622129.050266266 393406800.80279541 0 0 0 0 125457296.62485372 192987479.24681664 0 192987479.24681664 627516624.17292786 0 0 0 0 91207336.305622101 108416070.88694 0 108416070.88694 428380378.2050972 0 0 0 0 -11507813.746064544 71336228.142448425 0 71336228.142448425 608660143.35386658 0 0 0 0 243740803.55228364 7755794.2536315918 0 7755794.2536315918 432398331.59955311 0 0 0 0 293437946.21440268 81224653.147415161 0 81224653.147415161 386584539.34488678 0 0 0 0 545614597.1250912 -31906037.287109375 0 -31906037.287109375 517838163.46908951 0 0 0 0 211315288.21333978 15019023.595592499 0 15019023.595592499 512412186.17085266 0 0 0 0 139857187.06288457 -315358226.16027832 0 -315358226.16027832 590018627.43255615 0 0 0 0 96700497.336194187 -118961026.38077164 0 -118961026.38077164 1030627137.5297699 0 0 0 0 173398443.65259922 223772231.58978653 0 223772231.58978653 1114694627.7672729 0 0 0 0 -4203629.0451101363 350450481.37218094 0 350450481.37218094 667666821.60498047 0 0 0 0 -12784290.278778076 -3193759.981880188 0 -3193759.981880188 647522982.21218872 0 0 0 0 58565354.394252479 671906.0671043396 0 671906.0671043396 681329336.25992966 0 0 0 0 54391825.970268667 25555278.659286499 0 25555278.659286499 536821002.90687561 0 0 0 0 39340647.634863377 -214776014.5911026 0 -214776014.5911026 639528697.72705078 0 0 0 0 7685514.5262186527 -117027441.80308533 0 -117027441.80308533 418377758.79410553 0 0 0 0 -53167016.973658562 -28861770.158798218 0 -28861770.158798218 492508866.47525024 0 0 0 0 2175413.2122548819 -129205657.95202255 0 -129205657.95202255 409071416.92510986 0 0 0 0 -15424858.892414659 -24899947.648652077 0 -24899947.648652077 471264381.27970886 0 0 0 0 -86432713.629062653 48767414.153900146 0 48767414.153900146 416640884.42057133 0 0 0 0 -52007035.089434326 -19244144.339004517 0 -19244144.339004517 366638820.59259033 0 0 0 0 -58432192.183806419 36669833.444587708 0 36669833.444587708 337430640.04319763 0 0 0 0 -65446162.1956563 19111229.375465393 0 19111229.375465393 299645118.78713608 0 0 0 0 -97380825.119639397 77469005.450685501 0 77469005.450685501 339739031.03250885 0 0 0 0 -71444319.57440877 -16265304.470146179 0 -16265304.470146179 408010130.90483093 0 0 0 0 -92161227.120688677 49392126.458019257 0 49392126.458019257 427350865.8477478 0 0 0 0 -131186159.50799203 70588396.278152466 0 70588396.278152466 424777214.40380096 0 0 0 0 -110874138.77575064 78059980.103164673 0 78059980.103164673 422730877.48109436 0 0 0 0 -82326457.277066827 61771033.115604401 0 61771033.115604401 409159224.45472717 0 0 0 0 -71896578.981080532 85367343.268028259 0 85367343.268028259 462338074.84117889 0 0 0 0 -44786476.717414856 55225410.921977997 0 55225410.921977997 440320636.75265503 0 0 0 0 -11883316.330734558 81053924.388781548 0 81053924.388781548 455980855.99354553 0 0 0 0 -65970675.810137987 48055615.556022644 0 48055615.556022644 541597446.13104248 0 0 0 0 -69357528.632071376 27575588.275968552 0 27575588.275968552 442117093.65768433 0 0 0 0 51849267.405246675 120401238.91945505 0 120401238.91945505 200329453.45610809 0 0 0 0 48978722.458395958 194921505.85814667 0 194921505.85814667 197212577.21422005 0 0 0 0 -119180096.28528595 104035698.25780487 0 104035698.25780487 409600683.28096771 0 0 0 0 -126852737.93618208 151979548.35112 0 151979548.35112 442469251.75526428 0 0 0 0 -129948568.41601181 76560989.247299194 0 76560989.247299194 438787731.4757576 0 0 0 0 -98031269.323886395 238048614.10249329 0 238048614.10249329 619499171.34703064 0 0 0 0 95026270.440076828 305423212.4152298 0 305423212.4152298 374904584.15562439 0 0 0 0 99367526.221007138 197905595.25612974 0 197905595.25612974 74652739.866958618 0 0 0 0 -158167802.92964876 198331642.9250021 0 198331642.9250021 1047698521.8308258 0 0 0 0 -213340076.10850143 21863272.841716766 0 21863272.841716766 542885586.82252884 0 0 0 0 -99942282.582718849 -346406.2028427124 0 -346406.2028427124 381028127.83705759 0 0 0 0 -127300520.9995935 44434411.44695282 0 44434411.44695282 385423028.92015076 0 0 0 0 -134468242.93293834 39913690.015148163 0 39913690.015148163 401477724.44502258 0 0 0 0 -96811264.800700545 26656009.988819122 0 26656009.988819122 232211733.41517639 0 0 0 0 -97692232.879662991 77366950.776779175 0 77366950.776779175 209280822.97624969 0 0 0 0 -42664311.721457005 46430815.93201828 0 46430815.93201828 134138815.46240997 0 0 0 0 -63017108.509216309 79443601.151786804 0 79443601.151786804 149156956.01169586 0 0 0 0 -14330227.864359178 48262683.493750632 0 48262683.493750632 62800880.18572998 0 0 0 0 -10527728.413902283 -46936969.841941833 0 -46936969.841941833 163950115.3704834 0 0 0 0 -61655512.80166769 80872041.763366699 0 80872041.763366699 337608966.48049164 0 0 0 0 -57547248.654517651 82941854.016197205 0 82941854.016197205 298533459.70450592 0 0 0 0 -33317683.439061403 112771053.414814 0 112771053.414814 426014071.57855225 0 0 0 0 -47004849.754655361 77478499.624832153 0 77478499.624832153 335333186.854702 0 0 0 0 -92995409.397403002 89412925.729156494 0 89412925.729156494 427398789.9841156 0 0 0 0 -98774380.545804977 70856268.207679749 0 70856268.207679749 376611409.82495117 0 0 0 0 -98481748.698134184 69629123.119422913 0 69629123.119422913 348083308.58876038 0 0 0 0 -116951627.36626673 62363264.606056213 0 62363264.606056213 372977611.27659607 0 0 0 0 -83131991.9458763 48721173.8657794 0 48721173.8657794 264523267.99555969 0 0 0 0 -81138603.35998702 80256462.834342957 0 80256462.834342957 242358384.00525665 0 0 0 0 -117169949.87262249 35099536.130210876 0 35099536.130210876 332775771.18710709 0 0 0 0 -106228062.63999605 89792946.703140259 0 89792946.703140259 174794637.38293457 0 0 0 0 -84030524.047425985 44677917.102832794 0 44677917.102832794 200576070.55096436 0 0 0 0 -48927389.183195829 80810326.901855469 0 80810326.901855469 204013701.6940918 0 0 0 0 -34651151.253602266 47694335.20450592 0 47694335.20450592 176257243.44140625 0 0 0 0 -8428340.0512313843 85970301.67035675 0 85970301.67035675 318900856.90151596 0 0 0 0 -10699756.335133553 68295418.116966248 0 68295418.116966248 246090291.78459167 0 0 0 0 22049067.764929891 55687643.970355988 0 55687643.970355988 158094571.69160461 0 0 0 0 -25231512.335675716 77600256.033721924 0 77600256.033721924 246806287.26071882 0 0 0 0 -1700690.4915783405 60324827.858917236 0 60324827.858917236 158373958.68133116 0 0 0 0 -1838127.1192133427 47157621.839473724 0 47157621.839473724 96194457.667022705 0 0 0 0 -51024737.187726736 62381327.285469055 0 62381327.285469055 172934414.07690239 0 0 0 0 -45707638.403004527 63891386.284873962 0 63891386.284873962 121320077.24154663 0 0 0 0 -33965957.854047418 44022051.29391861 0 44022051.29391861 34453285.903701782 0 0 0 0 26674155.923458695 42607640.644550323 0 42607640.644550323 4483869.6775665283 0 0 0 0 -40107553.552573442 46378153.402076721 0 46378153.402076721 96178926.646265984 0 0 0 0 55781182.799123973 75849247.711679459 0 75849247.711679459 -73217878.936309814 0 0 0 0 5320000.7008800507 43488344.977310181 0 43488344.977310181 6142030.63230896 0 0 0 0 2280303.1521481276 28929829.585847855 0 28929829.585847855 -62845848.004974365 0 0 0 0 -113717558.73565626 32900414.864997864 0 32900414.864997864 33019331.633712769 0 0 0 0 57646741.708806753 54602806.204734802 0 54602806.204734802 -150494991.75071716 0 0 0 0 -55185737.598637104 13695993.974838257 0 13695993.974838257 -66517865.234367371 0 0 0 0 -69542993.947142661 -34192739.806930542 0 -34192739.806930542 -151294745.45965576 0 0 0 0 -13563427.449793816 13937947.648742676 0 13937947.648742676 -152845688.74580145 0 0 0 0 -12318910.845431328 953169.90560913086 0 953169.90560913086 -190454785.84518433 0 0 0 0 59772669.48844552 86673205.358146667 0 86673205.358146667 -62382677.845336914 0 0 0 0 -195951682.37942684 89733206.98049736 0 89733206.98049736 -87357663.17401123 0 0 0 0 -219718844.82346869 159654029.24844742 0 159654029.24844742 -68720964.089141846 0 0 0 0 -88981868.707852364 156471718.3759613 0 156471718.3759613 -185123098.91549683 0 0 0 0 -134109616.61764812 153548101.26165771 0 153548101.26165771 -185221217.71411514 0 0 0 0 -499459405.5401752 197027561.86201477 0 197027561.86201477 -119150258.53130341 0 0 0 0 -174580639.02396441 119394264.66551208 0 119394264.66551208 -62586049.041946411 0 0 0 0 -97891717.690286636 29886036.456436157 0 29886036.456436157 -12188635.730089188 0 0 0 0 -262900173.27399373 21864741.808807373 0 21864741.808807373 -12512523.455505371 0 0 0 0 -183625515.90190887 77945453.421142578 0 77945453.421142578 50079628.727722168 0 0 0 0 -124973274.00403881 117890286.02388 0 117890286.02388 -5769417.6803283691 0 0 0 0 -194423899.98783684 100166633.56048584 0 100166633.56048584 -10254571.80909729 0 0 0 0 -117284573.59944773 133297328.00665283 0 133297328.00665283 -65451756.466339111 0 0 0 0 -120471928.08233643 85563941.526168823 0 85563941.526168823 37850301.6693573 0 0 0 0 -94557816.992112994 92783688.396442413 0 92783688.396442413 77595198.787338257 0 0 0 0 -125670416.54807508 112614217.46318913 0 112614217.46318913 71206411.53427124 0 0 0 0 -98826155.171485662 36034764.683700562 0 36034764.683700562 108319850.06591797 0 0 0 0 -94212714.225313425 81745448.701217651 0 81745448.701217651 83357756.776901245 0 0 0 0 -114542628.0018883 55583986.078359604 0 55583986.078359604 55774854.74029541 0 0 0 0 -84574428.464310646 48280438.611213684 0 48280438.611213684 181675451.12084961 0 0 0 0 -71694167.755364895 72569778.162902832 0 72569778.162902832 147491136.92941284 0 0 0 0 -105528910.91757154 54712926.565330505 0 54712926.565330505 141291445.73019409 0 0 0 0 -82988296.168914318 59165655.596237183 0 59165655.596237183 139665930.41430664 0 0 0 0 -82610539.426913738 112352479.08925629 0 112352479.08925629 84971440.939506531 0 0 0 0 -54110228.756933689 85301353.161872864 0 85301353.161872864 54699502.694610596 0 0 0 0 -29973291.65776968 106240822.63314056 0 106240822.63314056 -11587897.00567627 0 0 0 0 -30432115.180631161 55435734.504009247 0 55435734.504009247 37671915.465606689 0 0 0 0 -39983065.287462711 92481004.897338867 0 92481004.897338867 46585784.036899567 0 0 0 0 -12292766.663391948 35078379.366595745 0 35078379.366595745 30085062.836090088 0 0 0 0 -15904073.424418449 69354365.705436707 0 69354365.705436707 -53788894.760452271 0 0 0 0 -14003541.745275974 58279868.480169296 0 58279868.480169296 -44222660.390144348 0 0 0 0 -85948449.487074137 128981763.10337067 0 128981763.10337067 -16467244.293548584 0 0 0 0 -32940521.441756725 105303221.17071533 0 105303221.17071533 -49331539.049316406 0 0 0 0 -90849125.730817318 131806642.92015457 0 131806642.92015457 11617946.150238037 0 0 0 0 -125183710.56489849 136612275.74868774 0 136612275.74868774 -17525342.285568237 0 0 0 0 -32207667.525924206 110474931.25993347 0 110474931.25993347 -12983822.633392334 0 0 0 0 -58375492.798788071 138137706.50341034 0 138137706.50341034 -91420014.75692749 0 0 0 0 -89134480.297945023 143137589.43798828 0 143137589.43798828 -92222459.650634766 0 0 0 0 -4373348.5971660614 69607076.887145996 0 69607076.887145996 -143375884.99316406 0 0 0 0 33505800.989063263 52171031.88444519 0 52171031.88444519 -194170496.06484985 0 0 0 0 -65368146.950492382 173220727.15574646 0 173220727.15574646 -305875085.33929443 0 0 0 0 -15186056.740710258 84488017.311248779 0 84488017.311248779 -154354955.92044067 0 0 0 0 32575396.920282125 85976644.782592773 0 85976644.782592773 -307134275.25164795 0 0 0 0 39765768.53513813 75416805.107086182 0 75416805.107086182 -309928208.35150146 0 0 0 0 -843801.73225796921 22610396.815723576 0 22610396.815723576 11380629.161588922 0 0 0 0 -914728.9981443882 40360630.896364212 0 40360630.896364212 -373541.11845016479 0 0 0 0 -20580813.643807411 33255056.492386818 0 33255056.492386818 36697345.33165741 0 0 0 0 -17241803.741632462 27703194.461818695 0 27703194.461818695 27492381.646934509 0 0 0 0 2417715.5173785836 16419389.190135002 0 16419389.190135002 19950594.491882324 0 0 0 0 -7281886.9602189064 51500664.128553391 0 51500664.128553391 30957915.490276337 0 0 0 0 265552.20134198666 38690838.636953354 0 38690838.636953354 57325541.745025635 0 0 0 0 -16583884.599942684 32582346.903316498 0 32582346.903316498 55157187.827091217 0 0 0 0 -6603344.3555913568 41539006.290888786 0 41539006.290888786 127931207.13542175 0 0 0 0 -18052457.578992128 39974110.16660881 0 39974110.16660881 46130860.993133545 0 0 0 0 -11135666.725816727 36672523.211948395 0 36672523.211948395 32881998.291948318 0 0 0 0 -14434503.876817703 19971951.811511993 0 19971951.811511993 57155322.357479095 0 0 0 0 -13014719.994438171 23405731.41456604 0 23405731.41456604 23955226.280483246 0 0 0 0 -18289719.36195302 38326052.107391357 0 38326052.107391357 37422894.396217346 0 0 0 0 -62284632.928220987 -59956653.777503967 0 -59956653.777503967 -146754749.09592772 0 0 0 0 -8807506.213144958 146053092.88481903 0 146053092.88481903 -123117082.55233002 0 0 0 0 -49250672.990275145 77054021.564056396 0 77054021.564056396 226521022.5521698 0 0 0 0 2077841.7854587897 1366335.9283540361 0 1366335.9283540361 566043.28991565108 0 0 0 0 -25721216.506884933 160051785.41899109 0 160051785.41899109 44004570.834869385 0 0 0 0 1432012.4763622284 270709415.51890564 0 270709415.51890564 281722076.97268295 0 0 0 0 100538218.86485195 232287324.1353302 0 232287324.1353302 18758794.257164001 0 0 0 0 60546513.961270787 130424449.92034197 0 130424449.92034197 -97203426.550430298 0 0 0 0 226376604.95171738 404116387.70279694 0 404116387.70279694 21947845.241256714 0 0 0 0 128406182.23823506 172542617.49087334 0 172542617.49087334 -298466623.94326782 0 0 0 0 344450469.86965382 126398797.32962036 0 126398797.32962036 -629555872.80172729 0 0 0 0 -402952490.76243734 -236087202.94612122 0 -236087202.94612122 -267561660.83460999 0 0 0 0 643783.29641424213 18220936.108283978 0 18220936.108283978 32452949.832917072 0 0 0 0 -176310010.39066076 275787916.6897049 0 275787916.6897049 241698458.15795898 0 0 0 0 -432255937.53573704 -179901511.79450989 0 -179901511.79450989 -108954406.34434509 0 0 0 0 -229193221.67953444 267829708.7155304 0 267829708.7155304 -322048488.92654419 0 0 0 0 -92642292.001247406 209031027.19833374 0 209031027.19833374 -407051805.51425934 0 0 0 0 -2230406.7029695865 2277893.7010499313 0 2277893.7010499313 8836132.8680199496 0 0 0 0 -31952305.443101883 56502321.894153595 0 56502321.894153595 270402897.76761246 0 0 0 0 -169977318.24211502 197900958.476017 0 197900958.476017 173311111.63527298 0 0 0 0 27820547.42696619 -494955419.12795639 0 -494955419.12795639 -155021186.02354813 0 0 0 0 198579396.61796188 174207650.33390427 0 174207650.33390427 -274829725.48737049 0 0 0 0 204113183.21733093 206357022.32341003 0 206357022.32341003 -99938957.607242584 0 0 0 0 180304795.93114662 36701452.479085922 0 36701452.479085922 30143314.997241974 0 0 0 0 153317227.26752281 -28588605.65272522 0 -28588605.65272522 -91175336.632615566 0 0 0 0 150547771.00801659 -48718003.011886597 0 -48718003.011886597 -237227835.26023006 0 0 0 0 -24761548.823831558 13586005.982088089 0 13586005.982088089 77026393.641479492 0 0 0 0 206463236.41061306 73577394.094463348 0 73577394.094463348 50308390.895540237 0 0 0 0 168804478.95310211 -44641480.53777504 0 -44641480.53777504 98141761.603507996 0 0 0 0 170459385.25598717 -33091332.049539566 0 -33091332.049539566 58057502.386672974 0 0 0 0 224786300.95941687 32348994.358310699 0 32348994.358310699 122677582.3567543 0 0 0 0 543881516.97277498 275043579.34158707 0 275043579.34158707 -48656632.314590454 0 0 0 0 138980558.76634562 236683609.05292791 0 236683609.05292791 -12520954.535614014 0 0 0 0 138336325.61973858 53163026.899368286 0 53163026.899368286 48418808.391368866 0 0 0 0 -345737406.06205249 475808517.86843681 0 475808517.86843681 138489872.4154129 0 0 0 0 57746758.302071571 251873748.95298767 0 251873748.95298767 -431898.27600860596 0 0 0 0 172776212.40735054 566651724.09984589 0 566651724.09984589 -64930806.173660278 0 0 0 0 277091914.09724236 471397905.79920959 0 471397905.79920959 -29232313.971019745 0 0 0 0 236049909.49161386 445104437.61461639 0 445104437.61461639 -6784771.0136413574 0 0 0 0 774785668.55258751 501207318.16453934 0 501207318.16453934 -11025831.63158226 0 0 0 0 2586960.2921856837 2105000.9471879937 0 2105000.9471879937 530766.97569388896 0 0 0 0 -3277439.3956763744 280756689.82094193 0 280756689.82094193 2098654.3765640259 0 0 0 0 239854850.30796385 -322334535.60947418 0 -322334535.60947418 -231347936.25750732 0 0 0 0 -97272951.825686932 794556718.74725533 0 794556718.74725533 -336343560.021698 0 0 0 0 -205264752.15219626 776402770.62092972 0 776402770.62092972 8276735.8117523193 0 0 0 0 162377964.68648577 604669932.76589584 0 604669932.76589584 -403321994.52713013 0 0 0 0 166791086.45715034 708836972.82502747 0 708836972.82502747 25431277.323562622 0 0 0 0 10933615.505395412 89678428.465789795 0 89678428.465789795 -894567896.61785889 0 0 0 0 52405886.40792799 52803692.515911102 0 52803692.515911102 44505897.658531189 0 0 0 0 38904073.250785589 21945780.539962769 0 21945780.539962769 47685172.714054108 0 0 0 0 163070423.95465523 401198557.68995285 0 401198557.68995285 208548379.86988831 0 0 0 0 21149575.352998972 23782844.64125061 0 23782844.64125061 51205726.377670288 0 0 0 0 25674858.59758997 53071851.08663559 0 53071851.08663559 45969961.735649109 0 0 0 0 33915660.231084883 33557281.154079437 0 33557281.154079437 -29958032.755428314 0 0 0 0 222906.28831728987 7399988.3850511964 0 7399988.3850511964 -977296.62815555185 0 0 0 0 -3046426.2593723526 21888152.793178435 0 21888152.793178435 11993000.148030072 0 0 0 0 22350505.545022607 32610564.67183876 0 32610564.67183876 21202776.383197784 0 0 0 0 244388547.25083494 559068826.14975357 0 559068826.14975357 -396188612.98303986 0 0 0 0 -200216351.31406093 -177875074.95372009 0 -177875074.95372009 450509613.61155701 0 0 0 0 36976936.764772415 18428058.649805069 0 18428058.649805069 46337275.650482178 0 0 0 0 -13024569.568054676 37860707.882549286 0 37860707.882549286 129794125.56989288 0 0 0 0 -2199954.6003717259 -771356.61489430442 0 -771356.61489430442 6511381.3718349738 0 0 0 0 -50731439.541440487 56128454.478694916 0 56128454.478694916 18558165.593669891 0 0 0 0 -5472718.3384368885 8146089.456163194 0 8146089.456163194 35180886.614317462 0 0 0 0 -208539239.86839151 35388707.465553284 0 35388707.465553284 76388347.565578461 0 0 0 0 -59374224.708581448 62158721.829532623 0 62158721.829532623 25493155.141662598 0 0 0 0 143666240.90796542 129360765.97356796 0 129360765.97356796 54569189.631977081 0 0 0 0 305751415.03370571 227790019.80988312 0 227790019.80988312 108176271.37274933 0 0 0 0 55344845.055330276 185506054.33338928 0 185506054.33338928 204123625.08415222 0 0 0 0 124950803.69595528 172051599.42073822 0 172051599.42073822 237756418.67067719 0 0 0 0 52856018.375444412 210812736.93461609 0 210812736.93461609 219044399.91151047 0 0 0 0 209923518.82501793 235854918.32449722 0 235854918.32449722 251350013.82974243 0 0 0 0 66537364.814490318 210407173.35077667 0 210407173.35077667 250264650.20545959 0 0 0 0 333406807.5840416 -61368514.909168243 0 -61368514.909168243 -825450998.60583496 0 0 0 0 -43924684.92401123 64191504.553318024 0 64191504.553318024 336753120.43353271 0 0 0 0 772805.87657941319 -3045325.613873437 0 -3045325.613873437 280740.08822728228 0 0 0 0 119780078.95022488 161240437.34757233 0 161240437.34757233 221177455.40667725 0 0 0 0 76901042.18489933 185621707.5201149 0 185621707.5201149 457933134.57400131 0 0 0 0 105612498.7789526 188253140.5250082 0 188253140.5250082 333464094.76417542 0 0 0 0 290002239.99319458 68388679.153888702 0 68388679.153888702 91104650.423034668 0 0 0 0 220779145.94006157 254851668.14011383 0 254851668.14011383 371973011.46257019 0 0 0 0 357758141.12397957 188130214.65509415 0 188130214.65509415 301272193.80542755 0 0 0 0 -148705936.82349777 38590627.023288727 0 38590627.023288727 62873774.70867157 0 0 0 0 -23938863.897407308 -8329633.6640597219 0 -8329633.6640597219 103039855.8125551 0 0 0 0 286421285.067132 238210405.30990982 0 238210405.30990982 211850414.84894562 0 0 0 0 -108857343.98940539 -25297761.062134504 0 -25297761.062134504 39788267.144500732 0 0 0 0 225074898.78721809 206951616.30356598 0 206951616.30356598 298765663.78798676 0 0 0 0 -272951821.94484329 -27553110.839805603 0 -27553110.839805603 86843646.18183136 0 0 0 0 -268029151.13780975 -394377671.86656094 0 -394377671.86656094 -281106699.84296417 0 0 0 0 -6773395.173532486 84770147.968157768 0 84770147.968157768 -79762131.005550385 0 0 0 0 -288577626.15205336 55216126.745957851 0 55216126.745957851 139368747.62529755 0 0 0 0 224788622.93216324 82495281.494636536 0 82495281.494636536 152088644.82093811 0 0 0 0 85722211.66365841 239520851.94078064 0 239520851.94078064 218626630.5415802 0 0 0 0 -104945692.38704586 242570570.49713135 0 242570570.49713135 283560799.93690491 0 0 0 0 -172765266.56275225 234586950.24140358 0 234586950.24140358 299102230.80688477 0 0 0 0 -108136766.39548302 3773448.5270614624 0 3773448.5270614624 158218861.90932083 0 0 0 0 -377711084.69524336 77339817.753845215 0 77339817.753845215 298538414.39997864 0 0 0 0 -323885883.97100067 -404480880.56797028 0 -404480880.56797028 14487775.453430176 0 0 0 0 -135608223.92024231 -110285322.28202057 0 -110285322.28202057 270094409.69114685 0 0 0 0 -1854632.9885995835 -839598.90770837013 0 -839598.90770837013 3009108.0433241688 0 0 0 0 -23147451.552053478 -12108106.039885841 0 -12108106.039885841 110411411.01180214 0 0 0 0 -494446037.64621353 328443996.45969391 0 328443996.45969391 268279525.41680908 0 0 0 0 -446254371.29556632 260586071.4322052 0 260586071.4322052 363715979.87606812 0 0 0 0 -397623888.04132241 498819244.48389435 0 498819244.48389435 -28752258.100341797 0 0 0 0 14063187.066650391 -157296950.64896393 0 -157296950.64896393 186779277.34158325 0 0 0 0 23517380.68082428 113332474.56968689 0 113332474.56968689 -363523648.11460876 0 0 0 0 -117599934.53949356 -125241235.20228577 0 -125241235.20228577 278535512.3149147 0 0 0 0 -129178520.9405899 -100577116.86859131 0 -100577116.86859131 233605535.23415375 0 0 0 0 -138295042.25035477 -108721761.32294464 0 -108721761.32294464 273742867.42436218 0 0 0 0 -130306016.0608902 -100790238.05005646 0 -100790238.05005646 267531536.36418724 0 0 0 0 -127325178.5501976 -132953456.45949364 0 -132953456.45949364 389037937.23743439 0 0 0 0 -2428798.1020383835 -174212229.8692131 0 -174212229.8692131 280417964.81819916 0 0 0 0 -167695270.84375381 -2418209.9758853912 0 -2418209.9758853912 121055341.62406158 0 0 0 0 -954566.8533100005 2375961.4489985695 0 2375961.4489985695 21521521.735664919 0 0 0 0 -106649765.26803112 98788262.413188934 0 98788262.413188934 93348684.973937988 0 0 0 0 151056153.65469223 274656526.51457596 0 274656526.51457596 171966631.54385376 0 0 0 0 471120035.6272521 232742785.45308685 0 232742785.45308685 174687200.06430817 0 0 0 0 103201752.92588228 225162540.16599274 0 225162540.16599274 193679830.63064575 0 0 0 0 -218008764.67767322 370260325.85118294 0 370260325.85118294 435189691.23979187 0 0 0 0 5569178.0008240938 542740002.67349529 0 542740002.67349529 323912984.69055176 0 0 0 0 -186491485.95666516 310251192.24091339 0 310251192.24091339 139601073.20446777 0 0 0 0 -93129266.982525826 -392292000.62219238 0 -392292000.62219238 -438580730.82617378 0 0 0 0 100634090.64088249 147677089.35939026 0 147677089.35939026 195662056.88117981 0 0 0 0 -142241181.06017685 189858277.80712891 0 189858277.80712891 -525234856.71676636 0 0 0 0 -161979792.4668982 215154072.52459335 0 215154072.52459335 237507212.16702271 0 0 0 0 -196495413.58373141 -479228868.35374451 0 -479228868.35374451 26771584.271099091 0 0 0 0 93520422.466528893 694579795.7376976 0 694579795.7376976 1379305979.8389893 0 0 0 0 360142313.00919724 423048542.96310425 0 423048542.96310425 409882594.6864624 0 0 0 0 1401293845.0018492 772344059.66173553 0 772344059.66173553 232709594.25440979 0 0 0 0 -128509735.39818239 -295695355.56042099 0 -295695355.56042099 439883770.05311203 0 0 0 0 -8604.1450237468816 1823179.9628242981 0 1823179.9628242981 7561317.719309032 0 0 0 0 512043743.67447138 692411321.35702133 0 692411321.35702133 623826587.13357544 0 0 0 0 69380087.538022041 -567584972.76631165 0 -567584972.76631165 1719124227.0824032 0 0 0 0 104435723.41681671 352579190.76553345 0 352579190.76553345 -197155573.01970673 0 0 0 0 920585715.82957673 -113912679.23283005 0 -113912679.23283005 44234537.023193359 0 0 0 0 -272112894.40702057 -9044050.5099105835 0 -9044050.5099105835 147439480.31700897 0 0 0 0 -580911573.27863789 -767355943.4253273 0 -767355943.4253273 277351282.19276428 0 0 0 0 -730987468.95902109 -436758013.20696259 0 -436758013.20696259 280495084.56182861 0 0 0 0 -20078027.688701041 -17963665.818273231 0 -17963665.818273231 109189109.95280628 0 0 0 0 -776393065.88256264 -391411312.97186279 0 -391411312.97186279 559660172.09360504 0 0 0 0 -564459061.87769032 -147721178.1341095 0 -147721178.1341095 696528567.50817871 0 0 0 0 -5644713.411441803 -225190811.04135132 0 -225190811.04135132 534833762.36401367 0 0 0 0 -620228469.15889668 -646646223.60525894 0 -646646223.60525894 674918241.44869995 0 0 0 0 -230548310.29142141 -293489005.44740295 0 -293489005.44740295 1012586625.8008728 0 0 0 0 -185295294.4772079 -609876820.63965988 0 -609876820.63965988 578974372.38171387 0 0 0 0 -228271956.29856873 -10643182.909091949 0 -10643182.909091949 103754294.11663818 0 0 0 0 -204132294.40578079 31180633.602144241 0 31180633.602144241 54653612.043279648 0 0 0 0 -702987291.69825339 -263957980.44483185 0 -263957980.44483185 -1497443732.057373 0 0 0 0 -658995246.06418991 -228670454.10176468 0 -228670454.10176468 136580646.51260376 0 0 0 0 -18263404.678277805 -6347702.733763434 0 -6347702.733763434 23907259.236893103 0 0 0 0 -7720539.6818705369 -7731795.943204131 0 -7731795.943204131 97318307.221134961 0 0 0 0 -197682579.16149616 -249534449.51130676 0 -249534449.51130676 -23758895.228546143 0 0 0 0 -21487680.872844219 -323008960.18829346 0 -323008960.18829346 -535990621.48718643 0 0 0 0 30966876.894446403 -52944473.867612839 0 -52944473.867612839 -64909324.527267456 0 0 0 0 235684938.10719013 156926013.66032791 0 156926013.66032791 83344606.357261658 0 0 0 0 -137049064.50003433 -13227757.790254593 0 -13227757.790254593 216491092.71242332 0 0 0 0 -56571911.000540733 11493370.309008598 0 11493370.309008598 292008338.31462479 0 0 0 0 -91224545.769481659 -47763301.391448975 0 -47763301.391448975 197695934.14369011 0 0 0 0 -117087734.72458649 -61552707.9103508 0 -61552707.9103508 246295133.54489803 0 0 0 0 -100198152.7698288 -11522531.156329632 0 -11522531.156329632 162848418.20368195 0 0 0 0 -145450219.59262466 15713324.667381287 0 15713324.667381287 91258413.085464478 0 0 0 0 -291976705.00351334 90669049.954820633 0 90669049.954820633 134894498.65839386 0 0 0 0 -196330817.7712059 -5743463.8088531494 0 -5743463.8088531494 176046272.2928009 0 0 0 0 -164242017.65180969 11802269.153179169 0 11802269.153179169 127433168.96724701 0 0 0 0 -225312004.97431946 30224686.199394226 0 30224686.199394226 163268725.64161682 0 0 0 0 -164095395.20954132 19690641.353469849 0 19690641.353469849 194585820.85376167 0 0 0 0 -194805857.98873234 81667219.675561905 0 81667219.675561905 99022611.284103394 0 0 0 0 -194471848.95819092 78976194.204483032 0 78976194.204483032 76100269.323455811 0 0 0 0 -178259727.89608288 25961205.129829407 0 25961205.129829407 132158117.33505249 0 0 0 0 -203657205.68911743 38153428.429254532 0 38153428.429254532 156634843.30694199 0 0 0 0 -102733090.00912476 60177363.042546272 0 60177363.042546272 140247514.43053627 0 0 0 0 -80311808.122479677 -38526193.126879811 0 -38526193.126879811 238542571.57279205 0 0 0 0 -5680798.6697912216 -8934555.723772049 0 -8934555.723772049 225502932.72471619 0 0 0 0 -822676.75653266907 -75412857.741549969 0 -75412857.741549969 256335967.62908554 0 0 0 0 117581188.19481373 41528848.512233734 0 41528848.512233734 309490605.76393509 0 0 0 0 245799900.94796181 112146406.32666016 0 112146406.32666016 229590526.25400066 0 0 0 0 -37874207.313874722 20291460.013381004 0 20291460.013381004 355067195.22968864 0 0 0 0 431112997.90252876 495699982.15451336 0 495699982.15451336 521789083.30096054 0 0 0 0 148167295.60555983 206470608.44858885 0 206470608.44858885 249075760.79693604 0 0 0 0 775159725.82442951 341859512.69378662 0 341859512.69378662 20884295.209712267 0 0 0 0 76330902.023437977 61009590.603336334 0 61009590.603336334 57148547.424446106 0 0 0 0 2022465.6413462874 2150380.270733783 0 2150380.270733783 1467075.4482083097 0 0 0 0 1871643.305273056 -193187235.1640625 0 -193187235.1640625 765606157.79292297 0 0 0 0 15444649.962306976 405216660.49103165 0 405216660.49103165 956970463.05730867 0 0 0 0 835120280.17162561 140341206.58317661 0 140341206.58317661 271129186.61190987 0 0 0 0 -43190952.554344177 74142710.240501404 0 74142710.240501404 796638731.20259476 0 0 0 0 325627291.66126204 -120433826.57413673 0 -120433826.57413673 -148537135.41215134 0 0 0 0 1370722.8836895153 -2333116.4677690249 0 -2333116.4677690249 1469940.9002574794 0 0 0 0 -66062238.494254112 123176378.1714983 0 123176378.1714983 297240737.104496 0 0 0 0 1941430.9736976624 54501384.939590454 0 54501384.939590454 149570308.35615826 0 0 0 0 -8036793.7245197296 44157019.893444061 0 44157019.893444061 154420030.76728439 0 0 0 0 -11052489.992101669 -71820823.506717682 0 -71820823.506717682 33291365.582941055 0 0 0 0 42711615.232946396 13596677.641856194 0 13596677.641856194 -23201479.383781433 0 0 0 0 -91969784.520240784 -175289016.68830299 0 -175289016.68830299 -142435961.0708127 0 0 0 0 -145212754.8893795 -33532265.153165817 0 -33532265.153165817 36014610.626493454 0 0 0 0 57796195.03426218 -16200885.99925518 0 -16200885.99925518 27785441.745780945 0 0 0 0 -55736321.273614883 62403353.13285923 0 62403353.13285923 203699045.33501434 0 0 0 0 -19967657.589416504 -110942232.60663223 0 -110942232.60663223 217440588.96078873 0 0 0 0 -167209.2978458479 -2023268.1659907084 0 -2023268.1659907084 1440958.4470576663 0 0 0 0 -170970816.48498344 10016787.814744949 0 10016787.814744949 354635912.20825672 0 0 0 0 112777464.30706155 38372161.736468315 0 38372161.736468315 135034715.55697632 0 0 0 0 140466942.59658122 -42030838.261777878 0 -42030838.261777878 7107586.3644943237 0 0 0 0 35558785.345059156 4596890.2391014099 0 4596890.2391014099 147378049.89162636 0 0 0 0 -225730.26688392553 -668378.03269598633 0 -668378.03269598633 1217616.2585133798 0 0 0 0 87752081.349948585 70288920.472887993 0 70288920.472887993 49412296.923015594 0 0 0 0 118409976.50773442 94905534.222221375 0 94905534.222221375 231747066.68861771 0 0 0 0 108469847.53714466 165722041.36761093 0 165722041.36761093 280138390.73358393 0 0 0 0 -24800174.649324417 87679339.561819077 0 87679339.561819077 303066316.62854052 0 0 0 0 7486818.4115362167 71983271.582371712 0 71983271.582371712 134375574.82310104 0 0 0 0 -21351086.598203182 60974264.976221085 0 60974264.976221085 56565912.876331329 0 0 0 0 43574025.224694252 -85407237.760879517 0 -85407237.760879517 102193104.63472652 0 0 0 0 -8734452.2170381546 265017829.59404945 0 265017829.59404945 432105234.1256628 0 0 0 0 -38119918.692373276 9992167.2330226898 0 9992167.2330226898 574565607.07339096 0 0 0 0 93511784.659560204 270795751.61955261 0 270795751.61955261 346421253.03862 0 0 0 0 1630574.1156936027 -1604358.6851136982 0 -1604358.6851136982 1182260.6831166148 0 0 0 0 256821646.50761604 167221727.88964176 0 167221727.88964176 16101694.529363632 0 0 0 0 322575.96287800185 -962487.90537890419 0 -962487.90537890419 941081.03088151291 0 0 0 0 129058626.82674384 330317208.64469814 0 330317208.64469814 436450390.5050106 0 0 0 0 22895853.905865192 239777820.99253082 0 239777820.99253082 368335751.132658 0 0 0 0 71308187.953018427 117643164.7051053 0 117643164.7051053 245532131.50030327 0 0 0 0 257388305.42565417 225418010.78514481 0 225418010.78514481 239437343.1523605 0 0 0 0 166680519.47663963 154834611.68139076 0 154834611.68139076 168437449.00863457 0 0 0 0 155848792.86521947 144920533.31966543 0 144920533.31966543 291212546.70935059 0 0 0 0 164169609.13731217 232600216.9864254 0 232600216.9864254 298453358.04343033 0 0 0 0 161205870.07576096 217491764.73001862 0 217491764.73001862 270670644.92249012 0 0 0 0 278578117.82895201 226929882.59392452 0 226929882.59392452 269763771.78002167 0 0 0 0 171558835.33704448 233138996.96552753 0 233138996.96552753 282897755.25773621 0 0 0 0 132380456.35757017 89881518.388698578 0 89881518.388698578 138816053.69014931 0 0 0 0 -16009269.35926348 126173553.63062382 0 126173553.63062382 266497211.02675629 0 0 0 0 32301840.831687927 41876727.680967331 0 41876727.680967331 124930702.73283005 0 0 0 0 21797360.610315561 56370623.544489384 0 56370623.544489384 139707259.77905655 0 0 0 0 -58901862.14542675 19356647.821008682 0 19356647.821008682 175901082.81185532 0 0 0 0 -39675074.813911438 29692023.167512894 0 29692023.167512894 181102220.96892929 0 0 0 0 -133495181.13217151 13954277.59797287 0 13954277.59797287 219666510.72549438 0 0 0 0 -190397830.08617973 -157128444.78010941 0 -157128444.78010941 30798312.327507019 0 0 0 0 -214659151.74137306 -5140602.7832813263 0 -5140602.7832813263 153240223.91858101 0 0 0 0 -74468777.050194025 -98893747.504724503 0 -98893747.504724503 -23217906.179336548 0 0 0 0 -44077367.330617905 -23344108.528276443 0 -23344108.528276443 102976034.18920135 0 0 0 0 -70507316.56245327 -5542068.9467926025 0 -5542068.9467926025 138048026.00024986 0 0 0 0 -102406511.98786831 7834877.0906248093 0 7834877.0906248093 251560872.10800171 0 0 0 0 -619750.95050954819 124117626.7482357 0 124117626.7482357 343457629.21417618 0 0 0 0 130055382.80728745 149702660.57051849 0 149702660.57051849 212807188.56453133 0 0 0 0 -37980927.270882607 -114369194.44200897 0 -114369194.44200897 266221741.16054916 0 0 0 0 110344838.36666691 -177758769.80478239 0 -177758769.80478239 669267424.84498978 0 0 0 0 143995469.23384595 223758323.58145714 0 223758323.58145714 387162756.07850266 0 0 0 0 339753319.79453713 320565767.84524202 0 320565767.84524202 411469216.44203949 0 0 0 0 -36675433.448516846 173748121.22507286 0 173748121.22507286 245905237.80835915 0 0 0 0 -72831222.663489342 -165726416.98743343 0 -165726416.98743343 -79995041.690982819 0 0 0 0 -1722390.985506501 -428071.72838523984 0 -428071.72838523984 2597112.9451422207 0 0 0 0 -253172470.8584137 -107663561.09342957 0 -107663561.09342957 174668570.55927277 0 0 0 0 -84170731.901573181 -42109377.659942627 0 -42109377.659942627 41939073.976306915 0 0 0 0 -28196321.360519409 -28122216.958259583 0 -28122216.958259583 45433830.353851318 0 0 0 0 16563101.060390472 -45666812.504829407 0 -45666812.504829407 8933680.6364440918 0 0 0 0 -197984327.86494637 -101908691.96845245 0 -101908691.96845245 34330698.991386414 0 0 0 0 -2335310.7465558574 -1294687.2028883332 0 -1294687.2028883332 4413176.3812810481 0 0 0 0 -68627282.248710632 -85025087.64666748 0 -85025087.64666748 -5654356.4725494385 0 0 0 0 -18982247.920749664 -73223830.277088165 0 -73223830.277088165 -3063289.9781036377 0 0 0 0 -110062264.4072454 -64562983.086428404 0 -64562983.086428404 31241252.318222046 0 0 0 0 -47794515.473119736 34800145.4588871 0 34800145.4588871 -12256862.522510529 0 0 0 0 30004834.859514713 33622669.990152359 0 33622669.990152359 62088780.677825928 0 0 0 0 -35831898.663752556 -58784858.805641174 0 -58784858.805641174 83369335.410491943 0 0 0 0 -24737464.506847858 -25223293.526381493 0 -25223293.526381493 159395572.61146545 0 0 0 0 -42046485.956242561 -69973404.061368942 0 -69973404.061368942 143649082.9537735 0 0 0 0 10984775.268615723 -35961894.636966705 0 -35961894.636966705 155834193.82735252 0 0 0 0 -57990194.006886482 -85596583.507658005 0 -85596583.507658005 146318753.19109726 0 0 0 0 -50953055.005725861 -30786971.488918304 0 -30786971.488918304 140939999.48838854 0 0 0 0 -90813017.393829346 -41560650.807733536 0 -41560650.807733536 164349071.82847261 0 0 0 0 -108676808.38107491 -62590411.010776997 0 -62590411.010776997 139910665.83264542 0 0 0 0 -38416201.291119576 -95683442.264890671 0 -95683442.264890671 -125177691.15082932 0 0 0 0 -117462896.0553093 -53567518.964645386 0 -53567518.964645386 136163442.46116447 0 0 0 0 -81420890.549568176 -94866500.975143433 0 -94866500.975143433 28676703.082733154 0 0 0 0 -14494063.600233078 -23572123.379356384 0 -23572123.379356384 5289638.7946863174 0 0 0 0 -1331368.1013393402 -17094270.625049591 0 -17094270.625049591 35197836.13609314 0 0 0 0 -546509.69287076965 -8246028.6901327744 0 -8246028.6901327744 -13964008.644397624 0 0 0 0 -12425152.111133575 -32641279.088363647 0 -32641279.088363647 26937229.434925079 0 0 0 0 109353439.97812462 -30303591.020821095 0 -30303591.020821095 90650301.541404724 0 0 0 0 -26738315.916275974 -11043684.798416078 0 -11043684.798416078 79337788.317257911 0 0 0 0 -21795187.435191631 -44267823.228961468 0 -44267823.228961468 274686760.4184761 0 0 0 0 -69176366.569189072 -361361801.98536682 0 -361361801.98536682 143364543.79108047 0 0 0 0 -195527873.35896301 -146900820.13440704 0 -146900820.13440704 -96368109.886806488 0 0 0 0 -1560186.6031946726 -2567648.5080612302 0 -2567648.5080612302 -1188552.2967742085 0 0 0 0 -104687302.66679382 -25701825.476325989 0 -25701825.476325989 351547116.56551933 0 0 0 0 105041306.89941406 -198862629.92063522 0 -198862629.92063522 168195529.42649078 0 0 0 0 208039483.71563625 -35960730.590036392 0 -35960730.590036392 -387101899.33988953 0 0 0 0 -126280583.0480423 60578691.335617065 0 60578691.335617065 161182286.84155273 0 0 0 0 99374415.422037125 -134821567.05284309 0 -134821567.05284309 117253221.44064331 0 0 0 0 -26494412.1174163 -5380215.5414501466 0 -5380215.5414501466 97484414.625328571 0 0 0 0 293416432.18475616 181435296.48647881 0 181435296.48647881 7828851.637802124 0 0 0 0 -319789424.83163452 -90373879.383319855 0 -90373879.383319855 202575713.64481354 0 0 0 0 -354928269.30018997 111696931.80378342 0 111696931.80378342 172850664.32088089 0 0 0 0 157383948.90399742 46818391.494731903 0 46818391.494731903 158958351.70512772 0 0 0 0 106631564.89315987 -13806751.441541672 0 -13806751.441541672 100924560.31812668 0 0 0 0 146255310.37730217 -5443076.7762756348 0 -5443076.7762756348 96017595.773304939 0 0 0 0 150364434.54978371 -2148323.3232307434 0 -2148323.3232307434 83930968.855566502 0 0 0 0 155340635.70580673 -25873202.810005188 0 -25873202.810005188 102942276.78956604 0 0 0 0 155007035.69135666 -19070938.820774078 0 -19070938.820774078 81192035.737380981 0 0 0 0 132342583.8019743 -21808213.313741684 0 -21808213.313741684 63935403.466369629 0 0 0 0 18667922.353582148 2216829.1875464208 0 2216829.1875464208 14433800.949511006 0 0 0 0 -107186144.72059417 37792151.011906624 0 37792151.011906624 404031363.73314285 0 0 0 0 -53469173.767847061 -13619781.967317581 0 -13619781.967317581 452129251.03213406 0 0 0 0 10368203.527580261 -111879128.03030014 0 -111879128.03030014 306193461.9471283 0 0 0 0 16249548.221213102 27961379.732280731 0 27961379.732280731 285849505.89570999 0 0 0 0 -21580057.806095123 531176.70626068115 0 531176.70626068115 447695446.51006889 0 0 0 0 70608630.525437832 -342103653.93356514 0 -342103653.93356514 628166865.70901394 0 0 0 0 312247.9708560335 871643.77340137959 0 871643.77340137959 1896528.0005525984 0 0 0 0 -154578545.82773733 215570843.85120201 0 215570843.85120201 1034093673.7544212 0 0 0 0 89445834.398520589 400537091.25600958 0 400537091.25600958 112275629.42029953 0 0 0 0 56367195.535481691 533407346.97437096 0 533407346.97437096 800127845.00174332 0 0 0 0 -41065891.356381893 34157955.930192947 0 34157955.930192947 -60306284.506154299 0 0 0 0 -66188296.329562187 -23954192.69038868 0 -23954192.69038868 -66338812.303104401 0 0 0 0 -25646247.553349629 -35580837.741048418 0 -35580837.741048418 45551722.805365376 0 0 0 0 -985497.8200302422 -475721.50642430782 0 -475721.50642430782 13873599.969777009 0 0 0 0 -141846146.25496578 -15428701.95557785 0 -15428701.95557785 81949025.308609009 0 0 0 0 27648642.119211972 -195950849.31910801 0 -195950849.31910801 42808102.688671112 0 0 0 0 -17775617.009100348 -38291535.021909334 0 -38291535.021909334 39321043.05236499 0 0 0 0 -12826430.836535454 116648545.68321705 0 116648545.68321705 -9362176.2194824219 0 0 0 0 -107055770.69157743 -55795066.730800629 0 -55795066.730800629 627593966.75909615 0 0 0 0 3798978.5777408406 -5691148.5840999642 0 -5691148.5840999642 -4284959.0470159799 0 0 0 0 427159897.76343536 35148125.570091248 0 35148125.570091248 1079601602.3188171 0 0 0 0 293386124.44615126 379544299.98509693 0 379544299.98509693 400379270.90441132 0 0 0 0 60999454.143843174 -112029433.86533737 0 -112029433.86533737 77608896.528234482 0 0 0 0 160572243.12923074 -50736042.917448044 0 -50736042.917448044 -61551450.526535034 0 0 0 0 344499701.46186113 259453925.39427853 0 259453925.39427853 152386356.32651138 0 0 0 0 -26305771.843517303 18973919.578876495 0 18973919.578876495 45005265.92911911 0 0 0 0 -12136690.784315109 306146364.46873856 0 306146364.46873856 534402766.83375835 0 0 0 0 117514585.85434198 144662566.24494743 0 144662566.24494743 85417059.845964432 0 0 0 0 -138054120.61176634 108635783.03343582 0 108635783.03343582 319535973.01241302 0 0 0 0 -145113295.20926085 34582529.125210643 0 34582529.125210643 705766418.39727402 0 0 0 0 1198498.7613994088 -533705.51660896093 0 -533705.51660896093 598807.89135594852 0 0 0 0 -12458599.986521125 67339644.676846266 0 67339644.676846266 -41451535.095523834 0 0 0 0 36804392.825620651 36910308.46603775 0 36910308.46603775 -35784964.14830637 0 0 0 0 763153.95653348323 626070.58316436596 0 626070.58316436596 584824.62276669964 0 0 0 0 16322636.543708324 -12918280.406863689 0 -12918280.406863689 -63880475.789627075 0 0 0 0 2585108.0391651392 2423522.9812755585 0 2423522.9812755585 2799012.7250518799 0 0 0 0 -345736.42067700299 -783589.9924258478 0 -783589.9924258478 1726199.2672280092 0 0 0 0 47141349.960819006 -24217372.441407681 0 -24217372.441407681 -62478120.108686447 0 0 0 0 91597.146280288696 -2852383.5161132812 0 -2852383.5161132812 2848463.1304244995 0 0 0 0 1361228.8892043852 1927493.7107530199 0 1927493.7107530199 3204470.9612744693 0 0 0 0 -199918.99785232544 327965.89923477173 0 327965.89923477173 3024628.8656504154 0 0 0 0 -8285368.039850235 -17313912.689720154 0 -17313912.689720154 -13254412.440139771 0 0 0 0 156566.89773328556 1794063.2301240116 0 1794063.2301240116 3278520.0164858438 0 0 0 0 51772945.028926373 49450701.144046783 0 49450701.144046783 -71591441.312063217 0 0 0 0 -3204676.5390892029 -1955310.9444198608 0 -1955310.9444198608 14030528.547851562 0 0 0 0 -126189.40629462339 -644937.8013488017 0 -644937.8013488017 1474711.4931841101 0 0 0 0 -30127294.838605642 20693384.623012543 0 20693384.623012543 36722841.844387054 0 0 0 0 22356370.900323391 50460843.84590435 0 50460843.84590435 67475199.034626007 0 0 0 0 14916051.655955315 -31912238.704055786 0 -31912238.704055786 122707445.09482765 0 0 0 0 93636210.072615385 -38425622.492010117 0 -38425622.492010117 48309949.070732117 0 0 0 0 52699640.411017597 963127.25950574875 0 963127.25950574875 282064491.97801208 0 0 0 0 58318884.632519245 16385117.736758709 0 16385117.736758709 156408833.79194641 0 0 0 0 35981.015526380041 1517812.0542899743 0 1517812.0542899743 4586084.0301263258 0 0 0 0 -88649312.937067986 -45971324.683208466 0 -45971324.683208466 36167103.529418945 0 0 0 0 9817503.266772341 -54717403.948574737 0 -54717403.948574737 105759767.6582489 0 0 0 0 -14488637.021882057 53532640.308635712 0 53532640.308635712 71400007.991071701 0 0 0 0 -86079214.293473363 30026426.916981697 0 30026426.916981697 70124209.635955811 0 0 0 0 124862486.82984221 -150842964.68560338 0 -150842964.68560338 -35770197.807037354 0 0 0 0 -47365466.306924343 -82557442.953174591 0 -82557442.953174591 166557143.28967667 0 0 0 0 111002570.94676995 -29731076.799300194 0 -29731076.799300194 136032139.99814987 0 0 0 0 -3451797.730632782 -145515780.1080122 0 -145515780.1080122 6931103.8029174805 0 0 0 0 -175572987.53608322 -133962929.24357224 0 -133962929.24357224 18665444.729265213 0 0 0 0 -114700449.703444 -236552880.08892059 0 -236552880.08892059 -53734083.273853302 0 0 0 0 87893809.501723289 -288799957.84323025 0 -288799957.84323025 200055409.36658478 0 0 0 0 -15406809.838827861 -33768555.664851598 0 -33768555.664851598 51756005.788099535 0 0 0 0 -91646457.817696095 -152697710.32274532 0 -152697710.32274532 -36576683.006690979 0 0 0 0 -113563432.92793655 -152421868.5977211 0 -152421868.5977211 101453731.64565277 0 0 0 0 -136580270.31429768 -159292031.70241547 0 -159292031.70241547 4707718.6753234863 0 0 0 0 -281023034.64008427 162798576.88446808 0 162798576.88446808 414237114.09529877 0 0 0 0 39470313.940900803 174242009.82671356 0 174242009.82671356 414057352.22787476 0 0 0 0 -135087983.32590961 -76101410.089087486 0 -76101410.089087486 423361892.55172729 0 0 0 0 -57324168.477405548 164777888.64608765 0 164777888.64608765 563209242.28353119 0 0 0 0 904778.40008006897 -91244.571690484881 0 -91244.571690484881 239667.81619227678 0 0 0 0 -53531043.399062157 61913387.931564331 0 61913387.931564331 -103294455.25204468 0 0 0 0 -9091818.7723107338 -41182324.05343914 0 -41182324.05343914 156550737.92148209 0 0 0 0 26638356.896044254 13815360.827677727 0 13815360.827677727 -14730870.843933105 0 0 0 0 69704910.009872437 -1346003.4735527039 0 -1346003.4735527039 -16167389.075701952 0 0 0 0 -537992.87817284651 747160.12252924475 0 747160.12252924475 3615981.9591372013 0 0 0 0 -17466824.900300026 -74491544.646677971 0 -74491544.646677971 33189642.005493164 0 0 0 0 743567287.90208054 -217511271.96615601 0 -217511271.96615601 113810251.06880951 0 0 0 0 149057896.23141098 548741936.72434998 0 548741936.72434998 236428004.52600563 0 0 0 0 -16683616.405486651 -31704148.641803369 0 -31704148.641803369 51023780.736655571 0 0 0 0 -38485700.11914134 -203974931.89762688 0 -203974931.89762688 -211594834.84824371 0 0 0 0 76618786.953390598 69637854.783036709 0 69637854.783036709 165738175.86769485 0 0 0 0 -24456472.523808479 -5494353.2013034821 0 -5494353.2013034821 -63242689.811618805 0 0 0 0 -110494732.24503422 -138555592.92864418 0 -138555592.92864418 -15967409.580495834 0 0 0 0 55630285.369319916 26464182.34052372 0 26464182.34052372 53026229.444236755 0 0 0 0 61047097.951889038 22190963.670538425 0 22190963.670538425 18603840.179487228 0 0 0 0 53011093.188289642 49480131.39685154 0 49480131.39685154 42274287.247346878 0 0 0 0 40672576.978149414 41760151.146387577 0 41760151.146387577 114863107.73898125 0 0 0 0 51480343.482912064 49099196.081622601 0 49099196.081622601 113176072.30005646 0 0 0 0 48276490.777193189 35368037.537190914 0 35368037.537190914 140973082.78454781 0 0 0 0 51120689.198854446 52974864.794425964 0 52974864.794425964 125767273.4323349 0 0 0 0 1483622.285689937 1403685.6255280578 0 1403685.6255280578 9566698.3617400154 0 0 0 0 84181014.426064968 66622949.839674473 0 66622949.839674473 58850754.923511982 0 0 0 0 -81340849.480416298 -38451107.136410713 0 -38451107.136410713 34816608.792228699 0 0 0 0 46491708.734806061 1936576.638961792 0 1936576.638961792 16158473.271066666 0 0 0 0 -44068667.511680603 -8529848.724861145 0 -8529848.724861145 -27902453.297370911 0 0 0 0 -41899157.625011444 7998999.2988967896 0 7998999.2988967896 -22359550.569658279 0 0 0 0 -38555825.13350296 15624146.494400024 0 15624146.494400024 -5190411.835735321 0 0 0 0 -49702975.815376282 -14449250.134101868 0 -14449250.134101868 7909073.6515159607 0 0 0 0 -47563981.038936615 -25071214.168457031 0 -25071214.168457031 -14692812.431869507 0 0 0 0 -51809113.029531479 -24936168.897075653 0 -24936168.897075653 -4093909.2152786255 0 0 0 0 -27419846.466929868 10176577.570558012 0 10176577.570558012 51812515.064208984 0 0 0 0 -54982147.40871048 -10091205.613212585 0 -10091205.613212585 30709995.064014435 0 0 0 0 -27604083.138875961 3772292.5020065308 0 3772292.5020065308 8249892.5183944702 0 0 0 0 -41703512.636878967 14688790.019817352 0 14688790.019817352 30388260.665279388 0 0 0 0 5502912.2314476967 12986652.448618889 0 12986652.448618889 49008718.815795898 0 0 0 0 -8364802.0887393951 -7008413.5446624756 0 -7008413.5446624756 32988338.598838806 0 0 0 0 -21338185.525649548 -12820068.396785736 0 -12820068.396785736 48589461.904125214 0 0 0 0 -33517809.207872391 2330041.2614364624 0 2330041.2614364624 32177272.508903503 0 0 0 0 -17493744.148598671 -18526320.145849228 0 -18526320.145849228 31995269.880404204 0 0 0 0 18378216.145136833 15597861.285356522 0 15597861.285356522 -32975581.438345909 0 0 0 0 -93123067.406774521 16214533.401040792 0 16214533.401040792 38457882.50793457 0 0 0 0 6119019.3769893646 7528590.8780536652 0 7528590.8780536652 21432977.490884781 0 0 0 0 86931824.316105843 -10022461.19802475 0 -10022461.19802475 -6009530.4798564911 0 0 0 0 39846916.731394291 -15758597.40305233 0 -15758597.40305233 4327018.4606781006 0 0 0 0 73460367.982862711 55458915.70237422 0 55458915.70237422 56853133.89390564 0 0 0 0 588136.23788151098 608418.49369413592 0 608418.49369413592 -283837.69853442907 0 0 0 0 34586466.049526036 121012622.08012104 0 121012622.08012104 123550855.23025131 0 0 0 0 17494515.079271317 -12239229.595350266 0 -12239229.595350266 53990689.334270477 0 0 0 0 -6072237.0327987671 -765695.13429641724 0 -765695.13429641724 102545075.15304184 0 0 0 0 8727229.0456936359 -19474189.837311268 0 -19474189.837311268 -143163812.62628174 0 0 0 0 155055492.16471124 37769990.9211483 0 37769990.9211483 5643456.6582736969 0 0 0 0 480204.86251104996 995220.95146303158 0 995220.95146303158 119459.35102282837 0 0 0 0 55971054.111952782 80911884.341081619 0 80911884.341081619 90284667.230057955 0 0 0 0 68991931.014128685 1111043.1908578873 0 1111043.1908578873 6703735.7630825043 0 0 0 0 44909501.35696435 6402585.255941391 0 6402585.255941391 -9763004.9637718201 0 0 0 0 19694412.343038559 18030747.098406792 0 18030747.098406792 6223057.4154949188 0 0 0 0 34713704.043448925 23740487.970237255 0 23740487.970237255 -19144527.274242401 0 0 0 0 -24800643.601649284 33005446.143352509 0 33005446.143352509 20687813.126207352 0 0 0 0 -20056271.583965302 44079436.541590691 0 44079436.541590691 34137650.778083801 0 0 0 0 30042478.510995388 63026699.941877842 0 63026699.941877842 44311311.744438171 0 0 0 0 978435.37051010132 33254518.218456268 0 33254518.218456268 18674626.478481293 0 0 0 0 -9856401.409526825 38949044.055595398 0 38949044.055595398 42778981.967423916 0 0 0 0 9298396.3405265808 24402847.29197216 0 24402847.29197216 39800949.676273346 0 0 0 0 -20397110.495642662 21867444.534356117 0 21867444.534356117 23327915.056518555 0 0 0 0 -41502100.327972412 22205576.591312408 0 22205576.591312408 32775925.075817108 0 0 0 0 8854382.3388261795 6222535.6476640701 0 6222535.6476640701 4117832.6530799866 0 0 0 0 2576555.273137698 5701741.3758822419 0 5701741.3758822419 12715316.748833146 0 0 0 0 -48508578.265387058 19679730.000725269 0 19679730.000725269 22429038.417861938 0 0 0 0 -42697229.659130096 27206546.184106827 0 27206546.184106827 13405219.646072388 0 0 0 0 5794311.2162604248 159667.03654163354 0 159667.03654163354 4896638.9315567613 0 0 0 0 22769707.160369873 -3181268.6378383636 0 -3181268.6378383636 25504806.96733284 0 0 0 0 17014426.195457183 6333173.9245942356 0 6333173.9245942356 5058342.5690743495 0 0 0 0 -36641264.283759117 24389049.353787422 0 24389049.353787422 11312591.024145126 0 0 0 0 2824555.4472141266 -33105927.111035675 0 -33105927.111035675 -138292460.80825925 0 0 0 0 17457599.092788219 6633819.310983777 0 6633819.310983777 -127959628.86792159 0 0 0 0 -21213473.126361132 41947613.459581614 0 41947613.459581614 15975285.089082718 0 0 0 0 11683854.398405466 13618232.684295183 0 13618232.684295183 15644160.248275461 0 0 0 0 32737538.073480129 18292969.415836483 0 18292969.415836483 27938864.055076957 0 0 0 0 4613674.0574882785 5037131.6991431117 0 5037131.6991431117 2248242.3789360607 0 0 0 0 12998718.460610546 -2212630.0937130731 0 -2212630.0937130731 -2650486.4817865398 0 0 0 0 46746573.034317017 66919461.006676137 0 66919461.006676137 -4548831.5265651941 0 0 0 0 14498599.09914146 -4870232.290988748 0 -4870232.290988748 541579.65436253638 0 0 0 0 28713941.168334961 12220721.004995346 0 12220721.004995346 12418884.571214676 0 0 0 0 43296535.07491684 21560394.053038597 0 21560394.053038597 15383236.928445339 0 0 0 0 50437695.182471275 11907364.029921055 0 11907364.029921055 23831063.918512344 0 0 0 0 58559239.543758392 -61945.124712944031 0 -61945.124712944031 -3722178.6356868744 0 0 0 0 41207017.629343033 25351897.635000467 0 25351897.635000467 10881734.268224955 0 0 0 0 29709362.171433449 -5006369.9595420957 0 -5006369.9595420957 5155243.682849884 0 0 0 0 20198975.681598425 22963166.920518935 0 22963166.920518935 31336428.703372955 0 0 0 0 5411449.725604726 -1443955.603776712 0 -1443955.603776712 -3230691.5658199955 0 0 0 0 2290401.6442022324 2808933.7300319672 0 2808933.7300319672 -7613487.8496894836 0 0 0 0 1515926.0932363544 4741677.9110857155 0 4741677.9110857155 7316032.0127662234 0 0 0 0 -3204253.1895012856 -14786917.384678841 0 -14786917.384678841 29180766.013576984 0 0 0 0 -27258308.74656558 12312114.354536057 0 12312114.354536057 21382651.269613266 0 0 0 0 4023328.4851417542 -6751389.1292171478 0 -6751389.1292171478 -15090950.159284592 0 0 0 0 -34522444.333759785 -23161742.233812332 0 -23161742.233812332 -850655.63692378998 0 0 0 0 11987241.408979774 10156596.803218603 0 10156596.803218603 7321631.9129219055 0 0 0 0 -21678684.678767204 947545.56956577301 0 947545.56956577301 18898393.681060791 0 0 0 0 -2151482.2823667368 -1390620.7853497118 0 -1390620.7853497118 1489591.5930558965 0 0 0 0 -17903012.700157881 771620.61321544647 0 771620.61321544647 11130605.888916016 0 0 0 0 -17960275.647085667 44347128.346546173 0 44347128.346546173 -19491553.036392212 0 0 0 0 17483743.197016239 -43211498.671023369 0 -43211498.671023369 52008884.517301917 0 0 0 0 -39057027.011085033 10358411.890087605 0 10358411.890087605 57397400.623807907 0 0 0 0 -26349892.154646397 17579587.6615448 0 17579587.6615448 116703805.21832848 0 0 0 0 11222979.82959938 4239809.0732746124 0 4239809.0732746124 32826521.875640869 0 0 0 0 670776.04788609268 64035.373403817415 0 64035.373403817415 -527838.15361203626 0 0 0 0 28189081.095890999 -30974520.633033752 0 -30974520.633033752 28184731.640089035 0 0 0 0 -17303671.514054179 38399195.489228487 0 38399195.489228487 3333951.7900466919 0 0 0 0 -11099823.758118868 8463902.6493549347 0 8463902.6493549347 19368782.258987427 0 0 0 0 -3419420.9068660736 -16218530.953445435 0 -16218530.953445435 4057812.7735238075 0 0 0 0 968059.49945440562 199498.02507376671 0 199498.02507376671 -588214.0948036015 0 0 0 0 -10648796.751681089 -9130205.5082125664 0 -9130205.5082125664 7587607.5560855865 0 0 0 0 -14642227.351143658 -5841494.563375473 0 -5841494.563375473 9263633.6360816956 0 0 0 0 -6843130.7135767937 -4432438.2533874512 0 -4432438.2533874512 6679753.6757011414 0 0 0 0 15585754.732347965 -3192647.6368598938 0 -3192647.6368598938 3419223.8401889801 0 0 0 0 -65250792.708435535 1973654.2752542496 0 1973654.2752542496 10449467.782032013 0 0 0 0 581883.14149829606 687000.48737104516 0 687000.48737104516 -152509.21515566856 0 0 0 0 -16913179.899377108 -9339700.5736818314 0 -9339700.5736818314 4291151.3049697876 0 0 0 0 -95385578.872764111 17739757.114398003 0 17739757.114398003 62096339.060276031 0 0 0 0 629203.8474414947 1528177.2732704347 0 1528177.2732704347 1335894.2193431146 0 0 0 0 -9706858.3019580841 -18564601.645085335 0 -18564601.645085335 -15225602.427249908 0 0 0 0 6257997.2575287819 -4845929.2337064743 0 -4845929.2337064743 1271368.5321559906 0 0 0 0 -9057073.9357030392 -16267380.789645195 0 -16267380.789645195 -7110202.1399078369 0 0 0 0 -1087259.6087424755 -8101565.608341217 0 -8101565.608341217 -13642618.09942627 0 0 0 0 137261.28312035592 426888.8255964797 0 426888.8255964797 417277.49434316531 0 0 0 0 7418588.7171867043 -5155377.097381115 0 -5155377.097381115 -13519725.848903656 0 0 0 0 22169248.990795799 -3629068.8743929863 0 -3629068.8743929863 -13418636.587209702 0 0 0 0 -12672928.124252379 1434503.6813988686 0 1434503.6813988686 11547478.795918465 0 0 0 0 -80436752.959350824 10664872.382083893 0 10664872.382083893 31123755.019577026 0 0 0 0 2690165.5109074712 4999630.4178448049 0 4999630.4178448049 4937750.8340416625 0 0 0 0 19472927.387031198 48146127.59854126 0 48146127.59854126 -7202026.2752990723 0 0 0 0 50509767.349321447 108627708.09528351 0 108627708.09528351 50571592.491168976 0 0 0 0 167991151.28602824 111294860.02018547 0 111294860.02018547 -52820570.443155289 0 0 0 0 1782652.2396311611 87291064.265473366 0 87291064.265473366 48013547.615777969 0 0 0 0 -77060744.676815033 5470965.6148033142 0 5470965.6148033142 38941318.081962585 0 0 0 0 -2338747.6542496681 73725895.42538166 0 73725895.42538166 101222263.74540138 0 0 0 0 117345.90081071761 -1012375.9471583422 0 -1012375.9471583422 -694794.10018461011 0 0 0 0 -166430264.83095622 -53842991.409603119 0 -53842991.409603119 127890649.71144056 0 0 0 0 -13388881.690135598 -44148777.99966383 0 -44148777.99966383 -29390075.088150024 0 0 0 0 -53881551.003890276 -62771707.101036549 0 -62771707.101036549 -19087887.315746307 0 0 0 0 4686357.6454820931 20944478.155562401 0 20944478.155562401 -40874583.914344788 0 0 0 0 49485634.064929008 -234835816.85973549 0 -234835816.85973549 48373974.293551445 0 0 0 0 173577078.4834533 -119896067.46755028 0 -119896067.46755028 16323255.230659485 0 0 0 0 -48995965.595163822 -30996655.059036255 0 -30996655.059036255 9761681.7408561707 0 0 0 0 -61886415.882658958 1760335.5665512085 0 1760335.5665512085 -4892098.6046714783 0 0 0 0 -99888841.316084623 -30079266.851911545 0 -30079266.851911545 17394516.695446014 0 0 0 0 322284.07531152386 -634949.05412599444 0 -634949.05412599444 -97062.671764437109 0 0 0 0 15794765.950736105 -1662323.1443619728 0 -1662323.1443619728 -8693207.8363647461 0 0 0 0 137993905.92744446 -107814656.29914284 0 -107814656.29914284 25345625.498667717 0 0 0 0 372619804.301633 -15887156.297498703 0 -15887156.297498703 55544556.938574791 0 0 0 0 320078154.05073166 -230787417.91324234 0 -230787417.91324234 40188714.514930725 0 0 0 0 81248084.544460058 -160382517.26221991 0 -160382517.26221991 386956578.92743683 0 0 0 0 185853251.11020696 69681368.145210266 0 69681368.145210266 320255731.16863632 0 0 0 0 1530309.2577731633 1273445.9303512722 0 1273445.9303512722 1379746.4976774976 0 0 0 0 183523844.17949438 -279607828.82302761 0 -279607828.82302761 588596433.96376991 0 0 0 0 206225130.46181631 229103323.30806732 0 229103323.30806732 -76672296.01622963 0 0 0 0 69733217.449042767 232418080.54137039 0 232418080.54137039 315936909.86884403 0 0 0 0 155961978.13006479 81132673.162839651 0 81132673.162839651 -110960622.39484406 0 0 0 0 2656200.0726747825 3532883.5478630811 0 3532883.5478630811 5031763.3550424539 0 0 0 0 152634461.51057696 -191410133.57377434 0 -191410133.57377434 241946508.67890739 0 0 0 0 9349868.910636425 -115046284.45868874 0 -115046284.45868874 206611028.27055931 0 0 0 0 147046181.60108709 -122120352.66815758 0 -122120352.66815758 213880541.89517403 0 0 0 0 34576589.560475349 -85054551.527330399 0 -85054551.527330399 239964652.58816683 0 0 0 0 -18074650.083312035 -1038003.4011869431 0 -1038003.4011869431 144786305.85213089 0 0 0 0 56790810.48507452 -72466960.983496666 0 -72466960.983496666 180283616.09334564 0 0 0 0 -25484695.973665714 -2341504.4898109436 0 -2341504.4898109436 177385871.67272186 0 0 0 0 2375604.1189594269 -39087623.701457977 0 -39087623.701457977 213074115.49794579 0 0 0 0 -86787996.500705004 -6050647.9968414307 0 -6050647.9968414307 201056028.37189388 0 0 0 0 -23087937.151599646 45907155.934742451 0 45907155.934742451 223884253.12215805 0 0 0 0 -15200574.155926943 28316118.602222443 0 28316118.602222443 150608884.42365646 0 0 0 0 -14700108.708886147 71060552.176971436 0 71060552.176971436 215620093.61395645 0 0 0 0 -12195464.858248591 33113993.236581802 0 33113993.236581802 140601551.19506836 0 0 0 0 -14667667.816009521 68787025.520320892 0 68787025.520320892 113722177.41193008 0 0 0 0 -21851786.44539547 16676702.837940216 0 16676702.837940216 131394326.73170853 0 0 0 0 95902889.101789474 173575311.04856873 0 173575311.04856873 113430954.74902558 0 0 0 0 1024042.2056486097 695144.27042699233 0 695144.27042699233 -1165260.7933140919 0 0 0 0 -35570151.86046505 -517999947.3823204 0 -517999947.3823204 601655430.04116058 0 0 0 0 23085327.247776031 141636249.30060196 0 141636249.30060196 71957029.690719604 0 0 0 0 -145293248.87148428 -3551100.5495371819 0 -3551100.5495371819 50194999.334392548 0 0 0 0 -552101.91696210671 341480.26700608432 0 341480.26700608432 2337074.4173162021 0 0 0 0 -16413140.656263232 137485127.79087067 0 137485127.79087067 252593895.62947083 0 0 0 0 -130395904.80044413 -29169204.379684448 0 -29169204.379684448 -11167653.929750443 0 0 0 0 269263.2884195284 5702416.6188512463 0 5702416.6188512463 8680770.9334850349 0 0 0 0 -121669603.53669739 19048084.183050156 0 19048084.183050156 20916499.74982357 0 0 0 0 -114767679.1110363 58189954.029756546 0 58189954.029756546 86506457.644105911 0 0 0 0 -3543042.5426678658 10712810.645824432 0 10712810.645824432 12255356.495353699 0 0 0 0 -2465319.2452226877 14748839.776939154 0 14748839.776939154 5927596.3525123596 0 0 0 0 1090694.6687664539 10555052.096934795 0 10555052.096934795 10410269.853050232 0 0 0 0 8927003.8976182938 51542955.097700119 0 51542955.097700119 225547969.09859657 0 0 0 0 -8855062.4735553265 -111598587.1558075 0 -111598587.1558075 320193448.99142456 0 0 0 0 -28014887.600530624 -5854838.1967887878 0 -5854838.1967887878 147130671.66609478 0 0 0 0 -159039820.82147408 18853937.801588058 0 18853937.801588058 202654423.93453979 0 0 0 0 -208265629.94830465 43266087.428115845 0 43266087.428115845 106147003.54217339 0 0 0 0 1389157.5115857124 9487529.1930046082 0 9487529.1930046082 76164618.235057831 0 0 0 0 -108635559.06701016 126262245.98545551 0 126262245.98545551 -61166052.870254517 0 0 0 0 81837531.14231801 10184671.506465912 0 10184671.506465912 69376668.936760426 0 0 0 0 141181822.85701334 -34340685.984385014 0 -34340685.984385014 78682071.321884155 0 0 0 0 15965183.406797647 -53183949.87670517 0 -53183949.87670517 20463174.191570282 0 0 0 0 57131505.1321069 -998408.45687484741 0 -998408.45687484741 15111063.336587429 0 0 0 0 -166977.51046067476 -249185.22858603112 0 -249185.22858603112 -478078.7967228815 0 0 0 0 -245287096.10384607 131106679.27676886 0 131106679.27676886 -51638198.587486267 0 0 0 0 592974.82895398978 5115491.0575997103 0 5115491.0575997103 10133713.791289542 0 0 0 0 -5570919.8732390404 10482368.904312134 0 10482368.904312134 14744607.409454346 0 0 0 0 4221289.6595480442 -8054865.9123516083 0 -8054865.9123516083 26916994.770763397 0 0 0 0 1377306.7189648151 2024791.2708759308 0 2024791.2708759308 10998661.348686218 0 0 0 0 -246137243.57702798 115160557.29580837 0 115160557.29580837 -105355968.92757034 0 0 0 0 -256867010.21342397 327619542.27474022 0 327619542.27474022 -74039977.990979671 0 0 0 0 1653794.2553267479 5422722.1651191711 0 5422722.1651191711 13125548.290382385 0 0 0 0 396883.92676734924 4031962.1137657166 0 4031962.1137657166 17985016.310174942 0 0 0 0 -1703489.1705653667 6708930.5226459503 0 6708930.5226459503 18710416.798233032 0 0 0 0 -7463929.613622427 4204573.2001304626 0 4204573.2001304626 18436913.734336853 0 0 0 0 -1478149.1498039961 3412485.6075820923 0 3412485.6075820923 6640554.1689186096 0 0 0 0 -5248597.5872983932 1206669.8950996399 0 1206669.8950996399 30271818.004306793 0 0 0 0 -2675163.019336462 -455805.07107925415 0 -455805.07107925415 27907825.654846191 0 0 0 0 -4462235.5618311167 2121855.3893327713 0 2121855.3893327713 26248342.876693726 0 0 0 0 -1955503.531478405 4186465.9076118469 0 4186465.9076118469 17174852.387371063 0 0 0 0 -1211483.2574810982 3593801.6508636475 0 3593801.6508636475 26830114.629463196 0 0 0 0 -1978553.5072340965 2284933.0516586304 0 2284933.0516586304 29808470.024902344 0 0 0 0 -680533.88922214508 4551554.7057723999 0 4551554.7057723999 25920247.868782043 0 0 0 0 3323179.7374857962 4409344.1874102354 0 4409344.1874102354 25212241.553863525 0 0 0 0 7508089.483083725 6286905.2736282349 0 6286905.2736282349 31334517.72127533 0 0 0 0 -5226099.8499796391 7511924.6758213043 0 7511924.6758213043 38059690.45539093 0 0 0 0 -10035271.951518059 2673701.6209411621 0 2673701.6209411621 36968313.90388298 0 0 0 0 -5486621.9780197144 837709.19404602051 0 837709.19404602051 36226715.906295776 0 0 0 0 -5790680.5666496754 -3748597.2532043457 0 -3748597.2532043457 36396902.013584137 0 0 0 0 -9605919.3449128866 -13357.870498657227 0 -13357.870498657227 47309550.218276978 0 0 0 0 -11979860.230051756 9390573.6577377319 0 9390573.6577377319 44875103.312931061 0 0 0 0 -16491456.135354996 6754156.2174797058 0 6754156.2174797058 44560681.45880127 0 0 0 0 973913.25313265622 13310846.02194988 0 13310846.02194988 31889592.245469987 0 0 0 0 -12166875.532054424 10809557.611221313 0 10809557.611221313 39330117.240962982 0 0 0 0 -125943590.75493905 153198004.99410057 0 153198004.99410057 -78964204.713279724 0 0 0 0 1301706.0683712359 5188167.1541559994 0 5188167.1541559994 9240678.357331492 0 0 0 0 4177980.7755978107 -6021424.8393039703 0 -6021424.8393039703 35084997.650318146 0 0 0 0 6696799.3096432686 -6427575.30859375 0 -6427575.30859375 34806825.664207458 0 0 0 0 -5995620.3337635994 -2809871.2621307373 0 -2809871.2621307373 39739006.536117554 0 0 0 0 2900932.5007741451 -13268614.189367294 0 -13268614.189367294 48343108.543216705 0 0 0 0 -18333627.009960651 17747823.589769363 0 17747823.589769363 56166575.469974518 0 0 0 0 -14357775.596118867 -636762.84100151062 0 -636762.84100151062 67337103.366539001 0 0 0 0 39287069.317624569 -49035156.61366272 0 -49035156.61366272 79492395.164497375 0 0 0 0 -14752745.327413082 6388891.6945457458 0 6388891.6945457458 91809216.251209259 0 0 0 0 -12855283.516117334 13544783.296232224 0 13544783.296232224 108481226.57597351 0 0 0 0 17961760.239293575 -8968471.5612945557 0 -8968471.5612945557 123836096.02862024 0 0 0 0 2112202.6776967342 4437931.9343432896 0 4437931.9343432896 6182685.0749666691 0 0 0 0 -36174992.602818727 18287075.683422089 0 18287075.683422089 297350663.19294643 0 0 0 0 33513063.83720088 -87204653.779720306 0 -87204653.779720306 200409903.95509338 0 0 0 0 -662952968.78073406 399453188.60403061 0 399453188.60403061 -18092222.213005066 0 0 0 0 22999300.776544094 478747430.49375916 0 478747430.49375916 -108412558.81812572 0 0 0 0 218160.20510370657 -480796.34945414588 0 -480796.34945414588 -919997.05110372975 0 0 0 0 -211182736.75937754 -131439524.28234154 0 -131439524.28234154 -32602618.848896027 0 0 0 0 735609594.38955951 -137641315.59369087 0 -137641315.59369087 -258785930.90021515 0 0 0 0 178418746.61266744 -412663348.12849617 0 -412663348.12849617 -125036759.77565479 0 0 0 0 1318273381.9600201 1121886428.2740479 0 1121886428.2740479 1361229142.3625793 0 0 0 0 1563320.0176512185 -348409.25788005255 0 -348409.25788005255 -1509772.1486125886 0 0 0 0 61813167.660993285 -326978168.47099268 0 -326978168.47099268 -196234283.84263611 0 0 0 0 -80346118.334928274 -381807943.31008053 0 -381807943.31008053 361714955.07730865 0 0 0 0 -371278301.46309388 -316665368.23696327 0 -316665368.23696327 130045234.42243958 0 0 0 0 -352306122.27603847 -365443546.45299339 0 -365443546.45299339 -299482236.50857544 0 0 0 0 6184610.4024610519 249786843.68865967 0 249786843.68865967 -376600990.0256958 0 0 0 0 -25881427.16924417 277184259.97028732 0 277184259.97028732 132845595.57449627 0 0 0 0 -915180820.28299999 -1329455114.1655159 0 -1329455114.1655159 -343753539.21168518 0 0 0 0 140595127.63552856 541497468.08006287 0 541497468.08006287 467883261.16607666 0 0 0 0 593338013.25474954 -85413282.030668259 0 -85413282.030668259 160286874.26405334 0 0 0 0 6695978.1500691101 -2040283.1165972278 0 -2040283.1165972278 1376592.9140132917 0 0 0 0 90438757.537316322 294943059.79391479 0 294943059.79391479 892184419.02192116 0 0 0 0 -156122663.45100784 -278863308.55541992 0 -278863308.55541992 574298207.65521145 0 0 0 0 145042336.32023144 -7128717.1435818672 0 -7128717.1435818672 151154813.26071167 0 0 0 0 333214734.73333108 108244343.92446232 0 108244343.92446232 184735904.25821304 0 0 0 0 -60098172.285877049 37563581.583236575 0 37563581.583236575 525553559.51469421 0 0 0 0 105492389.55950737 157393699.85694122 0 157393699.85694122 473242636.10291672 0 0 0 0 780011365.60682726 437836741.93392181 0 437836741.93392181 294487634.25317001 0 0 0 0 292202671.78939009 699107.89726448059 0 699107.89726448059 53768474.732241631 0 0 0 0 247052547.64951539 -84130917.907245636 0 -84130917.907245636 4198131.0823669434 0 0 0 0 451646102.85426408 -54885445.065753937 0 -54885445.065753937 -20582403.576114655 0 0 0 0 177690127.37658113 -164520625.57965565 0 -164520625.57965565 -17825835.194274902 0 0 0 0 192842885.44307184 30714864.156463623 0 30714864.156463623 95191908.141014099 0 0 0 0 177374549.37996054 -34994928.925418854 0 -34994928.925418854 74145983.388362885 0 0 0 0 124491052.63942957 -53467235.568031311 0 -53467235.568031311 81641794.912691116 0 0 0 0 132804454.96544409 9488200.3391036987 0 9488200.3391036987 98765287.26915741 0 0 0 0 122396821.18994617 -95855022.309993744 0 -95855022.309993744 419060.27315330505 0 0 0 0 112781716.00653493 -101171967.16255951 0 -101171967.16255951 2623114.9030189514 0 0 0 0 137309890.27704406 -182773562.61140251 0 -182773562.61140251 14065535.4492594 0 0 0 0 173650997.30910558 -124208617.67263281 0 -124208617.67263281 20809271.250617981 0 0 0 0 166109276.72215727 -176556522.25884247 0 -176556522.25884247 -2197168.6637916565 0 0 0 0 21750796.321303725 -138532198.19443512 0 -138532198.19443512 29113077.564411163 0 0 0 0 46845890.319112897 -45133942.128779411 0 -45133942.128779411 26693960.113998413 0 0 0 0 180764098.28065717 -42601274.040088654 0 -42601274.040088654 15936240.75730896 0 0 0 0 -101355088.47960281 -38192475.347763062 0 -38192475.347763062 27399453.964427948 0 0 0 0 79445703.243187368 -67839492.57673645 0 -67839492.57673645 31043706.935951233 0 0 0 0 -145352263.60340503 -238582607.25623226 0 -238582607.25623226 53184445.922447205 0 0 0 0 147246408.89085791 -215071370.64724445 0 -215071370.64724445 35019459.370788574 0 0 0 0 183882144.92894435 -174187807.29695892 0 -174187807.29695892 -2735533.3158607483 0 0 0 0 
</DataArray>
<DataArray type="Float64" Name="cross_section_updated" format="ascii">
1 1 1 1 1 0.019788401159891264 1 1 1 1 1 1 1 0.022176952841676218 1 1 1 1 0.025481237483844916 1 1 0.020523588322895359 1 1 1 1 0.03188659520327719 1 1 1 1 0.018852161325753285 1 1 1 1 1 1 1 1 1 1 1 1 1 0.020291688179843517 1 1 0.019956558973357633 1 1 1 1 1 0.020735895541223098 1 1 1 1 1 1 1 0.030444770186390073 1 1 1 1 0.020310627183553479 1 1 1 1 1 1 1 1 1 0.020212040972739181 1 1 0.020005194361387108 1 1 0.020945956562515227 1 1 1 1 0.021655421732303174 1 1 1 1 1 1 1 0.019945830210103356 0.019994408604930177 0.020144216730332454 1 1 0.019991232679453356 1 1 1 1 1 0.019997655129541939 1 1 1 1 1 1 1 1 1 1 1 1 1 0.020019001861689884 1 1 1 0.022436530711111621 1 1 1 1 1 1 0.021034784650859277 1 1 1 1 1 1 1 1 1 1 1 1 1 1 1 1 1 1 1 1 1 1 1 1 1 0.019930955469349983 1 1 1 0.021256940421945716 1 1 0.020821058902259888 1 1 1 1 1 1 1 1 1 1 1 0.020798428810905576 1 1 1 1 1 1 1 1 0.021779137431992827 1 1 1 1 1 1 1 1 0.021651405826706063 1 1 1 1 1 1 1 1 1 0.020449983463110322 1 1 1 1 1 1 1 1 1 1 1 1 1 1 1 1 1 1 1 1 1 1 1 0.019999572412435013 1 1 1 0.028719180018456223 1 0.019968046233911577 1 0.02465673566107171 1 1 0.02161406733774187 1 1 1 0.023495078792883511 1 0.019649640800969329 1 0.019418352177660157 1 0.023995012477252782 0.019760259883136119 1 0.019710118167804849 1 1 0.019899935931571838 1 0.020435737018929728 1 1 1 0.023484352724701323 1 0.023138381807404185 0.020406188148286333 1 1 0.020399152251167434 1 1 1 0.022113023713215926 1 0.021121495685130706 0.021267032355414186 0.021132241196601544 1 0.019861889958015966 1 1 1 0.02007481346036576 1 0.021493508223667898 0.021705843670135477 0.019740643490101677 1 1 0.020763937990731559 0.021358363884899076 1 1 1 1 0.022516015425402703 1 0.019766308186303427 1 1 0.021866615925118894 1 1 1 0.020387348926869532 1 0.021404358372962687 0.020973678679795514 0.020507174128873269 1 1 1 0.020073877686631488 1 0.02187370310583946 0.022608603579188244 0.02008565701728101 0.020718707644057668 1 1 1 0.023358836210757267 0.020000624601072405 1 1 0.021498560224582297 0.022094389904746728 0.01982334172422438 1 0.019942639731944579 1 1 1 1 0.020010503721050704 1 1 1 1 1 1 1 0.020877152027218036 1 1 1 1 1 1 0.021593649221011597 0.020001513585775517 1 1 1 0.020708563343183405 1 1 1 0.020070522487025736 1 0.019769930883445613 1 0.018809147559689297 0.024572542364973068 1 1 1 1 0.019559869975535781 1 1 0.024502779956541806 1 1 1 1 0.020014892207355063 1 0.019994415472176855 1 1 1 1 1 0.022247784815555543 0.022484680522146076 1 1 1 1 1 1 1 1 0.020354918086783143 1 1 1 0.019579141677871947 1 1 0.024207598954886406 1 0.019995485238094943 1 1 1 1 1 1 1 1 1 1 1 0.02327232950271034 1 0.021552014739573071 1 0.022786665284364661 1 1 1 0.020973695776158464 1 0.020018588299298673 1 0.021569250856370879 1 1 1 1 1 1 0.023396445144660095 1 0.024208232871237315 1 1 1 0.024220899485149851 1 1 1 0.027195069311481197 1 0.022503781975307474 0.02096428530471308 1 1 1 1 0.025538355502012597 1 1 1 1 0.022536218719279886 0.021450164441904448 1 1 0.019899190223150304 1 0.023809759647656747 1 0.020374979706790405 0.021133193653116059 1 1 1 0.020126170356793448 1 1 1 1 0.024170241175885832 1 1 1 1 1 1 1 1 1 1 1 0.020003960838925701 1 1 1 1 0.021522799096181718 1 1 1 0.021786047272880176 1 0.021641959941651769 0.022748403079061844 0.019998004252299258 1 1 1 0.022849535453467403 0.027647949654273547 1 0.027933198365706201 1 1 0.019690531736083591 1 1 1 1 0.029258611548905855 1 1 1 1 1 1 1 1 1 1 1 0.030389977027215645 0.029473994067426939 1 1 0.021946592107748842 1 1 1 0.020036419336829661 1 1 1 1 1 1 0.032369300513191895 1 1 1 0.018832369857552718 1 1 1 0.023049063849499438 1 1 1 1 1 1 1 1 1 1 1 0.032166288993405845 1 1 1 0.031690487941229292 1 1 1 1 1 1 1 0.020394906539371614 1 1 1 1 1 0.021118465397399887 1 1 1 1 1 1 1 1 1 1 1 1 1 1 1 1 1 1 1 0.019974539372614605 1 1 1 1 0.020033880279885993 1 1 0.020023092180098328 1 1 1 1 1 1 1 0.020067025551258496 1 1 1 1 1 1 1 1 0.019998364126625243 1 0.020195120528844639 1 1 0.020017765022730602 1 1 1 0.019845667069027021 1 1 0.019906801035127909 1 1 1 0.02238717511623697 1 0.022521643928621361 1 1 0.020003402673382638 1 0.018710794714483579 1 1 1 1 1 1 1 1 1 1 1 1 1 1 1 1 1 1 1 1 1 1 0.020190994812036785 1 0.019811838584118509 1 0.019937192698313552 1 1 1 1 1 1 1 1 1 1 1 1 1 1 1 0.020095497094112073 1 1 1 1 1 1 1 1 1 0.020095497717924706 1 1 1 1 1 1 1 1 1 1 1 1 1 1 1 1 1 1 1 1 1 1 1 1 1 1 1 1 1 0.01999752835757913 1 1 0.020000096383734831 1 1 1 0.019760066313576644 0.021836373862344337 1 0.021429920872053955 1 1 1 1 1 0.020104121759195417 1 1 1 1 1 0.02043828754165852 1 1 1 1 1 1 1 1 1 1 1 1 1 1 1 1 1 1 1 1 1 1 1 1 1 1 1 1 1 1 1 1 1 1 1 1 1 1 1 1 1 1 1 1 1 1 1 1 1 0.020038261627496712 1 1 1 1 1 1 1 1 1 1 1 1 1 1 1 0.020970164647366389 1 1 1 1 0.02036058683263221 1 1 1 1 1 1 1 1 1 1 1 1 1 1 1 1 1 1 1 1 1 1 1 1 1 1 1 0.023479318500637392 1 1 0.022078407847682217 1 0.022284259112563591 0.02048838765886217 0.017015252179205541 0.030489508203162957 1 1 0.020032710298671538 1 1 1 1 1 1 1 1 1 1 1 1 1 1 1 1 1 0.022455504190232154 1 1 0.017932507734968767 1 0.020851017429447141 1 1 1 1 0.024770525181442994 1 0.021367833956302273 1 1 1 1 0.020261344874225352 1 1 1 0.022407244065175368 1 1 1 1 1 0.020209377767897291 1 0.020067887238353371 1 1 0.021930395549796786 0.021527872016815275 1 0.019558001300118758 1 1 1 1 1 1 1 1 1 1 1 0.030550636917194077 1 1 1 0.030117804886560101 1 1 1 0.021565766803541983 1 1 0.029810143131191971 0.019778550057031004 0.019932402423678039 1 1 1 1 1 1 1 1 1 1 1 0.020061038445645971 1 1 1 1 1 1 1 1 0.030002915260307898 0.027291261049846968 0.030133203999580228 1 1 1 1 1 1 1 1 0.026233682419997569 0.020045446591340419 1 1 1 0.020739105461766928 1 1 0.020999634100361316 1 1 1 1 1 1 1 1 1 1 1 0.020332837821420317 1 1 1 1 1 1 1 1 0.02037543879737257 1 1 1 1 1 1 1 1 1 1 0.019944494644254615 1 0.034213724984183638 0.017246004268708773 0.022932812238127081 1 1 1 1 1 1 1 0.032293834495072268 0.025924501259276263 1 0.022739249378998176 1 1 1 1 1 0.020279765709312812 1 0.019971351950993026 0.021032465885500368 1 1 1 0.020738716153715912 1 0.020391945517356305 1 1 1 1 0.020070609458532205 1 1 1 1 1 1 1 1 1 1 1 1 1 1 1 1 1 0.019524536107439261 1 1 1 0.020911498296732424 1 1 1 1 1 0.019849291113247659 1 1 1 1 1 1 0.020683840656503548 1 0.020264931590755233 1 1 1 1 1 1 1 1 0.021196326416935623 1 1 1 0.033964921080261584 1 1 1 1 1 1 1 1 1 1 1 1 1 1 1 1 1 1 1 1 1 1 1 1 1 0.022131386253671687 0.023647535528483879 0.023944845176212582 1 1 1 1 0.022908074086578852 1 1 1 1 0.022865270366127809 1 1 1 1 1 1 1 0.020148873775659056 1 1 1 1 1 1 1 1 0.020375465605568577 1 1 1 1 1 1 1 1 1 1 1 1 0.021038444346325975 1 1 1 1 1 1 0.020024347552725075 1 1 1 1 1 1 1 1 0.025824466983373814 1 1 1 0.022759070539901925 1 1 1 1 1 1 1 1 1 1 1 1 0.020226591829909511 1 1 1 1 1 1 1 1 1 1 1 1 1 1 1 1 1 1 1 1 1 1 1 1 1 1 1 1 1 1 1 1 1 1 1 1 1 1 1 1 1 1 1 1 1 1 1 0.020297535850572264 1 1 1 1 1 1 1 1 1 1 1 1 1 1 1 1 1 1 1 1 1 1 1 1 0.020183592923038784 1 1 1 1 1 1 1 1 1 1 0.019964270267800972 1 1 0.020504118018179713 1 1 1 1 1 1 1 1 1 0.019873837563623677 1 0.019786973591767662 1 1 1 1 0.020734961798551318 1 1 0.019982231101042122 1 0.020236040080937809 1 1 1 1 1 0.020739853002012629 1 1 1 1 1 1 1 1 0.019159112957811489 1 1 1 1 1 1 1 1 1 1 1 1 1 1 0.021008056252311509 1 0.020283543966449415 0.020115583314076493 1 1 1 1 1 0.0200471813465583 1 1 1 1 1 1 1 1 1 1 1 1 1 1 1 0.021102183641333559 1 1 1 1 1 1 1 1 1 1 1 1 1 1 1 1 0.020896217403626443 1 1 1 1 1 0.023085969159453271 0.020102711942157129 1 1 0.022752571950679628 1 1 1 1 1 1 1 1 1 1 0.020858416754000554 1 1 1 1 1 1 1 1 1 0.020930379318102973 1 0.033212711060810446 1 1 1 1 1 0.019781729179879755 1 1 1 1 0.034992333478670014 1 1 1 0.019141126577791261 1 1 1 0.033523834754451642 1 1 0.022162990412032679 1 1 1 1 1 1 1 1 1 1 1 1 1 1 1 1 0.020470997881509967 1 1 1 1 1 1 1 0.019467466094981057 1 1 1 1 1 1 1 1 1 1 1 1 1 1 1 1 1 1 1 1 1 1 1 1 1 1 1 0.025717916548017472 1 1 1 1 0.020719079756862369 1 1 1 0.02698311424523912 1 1 1 1 1 1 1 1 1 0.028007753658286436 1 0.019998604746022774 1 1 1 1 1 1 1 1 1 1 1 1 1 1 1 1 1 1 0.019988803882265399 0.024124181839925225 1 1 1 0.020399232371450207 1 1 0.022743363748374761 1 1 0.020129758395541819 1 1 1 0.020655547189817953 1 1 0.020088151790855786 1 1 1 1 1 1 1 1 1 1 1 1 1 1 1 1 1 1 1 1 0.021551764593444399 1 0.021846304838641084 1 1 1 1 1 1 1 1 1 1 1 0.02498770676710086 1 0.027404205743894239 1 1 1 0.044174658377144765 1 1 1 1 1 0.019854654427623093 1 1 1 1 1 1 0.017086271120741802 1 1 1 1 1 1 1 1 1 1 1 0.015951334874341729 1 1 1 1 1 1 1 1 0.043344137538743499 1 1 1 0.036251047051267783 1 1 0.014806123253701325 1 1 1 1 1 0.024465446230588668 1 1 1 1 1 1 1 1 1 0.020153334965218477 1 1 0.031052065770265144 1 0.026427154944653398 1 0.023675861713713029 0.025219133458766776 0.021697195242836972 1 0.019937867726976637 1 1 1 1 1 1 0.033734910537394365 1 1 1 1 1 1 0.020438385382060133 1 1 1 1 1 1 1 0.031102463501507832 1 1 1 1 0.028429764229882033 1 1 1 1 1 0.031829081105961748 1 0.019984758119095496 1 1 1 1 1 1 1 1 1 1 0.021173249523640601 1 1 1 1 1 1 1 0.022546215676668872 1 1 1 1 1 1 1 0.020003776638203422 1 0.021713849921130166 1 1 1 1 1 1 1 1 0.024690573990245261 1 1 1 0.026111617623260815 0.020042174062479955 1 1 1 1 1 0.023790505950524787 0.020079761344471769 1 0.023266256933854687 1 1 0.018948971655738736 1 1 0.021676571272919921 1 1 1 1 1 1 1 1 0.025804523964206353 1 1 1 1 1 0.030398223276666386 1 1 1 1 0.028676901823958718 1 1 0.027602082759339053 1 1 1 1 1 1 1 1 1 1 1 1 1 1 1 1 1 1 1 1 1 1 1 1 1 1 1 1 1 1 1 1 1 1 1 1 1 1 1 1 1 0.02042455220129346 1 1 0.020176236156841058 1 1 1 1 1 0.020269814435422882 1 1 1 1 0.020643113941487542 1 1 1 1 1 1 1 1 1 1 1 1 1 1 1 1 1 1 1 1 1 1 1 1 0.020333369010524946 1 1 1 0.020169212378376683 1 1 1 1 1 1 0.020106803888692425 1 1 1 1 1 1 1 1 1 1 1 0.031727587312407352 1 0.022729221897290163 0.020141968185055901 1 1 0.024758570086706316 1 1 1 1 1 1 1 1 1 1 1 0.029110077461655427 1 1 0.021164520082425781 1 1 1 1 1 1 1 1 1 1 1 1 1 1 1 0.026838518067847823 1 1 1 1 1 1 1 0.01995932020535059 1 0.020345998808962481 1 1 1 1 0.025329536667062155 1 0.020459381436593007 1 1 1 1 1 1 1 1 1 0.019839220203151299 1 1 1 1 1 1 1 1 1 1 1 1 1 1 1 1 1 0.022971408587257821 1 1 1 1 1 1 1 1 1 1 1 1 1 1 1 1 1 1 1 1 1 1 1 1 1 0.020028238552254191 0.019915432915300579 1 1 1 1 1 1 1 1 1 1 1 0.020085177501011971 1 1 1 1 0.020194261342417454 1 1 1 1 0.020105746927325249 1 1 1 1 1 1 1 1 0.018565621290361406 1 1 1 1 1 1 1 1 1 0.019523903607458558 1 1 1 1 1 1 1 1 1 1 1 1 1 1 1 1 1 1 1 1 0.025665605884768957 1 1 1 1 1 1 1 1 1 1 1 1 1 1 0.032215114758697906 1 0.020148245525179326 1 1 1 1 1 1 1 1 0.031956490733111645 1 1 0.020255049413871747 1 1 1 1 1 1 1 1 1 1 1 1 1 1 1 1 1 1 1 1 1 1 1 1 1 1 1 1 1 1 1 1 1 1 1 1 0.020341085630270629 1 1 0.020045239903620019 1 1 1 1 0.021752322297497087 1 0.019153127426393 1 1 0.019613412597184771 1 0.02085242706598887 1 1 1 1 1 0.020390259390071226 1 1 1 1 1 1 1 1 1 1 1 1 0.020747268757025979 1 1 1 0.02279569205328668 1 1 1 1 1 1 1 1 1 0.022882483372676222 1 1 1 1 0.022154235935442815 0.023712520518644319 1 1 1 1 1 1 1 1 0.020146570337446733 1 1 1 1 1 0.026081226238471186 1 1 1 0.025559774634165117 1 1 1 0.02403833612696148 1 1 1 1 0.032222629063915119 1 1 1 1 1 1 1 1 1 1 1 1 1 1 0.023968130511221604 1 1 1 1 1 1 0.02483447787940329 1 0.02595076853016651 0.02000650060347621 1 0.034110969131666481 1 0.019663453352401754 1 1 1 1 0.020258733777521656 1 1 1 1 0.020621566352736903 1 1 1 1 1 1 1 1 1 0.020345283095333684 1 1 1 1 1 1 1 1 1 1 1 1 1 1 0.020807450771251328 1 1 1 0.020218587490289118 1 1 1 0.020577335224136149 1 0.020016542390385764 1 1 1 1 1 1 1 1 1 1 1 1 1 1 1 1 0.020350432138334682 1 1 1 1 1 1 0.021113114014642484 1 1 1 1 1 1 1 1 1 1 1 1 1 1 1 1 1 1 0.022777192943478478 1 1 1 1 1 1 1 1 1 1 1 1 1 1 1 1 1 1 1 1 1 1 1 1 1 1 1 1 1 1 1 1 1 1 0.019654373140045457 1 1 1 1 0.019898095344084044 1 1 1 1 1 1 1 0.022298998280974855 1 1 1 1 1 1 1 1 1 0.020012870453294612 1 1 0.023975269405822983 1 1 1 1 1 0.019976433227855514 1 1 1 0.020343729640323251 1 1 0.022164226863739981 1 1 1 1 1 1 1 1 1 1 1 1 1 1 1 1 1 1 1 1 0.019151799732867875 1 1 1 1 1 1 1 1 1 1 0.02395402204953815 0.017636449577689135 1 0.022746481346756262 1 1 1 1 1 0.022860370502595644 1 1 1 1 0.022555475975398736 1 1 1 1 1 0.019971096554478349 1 0.019997133390546491 1 1 0.019030972292708649 1 1 1 1 1 1 1 1 0.019696381546574993 1 1 1 1 1 1 0.019983818874080586 1 1 1 1 1 1 0.019919747892329816 1 1 1 1 0.01898449122357037 1 1 0.021762253195341454 1 0.019069768542464241 1 1 0.020269320218604569 1 1 1 1 1 1 0.02093254956631644 1 1 1 1 0.020144298234745853 1 1 1 1 1 1 1 1 0.025882981942886074 0.01829247041369448 1 1 1 1 1 1 1 1 0.023166155041000426 1 1 1 1 1 1 0.021481564968068814 1 1 1 1 1 1 1 0.019522749059892229 1 1 1 0.021006022742265505 1 1 1 1 1 1 1 1 1 1 1 1 0.022274910384664615 1 1 1 1 0.023664561259063275 1 1 0.020390985003854924 1 1 1 1 0.022261070050158691 1 1 1 0.020048426085054565 0.02330681616654625 1 1 1 0.020510570386628853 1 1 1 0.023554152922601584 1 1 1 1 1 1 1 1 1 0.025191997519869072 1 1 1 0.019994275840717706 1 1 1 1 1 1 1 1 1 1 1 1 0.023157991993093943 1 0.02002840406257006 1 1 0.021546091813976546 1 1 0.020638969376259621 1 1 1 1 1 1 1 0.019997009453926334 1 1 1 1 1 0.020061461896206497 1 0.02109144636678973 1 1 1 0.020948485751787864 0.019839504145519989 1 0.022470524910161722 0.022839118646595422 1 0.021231383097734875 1 1 1 1 1 1 0.020499653547993595 1 0.027668314079732616 1 1 1 1 1 1 1 1 1 1 1 1 1 0.020081268270783943 1 1 0.022490939228176948 1 0.021575458367330481 1 1 0.025596221673681412 1 1 1 0.022100635781715443 0.019140560551931869 1 1 0.026722876586346533 1 1 1 1 1 1 1 1 1 1 1 1 1 1 1 1 1 1 1 1 1 1 1 0.02116109698277064 0.020064382274982653 1 0.01954402448931318 1 0.020306956349693851 1 1 0.020004106740983536 0.023599473067418768 1 1 0.019997237844262054 1 1 0.021161543251310158 1 1 0.024076465723152085 1 0.021076213600943808 1 1 1 1 0.020037189361817018 1 1 1 1 0.020432356298887441 1 0.021619469776980399 0.023481704273349596 1 0.023110280496220527 1 1 0.02113352756968918 0.021026229017597462 1 1 1 0.020514031693081417 1 1 1 1 0.022763182080191395 0.020396523891011542 1 1 1 1 1 0.020701488071158191 1 1 1 1 1 1 1 1 1 1 1 0.021425896056725652 1 0.021151664297099009 1 0.023498142088525683 1 1 0.020002008303768741 1 0.022942709589677507 1 1 1 1 1 1 1 1 0.020759890030339345 1 1 0.021443266460000346 1 1 1 1 0.020161574103120847 1 1 1 1 1 1 1 1 1 1 1 1 0.020811946163782249 1 1 1 1 1 1 1 1 1 1 1 0.019968824792665422 1 1 1 1 1 1 0.021005665453582359 1 0.021053534891082349 1 1 0.020103907825232876 1 1 1 1 1 1 1 1 1 1 1 1 1 1 1 1 1 0.020310671145072526 0.021779454974045223 1 1 1 0.019761213360007083 1 1 0.02121347053953165 1 1 1 1 1 1 1 1 1 1 1 1 1 1 1 1 1 1 1 1 1 1 1 1 1 0.01995993251551275 0.019815051675777379 1 1 1 1 1 1 1 1 1 1 1 0.018026781202938623 1 1 1 1 1 1 1 1 1 1 1 1 1 1 1 1 1 1 1 1 1 1 1 1 1 1 1 1 1 1 1 1 1 0.020100669002162737 1 1 1 1 1 0.01989227846622374 1 1 0.020713707988394295 1 1 0.019010763875814754 0.031132115383214587 1 1 1 1 1 1 1 1 1 1 1 1 1 0.03100222204192872 1 1 0.020238410926067086 1 1 1 1 1 1 0.020003110476088132 1 1 0.030007044787279346 1 1 1 1 1 1 1 1 1 1 1 1 1 0.024659818162176401 1 1 1 1 1 1 1 0.020051754119033153 1 1 1 1 1 1 1 1 1 1 1 1 0.02196918166403047 1 1 0.020963516210448119 1 1 1 1 1 1 1 1 1 1 1 1 1 1 1 1 1 1 1 1 0.023400660932446343 1 1 0.022364855497844685 1 0.02313520816357624 1 1 1 0.019652892150103726 1 1 0.020568320621768898 1 0.020348396364394391 1 1 1 0.02120580636873326 1 1 1 1 0.020014554139177212 1 1 1 1 1 1 1 0.020069536054009685 1 1 1 0.01969098072679662 1 1 1 1 1 1 1 1 1 1 1 1 0.021250094134158432 1 1 1 1 1 1 1 1 0.019563355708889084 1 1 1 1 1 1 1 1 1 1 1 0.019953451704733376 1 1 1 1 1 1 1 1 1 1 1 1 1 1 1 1 1 1 1 0.01869062574150776 0.02060356349364665 1 1 1 0.020224973378048995 1 1 1 1 1 1 1 1 1 1 1 1 0.020214678715328172 1 1 1 1 1 1 1 1 1 0.020577165173350506 1 1 1 1 1 1 1 1 1 1 1 1 1 1 1 1 0.020112719604327187 1 0.020209247594611054 1 1 1 1 1 0.020277975355888787 1 1 1 1 0.019980389064142824 1 1 1 0.019985617624928512 1 1 1 0.020425081185666671 1 1 1 1 1 1 1 1 1 0.020120345070299479 1 1 1 0.020281230186565712 1 1 0.020037241963205256 1 1 1 1 1 1 0.020023778073154364 1 1 1 1 1 1 1 1 0.020021127059233618 1 1 1 0.020028043816498899 1 1 1 1 1 1 1 1 1 1 1 1 1 1 1 1 1 1 1 1 1 1 1 1 1 1 1 0.020347871526082414 1 1 1 1 1 1 1 0.02012672105987234 1 1 1 1 1 1 1 1 1 1 1 1 1 1 1 1 1 1 1 1 1 1 1 1 1 0.020921532112503752 1 0.020308988632799417 1 1 1 1 1 1 0.021473470474194144 1 1 1 0.020644208690578612 1 1 0.021872228221285102 1 1 1 1 1 1 1 1 1 1 1 1 0.027666876015627458 1 1 1 1 1 0.027146118333098958 1 1 1 1 1 1 1 1 1 1 1 1 1 0.020860926994489815 1 1 1 0.020472496911565354 1 1 1 1 1 1 1 1 1 1 1 1 0.021347258551283568 0.024019422498507578 1 1 1 1 0.026177997494174449 1 1 1 1 1 1 1 1 1 0.020176082264826176 0.018570524320251414 1 1 1 1 1 0.017396563170482774 1 1 1 1 1 0.019906152662091395 1 1 1 1 1 0.020021172365236484 1 0.024651853406253945 1 1 1 1 0.0191056513772319 1 0.021332378480416046 1 0.024356528247047711 0.019983334100429146 1 1 1 1 1 1 1 0.020043446799155408 0.019627901125831539 1 1 1 1 1 1 0.020001323497427979 0.019792532980205581 0.020611131097650393 1 0.020747200493660981 0.021765262152676934 1 1 1 0.02202935158136031 1 1 1 1 1 0.021766197243466359 0.019999156451261855 0.020000919823607851 1 0.023202222637524764 1 1 1 0.019966970519034916 1 0.019164147989789569 0.020229921211147844 1 1 1 1 1 1 1 0.019571770231729676 0.022328314038758429 1 1 0.020499793862278605 0.019717880530802256 0.02235596438989176 1 1 1 1 1 1 1 1 1 1 1 1 1 1 1 1 1 1 1 1 1 1 1 1 1 1 1 1 1 1 1 1 1 1 1 1 1 1 1 1 0.020043067945721468 1 1 1 1 1 1 1 1 1 1 0.020499707773408447 1 1 1 1 1 1 0.021483711387203008 1 1 0.02237684908452537 1 1 1 1 1 1 1 1 1 1 1 1 1 0.021976197936630616 1 0.024727057908678837 1 1 1 1 0.01983877854981787 1 1 1 0.020093625675204493 1 1 0.019429516947068494 1 1 1 0.020000434976448316 1 1 0.023939602164031338 1 1 1 1 1 0.023350654547314029 1 1 1 1 1 1 1 0.021447393545253008 1 1 1 1 1 1 1 0.020342453828420697 1 1 0.020921862530300674 1 1 1 1 0.02027790511706231 1 0.020636804725386489 1 1 1 1 1 0.020781956104235926 1 1 1 1 0.02047683874287794 1 1 1 1 1 1 0.021384114721039026 0.019289262579469175 1 1 1 1 1 0.022951464766803861 1 1 0.02423658899416915 1 1 1 1 1 1 1 1 1 1 0.019793891321201573 1 1 1 1 1 1 1 1 1 1 1 1 1 1 1 1 1 1 0.019911091967947103 1 1 1 1 1 1 0.020036817701055042 1 1 1 1 1 1 1 0.02573968276642279 0.020185627631064469 1 1 1 1 0.02001315859453839 1 1 1 1 1 1 1 0.022792066999815563 1 1 0.020167723077550711 1 0.019793455696666837 0.021615763370158865 0.019357002686482435 1 1 1 1 1 1 0.02011894781241922 1 1 1 1 1 0.020002272932926609 1 1 1 1 0.019963221470408514 1 1 1 0.022110008511974293 1 1 1 0.021524933850848117 1 1 1 1 1 1 1 1 1 1 1 1 1 1 1 1 1 1 1 1 1 1 1 1 1 0.025260456562590725 1 1 1 1 1 1 1 0.022010555990614664 1 0.025578218779183128 1 1 1 1 1 1 0.021818166994471307 1 1 0.020444445589063113 1 1 1 0.019967927012448441 1 1 0.02403161531036517 1 1 1 1 1 0.018621616759339744 1 1 1 0.019603114282538605 0.0217843562060306 1 1 1 1 1 1 1 1 1 1 1 1 0.020698354743851375 1 1 1 1 1 1 1 1 1 0.021648513496376663 1 1 1 1 1 0.02000694003728188 0.020664443951200304 1 1 1 1 1 1 1 1 1 0.020036019488857706 1 1 1 1 1 1 1 1 0.020978983511878071 1 1 1 1 1 1 1 1 1 1 1 1 1 1 1 1 1 1 0.019786806252613334 1 1 1 1 0.01947778697940996 1 0.020495709196599002 1 0.020727173127730081 1 1 1 1 1 1 1 1 1 1 1 1 1 1 1 1 1 0.021418619381869161 1 1 1 1 1 0.019871509936412388 1 1 1 0.021356680150613327 0.019804707435321142 1 1 1 1 1 0.020122133026303612 1 1 1 1 0.020172166915237211 1 1 1 1 1 1 1 1 0.020702990824571416 1 1 1 1 1 1 1 0.020532663882541595 1 1 1 1 1 1 1 1 1 0.020002724541794296 1 1 1 1 1 1 1 1 1 1 1 1 1 1 1 1 1 1 0.02023661179039675 1 1 1 1 1 1 1 1 1 1 1 1 1 0.019776003850969524 1 1 1 1 1 1 0.020095858820740144 1 1 0.019993083242734716 1 1 0.020217688433003717 1 1 1 1 1 1 1 1 1 1 1 1 1 1 1 1 1 1 1 1 1 1 1 1 1 1 0.020057294073277401 1 0.018467484920050285 1 0.020000497133365665 0.021974414529337714 1 1 1 0.018578621899615073 1 1 1 1 1 1 1 1 1 0.020716956339787429 0.019322264557271662 1 0.029580027611973918 1 1 1 1 1 1 1 1 1 1 1 1 1 1 0.019994409956423185 1 0.024962941327158008 0.021665638283071758 1 0.023842397573200027 1 1 1 1 1 1 1 1 1 0.029322542268874017 0.019699006393281968 1 1 1 1 1 1 1 1 1 1 1 1 1 1 1 1 1 1 1 1 1 1 0.020945127494832988 1 1 1 1 1 0.019994686175062452 1 1 1 1 1 0.019960702278969469 1 1 1 0.022824059246555523 1 1 1 1 1 1 1 1 1 0.020367218776910126 1 1 1 1 0.028989525213145788 1 1 1 1 1 1 0.028738809739735728 1 1 1 1 1 1 1 0.020214911679012348 1 1 1 1 0.027493105003854556 1 1 1 1 1 1 1 1 1 1 0.020128281061288163 1 1 1 1 0.022658562978243296 1 1 1 0.023150597544994867 1 1 1 1 1 0.020243119586451773 1 1 1 1 1 1 1 1 1 1 1 1 1 1 0.020748125711936214 0.025588455328136618 1 1 0.024373075491064398 1 1 1 1 1 1 1 0.020334001381948612 1 1 1 1 1 1 0.02038079208817907 1 1 1 1 1 1 1 1 1 1 1 1 1 1 1 1 1 1 1 1 1 1 1 0.02083027032277877 1 1 1 1 1 1 1 1 0.020341025100510793 1 1 1 1 0.020957529612513497 1 1 1 1 1 0.02090367538259922 1 0.020021221891410867 1 0.022495600738687394 1 1 1 1 1 1 1 0.020035326639094086 1 1 1 0.018845446542278755 1 1 1 1 1 0.020352374343627667 1 1 1 1 1 0.020076318308774328 1 0.020000587475744853 1 1 0.01999017839159201 1 0.021357547441385169 1 1 1 1 1 0.020299773398052438 1 1 1 0.020620067800517984 1 1 1 1 1 1 1 1 1 1 0.020060706883193245 1 1 1 1 1 1 1 1 1 1 1 1 1 1 1 1 1 1 1 1 1 1 0.020204590242009268 1 1 1 1 1 1 1 1 1 1 1 1 1 1 1 1 1 1 0.020437404279930051 1 1 1 0.020438786091100457 1 1 1 1 1 1 0.018896335561057135 1 1 1 0.019242486457554425 0.021254075048190369 1 0.018560804380641293 1 0.021070091330775472 0.019279507152008751 1 0.018826276775042932 1 1 0.019994062953938123 1 1 0.020204714310896151 0.01996412862343248 1 1 1 1 1 1 1 1 0.019988066360725296 1 0.019997320805118676 1 1 1 1 1 1 1 1 1 1 1 1 1 1 1 1 1 1 1 1 1 1 0.022895051128248942 1 1 1 1 1 1 1 1 0.023233708514533904 1 1 0.020072464060708506 1 1 0.02346490311598512 0.020055620181077309 1 1 0.02002424201364832 1 1 1 1 1 1 1 1 1 1 1 1 1 1 1 1 1 1 1 1 1 1 1 1 1 1 1 1 1 1 1 1 1 1 1 1 1 1 1 0.019872899650695778 1 0.019400077377583543 1 1 1 1 1 1 1 1 1 1 1 1 1 1 1 1 1 1 1 1 1 1 1 1 1 1 1 1 1 1 1 1 1 1 1 1 1 1 1 1 0.020117985694315405 1 1 0.020006507441985365 1 1 1 1 1 0.020307047526750627 1 0.02032157594122052 1 1 0.021982336894431614 1 1 1 1 1 1 0.023196670471700119 1 1 1 1 1 1 1 1 1 1 1 0.019901026942020006 1 1 0.025448585449331339 0.019839718098294729 1 0.020776716628206293 1 1 0.023203441240881112 1 1 1 1 0.02031769623075147 1 1 1 1 1 1 1 1 1 0.020005167597025562 1 0.027838048226122618 1 1 1 1 1 1 1 0.019898142017402486 1 0.027739977512813926 1 1 1 1 1 1 1 1 1 0.020667738477185116 1 0.028984627752516267 1 1 1 1 1 1 1 1 1 1 0.02206464919525198 1 1 1 0.026347229902918181 1 1 0.019999734600616416 1 1 0.019662300414638855 1 1 1 1 0.019811652362620676 1 1 1 0.020121829612263577 1 1 1 1 1 1 1 1 1 1 1 1 1 1 0.019940406378273136 1 1 1 1 1 1 0.019496251979403495 1 0.020474654881747507 1 0.021335784649250653 1 1 1 0.019862790075981206 1 1 1 1 1 1 1 1 0.021273318652097906 1 1 1 1 1 0.019986559967142874 1 1 0.021523178071186418 1 1 1 1 1 1 1 1 1 0.020922336645117081 1 1 1 0.02042967653613692 1 1 1 1 1 1 0.021047318022656782 1 1 1 1 1 1 1 1 1 1 1 1 1 1 1 1 1 1 1 1 1 1 1 1 1 1 1 1 1 1 1 0.020245822759100699 1 1 1 1 1 0.019814147819850043 1 1 0.020279346231039899 0.020261957607390337 1 1 1 1 0.019493386666847416 1 1 1 1 1 0.020246935104213319 1 1 1 1 1 1 1 1 1 1 1 1 1 1 1 1 0.020025564521895505 1 1 1 1 1 1 1 1 0.020332416749518394 0.020814721120181411 1 1 1 1 1 1 0.020917605671391677 1 1 1 1 0.020073867721094964 1 1 1 1 1 1 1 1 1 1 1 1 1 1 1 1 1 1 1 1 1 1 1 1 0.020563504978040562 1 1 0.020343246740835361 1 1 1 1 1 1 1 1 1 1 1 1 1 1 1 1 1 1 1 1 1 1 1 1 1 1 1 0.020052876966201595 1 0.020194794152994498 1 1 1 1 1 0.020389209784049091 1 1 1 1 1 1 1 1 1 1 1 1 1 1 1 1 1 1 1 1 0.020099841024558893 0.020474725699512999 1 0.020143665002025073 1 1 1 1 1 1 1 1 1 1 1 1 1 1 1 1 0.020116770432802539 1 1 1 0.020044121762796099 1 1 1 1 1 1 1 1 1 1 1 1 1 0.020194415631054601 1 1 1 1 1 1 1 1 1 1 1 1 1 1 1 1 1 1 1 1 1 1 0.018718513257528685 1 1 1 1 1 1 1 1 1 1 1 1 1 0.021315786339236732 1 0.022020007564786621 1 1 0.019428665442785299 0.026613872448583906 1 1 1 1 1 1 1 1 1 1 1 1 1 1 1 1 1 1 1 1 0.022723446579713223 1 1 0.031025824745480803 1 1 1 0.02027879043866563 1 1 1 1 1 1 0.028506983409938808 1 1 1 0.019776702299272399 1 1 1 1 1 1 1 1 0.019997210778993961 1 1 0.019107876182020908 1 1 0.023590232573397596 1 0.024392814469032836 1 1 1 1 0.01835268653749798 0.017420853681332001 1 1 0.02287491619728986 0.018107803987684169 1 1 0.018553127925566449 1 1 1 1 0.021404022816476583 1 1 0.020242570003044698 0.02376736911421674 1 0.019992175769799739 1 1 1 1 1 1 1 1 1 1 1 1 1 1 1 1 1 1 1 1 0.021466221037174046 1 1 1 1 0.020500160276693085 1 1 1 1 0.02020217345526603 0.022111342259120082 1 1 1 1 1 1 1 1 1 1 1 1 0.020706742271081175 1 1 1 0.026848864589971544 1 1 1 1 1 1 1 0.024329769127748264 1 1 1 0.023068192484530261 1 1 0.020499640110606735 0.021973780799714817 1 1 1 0.022964404019317076 1 1 1 0.020651634947034175 1 1 1 1 1 1 1 1 1 1 1 1 1 1 1 1 1 1 0.019944696730782335 1 1 1 1 1 1 1 1 1 1 1 1 1 1 1 1 1 1 0.020100983239945178 0.019807042209161727 1 1 1 1 1 0.019660952983106206 0.020291710214934148 1 0.019558121414749184 1 1 1 1 1 1 1 1 1 0.020895354485640272 1 1 1 0.020461131759022966 1 1 1 1 1 1 1 1 1 1 1 1 1 1 0.021169845988460022 1 1 1 1 1 1 1 0.019715294401682015 1 1 0.020060880037016299 1 1 1 1 1 1 0.026055370750642765 1 1 1 1 0.026512155096721821 1 1 1 1 1 1 0.021785151275817888 1 1 1 1 1 1 1 1 0.020057168545006162 0.025367278048115088 1 1 1 0.019405684954473514 0.023620889517951844 1 1 1 1 1 0.019805379756330996 1 1 1 1 1 1 0.021613761261692642 1 1 1 1 0.019800747356946657 1 1 1 1 1 0.020517497587149883 1 1 1 1 0.022743304180735426 1 1 1 1 1 1 1 1 1 1 1 1 1 1 1 1 1 1 1 1 1 1 1 1 1 0.020250960542805674 1 1 1 1 0.020068752108703333 1 0.022861982421370358 1 0.017207150584023112 1 1 0.025070909338249507 1 1 0.022593958965343698 1 1 0.019604129593905326 1 1 1 1 1 1 0.0269470896884824 1 1 0.02535726647566288 1 0.019217936462696306 0.021776405069759894 0.023067051093310201 1 1 0.018594668937087531 1 0.01952165520046216 0.019809366014664924 1 1 1 0.021243269418448264 1 0.020032062497052104 1 1 1 1 1 1 0.020214535246926853 1 1 1 0.019982105499786719 1 1 1 1 1 1 1 0.021652750751327707 1 1 1 0.018753146172762927 1 0.033494909872498396 0.032613740722485171 1 1 1 1 1 1 1 0.020315340212802936 1 1 1 1 1 1 1 1 0.020149798068953305 0.019243794942917173 1 1 1 1 0.018184173235101769 1 1 0.018145889547417283 1 1 1 0.020001017849080798 1 1 1 0.019438621603541949 0.01986456498342604 1 1 1 1 0.020069387302717435 1 1 1 1 1 0.019523515438395405 0.019247078527740841 1 1 1 1 1 1 1 1 1 1 1 1 1 1 1 1 1 1 1 1 1 1 1 1 1 1 1 1 1 1 1 0.020491693170696646 1 1 1 0.019921348697579951 1 1 1 1 1 1 1 1 1 1 1 1 1 1 1 0.019882940360445696 1 0.020225497060586961 0.020264417735753507 1 1 0.019689837312430764 1 1 1 1 1 1 1 1 1 1 1 1 1 1 1 1 1 1 1 1 1 1 1 0.020601661725304247 1 1 0.018825511387371176 0.019946291675974632 1 1 1 1 1 1 1 0.019143636193251243 1 1 1 0.021158569710954936 1 1 1 1 0.020375147584814048 0.020125002367535151 1 1 1 1 1 1 1 0.018648197570034775 1 1 1 1 0.019340331578552351 1 1 1 1 0.019788162701783529 1 1 1 1 1 1 1 1 1 1 1 1 1 1 1 1 1 1 1 0.020628942677777179 1 1 1 1 1 1 1 1 1 1 1 1 1 1 1 1 0.021778349568506872 1 1 1 0.020631035268056805 1 1 1 1 1 1 1 1 1 0.019844780211000224 1 1 1 1 1 1 1 1 1 1 1 1 1 1 1 1 1 1 1 1 1 0.019876276396035029 1 1 1 1 1 1 1 1 1 1 1 1 1 1 1 1 1 0.019638414476206022 1 1 1 1 1 0.020024413151268499 1 1 1 1 1 1 1 1 1 1 1 1 1 1 1 1 1 1 1 1 1 1 1 1 1 1 1 0.020085384753475863 1 1 0.025425250659658713 1 1 1 0.025579683914275043 1 1 1 1 1 1 1 1 1 1 1 1 1 1 1 0.03056551247631344 1 0.017956976478294192 1 1 1 1 1 1 1 1 1 0.028629565165731966 1 1 1 1 1 1 1 1 1 0.021491893453362415 0.025531309621235121 1 1 1 1 1 1 1 1 1 1 1 1 1 1 1 1 1 1 1 1 1 1 1 1 1 1 1 1 1 1 1 1 1 1 1 1 1 1 1 1 1 1 1 1 1 1 1 1 1 1 1 1 1 1 1 1 1 1 1 1 1 1 1 1 1 1 1 1 1 1 1 0.021754072460982848 1 1 1 1 1 1 0.024421365161830029 1 1 1 1 1 1 1 1 1 0.021823612307996999 1 0.024159186154209603 1 1 1 1 1 1 1 1 1 1 1 1 1 1 1 1 1 1 1 1 1 1 1 1 1 1 1 1 1 1 1 1 1 1 0.020061621638635799 1 1 1 0.020076454998636403 0.019859295716573161 1 1 1 1 1 1 1 1 1 1 1 1 1 1 1 1 1 1 1 1 1 1 0.019941821301408608 0.019376276335084784 1 1 1 1 1 1 1 1 0.019854794991447138 1 1 1 1 1 1 0.019712680983829667 1 1 1 1 1 0.020463737617349053 1 1 1 1 0.020158345574522025 1 1 1 0.031321709343217957 1 1 1 0.029052290680260846 1 1 0.025451557984869234 1 1 1 1 1 1 1 1 1 1 1 1 1 0.020043217605461357 1 1 1 1 1 1 1 1 0.020758707069608699 1 1 1 1 1 1 1 1 1 1 1 0.023038711230739004 1 1 1 0.02107849126245772 1 1 1 1 0.01934272130958764 1 1 1 1 1 1 1 1 0.018205235541177825 1 0.026165602654413377 1 1 0.018039404354902804 1 1 1 1 1 0.025639158925745306 1 1 1 1 1 1 1 1 1 1 1 1 0.020655398998545647 1 1 1 1 1 1 1 1 1 0.01930069963735967 1 1 1 1 1 1 0.021666656003617894 1 1 1 1 1 1 1 0.020991762537633622 1 1 1 1 1 0.021647161536179269 1 1 1 1 1 1 1 1 1 1 1 1 1 1 1 1 1 1 1 1 1 1 1 1 1 1 1 1 1 1 1 1 1 1 1 1 1 1 1 1 1 1 1 1 1 1 1 0.021710343821375891 1 0.024353547817904934 1 1 1 1 1 1 1 1 1 1 1 1 1 1 0.019788894659508394 1 1 1 1 1 1 1 1 1 1 1 1 1 1 1 0.02021935187660541 1 1 0.020974580081932877 1 0.022147272935269902 1 1 1 1 1 0.023269838407907768 1 1 1 1 1 1 1 1 1 1 1 1 1 1 1 1 1 1 1 1 0.022928591577271278 1 1 1 1 1 1 1 1 1 1 1 0.023742698553048155 1 0.020101106671753653 1 1 0.024256265761206128 1 0.017544465834673225 1 1 1 1 1 1 1 0.020174932250415896 1 0.030073085207638895 1 1 1 1 0.03282379421706607 1 1 1 1 0.02030276862331485 0.022019466850301046 1 1 0.026211933847798814 1 1 1 1 1 1 1 1 1 1 1 1 1 1 1 1 0.02093325375053301 1 1 1 1 1 1 1 1 1 1 1 1 1 1 0.022684040666068672 1 0.020095576827701578 1 1 1 1 1 1 1 0.028978820738409274 1 0.033178501583316589 1 1 1 1 1 1 1 1 1 0.020165112363445981 0.026655225334162182 1 1 1 0.025707928609903827 1 1 1 1 0.0173149951345992 1 0.021849127378769567 1 1 0.022352681599063423 1 0.011039735662426556 0.015790487333372946 0.01996915508479211 1 1 0.019993825351907357 1 1 1 0.016884642783680265 0.022644410665950666 0.025332202838762048 1 1 1 1 1 1 1 1 1 1 1 0.02417538341925721 1 1 1 1 1 1 0.028984993741017338 1 1 1 0.020002215760437689 1 1 1 1 1 1 1 1 0.02279074246366438 1 1 1 0.021009026926554947 1 1 1 1 1 1 1 1 1 1 1 1 1 1 1 1 1 1 1 1 1 1 1 1 1 1 1 1 1 1 1 1 1 1 1 1 1 1 1 1 1 1 1 1 1 1 1 1 1 1 1 1 1 1 1 1 1 1 1 1 0.02020343096662491 1 1 1 1 1 0.020151408674087403 1 1 1 1 0.019918598600197956 1 1 1 0.018738224011167155 1 1 1 1 1 1 1 1 1 1 1 1 1 1 1 1 1 1 1 1 1 1 1 1 1 1 1 1 1 1 1 1 1 1 1 1 1 1 1 1 0.020685341983508028 1 1 0.021632343716939714 1 1 1 1 1 1 1 0.019946354180104452 1 1 1 1 1 1 1 1 1 1 1 0.01983276666795597 1 1 0.020017595233889664 1 0.019552030500984623 1 1 1 0.022013544433981076 1 1 1 1 1 1 1 1 0.020015391494341075 1 1 1 1 0.020006707846384409 1 1 1 1 0.022152823554276849 1 0.019564475559980199 1 1 1 1 1 1 1 1 1 1 1 1 0.021501178070121588 1 0.021907090492953953 1 1 1 1 1 1 1 1 1 1 1 1 1 0.01999626466293386 1 1 1 1 1 1 1 1 1 0.020056697801864237 1 1 1 0.020060433138930397 1 1 1 1 1 1 1 1 1 1 1 1 1 1 1 1 1 1 1 1 1 1 1 1 1 1 1 1 1 1 1 1 1 1 1 0.020061846343189603 1 1 0.019991634854676456 1 1 1 1 0.020177005017854258 1 1 1 1 1 1 1 1 1 1 1 1 1 1 1 0.020152353656055777 1 1 1 1 1 1 1 1 1 0.02044336685680577 1 0.020073008087051411 1 1 1 1 1 1 1 0.019920221956908596 1 1 1 1 1 1 1 1 1 1 1 1 1 1 0.021940886427071846 1 1 1 1 1 1 1 1 1 1 1 0.025098597421921234 1 1 1 1 1 1 1 1 1 1 1 1 1 1 1 1 1 1 1 1 1 1 1 0.019813007723277001 1 0.020146480932705987 1 1 1 1 1 1 0.019505852300763956 1 0.022427338309400687 1 1 1 0.018320524418000528 1 1 1 0.026884378930027739 1 1 1 0.017133705654814674 1 1 0.024356915475552424 1 1 1 1 1 1 1 0.021501821531110792 1 1 1 1 1 1 1 0.02631593408955642 1 1 1 1 1 1 1 1 1 1 1 1 1 0.020017515209843462 1 1 1 1 1 1 1 1 0.023838599537489309 1 1 1 1 1 1 1 1 1 1 1 1 1 1 1 1 1 1 1 1 0.026894167806152679 1 1 1 1 1 1 1 1 1 1 1 1 1 1 1 1 1 1 1 1 1 1 1 1 1 1 1 1 1 1 1 1 1 1 1 1 1 1 1 1 1 1 1 1 1 1 1 1 1 1 0.020274838886884489 1 0.01987472838364614 1 1 1 0.021383303645717423 1 1 0.019931859146445352 0.019553178378454165 1 0.020742402525215878 1 1 1 1 1 1 1 1 1 1 1 1 1 1 1 1 1 1 1 1 1 1 1 1 1 1 1 1 1 1 1 1 1 1 1 0.021539331272564539 1 1 1 1 0.015310850764822987 1 1 1.7347234759768071e-17 1 1 1 0.052695905827906772 1 1 1 1 0.022703854698297814 1 0.019997524047910529 0.01968062292281483 1 1 1 1 0.029907730762361223 1 1 1 -6.591949208711867e-17 1 1 1 0.020369556774764784 1 1 1 1 1 1 0.020437576078763238 1 1 1 1 1 1 1 1 1 1 1 1 1 1 1 1 1 1 1 1 0.02114929229561956 1 1 1 1 1 1 1 1 1 1 1 1 1 1 1 1 1 1 0.020179820726322684 1 1 0.020471797242588127 1 1 0.019681304111046766 1 1 1 1 1 1 1 1 1 1 1 0.020681450621619843 1 1 1 1 0.020641380034106364 1 1 1 1 0.019274492523500872 1 1 1 0.019974832890530429 1 1 1 1 1 1 1 1 1 1 1 1 1 1 1 1 1 1 1 1 1 1 1 1 1 0.019271218753376472 1 1 1 1 1 1 1 1 0.019974939149314773 1 1 1 0.018721073855246163 1 1 1 1 1 1 1 1 1 1 1 1 1 1 1 1 1 1 1 1 1 1 1 1 0.022723672941166503 1 1 1 0.017366700183728573 1 1 1 1 1 1 1 1 0.02172347315756076 1 1 0.023800901430442476 1 1 1 1 0.021435302168179515 1 1 1 1 1 1 1 0.0199229020124452 1 0.022123592389768319 1 1 0.022695193111660288 1 1 0.019599557886888448 0.019981319209155596 1 1 1 1 1 1 1 1 1 1 1 1 1 1 1 1 1 1 1 1 1 0.020558642745990799 1 1 1 1 0.020281947300293368 1 1 1 1 1 1 1 1 1 1 1 1 1 0.019665615927344456 1 1 0.020066514854056906 1 1 1 1 1 1 1 1 1 1 1 1 1 1 1 1 1 1 1 1 1 1 1 1 1 1 1 1 1 1 1 1 1 1 1 1 1 1 1 1 1 1 1 1 1 1 1 1 1 1 1 1 1 1 1 1 1 1 1 1 1 1 1 1 1 1 1 1 1 1 1 1 1 1 1 1 1 1 1 1 1 1 1 1 1 1 1 1 1 1 1 1 1 1 1 1 1 1 1 1 1 1 1 1 1 1 1 1 1 1 1 1 1 1 1 1 1 1 1 1 1 1 1 1 1 1 1 1 0.020715277562918702 1 1 1 1 1 1 1 0.020584872183407963 1 1 1 1 1 1 1 1 1 0.021210646167178569 1 0.020419285191087665 1 1 1 0.020395136788687124 1 1 0.021259122259236166 1 1 1 1 1 1 1 1 1 1 1 1 1 1 1 1 1 1 1 1 1 1 1 1 1 1 1 1 1 1 1 1 1 1 1 1 1 0.021072841580957822 1 1 0.01943917389128005 0.025240068638008647 1 1 0.019920550741292217 1 1 0.021094917188966448 1 1 1 0.021588353111392729 1 1 1 1 1 1 1 1 1 0.022885306001518425 1 1 1 1 1 1 0.020729472806307447 1 1 1 1 1 1 1 1 1 1 1 1 1 1 1 1 1 1 1 1 1 1 1 1 1 1 1 1 1 1 1 0.019573109099646595 1 1 1 1 1 1 1 1 1 1 1 1 1 1 1 1 1 1 1 1 1 1 1 1 1 1 1 1 1 1 1 1 1 1 1 1 1 1 1 1 1 1 1 1 1 1 0.024122302419812086 1 0.023911068319886167 1 1 1 1 0.020294621913381054 1 1 1 1 0.027397262253943698 1 1 1 1 0.019895786744142378 1 1 1 1 1 1 1 1 0.026352914801259265 1 1 0.020941113943202843 1 0.019752587103192297 1 1 1 1 0.018184247116395512 1 1 0.028109663285555836 0.016837059522075034 1 1 1 1 1 1 0.020157361907843188 1 1 1 1 1 1 1 1 1 1 0.028540904485469979 0.020247119919789468 1 1 1 1 1 0.020485685566077085 1 1 0.02771191102016125 1 1 1 1 0.023944985578479551 1 1 0.020893319121621571 1 1 1 1 1 1 1 1 1 1 1 1 1 1 1 1 1 1 1 1 1 1 1 1 1 1 1 1 1 0.025383257424313674 1 0.022241091514047115 1 1 1 1 1 1 1 1 1 1 1 1 1 0.019986493397554574 1 1 1 1 0.021096558357048989 0.019853874323931434 1 1 1 1 1 1 1 1 1 1 1 1 1 1 1 1 1 1 1 1 1 1 1 1 1 1 1 1 1 1 1 1 1 1 1 1 1 1 1 1 1 1 0.0199724027902126 1 1 1 0.019985909392658006 1 1 1 1 1 1 1 1 1 1 1 1 1 1 1 1 1 1 1 1 0.021701925108783039 1 1 0.021457859151173143 1 1 1 1 1 1 1 1 1 0.021656841309875795 1 1 1 1 1 0.024057657358677348 1 1 1 1 1 0.020015203512321594 1 0.019994245198749441 1 1 1 1 1 1 1 1 1 1 1 1 1 0.019387751467355184 1 1 1 0.019794307869309125 0.023067049730595101 1 1 1 1 1 1 1 1 0.023975734587748102 1 1 0.02198508677827269 1 1 0.019954354076571989 0.021072679618710698 1 1 1 1 1 0.020986209704144009 1 1 1 1 1 1 1 0.020432768591719309 1 1 0.020820101402004184 0.021263527228660765 1 1 1 1 1 1 0.019916127438268261 0.020072614712345196 1 1 1 0.019981255025705798 1 1 1 1 1 1 1 0.019951340302756602 1 1 1 1 1 1 1 1 1 1 1 1 1 1 1 1 1 1 1 1 1 1 1 1 1 1 0.038332036060023562 1 1 1 1 1 1 1 0.019782892964508136 1 1 1 1 1 1 1 1 1 1 1 0.033932468502519401 1 1 1 1 1 1 1 1 0.019156323843220201 1 1 1 1 1 1 1 1 1 1 1 1 1 1 1 1 0.020778310422760092 1 1 1 0.019534027791288357 1 1 1 1 1 0.022512285318881588 1 1 1 1 1 1 1 1 1 1 1 1 1 1 0.021193850874664827 1 1 1 1 0.023328981077400963 1 1 0.024946637477550083 1 1 1 1 1 0.019945004236946076 1 1 1 1 1 1 1 1 1 1 1 1 1 1 0.019757300741137251 1 0.015826904301520131 1 1 1 0.026085381989510902 1 0.027859951918215959 1 0.014603111867188523 1 1 1 1 1 1 0.019995714150187475 0.03996487290598208 1 1 1 1 1 1 0.03916026268130169 1 0.01967554236926583 1 1 1 1 1 1 1 1 1 1 1 1 1 1 1 1 1 0.016002305659240768 1 1 1 0.019978932167710729 0.017567956311949975 1 1 1 1 1 0.018767169586203138 1 1 0.019978450408232422 0.019595918919149184 1 1 1 1 1 1 1 1 1 1 1 1 1 1 1 1 1 1 1 1 1 1 1 1 1 1 1 1 1 1 1 1 1 1 1 1 1 1 1 1 1 1 1 1 0.028264457796229409 1 1 0.017834076825700779 0.019627491788752727 0.020507826203872655 1 1 1 1 1 1 0.019878529934716602 1 1 1 1 1 1 1 1 1 0.020177068020047713 1 1 1 0.027757054142107461 1 1 1 1 1 1 1 1 1 1 1 1 1 1 1 1 1 1 1 1 0.025756678909473463 1 1 1 1 0.022120885097812893 1 1 1 1 1 1 1 1 1 1 1 1 1 1 1 1 1 1 1 1 1 1 1 1 1 1 1 1 1 1 1 1 1 1 0.021440654026010465 1 0.020694115544921014 1 1 1 1 1 1 1 1 0.021787998044787912 1 1 1 0.024303005191333764 1 0.021093882499866892 1 1 1 1 1 1 1 1 0.028370525207687656 1 1 1 1 0.022663239378032718 1 1 1 1 0.026952196203663677 1 1 1 1 1 1 1 0.027380199698590846 1 1 1 1 0.023290354660250458 1 1 1 1 1 1 1 1 1 1 1 1 1 1 1 1 1 1 1 1 1 1 1 1 1 1 1 1 1 1 1 1 1 1 1 1 1 1 1 1 1 1 1 1 1 1 0.021436075661062367 1 1 1 1 0.02200440059389893 0.023594118499598526 1 1 0.02418751348514056 0.021565833321278538 1 1 1 1 1 1 1 1 1 1 1 1 1 1 1 1 1 1 1 0.020776249690037954 1 1 1 0.021579876207537253 0.021114611494826553 1 1 1 1 1 1 1 1 1 1 1 1 1 1 1 1 1 1 1 1 1 1 1 1 1 1 1 0.020656007501014303 1 1 1 1 1 1 1 0.02101362437679687 1 1 1 1 1 1 1 1 1 1 1 1 1 1 1 0.021492957043651922 1 1 1 1 1 1 1 1 0.020669772256997804 1 0.020269974274828888 0.021704677480381587 1 1 1 1 1 1 1 1 1 1 1 1 0.019622296051931842 1 1 1 1 1 1 1 1 1 1 1 1 1 1 1 1 1 1 0.01701210015464932 1 1 1 0.016238746048735903 1 1 1 1 1 1 1 1 0.018673753758901183 1 1 1 1 1 1 1 1 1 1 1 1 1 1 1 0.020217784711579971 1 1 1 0.020252705922605578 1 1 1 1 1 1 1 1 1 1 1 1 1 1 1 1 1 1 1 1 1 1 1 1 1 1 1 1 1 1 1 1 1 0.021121487978180045 1 0.020466206574283753 1 1 1 1 1 1 1 1 0.019856918360007681 1 1 1 1 1 1 1 1 1 0.021567194631351011 1 1 0.018145654417104598 1 1 1 1 1 0.019082553358867393 1 1 1 1 0.020125700039764872 1 1 1 1 0.017783281727632286 1 1 1 0.017881634324169247 1 0.027167486360339152 1 1 0.027949077661316889 1 1 1 1 1 1 1 1 1 1 1 1 1 1 0.019855208916081418 1 1 0.02132184587981489 1 0.019723072571142232 1 1 1 0.023636673691882156 1 1 0.022589279732217235 1 1 1 1 0.027129392255476191 1 0.018619074875438523 1 1 1 1 1 1 0.019538662976745797 1 0.020077438800842014 1 1 1 1 1 0.020283139043207526 1 1 1 1 0.027761931542487669 1 1 1 1 1 1 0.019983697913269354 1 1 1 1 1 1 1 1 1 1 1 1 1 1 1 1 1 1 1 1 1 1 1 1 1 1 1 1 1 1 1 1 1 0.020268774563148521 0.019987122775680769 1 1 1 1 1 1 1 1 1 1 0.018169644850143385 1 1 0.028234179268378012 0.019469048816356454 1 0.020005044252556933 1 1 1 1 1 1 1 0.017627793594112897 1 1 1 1 1 1 1 1 1 1 1 1 0.022393145232573554 1 1 1 1 0.02081637366701115 1 1 1 1 1 1 1 1 1 1 1 1 0.022803418745684638 1 1 1 1 1 1 1 1 1 1 1 1 1 1 1 1 1 0.022032798981789288 1 1 1 1 1 0.020503309366452602 1 1 1 0.023257737211546753 1 1 1 1 1 1 0.022523932314669849 1 0.023320748783884206 1 1 1 0.0216731542178016 1 1 1 1 1 1 1 1 1 0.024668703656281217 1 1 0.019906217268925757 1 1 1 1 1 1 1 0.020997636439933767 1 1 1 1 1 1 1 1 1 1 1 1 1 0.019604655056189194 1 1 0.021120068297959621 1 1 1 1 1 1 0.020053006586673222 1 1 1 1 1 1 0.024833524749123294 1 1 1 1 1 1 1 0.026911192208826467 1 1 1 1 1 1 1 1 1 1 1 1 1 1 1 1 1 1 1 1 1 1 0.021012159577137129 1 1 1 1 1 1 1 1 1 1 0.017385927488342546 1 1 1 1 0.016306991590497776 0.025739367532484892 1 1 1 1 0.024677790611170994 1 1 1 1 1 1 1 1 1 0.023610222474625929 1 1 1 1 1 1 1 1 1 1 1 0.022474586304777208 1 1 1 0.019734903107261018 1 1 1 0.020870552728490078 1 1 1 1 1 1 1 1 1 1 1 1 0.018723142504310647 1 1 1 1 1 0.019985061599312189 1 1 0.019988480772453882 1 1 1 1 1 1 1 1 1 1 1 1 1 1 0.020884589169434926 1 1 1 1 1 1 1 0.021754954483048747 1 1 1 0.020978790891448641 1 1 1 1 1 0.020017078041533264 1 1 1 1 1 1 1 1 1 0.020013658868391571 1 1 1 1 1 1 1 1 0.01941372851746857 1 1 1 1 1 0.020202460763023802 1 1 1 1 1 1 1 0.020075345888280263 1 1 1 1 1 1 1 1 1 1 1 1 1 1 1 1 1 1 1 1 1 1 1 1 1 1 1 1 1 1 1 1 1 1 1 1 1 1 1 1 1 1 1 1 1 1 1 1 0.021731441336810674 1 1 1 1 1 1 1 0.021894089745255123 1 1 1 1 1 1 1 1 1 1 1 1 1 1 1 1 1 1 1 1 1 1 0.023388376733082434 0.019738125600197203 1 1 0.025134923642618004 0.017809540484724138 1 1 1 1 1 1 1 0.019636531592366353 1 1 1 1 1 1 1 1 1 1 1 1 1 1 0.023555827444814735 1 1 1 1 1 1 1 1 0.021674169767019268 1 1 0.020278222367919006 1 1 1 0.020353683604893653 1 1 1 1 1 1 1 1 1 1 1 1 1 1 1 1 1 1 1 1 1 1 1 1 1 1 1 1 0.023022566072003276 1 1 1 1 1 1 1 1 0.019953942655151984 1 1 1 1 1 1 0.028195954451583974 0.019402730001047339 1 1 1 1 0.019588638739013182 1 1 0.025653087592895397 1 1 0.024400012100020178 1 1 1 1 1 1 0.02021939884613471 1 1 1 1 1 1 1 1 0.020323631118178351 1 1 1 1 1 1 1 1 1 1 1 0.02074496012577498 1 1 0.020421854468737365 1 1 1 1 1 1 1 0.021161182814624382 1 1 1 0.020447845961341079 1 0.021044309106908077 1 0.02073356272442144 1 1 1 1 1 1 1 1 1 1 1 1 1 1 1 1 1 0.025178292606298013 1 0.019998329838632294 1 1 1 1 1 1 1 1 1 1 0.023395000062188944 1 1 1 1 1 1 1 0.020306526378528613 1 1 1 0.019985734283804277 1 0.020252073401319716 0.018684394423941406 1 1 0.01631411059877131 1 1 1 1 0.024695809054491185 1 1 1 0.017559047071517772 1 1 1 0.019720420768047489 1 0.020972086849181167 0.027911461792852619 1 1 1 1 1 1 0.021234859503330882 1 1 1 1 1 1 1 1 0.027879548029300122 0.020003951978350833 0.026292419185165672 1 0.034624312453658664 1 1 0.018177285888145975 0.02000233144348787 1 1 0.017756344432617806 1 1 1 1 1 1 1 1 1 1 1 0.020084733447133175 1 1 1 1 1 1 1 1 1 1 1 1 1 0.025544366876484249 0.0261949000377046 1 1 1 1 0.026162222793844666 1 1 1 0.020322504706628886 1 1 1 1 1 0.024602236357193111 0.020003725353687121 1 1 1 0.018770729606604822 1 1 1 1 1 1 1 1 1 1 1 1 1 1 1 0.020163991207803041 1 1 1 0.021996364568142114 1 1 1 0.020098147028906936 1 1 1 1 1 1 0.024636908910658499 1 1 1 1 1 0.024270182841402994 1 1 1 1 1 1 1 1 0.022239483878615324 1 1 1 1 1 1 1 1 1 0.020458095668923076 1 1 1 1 0.025151168045244698 1 0.019855409265916425 1 1 0.024658108195611705 1 0.020237423594548037 1 1 1 1 1 1 0.020680687132734195 1 0.019961494360071535 0.028793688325430299 1 1 1 1 1 1 1 1 0.017822339477863301 1 0.019928020147497089 1 0.020009932807380747 1 0.027617151120827726 1 1 1 1 1 1 1 1 1 1 1 0.020161322625557795 1 1 1 0.02039478444532751 1 1 1 1 1 1 1 1 0.020233461819769687 1 1 1 1 1 1 1 1 1 0.02006598144295367 1 1 1 1 0.019863528838627301 1 1 0.019633791626241438 1 1 1 1 1 1 1 1 1 0.019904373055821656 1 1 1 0.019598957913720697 1 1 1 1 1 1 1 1 1 1 1 1 1 1 1 1 1 1 1 0.020428161196535802 1 1 1 1 1 1 1 1 1 1 0.020314030613406031 1 1 1 1 1 1 1 1 1 1 1 1 1 1 1 1 1 1 1 1 1 1 1 1 1 1 1 1 1 1 1 1 1 1 1 1 1 1 1 1 1 1 1 1 1 0.031666180704554035 0.019750498079082791 1 1 1 1 1 1 1 1 1 1 1 1 1 0.038441809511859333 0.01852318512151014 1 1 1 0.020906177003572331 1 1 0.024113038495859419 1 1 1 0.027420563864938245 1 1 1 0.032835779927921589 1 1 1 1 1 1 1 1 0.019265181379335937 1 1 0.021831662981847032 1 0.025866136249364888 0.023853491394793258 1 1 1 1 1 1 0.027230090673544399 1 0.01937544507357724 0.022301068156927891 0.020409033347930403 1 1 0.024931349949898329 1 1 0.024014557755034811 0.025131407731352945 1 1 1 1 1 1 1 1 1 1 1 1 1 1 1 1 1 1 1 1 1 0.020872596754015194 1 1 1 1 1 1 1 1 1 0.021515687045900758 1 1 1 1 1 1 1 0.018784294275895175 0.020894250784371231 1 1 1 1 1 1 1 1 1 1 1 1 1 1 1 1 1 1 1 1 1 1 1 0.021344813924159694 1 0.0199508474239905 1 1 1 1 1 1 1 0.0208697419597157 1 1 1 0.022069156483532033 0.019930861509706681 1 1 0.01954726135438355 1 1 1 1 0.02296045147307544 1 1 1 0.022956311401809894 1 1 1 0.037505495442399117 1 1 1 1 1 1 1 1 1 0.040632905459730029 0.016364391427953786 1 1 1 1 1 0.022454026075241981 1 1 0.018839745545231171 0.0318721767094391 0.040090532566215142 1 1 1 1 1 0.019311424724717859 1 1 1 1 1 1 1 1 1 0.01942562879488027 1 0.019757307292563489 1 1 1 1 1 1 1 1 1 1 1 1 1 1 1 1 1 1 1 1 1 1 1 1 0.019486294750694799 1 1 1 1 0.018517677932867668 0.018471576040192256 1 1 1 0.019281273395410175 1 1 1 1 1 1 1 1 1 1 1 1 1 1 1 1 0.028413293849902019 1 1 1 0.020036222927993137 1 1 0.013426562273524125 1 1 1 1 1 1 1 1 1 1 1 1 1 0.017563377603339862 1 1 0.027452222894361375 1 1 1 0.01542479282734148 1 0.034219066887125664 1 0.020010731389897896 1 0.022423818800566736 0.026326115217249653 0.02000893541379543 1 1 1 1 1 1 1 1 0.019862792668698726 1 1 1 1 1 1 1 1 0.026078706838168212 1 1 0.022113070880771041 1 1 1 1 1 1 1 1 1 1 1 1 1 1 1 1 1 1 1 1 1 0.020166916865781197 1 1 1 1 1 1 1 1 1 1 0.020067547116098178 1 0.020542135756360907 1 1 0.022118417016927187 1 0.020748103271935346 1 0.020012030709343372 1 1 0.020061405895009529 1 0.024460635648148182 1 1 0.021428869813535579 1 1 1 0.019980525848083956 1 1 1 1 1 1 1 1 1 1 1 1 1 1 1 1 1 1 1 1 1 1 1 1 1 1 1 1 1 1 1 1 1 1 1 1 1 1 1 1 1 1 1 1 1 1 1 1 1 1 1 1 1 1 1 1 1 1 1 1 1 0.022517587197745333 1 1 0.028653764230189605 1 1 1 1 1 1 0.020033478623587068 0.02407865975783894 1 1 1 1 1 1 1 1 1 1 1 1 1 1 1 1 1 1 0.026520273494000383 1 1 1 0.020213278672241448 1 1 1 1 1 1 1 1 1 1 1 1 1 1 1 1 0.019873591544962252 1 1 1 1 1 1 1 0.027721713642010939 1 1 1 1 1 1 1 1 0.025463976059349816 1 0.020344545864814035 1 1 1 1 1 1 1 1 1 1 1 1 1 1 1 1 0.019985227583218131 1 1 1 1 1 1 1 0.019951111691168116 1 1 1 1 0.019993686404881521 1 1 1 1 1 1 1 0.019978163057509483 1 1 0.02213859201717518 0.020227007690195517 1 1 0.019203274249415064 1 1 1 1 1 1 0.019901188308079475 1 1 1 1 1 1 1 1 1 0.020134100291867834 1 1 0.02003013745886582 1 1 0.020009137582162009 1 1 0.022633701862429606 1 1 1 1 1 0.022916691563127721 1 1 1 1 1 1 1 1 0.020138956180315588 1 1 1 1 1 1 1 0.020395408023228416 1 1 1 1 1 1 1 1 1 1 1 1 0.020009116242017594 1 1 1 1 1 1 1 0.020002168663428157 0.019993951618312085 1 0.02306076173933368 1 0.023159583048695215 1 1 1 1 1 1 1 1 1 1 1 1 1 1 1 0.020006125527197934 1 0.023227207272740937 1 1 1 1 1 1 1 1 0.019384865286400217 1 0.021042774740139512 1 0.021983545667366693 1 0.019939280263898754 1 0.019978662132058268 1 1 0.02013521747833345 1 1 1 1 1 0.020450973997467183 1 1 1 1 1 1 1 1 0.019955996503987918 1 1 1 1 1 0.019873560785675731 1 1 0.022878882354457414 1 0.019988436519560109 0.020957663716033127 1 1 1 1 1 1 1 1 0.019999768798940408 1 1 1 1 1 1 1 1 1 1 1 1 1 0.0200503002022289 1 1 1 1 1 1 1 0.020000726936469555 1 1 1 0.020000721309903515 1 1 1 1 1 1 1 1 1 1 1 1 1 1 1 1 1 0.020108248869838644 1 1 1 1 1 1 1 0.020051680035690349 1 1 0.020040689826955775 1 1 1 1 1 1 1 1 1 1 1 1 1 1 1 0.020099768840988803 1 1 1 1 0.019962676596169394 1 1 1 1 1 1 1 1 1 1 1 1 1 1 1 1 1 1 1 1 1 1 1 1 1 0.020825700031614783 1 1 1 1 1 1 0.020041344984049761 1 1 1 1 1 1 1 1 1 0.021722972587907813 0.020394976910062621 1 1 1 0.020445199299501327 1 0.020023444792058726 1 1 1 1 1 1 1 1 1 1 1 1 1 1 1 0.020051015813619816 1 1 1 1 1 1 1 1 1 1 1 1 0.020000015734002542 0.020013583046914744 1 1 1 1 1 1 1 1 0.020087581862639647 1 1 0.01999911261027864 1 1 0.020741969318373913 0.019644389096090325 1 1 1 1 1 1 1 0.020239843518195848 1 1 1 1 1 1 1 1 1 0.020013567312912189 1 1 1 0.020892903573755683 1 1 1 1 1 0.02072182553413357 1 1 1 1 1 1 1 1 1 1 1 1 0.020691820293278231 1 1 1 0.02002163752956455 1 1 1 0.02001023106245535 1 1 1 1 1 1 1 1 1 1 1 1 1 1 1 1 1 1 1 1 1 1 1 1 1 1 1 1 1 1 1 1 0.019997386162084709 1 1 1 1 1 1 1 1 1 1 1 1 1 1 1 1 1 1 1 1 1 1 1 1 0.020050745996235669 1 0.020001900241469233 1 1 0.022855971635787242 1 1 1 1 1 1 1 1 1 0.019958686991595219 1 1 1 1 1 1 1 1 1 1 1 1 1 1 0.022483824380600217 1 1 1 1 0.021922724473314215 1 1 1 0.02078644010423011 1 1 1 1 1 1 1 1 1 1 1 1 1 1 1 1 1 1 1 1 1 1 1 1 1 1 1 1 1 1 1 1 1 1 1 1 1 1 1 1 1 1 1 1 1 1 1 1 1 1 1 1 1 1 1 1 1 1 1 1 1 1 1 1 1 1 1 1 1 1 1 1 1 1 1 1 1 1 1 1 1 1 1 1 1 1 1 1 1 1 1 1 1 1 1 1 1 1 1 1 1 1 1 1 1 1 1 1 1 1 1 1 1 1 1 1 1 1 1 1 1 1 1 1 1 1 1 1 1 1 1 1 1 1 1 1 1 1 1 1 1 1 1 1 1 1 1 1 1 1 1 1 1 1 1 1 1 1 1 1 1 1 1 1 1 1 1 1 1 1 1 1 1 1 1 1 1 1 1 1 1 1 1 1 1 1 1 1 1 0.021065148996181657 1 1 1 1 1 1 1 1 1 1 1 1 1 1 1 1 0.020856178772855817 1 1 1 1 1 1 1 1 0.032198585217763982 1 1 1 1 0.019452082605782923 1 1 1 1 1 1 1 1 1 1 1 1 1 1 1 1 1 1 1 1 1 1 0.021103925167401026 1 1 1 1 1 1 1 1 1 1 1 1 1 0.019346598719762319 0.020331748320713772 1 1 1 1 1 0.019280120396332586 1 0.030718458257366108 1 1 1 1 1 1 1 1 1 1 1 0.020068828922527378 1 1 1 1 1 1 1 0.045106440749249875 1 1 1 1 1 1 1 1 1 1 1 1 1 1 1 0.020482102169633025 0.047966564900969469 1 1 1 1 1 1 1 1 1 1 1 1 0.026682657452094166 1 1 1 1 1 1 1 1 1 1 1 1 1 1 1 1 0.022302320740131061 1 1 1 1 1 1 1 0.049511614581603282 1 1 1 1 1 1 1 1 1 1 0.019791657164165311 0.044833817757291949 1 1 1 1 1 1 1 1 1 1 1 1 1 1 1 1 1 1 1 1 1 1 1 1 1 1 1 1 1 1 0.02105892138000301 1 1 1 1 1 0.020862080249635238 1 1 1 1 1 1 1 1 1 1 0.020360675205212161 1 1 1 1 0.020178640944262444 1 1 1 1 1 1 1 1 1 1 0.020796448844739013 1 0.020295043800315927 1 1 1 1 1 1 1 1 1 1 1 1 1 1 1 1 1 1 1 1 1 1 1 1 1 1 1 1 1 1 1 0.020303527313660922 1 1 1 1 1 0.020785629483293946 1 1 1 1 1 1 1 1 1 1 1 1 1 1 1 1 1 1 0.020905315625989091 1 1 0.039949498658899629 1 1 1 0.020303067463798074 1 1 1 1 1 0.042770719287083342 1 1 1 1 1 1 1 1 1 1 0.026023796597876514 1 1 1 1 1 1 0.020699645501309358 1 1 1 1 1 0.010299629532240871 0.019691008612004787 1 1 0.031503308450929801 1 1 0.020822925989749996 1 1 1 1 1 1 1 1 1 1 0.020287651292392687 1 1 0.020393117617118844 1 1 0.019811259568611378 1 1 0.021057539640539441 1 1 0.02124398506718353 1 1 0.019892906036335305 1 1 1 1 1 1 0.021595434110683071 1 1 1 1 1 1 1 1 1 1 1 0.031938693399294255 1 1 1 1 1 1 1 0.020218926587885926 1 1 1 1 0.020850790901382345 1 1 1 0.030977192942320084 1 1 1 1 1 1 1 1 1 1 1 0.022468898683951487 1 1 1 1 1 1 1 1 1 1 1 1 1 1 1 1 1 1 1 1 1 1 1 1 0.020100203943214635 1 1 1 1 1 0.020177806979798995 1 1 1 1 1 1 1 1 1 1 1 1 1 1 0.022535101231683119 1 1 0.021599376689683623 1 0.025672239578515336 1 1 1 1 0.028589589743383277 1 0.019789506304117348 0.021425676636044923 1 0.023054665130458184 1 1 1 1 1 1 1 0.020009335281938906 1 0.022901122798360138 1 1 1 1 1 1 0.019201588646845166 1 1 1 1 1 1 0.020041426120257829 1 1 1 1 0.020121558430676159 1 1 1 1 1 0.020153210529887857 1 1 0.020619866804975073 1 1 1 1 0.020223909102391916 1 1 1 1 0.022243169035572032 1 1 1 1 1 1 0.019719309923696915 1 1 1 1 1 1 1 1 1 0.019997587392984545 1 1 1 1 1 1 0.020858716853421309 1 1 1 1 0.022383975485909469 1 1 1 1 1 1 1 1 1 1 1 1 1 1 1 1 0.020141254804103337 1 1 1 0.01990386115962647 1 1 0.023417319578542994 1 1 1 1 1 1 1 1 1 1 1 1 1 1 1 1 0.019821324698608225 1 0.02354329876405787 1 1 1 1 1 1 1 1 1 1 1 1 1 1 1 1 1 1 1 1 1 1 1 1 1 1 0.030623479790672963 1 1 0.023497105109610672 1 1 1 1 1 1 1 1 1 1 0.022809167942250737 1 1 1 1 0.019746079194932986 1 1 1 1 0.019924754496324758 1 1 1 1 1 1 1 1 1 0.022019625710072856 1 1 1 1 1 1 1 1 1 1 1 1 1 1 1 1 1 1 1 1 1 1 1 1 1 1 1 1 
</DataArray>
</CellData>
</Piece>
</UnstructuredGrid>
</VTKFile>
